node(0..93).
pos(1..94).
edge(37, 93, 13).
edge(36, 61, 10).
edge(43, 58, 10).
edge(13, 18, 3).
edge(72, 11, 20).
edge(4, 90, 19).
edge(26, 36, 16).
edge(82, 29, 20).
edge(27, 31, 4).
edge(63, 21, 2).
edge(34, 48, 5).
edge(49, 87, 9).
edge(47, 74, 20).
edge(75, 46, 18).
edge(80, 11, 7).
edge(8, 82, 18).
edge(75, 23, 19).
edge(78, 17, 3).
edge(28, 51, 2).
edge(75, 92, 8).
edge(80, 55, 5).
edge(32, 28, 9).
edge(75, 45, 7).
edge(44, 15, 5).
edge(45, 90, 6).
edge(20, 1, 9).
edge(6, 3, 20).
edge(90, 2, 17).
edge(45, 64, 14).
edge(12, 86, 9).
edge(49, 90, 8).
edge(80, 64, 6).
edge(53, 26, 12).
edge(89, 49, 3).
edge(73, 34, 5).
edge(0, 45, 18).
edge(69, 37, 9).
edge(65, 44, 5).
edge(8, 26, 17).
edge(91, 26, 17).
edge(35, 19, 7).
edge(64, 2, 12).
edge(65, 19, 12).
edge(48, 78, 1).
edge(37, 54, 12).
edge(13, 68, 10).
edge(12, 90, 9).
edge(66, 30, 9).
edge(89, 69, 7).
edge(85, 64, 16).
edge(27, 87, 19).
edge(17, 11, 3).
edge(67, 92, 6).
edge(6, 55, 18).
edge(69, 25, 8).
edge(36, 27, 13).
edge(77, 73, 13).
edge(69, 8, 17).
edge(32, 41, 4).
edge(0, 32, 11).
edge(85, 86, 5).
edge(18, 35, 13).
edge(31, 16, 3).
edge(1, 33, 11).
edge(91, 75, 19).
edge(75, 41, 5).
edge(60, 38, 20).
edge(8, 25, 20).
edge(41, 25, 9).
edge(9, 17, 18).
edge(0, 47, 3).
edge(7, 34, 12).
edge(72, 28, 16).
edge(48, 75, 13).
edge(49, 26, 18).
edge(43, 44, 15).
edge(11, 30, 8).
edge(21, 27, 12).
edge(85, 57, 7).
edge(68, 91, 8).
edge(61, 6, 8).
edge(69, 48, 7).
edge(5, 76, 16).
edge(82, 55, 11).
edge(83, 62, 5).
edge(66, 62, 1).
edge(24, 46, 10).
edge(34, 35, 3).
edge(91, 71, 1).
edge(71, 44, 18).
edge(58, 29, 3).
edge(4, 56, 18).
edge(78, 45, 9).
edge(49, 54, 12).
edge(16, 51, 14).
edge(20, 76, 18).
edge(69, 50, 8).
edge(50, 63, 16).
edge(16, 47, 19).
edge(11, 36, 9).
edge(31, 42, 4).
edge(9, 72, 14).
edge(38, 43, 4).
edge(55, 75, 18).
edge(22, 15, 19).
edge(26, 57, 14).
edge(11, 67, 18).
edge(22, 27, 3).
edge(32, 56, 9).
edge(33, 87, 7).
edge(77, 54, 8).
edge(62, 67, 16).
edge(71, 24, 9).
edge(10, 4, 18).
edge(40, 65, 19).
edge(18, 28, 5).
edge(16, 30, 17).
edge(54, 43, 15).
edge(92, 29, 3).
edge(10, 53, 17).
edge(0, 23, 13).
edge(80, 4, 7).
edge(41, 84, 6).
edge(5, 72, 16).
edge(83, 63, 6).
edge(41, 82, 15).
edge(72, 6, 5).
edge(51, 50, 9).
edge(18, 49, 1).
edge(77, 46, 7).
edge(61, 50, 20).
edge(19, 89, 17).
edge(40, 30, 1).
edge(61, 71, 8).
edge(21, 5, 4).
edge(75, 17, 12).
edge(57, 74, 2).
edge(64, 37, 19).
edge(16, 1, 3).
edge(33, 26, 16).
edge(55, 84, 6).
edge(28, 44, 11).
edge(3, 39, 16).
edge(10, 67, 1).
edge(70, 35, 16).
edge(73, 29, 9).
edge(91, 78, 14).
edge(35, 65, 6).
edge(48, 72, 6).
edge(28, 53, 6).
edge(47, 3, 14).
edge(69, 34, 20).
edge(14, 43, 5).
edge(31, 62, 10).
edge(2, 49, 2).
edge(10, 11, 4).
edge(49, 41, 20).
edge(35, 9, 15).
edge(58, 4, 17).
edge(53, 39, 10).
edge(73, 54, 16).
edge(13, 30, 9).
edge(50, 70, 13).
edge(54, 4, 16).
edge(47, 36, 10).
edge(61, 37, 14).
edge(14, 29, 18).
edge(88, 56, 4).
edge(51, 5, 6).
edge(9, 27, 5).
edge(60, 75, 6).
edge(62, 75, 6).
edge(8, 86, 18).
edge(59, 88, 14).
edge(77, 19, 10).
edge(86, 35, 10).
edge(11, 52, 15).
edge(38, 48, 8).
edge(37, 86, 16).
edge(18, 11, 4).
edge(81, 23, 12).
edge(6, 20, 20).
edge(54, 19, 16).
edge(33, 73, 15).
edge(82, 48, 15).
edge(11, 47, 1).
edge(5, 18, 10).
edge(69, 27, 9).
edge(60, 70, 20).
edge(70, 30, 11).
edge(72, 58, 15).
edge(58, 92, 7).
edge(45, 15, 2).
edge(25, 48, 20).
edge(25, 46, 3).
edge(58, 25, 12).
edge(24, 64, 6).
edge(2, 62, 18).
edge(71, 64, 13).
edge(11, 31, 7).
edge(75, 64, 13).
edge(74, 49, 18).
edge(85, 25, 5).
edge(18, 38, 1).
edge(66, 45, 7).
edge(43, 18, 5).
edge(40, 43, 13).
edge(31, 2, 13).
edge(56, 25, 15).
edge(88, 79, 15).
edge(43, 24, 10).
edge(52, 9, 18).
edge(57, 44, 4).
edge(60, 43, 9).
edge(56, 39, 12).
edge(12, 38, 1).
edge(51, 42, 18).
edge(59, 67, 12).
edge(64, 51, 6).
edge(29, 34, 11).
edge(53, 13, 12).
edge(31, 64, 2).
edge(58, 48, 5).
edge(56, 0, 19).
edge(90, 55, 11).
edge(47, 32, 19).
edge(47, 76, 2).
edge(10, 21, 12).
edge(80, 90, 13).
edge(55, 40, 11).
edge(13, 80, 6).
edge(76, 11, 19).
edge(34, 15, 9).
edge(5, 62, 20).
edge(77, 1, 16).
edge(23, 59, 20).
edge(31, 46, 17).
edge(29, 2, 15).
edge(93, 71, 13).
edge(77, 93, 9).
edge(77, 82, 1).
edge(59, 56, 13).
edge(60, 16, 20).
edge(25, 40, 16).
edge(44, 85, 5).
edge(46, 28, 12).
edge(7, 53, 11).
edge(20, 18, 2).
edge(58, 89, 1).
edge(18, 58, 10).
edge(38, 75, 9).
edge(22, 29, 20).
edge(93, 39, 6).
edge(7, 92, 4).
edge(87, 11, 8).
edge(24, 0, 3).
edge(22, 47, 13).
edge(39, 89, 18).
edge(85, 59, 20).
edge(33, 31, 12).
edge(92, 78, 19).
edge(20, 3, 7).
edge(3, 23, 19).
edge(72, 3, 19).
edge(16, 48, 17).
edge(83, 66, 17).
edge(45, 13, 1).
edge(20, 89, 5).
edge(81, 67, 11).
edge(90, 47, 17).
edge(42, 27, 5).
edge(59, 21, 19).
edge(92, 28, 4).
edge(62, 49, 20).
edge(14, 36, 1).
edge(41, 29, 11).
edge(53, 64, 18).
edge(88, 65, 14).
edge(2, 33, 20).
edge(62, 31, 16).
edge(33, 78, 8).
edge(60, 73, 1).
edge(47, 87, 13).
edge(57, 77, 10).
edge(74, 63, 8).
edge(85, 60, 13).
edge(6, 32, 6).
edge(81, 33, 3).
edge(47, 63, 10).
edge(1, 70, 19).
edge(2, 27, 2).
edge(47, 27, 15).
edge(88, 49, 20).
edge(77, 25, 3).
edge(4, 60, 1).
edge(53, 25, 12).
edge(89, 11, 4).
edge(10, 86, 8).
edge(15, 50, 15).
edge(25, 66, 18).
edge(58, 84, 12).
edge(30, 12, 18).
edge(5, 71, 5).
edge(15, 89, 9).
edge(76, 83, 12).
edge(12, 43, 12).
edge(42, 37, 14).
edge(38, 40, 19).
edge(88, 14, 7).
edge(2, 51, 20).
edge(85, 54, 20).
edge(25, 39, 13).
edge(41, 81, 15).
edge(54, 76, 13).
edge(77, 18, 7).
edge(86, 33, 8).
edge(54, 74, 10).
edge(15, 45, 16).
edge(53, 29, 10).
edge(0, 48, 4).
edge(17, 36, 7).
edge(74, 48, 12).
edge(30, 68, 2).
edge(52, 51, 20).
edge(52, 42, 2).
edge(21, 81, 7).
edge(91, 54, 18).
edge(7, 14, 11).
edge(79, 89, 5).
edge(65, 33, 13).
edge(74, 13, 4).
edge(84, 15, 11).
edge(80, 32, 3).
edge(92, 44, 2).
edge(32, 63, 15).
edge(1, 15, 19).
edge(90, 35, 8).
edge(73, 65, 17).
edge(34, 12, 11).
edge(32, 1, 11).
edge(0, 33, 20).
edge(14, 46, 12).
edge(45, 68, 12).
edge(41, 48, 18).
edge(36, 22, 15).
edge(78, 53, 18).
edge(64, 3, 12).
edge(20, 80, 13).
edge(37, 31, 17).
edge(62, 59, 16).
edge(2, 13, 6).
edge(10, 40, 4).
edge(60, 45, 10).
edge(50, 36, 19).
edge(69, 5, 4).
edge(69, 0, 8).
edge(71, 10, 9).
edge(43, 42, 16).
edge(87, 89, 20).
edge(13, 44, 1).
edge(59, 61, 3).
edge(56, 22, 17).
edge(49, 1, 1).
edge(16, 27, 5).
edge(43, 31, 6).
edge(90, 44, 18).
edge(34, 90, 17).
edge(63, 66, 5).
edge(13, 19, 11).
edge(63, 44, 12).
edge(92, 53, 6).
edge(29, 23, 14).
edge(46, 22, 4).
edge(61, 19, 12).
edge(34, 67, 18).
edge(93, 77, 17).
edge(74, 31, 19).
edge(63, 34, 5).
edge(35, 82, 2).
edge(0, 40, 3).
edge(49, 20, 11).
edge(32, 0, 13).
edge(59, 30, 10).
edge(9, 75, 12).
edge(84, 21, 4).
edge(4, 12, 20).
edge(21, 92, 13).
edge(21, 25, 3).
edge(12, 2, 18).
edge(32, 5, 6).
edge(65, 68, 1).
edge(17, 83, 11).
edge(0, 12, 19).
edge(49, 24, 15).
edge(5, 46, 18).
edge(73, 31, 9).
edge(32, 26, 1).
edge(62, 36, 15).
edge(87, 36, 11).
edge(18, 77, 8).
edge(44, 88, 20).
edge(52, 87, 12).
edge(29, 58, 16).
edge(37, 70, 6).
edge(15, 12, 1).
edge(48, 81, 17).
edge(12, 58, 8).
edge(56, 17, 9).
edge(45, 20, 4).
edge(56, 92, 16).
edge(85, 18, 20).
edge(55, 0, 20).
edge(44, 68, 18).
edge(21, 63, 7).
edge(10, 76, 19).
edge(18, 21, 18).
edge(59, 4, 6).
edge(26, 25, 11).
edge(36, 73, 17).
edge(50, 53, 5).
edge(82, 57, 1).
edge(69, 64, 8).
edge(93, 44, 1).
edge(66, 46, 4).
edge(22, 2, 16).
edge(61, 27, 8).
edge(4, 73, 7).
edge(15, 11, 6).
edge(56, 91, 4).
edge(44, 72, 4).
edge(33, 88, 20).
edge(23, 44, 11).
edge(40, 35, 11).
edge(78, 20, 11).
edge(12, 68, 3).
edge(12, 75, 11).
edge(52, 88, 14).
edge(71, 6, 20).
edge(40, 13, 15).
edge(14, 4, 17).
edge(63, 89, 7).
edge(83, 20, 5).
edge(35, 93, 16).
edge(23, 50, 16).
edge(51, 87, 2).
edge(90, 61, 7).
edge(36, 74, 12).
edge(48, 79, 10).
edge(57, 63, 19).
edge(33, 53, 15).
edge(90, 34, 10).
edge(76, 4, 12).
edge(56, 13, 16).
edge(28, 55, 9).
edge(19, 71, 1).
edge(49, 56, 14).
edge(39, 71, 13).
edge(59, 15, 6).
edge(9, 34, 13).
edge(47, 71, 11).
edge(39, 67, 6).
edge(58, 72, 10).
edge(50, 49, 16).
edge(38, 90, 9).
edge(17, 14, 11).
edge(87, 45, 19).
edge(21, 87, 20).
edge(59, 25, 11).
edge(29, 50, 12).
edge(9, 28, 9).
edge(16, 70, 8).
edge(19, 83, 12).
edge(4, 37, 3).
edge(70, 89, 13).
edge(5, 85, 14).
edge(13, 39, 16).
edge(0, 21, 5).
edge(62, 57, 3).
edge(77, 87, 7).
edge(10, 13, 14).
edge(80, 44, 9).
edge(15, 42, 20).
edge(48, 51, 8).
edge(28, 77, 17).
edge(54, 31, 13).
edge(81, 46, 12).
edge(6, 5, 14).
edge(11, 50, 1).
edge(70, 80, 20).
edge(20, 33, 7).
edge(39, 40, 5).
edge(32, 25, 7).
edge(5, 70, 18).
edge(9, 60, 13).
edge(0, 39, 8).
edge(43, 46, 2).
edge(28, 62, 8).
edge(38, 20, 17).
edge(29, 42, 10).
edge(85, 41, 16).
edge(38, 65, 1).
edge(55, 10, 15).
edge(34, 31, 5).
edge(57, 50, 17).
edge(45, 4, 7).
edge(90, 80, 15).
edge(38, 39, 20).
edge(41, 24, 3).
edge(22, 51, 13).
edge(44, 62, 4).
edge(42, 57, 15).
edge(37, 52, 4).
edge(58, 15, 19).
edge(83, 12, 14).
edge(31, 0, 4).
edge(46, 54, 6).
edge(31, 20, 14).
edge(1, 52, 13).
edge(83, 54, 8).
edge(48, 24, 14).
edge(76, 32, 10).
edge(93, 23, 6).
edge(81, 39, 16).
edge(51, 1, 4).
edge(31, 14, 12).
edge(34, 81, 11).
edge(38, 30, 16).
edge(14, 34, 18).
edge(91, 11, 17).
edge(3, 22, 20).
edge(93, 29, 1).
edge(92, 23, 15).
edge(62, 68, 8).
edge(90, 33, 16).
edge(39, 33, 17).
edge(64, 60, 13).
edge(76, 71, 16).
edge(59, 32, 8).
edge(81, 68, 15).
edge(76, 60, 8).
edge(85, 22, 5).
edge(77, 55, 2).
edge(0, 53, 11).
edge(87, 81, 11).
edge(46, 69, 15).
edge(28, 48, 15).
edge(10, 78, 2).
edge(82, 93, 10).
edge(21, 62, 19).
edge(13, 1, 7).
edge(28, 52, 9).
edge(15, 5, 17).
edge(22, 5, 6).
edge(77, 52, 12).
edge(78, 48, 14).
edge(1, 27, 1).
edge(54, 75, 18).
edge(2, 15, 18).
edge(3, 44, 19).
edge(91, 52, 9).
edge(18, 66, 20).
edge(37, 29, 16).
edge(24, 87, 18).
edge(22, 84, 20).
edge(11, 79, 10).
edge(41, 32, 19).
edge(13, 28, 4).
edge(6, 38, 8).
edge(19, 85, 10).
edge(72, 49, 1).
edge(46, 89, 20).
edge(84, 30, 10).
edge(4, 62, 7).
edge(54, 39, 9).
edge(23, 9, 15).
edge(74, 60, 19).
edge(85, 66, 17).
edge(22, 67, 2).
edge(90, 78, 1).
edge(28, 15, 1).
edge(68, 54, 4).
edge(52, 53, 20).
edge(82, 9, 19).
edge(73, 3, 6).
edge(61, 21, 13).
edge(85, 9, 3).
edge(30, 76, 16).
edge(38, 34, 10).
edge(6, 62, 9).
edge(54, 11, 15).
edge(47, 62, 16).
edge(82, 25, 18).
edge(91, 34, 7).
edge(88, 84, 11).
edge(60, 35, 12).
edge(44, 31, 10).
edge(27, 28, 17).
edge(36, 85, 9).
edge(25, 63, 12).
edge(81, 13, 19).
edge(92, 86, 15).
edge(79, 64, 14).
edge(75, 27, 2).
edge(63, 56, 7).
edge(11, 93, 5).
edge(68, 65, 9).
edge(16, 54, 18).
edge(67, 10, 3).
edge(24, 59, 15).
edge(46, 60, 6).
edge(35, 17, 17).
edge(68, 24, 3).
edge(61, 73, 5).
edge(81, 61, 9).
edge(2, 0, 15).
edge(26, 5, 10).
edge(39, 14, 13).
edge(82, 34, 6).
edge(82, 70, 10).
edge(23, 89, 15).
edge(51, 4, 2).
edge(35, 43, 20).
edge(79, 49, 6).
edge(58, 37, 1).
edge(66, 49, 7).
edge(37, 3, 6).
edge(40, 19, 15).
edge(12, 54, 10).
edge(18, 53, 8).
edge(61, 68, 18).
edge(20, 62, 1).
edge(56, 74, 7).
edge(9, 57, 19).
edge(51, 70, 14).
edge(20, 25, 15).
edge(52, 3, 11).
edge(2, 39, 1).
edge(64, 92, 17).
edge(68, 4, 19).
edge(79, 90, 13).
edge(89, 68, 2).
edge(75, 81, 8).
edge(64, 30, 19).
edge(60, 36, 19).
edge(10, 25, 7).
edge(1, 6, 17).
edge(40, 3, 17).
edge(37, 47, 11).
edge(9, 13, 9).
edge(58, 17, 20).
edge(47, 31, 7).
edge(12, 9, 9).
edge(50, 24, 3).
edge(77, 70, 3).
edge(5, 75, 9).
edge(60, 89, 9).
edge(78, 58, 14).
edge(92, 21, 9).
edge(0, 51, 6).
edge(93, 13, 18).
edge(43, 87, 2).
edge(22, 91, 7).
edge(13, 67, 1).
edge(16, 65, 11).
edge(40, 44, 14).
edge(29, 36, 1).
edge(23, 16, 4).
edge(30, 50, 11).
edge(57, 80, 13).
edge(77, 64, 5).
edge(8, 4, 16).
edge(11, 21, 3).
edge(21, 24, 13).
edge(36, 48, 11).
edge(29, 57, 5).
edge(27, 3, 12).
edge(57, 83, 16).
edge(63, 2, 2).
edge(17, 62, 14).
edge(39, 48, 14).
edge(45, 25, 2).
edge(93, 40, 4).
edge(74, 67, 5).
edge(87, 28, 1).
edge(64, 79, 1).
edge(82, 74, 5).
edge(28, 41, 15).
edge(70, 84, 8).
edge(27, 19, 10).
edge(47, 25, 1).
edge(26, 56, 7).
edge(83, 60, 1).
edge(87, 44, 13).
edge(82, 40, 13).
edge(89, 35, 14).
edge(92, 71, 8).
edge(25, 64, 20).
edge(15, 81, 1).
edge(83, 23, 11).
edge(69, 39, 6).
edge(36, 90, 16).
edge(59, 58, 1).
edge(81, 1, 5).
edge(8, 24, 18).
edge(30, 16, 13).
edge(84, 28, 19).
edge(37, 0, 13).
edge(93, 53, 17).
edge(20, 14, 2).
edge(78, 38, 13).
edge(30, 85, 4).
edge(61, 30, 19).
edge(47, 44, 20).
edge(70, 71, 7).
edge(81, 20, 8).
edge(33, 41, 6).
edge(81, 32, 5).
edge(84, 19, 3).
edge(7, 32, 16).
edge(32, 45, 8).
edge(7, 24, 13).
edge(64, 85, 6).
edge(88, 64, 1).
edge(90, 74, 6).
edge(17, 79, 16).
edge(89, 22, 3).
edge(87, 3, 7).
edge(48, 76, 12).
edge(83, 18, 11).
edge(20, 70, 15).
edge(54, 20, 8).
edge(52, 78, 17).
edge(59, 46, 18).
edge(53, 8, 10).
edge(26, 28, 4).
edge(50, 45, 3).
edge(81, 7, 2).
edge(8, 56, 4).
edge(68, 16, 19).
edge(27, 84, 16).
edge(42, 16, 2).
edge(91, 93, 20).
edge(1, 50, 4).
edge(30, 53, 12).
edge(70, 22, 7).
edge(93, 80, 18).
edge(41, 27, 19).
edge(57, 43, 16).
edge(21, 83, 8).
edge(7, 23, 18).
edge(9, 56, 19).
edge(3, 2, 9).
edge(14, 33, 9).
edge(38, 58, 11).
edge(79, 5, 18).
edge(69, 84, 12).
edge(3, 6, 10).
edge(65, 53, 14).
edge(87, 40, 3).
edge(61, 3, 4).
edge(36, 24, 14).
edge(76, 38, 17).
edge(59, 17, 2).
edge(85, 16, 17).
edge(78, 32, 20).
edge(47, 4, 13).
edge(2, 46, 14).
edge(58, 36, 5).
edge(89, 51, 5).
edge(65, 75, 1).
edge(93, 21, 15).
edge(35, 49, 13).
edge(26, 76, 9).
edge(76, 40, 3).
edge(88, 92, 17).
edge(42, 0, 13).
edge(36, 46, 14).
edge(2, 18, 16).
edge(86, 27, 15).
edge(52, 38, 6).
edge(26, 71, 6).
edge(81, 88, 11).
edge(19, 57, 10).
edge(51, 21, 1).
edge(28, 67, 20).
edge(58, 43, 11).
edge(83, 45, 11).
edge(36, 91, 17).
edge(1, 73, 19).
edge(13, 36, 15).
edge(20, 92, 2).
edge(74, 30, 4).
edge(11, 74, 3).
edge(0, 13, 14).
edge(9, 32, 11).
edge(16, 23, 12).
edge(84, 77, 1).
edge(37, 5, 18).
edge(20, 73, 16).
edge(45, 49, 18).
edge(5, 92, 6).
edge(18, 71, 2).
edge(9, 1, 18).
edge(31, 67, 14).
edge(24, 68, 15).
edge(67, 83, 18).
edge(30, 75, 12).
edge(30, 4, 3).
edge(87, 5, 7).
edge(81, 80, 1).
edge(16, 45, 5).
edge(33, 22, 19).
edge(47, 92, 16).
edge(23, 51, 10).
edge(57, 59, 8).
edge(68, 29, 3).
edge(50, 92, 10).
edge(56, 45, 11).
edge(66, 61, 18).
edge(0, 5, 7).
edge(55, 28, 1).
edge(87, 71, 8).
edge(4, 66, 19).
edge(44, 81, 11).
edge(24, 83, 20).
edge(92, 73, 5).
edge(17, 81, 16).
edge(80, 74, 5).
edge(53, 73, 13).
edge(77, 84, 2).
edge(29, 4, 4).
edge(2, 19, 2).
edge(19, 43, 6).
edge(48, 60, 6).
edge(59, 49, 14).
edge(79, 88, 2).
edge(0, 38, 16).
edge(40, 16, 9).
edge(57, 93, 15).
edge(54, 27, 1).
edge(62, 30, 1).
edge(12, 4, 17).
edge(4, 27, 6).
edge(52, 71, 15).
edge(93, 5, 3).
edge(48, 53, 4).
edge(36, 79, 15).
edge(86, 18, 10).
edge(89, 80, 9).
edge(55, 22, 3).
edge(41, 43, 13).
edge(56, 66, 16).
edge(38, 84, 17).
edge(69, 88, 4).
edge(7, 15, 5).
edge(10, 62, 13).
edge(44, 52, 15).
edge(32, 59, 11).
edge(15, 47, 14).
edge(47, 6, 13).
edge(53, 35, 15).
edge(22, 33, 17).
edge(54, 51, 2).
edge(82, 14, 7).
edge(1, 29, 8).
edge(63, 8, 8).
edge(48, 28, 5).
edge(75, 71, 2).
edge(43, 21, 1).
edge(44, 2, 3).
edge(58, 67, 14).
edge(4, 42, 6).
edge(51, 64, 15).
edge(0, 88, 9).
edge(21, 37, 7).
edge(37, 22, 12).
edge(85, 65, 16).
edge(80, 50, 11).
edge(43, 34, 12).
edge(52, 46, 13).
edge(25, 74, 13).
edge(74, 0, 19).
edge(27, 25, 7).
edge(56, 28, 12).
edge(26, 62, 2).
edge(18, 63, 12).
edge(67, 13, 13).
edge(16, 86, 4).
edge(11, 22, 14).
edge(66, 67, 16).
edge(56, 80, 8).
edge(74, 8, 13).
edge(11, 35, 10).
edge(39, 43, 17).
edge(69, 23, 2).
edge(4, 57, 1).
edge(88, 28, 16).
edge(27, 22, 3).
edge(44, 70, 6).
edge(67, 46, 18).
edge(76, 46, 17).
edge(82, 28, 7).
edge(83, 92, 2).
edge(27, 6, 11).
edge(30, 15, 8).
edge(80, 69, 10).
edge(57, 14, 19).
edge(49, 38, 20).
edge(27, 26, 20).
edge(5, 44, 3).
edge(46, 29, 5).
edge(4, 3, 9).
edge(82, 69, 15).
edge(74, 21, 4).
edge(26, 75, 13).
edge(7, 87, 16).
edge(23, 81, 17).
edge(49, 80, 19).
edge(23, 87, 19).
edge(68, 20, 20).
edge(91, 17, 10).
edge(67, 84, 11).
edge(13, 62, 19).
edge(14, 83, 8).
edge(40, 17, 19).
edge(44, 74, 4).
edge(13, 11, 7).
edge(60, 66, 16).
edge(91, 1, 18).
edge(41, 63, 5).
edge(82, 86, 4).
edge(43, 6, 12).
edge(86, 65, 7).
edge(0, 11, 4).
edge(73, 2, 10).
edge(53, 70, 14).
edge(62, 18, 14).
edge(79, 67, 10).
edge(14, 31, 9).
edge(34, 91, 14).
edge(52, 11, 1).
edge(34, 56, 5).
edge(54, 59, 9).
edge(0, 15, 1).
edge(29, 69, 19).
edge(23, 34, 14).
edge(29, 65, 8).
edge(53, 86, 5).
edge(72, 18, 17).
edge(5, 41, 17).
edge(28, 1, 20).
edge(90, 77, 1).
edge(30, 47, 16).
edge(33, 0, 13).
edge(56, 57, 14).
edge(34, 1, 9).
edge(2, 29, 7).
edge(1, 91, 18).
edge(6, 73, 18).
edge(1, 41, 6).
edge(0, 63, 2).
edge(7, 91, 10).
edge(42, 49, 17).
edge(6, 35, 4).
edge(28, 29, 4).
edge(49, 85, 13).
edge(84, 61, 8).
edge(5, 21, 15).
edge(28, 36, 4).
edge(44, 7, 2).
edge(8, 31, 20).
edge(55, 93, 7).
edge(73, 86, 8).
edge(19, 18, 17).
edge(63, 1, 3).
edge(61, 20, 1).
edge(36, 44, 2).
edge(86, 38, 10).
edge(2, 74, 8).
edge(57, 86, 10).
edge(54, 91, 7).
edge(60, 64, 12).
edge(17, 57, 15).
edge(77, 88, 17).
edge(61, 34, 3).
edge(40, 27, 8).
edge(71, 12, 6).
edge(47, 51, 4).
edge(63, 9, 3).
edge(50, 48, 8).
edge(14, 3, 12).
edge(80, 54, 6).
edge(61, 89, 15).
edge(28, 26, 18).
edge(56, 33, 10).
edge(60, 78, 2).
edge(24, 57, 17).
edge(15, 4, 3).
edge(34, 85, 7).
edge(38, 69, 4).
edge(3, 70, 16).
edge(52, 93, 18).
edge(21, 12, 20).
edge(28, 38, 10).
edge(22, 24, 14).
edge(85, 20, 18).
edge(33, 10, 19).
edge(63, 82, 12).
edge(69, 76, 2).
edge(46, 4, 11).
edge(28, 27, 10).
edge(11, 55, 2).
edge(37, 50, 12).
edge(0, 76, 12).
edge(34, 75, 9).
edge(3, 36, 13).
edge(74, 19, 17).
edge(42, 28, 7).
edge(8, 69, 10).
edge(14, 27, 7).
edge(62, 46, 18).
edge(41, 30, 15).
edge(52, 50, 1).
edge(5, 38, 19).
edge(18, 16, 2).
edge(64, 59, 15).
edge(36, 10, 2).
edge(35, 32, 10).
edge(54, 64, 8).
edge(59, 70, 3).
edge(89, 26, 1).
edge(16, 84, 1).
edge(46, 64, 5).
edge(41, 23, 3).
edge(48, 45, 15).
edge(19, 27, 14).
edge(45, 28, 16).
edge(69, 12, 16).
edge(79, 82, 16).
edge(69, 65, 9).
edge(11, 51, 19).
edge(2, 11, 3).
edge(67, 45, 15).
edge(21, 77, 7).
edge(29, 80, 2).
edge(35, 3, 9).
edge(63, 6, 10).
edge(37, 44, 1).
edge(46, 31, 13).
edge(71, 35, 9).
edge(48, 58, 3).
edge(16, 8, 18).
edge(5, 45, 4).
edge(23, 82, 5).
edge(13, 70, 1).
edge(93, 34, 8).
edge(73, 8, 20).
edge(12, 34, 15).
edge(89, 36, 7).
edge(91, 21, 16).
edge(13, 59, 8).
edge(48, 18, 3).
edge(70, 56, 13).
edge(51, 14, 6).
edge(65, 60, 12).
edge(31, 25, 19).
edge(78, 41, 2).
edge(81, 43, 8).
edge(33, 51, 8).
edge(35, 75, 16).
edge(1, 69, 2).
edge(89, 40, 14).
edge(41, 54, 17).
edge(59, 44, 2).
edge(86, 32, 14).
edge(67, 22, 8).
edge(0, 44, 14).
edge(56, 85, 11).
edge(69, 35, 7).
edge(92, 32, 10).
edge(55, 34, 12).
edge(0, 77, 12).
edge(48, 29, 9).
edge(4, 89, 18).
edge(31, 33, 9).
edge(40, 25, 3).
edge(28, 92, 20).
edge(17, 15, 10).
edge(88, 71, 13).
edge(63, 58, 13).
edge(68, 9, 2).
edge(35, 26, 18).
edge(13, 29, 19).
edge(47, 26, 1).
edge(6, 26, 11).
edge(18, 22, 20).
edge(59, 9, 9).
edge(13, 4, 15).
edge(68, 86, 15).
edge(10, 89, 10).
edge(7, 60, 9).
edge(31, 56, 4).
edge(2, 68, 1).
edge(24, 93, 17).
edge(75, 93, 2).
edge(90, 81, 8).
edge(15, 10, 16).
edge(3, 1, 5).
edge(22, 19, 12).
edge(45, 63, 13).
edge(54, 2, 12).
edge(56, 44, 11).
edge(73, 67, 13).
edge(64, 58, 9).
edge(34, 0, 11).
edge(4, 83, 7).
edge(4, 61, 16).
edge(21, 78, 15).
edge(78, 1, 3).
edge(51, 10, 19).
edge(13, 81, 15).
edge(82, 37, 1).
edge(84, 45, 11).
edge(22, 49, 6).
edge(59, 78, 3).
edge(24, 1, 10).
edge(3, 61, 13).
edge(9, 58, 17).
edge(57, 48, 8).
edge(85, 84, 5).
edge(27, 42, 15).
edge(4, 40, 4).
edge(46, 77, 15).
edge(75, 14, 19).
edge(86, 25, 11).
edge(40, 15, 1).
edge(71, 85, 19).
edge(88, 48, 4).
edge(22, 20, 7).
edge(77, 32, 7).
edge(50, 87, 10).
edge(65, 3, 3).
edge(34, 18, 13).
edge(0, 79, 14).
edge(42, 92, 2).
edge(89, 27, 2).
edge(27, 4, 1).
edge(86, 6, 18).
edge(86, 79, 15).
edge(43, 69, 17).
edge(32, 47, 15).
edge(40, 14, 12).
edge(83, 91, 15).
edge(70, 50, 14).
edge(27, 5, 3).
edge(92, 6, 2).
edge(31, 34, 16).
edge(75, 40, 19).
edge(1, 72, 15).
edge(45, 53, 7).
edge(56, 1, 2).
edge(27, 56, 12).
edge(73, 42, 9).
edge(0, 92, 2).
edge(10, 30, 20).
edge(82, 73, 3).
edge(17, 20, 16).
edge(29, 26, 12).
edge(83, 38, 3).
edge(91, 24, 5).
edge(68, 88, 20).
edge(81, 53, 6).
edge(11, 61, 9).
edge(76, 79, 7).
edge(67, 89, 8).
edge(88, 0, 5).
edge(25, 90, 8).
edge(63, 40, 4).
edge(61, 13, 20).
edge(32, 73, 7).
edge(52, 60, 11).
edge(69, 52, 15).
edge(88, 21, 1).
edge(88, 69, 4).
edge(66, 2, 20).
edge(76, 39, 6).
edge(41, 49, 8).
edge(61, 18, 7).
edge(32, 82, 1).
edge(73, 38, 10).
edge(15, 71, 9).
edge(32, 49, 16).
edge(41, 15, 19).
edge(33, 83, 1).
edge(49, 37, 11).
edge(38, 82, 7).
edge(44, 12, 12).
edge(84, 35, 8).
edge(14, 71, 16).
edge(28, 32, 17).
edge(88, 19, 5).
edge(52, 80, 17).
edge(51, 47, 9).
edge(35, 70, 14).
edge(41, 72, 7).
edge(6, 81, 7).
edge(52, 79, 9).
edge(10, 69, 4).
edge(29, 0, 20).
edge(36, 66, 4).
edge(4, 53, 9).
edge(50, 28, 8).
edge(53, 44, 14).
edge(35, 37, 15).
edge(39, 87, 11).
edge(29, 61, 6).
edge(80, 93, 4).
edge(44, 26, 19).
edge(31, 75, 10).
edge(14, 61, 14).
edge(38, 76, 17).
edge(25, 81, 7).
edge(43, 74, 4).
edge(36, 58, 18).
edge(67, 52, 9).
edge(41, 66, 19).
edge(44, 91, 10).
edge(61, 72, 19).
edge(11, 87, 10).
edge(33, 39, 16).
edge(11, 18, 12).
edge(90, 89, 8).
edge(36, 53, 17).
edge(26, 60, 4).
edge(21, 16, 7).
edge(11, 7, 13).
edge(11, 6, 15).
edge(24, 91, 2).
edge(79, 58, 1).
edge(7, 93, 13).
edge(24, 52, 9).
edge(88, 93, 5).
edge(58, 91, 11).
edge(27, 91, 17).
edge(24, 38, 7).
edge(59, 92, 4).
edge(3, 35, 10).
edge(52, 70, 18).
edge(28, 84, 19).
edge(92, 88, 20).
edge(38, 9, 10).
edge(62, 35, 9).
edge(34, 62, 13).
edge(13, 26, 5).
edge(92, 15, 9).
edge(46, 10, 16).
edge(45, 56, 11).
edge(68, 70, 6).
edge(93, 81, 8).
edge(20, 71, 13).
edge(73, 7, 7).
edge(89, 59, 15).
edge(26, 30, 1).
edge(69, 28, 5).
edge(90, 36, 10).
edge(39, 47, 11).
edge(37, 53, 13).
edge(69, 80, 8).
edge(35, 51, 8).
edge(41, 78, 5).
edge(55, 37, 4).
edge(17, 65, 5).
edge(24, 6, 11).
edge(0, 52, 16).
edge(38, 42, 8).
edge(53, 7, 13).
edge(14, 16, 12).
edge(68, 69, 6).
edge(12, 13, 6).
edge(72, 33, 18).
edge(86, 10, 2).
edge(61, 4, 15).
edge(91, 80, 17).
edge(53, 82, 5).
edge(77, 56, 20).
edge(26, 14, 3).
edge(26, 65, 4).
edge(68, 21, 5).
edge(67, 8, 14).
edge(10, 24, 4).
edge(19, 30, 3).
edge(80, 41, 18).
edge(67, 82, 9).
edge(58, 50, 17).
edge(61, 53, 15).
edge(36, 28, 4).
edge(89, 71, 19).
edge(65, 5, 9).
edge(61, 17, 13).
edge(61, 63, 10).
edge(30, 69, 6).
edge(86, 77, 18).
edge(39, 88, 13).
edge(34, 82, 12).
edge(86, 24, 20).
edge(46, 27, 5).
edge(73, 90, 6).
edge(31, 44, 8).
edge(17, 75, 12).
edge(75, 61, 6).
edge(42, 15, 4).
edge(66, 60, 4).
edge(93, 31, 4).
edge(14, 66, 14).
edge(52, 63, 12).
edge(42, 22, 13).
edge(61, 25, 14).
edge(7, 72, 8).
edge(42, 91, 8).
edge(50, 32, 17).
edge(86, 83, 7).
edge(16, 50, 14).
edge(58, 61, 16).
edge(77, 80, 2).
edge(32, 87, 3).
edge(44, 32, 5).
edge(63, 67, 13).
edge(86, 0, 20).
edge(68, 81, 8).
edge(51, 27, 10).
edge(66, 26, 18).
edge(54, 5, 5).
edge(85, 40, 7).
edge(30, 52, 14).
edge(10, 35, 11).
edge(46, 75, 16).
edge(2, 42, 17).
edge(42, 24, 7).
edge(54, 15, 1).
edge(72, 83, 4).
edge(92, 50, 14).
edge(8, 13, 3).
edge(71, 66, 12).
edge(29, 84, 10).
edge(52, 67, 17).
edge(46, 70, 14).
edge(86, 34, 6).
edge(21, 49, 8).
edge(32, 61, 18).
edge(92, 77, 19).
edge(65, 74, 16).
edge(27, 12, 19).
edge(48, 71, 8).
edge(16, 62, 16).
edge(1, 60, 4).
edge(44, 77, 10).
edge(79, 46, 15).
edge(51, 86, 18).
edge(78, 15, 20).
edge(23, 25, 10).
edge(66, 33, 4).
edge(61, 40, 8).
edge(54, 38, 13).
edge(50, 25, 8).
edge(27, 59, 9).
edge(88, 33, 14).
edge(91, 48, 7).
edge(90, 24, 14).
edge(41, 22, 7).
edge(81, 44, 7).
edge(59, 64, 14).
edge(9, 36, 14).
edge(16, 5, 4).
edge(48, 37, 3).
edge(76, 26, 10).
edge(54, 44, 1).
edge(26, 54, 18).
edge(19, 90, 20).
edge(75, 32, 16).
edge(9, 47, 13).
edge(66, 17, 20).
edge(17, 70, 18).
edge(24, 62, 11).
edge(24, 88, 10).
edge(3, 77, 14).
edge(61, 59, 12).
edge(92, 82, 4).
edge(45, 35, 17).
edge(33, 38, 3).
edge(85, 11, 11).
edge(82, 19, 14).
edge(69, 3, 16).
edge(66, 0, 19).
edge(64, 10, 13).
edge(57, 52, 13).
edge(3, 7, 4).
edge(9, 71, 19).
edge(12, 44, 1).
edge(91, 55, 5).
edge(18, 90, 11).
edge(76, 2, 1).
edge(2, 25, 14).
edge(24, 71, 6).
edge(7, 44, 7).
edge(78, 34, 19).
edge(69, 20, 1).
edge(63, 77, 15).
edge(18, 52, 7).
edge(18, 61, 3).
edge(76, 41, 10).
edge(32, 42, 18).
edge(49, 83, 7).
edge(21, 67, 2).
edge(92, 39, 18).
edge(11, 62, 6).
edge(18, 59, 10).
edge(43, 26, 17).
edge(93, 89, 9).
edge(4, 88, 19).
edge(11, 3, 13).
edge(78, 10, 7).
edge(48, 77, 3).
edge(41, 13, 4).
edge(51, 37, 13).
edge(36, 71, 13).
edge(29, 56, 19).
edge(44, 73, 1).
edge(88, 26, 1).
edge(29, 1, 2).
edge(42, 20, 9).
edge(54, 33, 1).
edge(77, 39, 11).
edge(56, 46, 19).
edge(0, 42, 10).
edge(6, 51, 18).
edge(31, 19, 3).
edge(72, 89, 15).
edge(6, 77, 2).
edge(80, 66, 11).
edge(29, 13, 10).
edge(8, 2, 1).
edge(85, 70, 6).
edge(7, 2, 1).
edge(39, 18, 6).
edge(18, 6, 18).
edge(59, 24, 20).
edge(19, 26, 11).
edge(27, 72, 12).
edge(57, 32, 16).
edge(14, 42, 5).
edge(23, 13, 16).
edge(80, 51, 5).
edge(46, 50, 15).
edge(88, 43, 17).
edge(71, 45, 4).
edge(27, 10, 14).
edge(22, 89, 10).
edge(79, 3, 15).
edge(51, 13, 1).
edge(31, 7, 14).
edge(80, 26, 14).
edge(48, 31, 3).
edge(85, 28, 18).
edge(92, 2, 3).
edge(72, 93, 2).
edge(66, 85, 1).
edge(83, 0, 11).
edge(73, 32, 13).
edge(18, 9, 17).
edge(2, 76, 6).
edge(13, 82, 10).
edge(68, 58, 2).
edge(3, 14, 17).
edge(78, 86, 1).
edge(82, 92, 6).
edge(39, 75, 18).
edge(83, 22, 19).
edge(16, 41, 11).
edge(0, 30, 16).
edge(78, 19, 9).
edge(43, 15, 11).
edge(93, 49, 8).
edge(52, 83, 10).
edge(4, 32, 8).
edge(18, 20, 13).
edge(19, 47, 12).
edge(87, 77, 14).
edge(57, 4, 12).
edge(25, 60, 15).
edge(27, 43, 18).
edge(79, 7, 20).
edge(39, 31, 6).
edge(2, 57, 15).
edge(26, 90, 10).
edge(91, 2, 9).
edge(83, 57, 1).
edge(83, 7, 20).
edge(50, 60, 15).
edge(23, 36, 4).
edge(89, 88, 8).
edge(23, 76, 6).
edge(33, 91, 11).
edge(45, 74, 17).
edge(44, 82, 12).
edge(41, 20, 5).
edge(38, 81, 11).
edge(81, 45, 6).
edge(26, 41, 13).
edge(69, 62, 10).
edge(80, 67, 17).
edge(86, 85, 17).
edge(54, 34, 8).
edge(92, 35, 10).
edge(37, 41, 1).
edge(33, 61, 14).
edge(56, 21, 11).
edge(31, 90, 10).
edge(13, 61, 16).
edge(22, 50, 14).
edge(25, 76, 20).
edge(45, 75, 3).
edge(52, 29, 6).
edge(60, 32, 7).
edge(17, 29, 13).
edge(4, 87, 5).
edge(0, 7, 6).
edge(26, 50, 13).
edge(13, 17, 10).
edge(91, 88, 20).
edge(15, 1, 14).
edge(34, 17, 17).
edge(83, 9, 20).
edge(44, 24, 11).
edge(80, 8, 10).
edge(8, 64, 12).
edge(84, 76, 10).
edge(65, 62, 14).
edge(79, 54, 19).
edge(67, 81, 17).
edge(19, 84, 13).
edge(49, 9, 16).
edge(81, 31, 10).
edge(32, 22, 20).
edge(33, 57, 13).
edge(53, 5, 7).
edge(44, 76, 19).
edge(7, 33, 17).
edge(78, 49, 3).
edge(35, 18, 2).
edge(2, 31, 2).
edge(23, 7, 15).
edge(93, 11, 10).
edge(71, 80, 14).
edge(50, 78, 19).
edge(91, 89, 6).
edge(43, 82, 5).
edge(45, 1, 8).
edge(1, 37, 18).
edge(72, 31, 20).
edge(44, 13, 20).
edge(47, 75, 8).
edge(41, 62, 8).
edge(9, 46, 14).
edge(14, 54, 10).
edge(81, 83, 1).
edge(9, 12, 18).
edge(87, 70, 11).
edge(64, 39, 3).
edge(46, 26, 3).
edge(66, 73, 9).
edge(36, 76, 9).
edge(71, 61, 19).
edge(59, 72, 5).
edge(20, 27, 1).
edge(69, 45, 14).
edge(71, 67, 17).
edge(72, 27, 4).
edge(54, 78, 11).
edge(0, 34, 15).
edge(25, 77, 20).
edge(80, 0, 18).
edge(21, 18, 18).
edge(37, 89, 10).
edge(72, 22, 8).
edge(15, 83, 10).
edge(82, 91, 10).
edge(16, 52, 15).
edge(40, 70, 17).
edge(39, 45, 19).
edge(64, 86, 14).
edge(26, 42, 5).
edge(54, 45, 1).
edge(31, 3, 16).
edge(81, 82, 6).
edge(71, 76, 12).
edge(71, 70, 18).
edge(4, 14, 4).
edge(53, 10, 9).
edge(86, 74, 13).
edge(62, 24, 4).
edge(0, 67, 20).
edge(81, 21, 9).
edge(57, 84, 9).
edge(29, 10, 10).
edge(78, 30, 10).
edge(20, 83, 6).
edge(77, 62, 14).
edge(11, 72, 19).
edge(73, 89, 4).
edge(86, 75, 6).
edge(26, 45, 2).
edge(38, 64, 8).
edge(10, 39, 19).
edge(75, 22, 18).
edge(15, 69, 20).
edge(84, 47, 3).
edge(7, 12, 8).
edge(32, 11, 17).
edge(21, 74, 1).
edge(82, 44, 15).
edge(2, 35, 15).
edge(21, 23, 11).
edge(76, 42, 19).
edge(49, 59, 2).
edge(53, 46, 18).
edge(58, 44, 17).
edge(80, 9, 3).
edge(41, 6, 19).
edge(37, 18, 10).
edge(74, 4, 6).
edge(23, 3, 19).
edge(3, 29, 20).
edge(0, 28, 14).
edge(48, 17, 7).
edge(62, 33, 15).
edge(67, 56, 1).
edge(33, 3, 1).
edge(9, 11, 3).
edge(72, 15, 7).
edge(3, 45, 18).
edge(58, 46, 16).
edge(63, 27, 3).
edge(66, 38, 18).
edge(77, 71, 7).
edge(9, 4, 19).
edge(46, 65, 4).
edge(91, 84, 12).
edge(8, 81, 3).
edge(68, 75, 1).
edge(7, 13, 3).
edge(2, 89, 4).
edge(65, 64, 15).
edge(14, 20, 16).
edge(42, 9, 8).
edge(87, 23, 11).
edge(87, 9, 7).
edge(33, 75, 7).
edge(77, 42, 16).
edge(22, 42, 9).
edge(65, 72, 1).
edge(5, 35, 16).
edge(72, 24, 12).
edge(89, 83, 17).
edge(11, 80, 11).
edge(63, 0, 13).
edge(53, 24, 11).
edge(59, 22, 7).
edge(18, 14, 16).
edge(75, 16, 12).
edge(83, 42, 15).
edge(51, 8, 16).
edge(4, 1, 10).
edge(91, 39, 10).
edge(33, 84, 12).
edge(37, 72, 9).
edge(87, 92, 4).
edge(32, 54, 1).
edge(50, 6, 3).
edge(75, 37, 1).
edge(6, 68, 17).
edge(68, 35, 14).
edge(41, 28, 20).
edge(37, 59, 10).
edge(11, 41, 1).
edge(89, 54, 14).
edge(46, 59, 18).
edge(7, 88, 10).
edge(78, 69, 3).
edge(46, 8, 12).
edge(90, 45, 17).
edge(12, 40, 14).
edge(7, 16, 4).
edge(87, 76, 13).
edge(21, 93, 8).
edge(28, 50, 9).
edge(8, 50, 20).
edge(87, 6, 12).
edge(76, 54, 17).
edge(28, 71, 15).
edge(90, 21, 7).
edge(25, 1, 20).
edge(3, 32, 16).
edge(40, 33, 20).
edge(69, 83, 10).
edge(74, 86, 20).
edge(44, 37, 16).
edge(83, 47, 18).
edge(87, 74, 9).
edge(67, 3, 14).
edge(14, 26, 12).
edge(17, 31, 20).
edge(36, 69, 19).
edge(88, 73, 12).
edge(12, 41, 6).
edge(90, 16, 9).
edge(82, 17, 11).
edge(77, 21, 14).
edge(66, 4, 17).
edge(10, 81, 18).
edge(66, 37, 3).
edge(30, 0, 13).
edge(47, 88, 11).
edge(84, 10, 8).
edge(65, 88, 12).
edge(45, 31, 20).
edge(84, 26, 9).
edge(52, 43, 1).
edge(0, 50, 1).
edge(15, 80, 13).
edge(80, 19, 2).
edge(65, 93, 15).
edge(85, 68, 6).
edge(27, 0, 7).
edge(5, 23, 15).
edge(86, 48, 20).
edge(72, 13, 12).
edge(50, 41, 8).
edge(86, 8, 14).
edge(53, 36, 10).
edge(4, 11, 1).
edge(9, 74, 13).
edge(64, 5, 9).
edge(41, 59, 20).
edge(19, 2, 10).
edge(44, 53, 7).
edge(42, 62, 3).
edge(31, 53, 8).
edge(10, 0, 20).
edge(21, 53, 3).
edge(49, 2, 10).
edge(32, 19, 19).
edge(71, 16, 10).
edge(20, 66, 7).
edge(7, 17, 10).
edge(43, 72, 9).
edge(88, 17, 2).
edge(2, 44, 4).
edge(74, 58, 18).
edge(75, 3, 13).
edge(60, 39, 9).
edge(17, 16, 9).
edge(22, 81, 16).
edge(33, 6, 1).
edge(10, 20, 4).
edge(18, 45, 17).
edge(84, 43, 15).
edge(92, 12, 16).
edge(0, 8, 4).
edge(77, 58, 5).
edge(73, 91, 1).
edge(68, 39, 2).
edge(31, 10, 16).
edge(24, 78, 20).
edge(5, 19, 17).
edge(39, 28, 14).
edge(42, 8, 15).
edge(79, 33, 3).
edge(83, 87, 17).
edge(4, 10, 6).
edge(65, 28, 9).
edge(40, 56, 13).
edge(12, 6, 6).
edge(58, 63, 11).
edge(43, 11, 19).
edge(93, 18, 10).
edge(34, 47, 5).
edge(42, 30, 16).
edge(89, 21, 7).
edge(82, 65, 2).
edge(32, 34, 11).
edge(18, 40, 1).
edge(57, 85, 3).
edge(56, 37, 8).
edge(3, 20, 16).
edge(48, 57, 3).
edge(5, 33, 2).
edge(14, 74, 13).
edge(6, 54, 16).
edge(47, 78, 19).
edge(46, 90, 5).
edge(62, 82, 1).
edge(19, 72, 16).
edge(65, 49, 10).
edge(31, 35, 9).
edge(34, 43, 5).
edge(57, 37, 5).
edge(11, 40, 3).
edge(41, 0, 3).
edge(88, 8, 17).
edge(50, 61, 10).
edge(83, 14, 6).
edge(44, 60, 2).
edge(22, 14, 5).
edge(39, 11, 6).
edge(20, 15, 14).
edge(13, 12, 10).
edge(66, 3, 10).
edge(56, 19, 5).
edge(64, 18, 1).
edge(88, 82, 4).
edge(70, 11, 12).
edge(68, 26, 8).
edge(32, 62, 17).
edge(85, 13, 20).
edge(30, 41, 10).
edge(70, 16, 9).
edge(83, 17, 1).
edge(83, 44, 15).
edge(79, 52, 20).
edge(76, 45, 9).
edge(18, 88, 16).
edge(23, 40, 5).
edge(81, 63, 19).
edge(1, 0, 14).
edge(55, 2, 1).
edge(10, 29, 17).
edge(4, 72, 4).
edge(46, 93, 10).
edge(89, 66, 6).
edge(83, 39, 12).
edge(52, 22, 15).
edge(81, 64, 20).
edge(57, 58, 19).
edge(23, 32, 6).
edge(43, 84, 8).
edge(78, 84, 1).
edge(88, 76, 19).
edge(23, 83, 9).
edge(58, 68, 20).
edge(40, 42, 13).
edge(65, 43, 12).
edge(67, 12, 8).
edge(38, 11, 20).
edge(7, 27, 13).
edge(67, 87, 10).
edge(18, 29, 8).
edge(84, 44, 1).
edge(27, 85, 20).
edge(71, 15, 10).
edge(13, 0, 13).
edge(85, 5, 18).
edge(26, 49, 14).
edge(36, 0, 9).
edge(59, 48, 14).
edge(46, 42, 17).
edge(17, 26, 1).
edge(68, 74, 2).
edge(37, 87, 12).
edge(53, 77, 11).
edge(91, 56, 11).
edge(92, 22, 7).
edge(93, 43, 2).
edge(24, 8, 18).
edge(30, 86, 1).
edge(69, 86, 7).
edge(57, 66, 18).
edge(28, 75, 13).
edge(35, 31, 2).
edge(1, 74, 17).
edge(27, 51, 4).
edge(50, 64, 18).
edge(89, 92, 11).
edge(56, 6, 3).
edge(71, 52, 15).
edge(14, 9, 17).
edge(85, 79, 8).
edge(25, 75, 17).
edge(23, 72, 15).
edge(5, 39, 20).
edge(4, 84, 4).
edge(33, 43, 19).
edge(30, 45, 2).
edge(82, 22, 15).
edge(41, 12, 13).
edge(75, 49, 18).
edge(20, 51, 18).
edge(43, 12, 9).
edge(91, 35, 18).
edge(35, 40, 8).
edge(63, 57, 10).
edge(84, 31, 9).
edge(86, 81, 16).
edge(2, 38, 13).
edge(74, 7, 7).
edge(22, 66, 12).
edge(32, 78, 8).
edge(3, 28, 1).
edge(46, 78, 10).
edge(79, 59, 6).
edge(51, 52, 8).
edge(74, 33, 9).
edge(83, 76, 1).
edge(34, 42, 8).
edge(79, 8, 13).
edge(31, 81, 7).
edge(1, 46, 17).
edge(24, 75, 8).
edge(57, 61, 13).
edge(58, 22, 6).
edge(50, 62, 14).
edge(56, 73, 10).
edge(89, 16, 4).
edge(22, 32, 11).
edge(13, 50, 19).
edge(87, 50, 11).
edge(8, 33, 17).
edge(6, 33, 6).
edge(77, 72, 8).
edge(70, 43, 10).
edge(36, 55, 16).
edge(19, 13, 14).
edge(42, 40, 1).
edge(34, 76, 11).
edge(20, 69, 6).
edge(8, 45, 1).
edge(80, 18, 17).
edge(84, 80, 20).
edge(55, 68, 4).
edge(35, 83, 3).
edge(19, 37, 3).
edge(63, 42, 3).
edge(38, 1, 19).
edge(86, 11, 12).
edge(2, 40, 3).
edge(54, 87, 8).
edge(62, 28, 11).
edge(8, 59, 8).
edge(62, 53, 9).
edge(92, 41, 5).
edge(45, 77, 8).
edge(15, 20, 12).
edge(78, 22, 9).
edge(82, 38, 17).
edge(15, 37, 6).
edge(90, 91, 7).
edge(14, 59, 11).
edge(91, 81, 4).
edge(25, 69, 10).
edge(49, 91, 13).
edge(87, 15, 3).
edge(0, 46, 11).
edge(26, 47, 2).
edge(60, 52, 18).
edge(5, 24, 19).
edge(33, 15, 11).
edge(8, 74, 16).
edge(17, 32, 3).
edge(30, 22, 11).
edge(69, 1, 12).
edge(71, 86, 5).
edge(84, 2, 5).
edge(78, 43, 19).
edge(50, 83, 18).
edge(31, 30, 3).
edge(48, 20, 14).
edge(35, 0, 8).
edge(73, 18, 2).
edge(44, 6, 10).
edge(59, 63, 10).
edge(17, 24, 13).
edge(45, 69, 10).
edge(30, 71, 13).
edge(80, 35, 19).
edge(37, 11, 9).
edge(28, 33, 7).
edge(79, 20, 13).
edge(34, 2, 20).
edge(4, 30, 17).
edge(9, 0, 10).
edge(11, 39, 19).
edge(92, 14, 9).
edge(71, 1, 3).
edge(15, 25, 2).
edge(6, 28, 19).
edge(3, 62, 20).
edge(25, 65, 7).
edge(67, 48, 13).
edge(42, 51, 16).
edge(60, 93, 12).
edge(22, 23, 6).
edge(83, 84, 14).
edge(76, 51, 4).
edge(92, 20, 19).
edge(26, 69, 16).
edge(53, 91, 15).
edge(41, 14, 17).
edge(19, 45, 15).
edge(87, 68, 4).
edge(36, 92, 7).
edge(8, 35, 13).
edge(22, 6, 18).
edge(12, 15, 2).
edge(12, 11, 12).
edge(49, 86, 10).
edge(80, 6, 16).
edge(79, 71, 12).
edge(56, 90, 17).
edge(25, 5, 5).
edge(51, 71, 17).
edge(76, 64, 10).
edge(7, 21, 13).
edge(26, 19, 12).
edge(72, 60, 12).
edge(67, 24, 16).
edge(4, 59, 1).
edge(67, 40, 19).
edge(8, 83, 6).
edge(40, 34, 4).
edge(90, 41, 18).
edge(40, 24, 16).
edge(49, 72, 15).
edge(40, 85, 11).
edge(43, 71, 18).
edge(28, 22, 9).
edge(68, 41, 13).
edge(77, 50, 2).
edge(83, 50, 2).
edge(45, 47, 15).
edge(92, 63, 16).
edge(41, 35, 7).
edge(74, 82, 12).
edge(47, 54, 13).
edge(20, 88, 9).
edge(63, 7, 7).
edge(47, 79, 17).
edge(72, 86, 7).
edge(91, 58, 14).
edge(17, 3, 9).
edge(72, 42, 10).
edge(46, 76, 6).
edge(91, 61, 18).
edge(44, 9, 14).
edge(52, 23, 12).
edge(65, 18, 17).
edge(86, 47, 13).
edge(43, 1, 13).
edge(2, 43, 5).
edge(14, 12, 12).
edge(87, 25, 9).
edge(9, 51, 5).
edge(10, 36, 9).
edge(76, 58, 11).
edge(44, 61, 7).
edge(67, 28, 1).
edge(24, 45, 1).
edge(31, 43, 10).
edge(61, 12, 5).
edge(40, 57, 10).
edge(46, 72, 11).
edge(19, 64, 15).
edge(60, 41, 20).
edge(5, 59, 7).
edge(56, 77, 10).
edge(12, 10, 13).
edge(28, 24, 12).
edge(19, 32, 10).
edge(90, 58, 5).
edge(22, 76, 5).
edge(46, 45, 16).
edge(18, 54, 6).
edge(51, 84, 5).
edge(42, 70, 17).
edge(30, 40, 17).
edge(75, 83, 9).
edge(60, 81, 7).
edge(82, 49, 2).
edge(81, 36, 5).
edge(57, 10, 5).
edge(67, 55, 13).
edge(13, 84, 10).
edge(28, 11, 19).
edge(63, 50, 19).
edge(79, 36, 11).
edge(66, 25, 1).
edge(82, 52, 20).
edge(19, 23, 7).
edge(12, 59, 4).
edge(91, 68, 15).
edge(42, 38, 14).
edge(59, 36, 7).
edge(40, 90, 1).
edge(35, 44, 9).
edge(93, 64, 13).
edge(90, 62, 14).
edge(87, 62, 19).
edge(34, 23, 6).
edge(57, 62, 15).
edge(25, 30, 2).
edge(32, 6, 7).
edge(66, 71, 1).
edge(86, 4, 7).
edge(32, 13, 14).
edge(24, 18, 3).
edge(12, 24, 19).
edge(3, 4, 9).
edge(19, 40, 1).
edge(45, 71, 2).
edge(27, 18, 9).
edge(8, 28, 4).
edge(5, 3, 17).
edge(59, 79, 16).
edge(42, 17, 6).
edge(83, 15, 9).
edge(42, 33, 20).
edge(62, 66, 13).
edge(9, 92, 14).
edge(46, 0, 15).
edge(12, 5, 3).
edge(58, 13, 19).
edge(56, 29, 3).
edge(4, 13, 19).
edge(64, 83, 11).
edge(84, 33, 14).
edge(7, 43, 17).
edge(0, 4, 3).
edge(81, 41, 16).
edge(39, 24, 20).
edge(2, 6, 20).
edge(2, 16, 18).
edge(18, 24, 7).
edge(44, 45, 19).
edge(25, 47, 8).
edge(41, 93, 7).
edge(12, 35, 5).
edge(45, 10, 14).
edge(14, 53, 4).
edge(25, 89, 6).
edge(93, 66, 8).
edge(84, 42, 7).
edge(63, 59, 1).
edge(32, 64, 3).
edge(43, 20, 5).
edge(85, 48, 4).
edge(7, 63, 15).
edge(4, 82, 11).
edge(71, 22, 9).
edge(8, 11, 8).
edge(73, 76, 11).
edge(56, 89, 18).
edge(93, 25, 4).
edge(11, 70, 4).
edge(49, 36, 8).
edge(89, 74, 8).
edge(57, 15, 17).
edge(67, 32, 10).
edge(26, 63, 4).
edge(63, 15, 19).
edge(6, 41, 12).
edge(68, 71, 2).
edge(80, 40, 10).
edge(78, 39, 9).
edge(9, 73, 8).
edge(51, 12, 3).
edge(57, 69, 3).

1 { order(V,P) : pos(P) } 1 :- node(V).
1 { order(V,P) : node(V) } 1 :- pos(P).
back(U,V) :- edge(U,V,_), order(U,P1), order(V,P2), P1 > P2.
:~ back(U,V), edge(U,V,W). [W@1,U,V]
