node(0..177).
pos(1..178).
edge(109, 161, 28).
edge(37, 52, 23).
edge(47, 128, 19).
edge(102, 44, 24).
edge(127, 19, 12).
edge(158, 84, 10).
edge(175, 75, 32).
edge(37, 72, 27).
edge(39, 165, 19).
edge(11, 85, 24).
edge(117, 5, 6).
edge(110, 89, 31).
edge(43, 25, 23).
edge(56, 61, 24).
edge(128, 78, 23).
edge(79, 49, 34).
edge(86, 70, 7).
edge(128, 47, 34).
edge(4, 116, 26).
edge(5, 134, 11).
edge(89, 39, 5).
edge(114, 119, 32).
edge(74, 103, 39).
edge(4, 13, 15).
edge(131, 85, 39).
edge(30, 18, 28).
edge(114, 159, 7).
edge(112, 128, 10).
edge(162, 127, 34).
edge(102, 49, 33).
edge(19, 80, 14).
edge(75, 111, 16).
edge(152, 108, 36).
edge(150, 95, 16).
edge(99, 82, 31).
edge(21, 6, 1).
edge(164, 173, 29).
edge(146, 34, 34).
edge(59, 113, 26).
edge(14, 101, 28).
edge(15, 153, 31).
edge(67, 41, 7).
edge(9, 62, 10).
edge(146, 77, 1).
edge(54, 38, 20).
edge(49, 19, 9).
edge(22, 146, 2).
edge(24, 135, 21).
edge(12, 64, 2).
edge(159, 113, 39).
edge(70, 116, 19).
edge(144, 74, 36).
edge(57, 61, 30).
edge(36, 74, 13).
edge(60, 103, 1).
edge(71, 0, 11).
edge(123, 61, 38).
edge(85, 135, 39).
edge(150, 93, 30).
edge(130, 115, 13).
edge(162, 29, 18).
edge(3, 33, 7).
edge(127, 62, 11).
edge(115, 48, 20).
edge(4, 19, 27).
edge(173, 155, 25).
edge(10, 145, 32).
edge(0, 148, 2).
edge(124, 157, 1).
edge(40, 58, 20).
edge(65, 169, 24).
edge(40, 146, 2).
edge(174, 55, 14).
edge(121, 63, 10).
edge(93, 162, 32).
edge(82, 63, 19).
edge(156, 164, 18).
edge(153, 130, 6).
edge(136, 5, 5).
edge(172, 117, 21).
edge(116, 103, 17).
edge(65, 119, 29).
edge(30, 5, 38).
edge(152, 12, 22).
edge(74, 135, 36).
edge(53, 60, 14).
edge(117, 7, 23).
edge(127, 51, 24).
edge(174, 130, 26).
edge(157, 130, 10).
edge(71, 93, 13).
edge(118, 126, 20).
edge(57, 37, 39).
edge(76, 42, 3).
edge(144, 146, 3).
edge(125, 73, 19).
edge(126, 169, 31).
edge(120, 72, 22).
edge(110, 68, 2).
edge(3, 27, 39).
edge(99, 80, 24).
edge(137, 60, 6).
edge(52, 49, 34).
edge(123, 51, 24).
edge(60, 71, 31).
edge(46, 89, 35).
edge(57, 24, 36).
edge(8, 57, 13).
edge(9, 19, 19).
edge(30, 57, 3).
edge(127, 20, 33).
edge(76, 41, 15).
edge(102, 86, 14).
edge(135, 51, 11).
edge(11, 148, 15).
edge(141, 37, 38).
edge(9, 14, 38).
edge(71, 68, 14).
edge(86, 94, 12).
edge(39, 97, 16).
edge(120, 151, 6).
edge(101, 80, 9).
edge(163, 111, 4).
edge(81, 91, 22).
edge(177, 158, 34).
edge(151, 108, 28).
edge(155, 114, 23).
edge(115, 142, 34).
edge(97, 36, 25).
edge(22, 135, 25).
edge(143, 54, 36).
edge(96, 155, 7).
edge(100, 74, 38).
edge(77, 19, 36).
edge(169, 55, 6).
edge(7, 50, 16).
edge(14, 120, 10).
edge(166, 65, 6).
edge(63, 68, 10).
edge(38, 73, 26).
edge(53, 95, 36).
edge(114, 131, 27).
edge(53, 118, 25).
edge(92, 127, 18).
edge(40, 92, 22).
edge(126, 11, 11).
edge(131, 174, 11).
edge(120, 3, 18).
edge(132, 60, 25).
edge(67, 120, 32).
edge(167, 5, 13).
edge(177, 174, 8).
edge(93, 110, 25).
edge(144, 97, 7).
edge(10, 151, 21).
edge(84, 112, 16).
edge(77, 4, 25).
edge(159, 145, 31).
edge(79, 86, 35).
edge(153, 107, 35).
edge(126, 107, 12).
edge(172, 141, 38).
edge(127, 136, 5).
edge(28, 93, 35).
edge(130, 129, 4).
edge(10, 22, 36).
edge(50, 46, 28).
edge(110, 169, 35).
edge(118, 92, 36).
edge(114, 49, 27).
edge(76, 96, 18).
edge(104, 130, 18).
edge(53, 58, 26).
edge(114, 71, 18).
edge(56, 109, 3).
edge(177, 122, 3).
edge(167, 176, 33).
edge(81, 150, 10).
edge(146, 104, 20).
edge(124, 91, 2).
edge(90, 96, 22).
edge(87, 83, 34).
edge(176, 33, 26).
edge(64, 30, 2).
edge(72, 94, 21).
edge(13, 101, 27).
edge(119, 177, 29).
edge(144, 79, 18).
edge(20, 72, 2).
edge(175, 148, 18).
edge(157, 103, 25).
edge(48, 171, 18).
edge(135, 145, 3).
edge(169, 99, 3).
edge(83, 114, 16).
edge(94, 127, 5).
edge(149, 3, 27).
edge(140, 47, 3).
edge(90, 88, 21).
edge(150, 4, 8).
edge(108, 123, 6).
edge(35, 87, 20).
edge(116, 96, 11).
edge(49, 10, 4).
edge(124, 64, 5).
edge(97, 9, 3).
edge(62, 50, 22).
edge(100, 75, 13).
edge(113, 14, 29).
edge(61, 68, 19).
edge(132, 89, 11).
edge(52, 6, 26).
edge(48, 123, 33).
edge(151, 2, 27).
edge(177, 71, 12).
edge(163, 4, 10).
edge(15, 132, 28).
edge(84, 10, 19).
edge(100, 59, 18).
edge(79, 134, 6).
edge(104, 7, 14).
edge(155, 60, 13).
edge(24, 91, 18).
edge(84, 34, 31).
edge(128, 54, 4).
edge(61, 108, 2).
edge(167, 134, 26).
edge(48, 130, 10).
edge(31, 78, 27).
edge(90, 79, 25).
edge(163, 13, 6).
edge(98, 64, 13).
edge(123, 76, 37).
edge(158, 10, 10).
edge(138, 165, 32).
edge(86, 93, 28).
edge(168, 22, 9).
edge(75, 96, 11).
edge(150, 22, 1).
edge(19, 101, 32).
edge(28, 86, 22).
edge(131, 127, 26).
edge(24, 107, 17).
edge(125, 116, 12).
edge(167, 16, 38).
edge(127, 116, 9).
edge(108, 21, 15).
edge(68, 62, 37).
edge(57, 167, 11).
edge(157, 141, 20).
edge(134, 42, 28).
edge(16, 41, 12).
edge(105, 76, 13).
edge(31, 102, 7).
edge(108, 120, 28).
edge(61, 113, 32).
edge(134, 160, 14).
edge(6, 69, 29).
edge(42, 124, 12).
edge(54, 55, 2).
edge(84, 26, 18).
edge(54, 73, 37).
edge(108, 59, 7).
edge(36, 10, 30).
edge(147, 100, 5).
edge(171, 122, 2).
edge(104, 33, 30).
edge(149, 40, 6).
edge(159, 116, 37).
edge(45, 5, 18).
edge(171, 65, 10).
edge(21, 61, 5).
edge(131, 121, 24).
edge(70, 32, 12).
edge(25, 40, 2).
edge(14, 38, 31).
edge(30, 40, 15).
edge(33, 70, 25).
edge(82, 92, 21).
edge(70, 62, 8).
edge(53, 141, 22).
edge(154, 21, 29).
edge(14, 106, 39).
edge(65, 84, 13).
edge(115, 104, 36).
edge(75, 87, 23).
edge(141, 75, 30).
edge(65, 151, 10).
edge(119, 106, 14).
edge(61, 55, 6).
edge(93, 103, 28).
edge(51, 16, 4).
edge(156, 73, 11).
edge(130, 81, 3).
edge(130, 126, 8).
edge(44, 113, 2).
edge(138, 89, 30).
edge(36, 26, 27).
edge(10, 172, 12).
edge(36, 64, 2).
edge(77, 165, 15).
edge(14, 170, 21).
edge(28, 70, 9).
edge(96, 0, 33).
edge(87, 89, 22).
edge(62, 15, 21).
edge(51, 11, 5).
edge(176, 52, 35).
edge(21, 92, 4).
edge(17, 101, 26).
edge(117, 112, 30).
edge(138, 21, 22).
edge(35, 24, 12).
edge(10, 53, 27).
edge(133, 117, 5).
edge(110, 51, 38).
edge(85, 94, 35).
edge(163, 92, 24).
edge(0, 33, 5).
edge(126, 114, 29).
edge(162, 62, 32).
edge(6, 48, 36).
edge(75, 175, 9).
edge(132, 23, 33).
edge(130, 74, 36).
edge(85, 35, 30).
edge(130, 91, 4).
edge(91, 60, 7).
edge(64, 58, 3).
edge(152, 163, 37).
edge(23, 20, 34).
edge(19, 103, 19).
edge(118, 101, 12).
edge(80, 84, 13).
edge(118, 119, 6).
edge(152, 167, 19).
edge(103, 132, 21).
edge(118, 103, 9).
edge(129, 62, 17).
edge(141, 91, 5).
edge(70, 68, 26).
edge(110, 145, 37).
edge(165, 13, 6).
edge(100, 135, 29).
edge(83, 177, 34).
edge(127, 18, 21).
edge(42, 3, 18).
edge(22, 141, 32).
edge(75, 125, 25).
edge(60, 122, 34).
edge(52, 155, 9).
edge(86, 98, 18).
edge(154, 91, 29).
edge(40, 110, 7).
edge(132, 5, 29).
edge(3, 51, 13).
edge(104, 59, 36).
edge(91, 143, 35).
edge(151, 70, 1).
edge(29, 19, 3).
edge(161, 103, 37).
edge(23, 110, 23).
edge(97, 154, 17).
edge(161, 31, 22).
edge(119, 96, 10).
edge(170, 164, 23).
edge(90, 142, 29).
edge(88, 112, 11).
edge(19, 82, 21).
edge(105, 131, 28).
edge(80, 144, 26).
edge(83, 61, 26).
edge(36, 123, 5).
edge(35, 54, 33).
edge(39, 43, 25).
edge(129, 12, 38).
edge(57, 128, 39).
edge(101, 53, 7).
edge(2, 14, 21).
edge(35, 25, 2).
edge(87, 32, 26).
edge(112, 166, 11).
edge(142, 27, 13).
edge(161, 138, 16).
edge(111, 52, 35).
edge(78, 13, 4).
edge(50, 78, 23).
edge(81, 17, 31).
edge(170, 5, 27).
edge(32, 160, 39).
edge(22, 107, 5).
edge(31, 56, 25).
edge(94, 152, 5).
edge(140, 126, 10).
edge(124, 101, 29).
edge(142, 13, 17).
edge(73, 93, 13).
edge(42, 122, 22).
edge(64, 16, 16).
edge(25, 42, 26).
edge(156, 67, 15).
edge(141, 177, 18).
edge(172, 135, 8).
edge(67, 170, 21).
edge(133, 132, 13).
edge(23, 60, 29).
edge(40, 157, 36).
edge(40, 52, 37).
edge(162, 72, 33).
edge(145, 128, 21).
edge(84, 144, 36).
edge(122, 31, 16).
edge(22, 75, 23).
edge(85, 132, 4).
edge(73, 166, 26).
edge(53, 67, 23).
edge(160, 162, 8).
edge(19, 176, 5).
edge(50, 36, 2).
edge(61, 175, 9).
edge(88, 7, 8).
edge(80, 97, 3).
edge(8, 50, 34).
edge(158, 155, 1).
edge(82, 165, 12).
edge(171, 42, 23).
edge(86, 109, 7).
edge(44, 11, 17).
edge(98, 92, 16).
edge(93, 157, 6).
edge(174, 31, 29).
edge(155, 105, 8).
edge(118, 155, 35).
edge(20, 8, 5).
edge(144, 81, 1).
edge(79, 10, 2).
edge(7, 161, 23).
edge(161, 126, 26).
edge(4, 67, 18).
edge(66, 140, 39).
edge(39, 16, 18).
edge(62, 132, 28).
edge(17, 43, 27).
edge(147, 23, 38).
edge(96, 62, 16).
edge(54, 81, 39).
edge(120, 63, 19).
edge(120, 160, 36).
edge(15, 142, 32).
edge(30, 25, 19).
edge(93, 22, 9).
edge(26, 23, 31).
edge(106, 11, 17).
edge(68, 166, 32).
edge(114, 107, 5).
edge(141, 8, 28).
edge(27, 173, 16).
edge(150, 175, 1).
edge(119, 61, 6).
edge(107, 25, 8).
edge(5, 150, 34).
edge(176, 40, 23).
edge(147, 54, 18).
edge(121, 35, 9).
edge(35, 93, 11).
edge(155, 173, 19).
edge(102, 46, 15).
edge(83, 65, 29).
edge(128, 133, 16).
edge(167, 171, 2).
edge(58, 124, 4).
edge(95, 36, 5).
edge(75, 3, 26).
edge(70, 156, 13).
edge(146, 100, 16).
edge(160, 118, 7).
edge(31, 3, 7).
edge(14, 54, 2).
edge(73, 173, 20).
edge(35, 141, 32).
edge(149, 59, 38).
edge(177, 140, 14).
edge(4, 5, 22).
edge(32, 2, 24).
edge(11, 23, 35).
edge(91, 86, 37).
edge(155, 88, 2).
edge(14, 136, 5).
edge(9, 107, 39).
edge(97, 171, 18).
edge(177, 111, 19).
edge(94, 154, 13).
edge(16, 158, 26).
edge(94, 40, 22).
edge(93, 15, 31).
edge(43, 5, 1).
edge(73, 130, 12).
edge(84, 2, 15).
edge(59, 116, 23).
edge(163, 70, 33).
edge(162, 124, 24).
edge(15, 16, 24).
edge(174, 39, 36).
edge(64, 152, 19).
edge(22, 94, 26).
edge(144, 116, 37).
edge(116, 134, 12).
edge(109, 41, 1).
edge(176, 29, 29).
edge(5, 78, 3).
edge(40, 124, 35).
edge(132, 81, 12).
edge(175, 140, 1).
edge(2, 173, 16).
edge(21, 117, 39).
edge(55, 108, 28).
edge(14, 110, 9).
edge(128, 167, 2).
edge(177, 173, 7).
edge(74, 144, 1).
edge(116, 129, 39).
edge(145, 77, 18).
edge(61, 93, 19).
edge(111, 74, 24).
edge(68, 102, 7).
edge(172, 87, 32).
edge(40, 55, 26).
edge(34, 16, 2).
edge(28, 144, 35).
edge(126, 165, 5).
edge(32, 137, 11).
edge(145, 117, 1).
edge(44, 122, 7).
edge(77, 154, 24).
edge(26, 82, 8).
edge(148, 73, 30).
edge(167, 11, 12).
edge(154, 85, 34).
edge(117, 47, 28).
edge(3, 98, 27).
edge(176, 59, 37).
edge(50, 84, 4).
edge(168, 13, 5).
edge(26, 61, 29).
edge(12, 43, 29).
edge(156, 140, 8).
edge(139, 27, 4).
edge(18, 110, 23).
edge(58, 4, 16).
edge(117, 135, 33).
edge(132, 78, 1).
edge(125, 66, 13).
edge(143, 66, 20).
edge(111, 68, 5).
edge(30, 155, 15).
edge(20, 113, 35).
edge(13, 71, 9).
edge(55, 14, 17).
edge(80, 153, 22).
edge(77, 177, 28).
edge(95, 89, 38).
edge(123, 173, 28).
edge(22, 122, 27).
edge(8, 117, 2).
edge(162, 71, 28).
edge(85, 159, 16).
edge(99, 40, 16).
edge(123, 84, 17).
edge(116, 106, 2).
edge(92, 4, 11).
edge(164, 16, 13).
edge(12, 114, 12).
edge(90, 64, 21).
edge(76, 119, 34).
edge(169, 7, 32).
edge(104, 49, 4).
edge(117, 132, 37).
edge(46, 82, 34).
edge(15, 177, 39).
edge(125, 8, 23).
edge(172, 54, 35).
edge(11, 82, 13).
edge(8, 126, 21).
edge(63, 22, 15).
edge(52, 69, 14).
edge(119, 115, 36).
edge(44, 136, 8).
edge(174, 30, 9).
edge(17, 49, 22).
edge(23, 37, 8).
edge(155, 97, 15).
edge(52, 77, 30).
edge(129, 177, 2).
edge(133, 124, 6).
edge(135, 93, 27).
edge(12, 171, 4).
edge(18, 79, 11).
edge(111, 159, 18).
edge(134, 59, 9).
edge(165, 73, 5).
edge(124, 14, 35).
edge(3, 35, 34).
edge(34, 33, 33).
edge(89, 135, 27).
edge(150, 97, 18).
edge(155, 121, 32).
edge(113, 115, 27).
edge(22, 20, 14).
edge(70, 112, 37).
edge(163, 69, 14).
edge(21, 76, 26).
edge(172, 28, 18).
edge(166, 36, 5).
edge(86, 49, 34).
edge(120, 176, 18).
edge(109, 168, 16).
edge(165, 146, 7).
edge(66, 147, 16).
edge(65, 165, 19).
edge(81, 172, 9).
edge(115, 138, 14).
edge(132, 63, 19).
edge(75, 13, 35).
edge(4, 49, 30).
edge(49, 115, 27).
edge(117, 36, 23).
edge(157, 129, 11).
edge(64, 164, 29).
edge(55, 57, 7).
edge(26, 101, 34).
edge(39, 170, 13).
edge(85, 144, 27).
edge(75, 99, 33).
edge(35, 115, 38).
edge(9, 171, 37).
edge(75, 137, 2).
edge(108, 103, 12).
edge(120, 90, 27).
edge(11, 71, 3).
edge(85, 168, 16).
edge(167, 73, 8).
edge(74, 142, 11).
edge(22, 70, 2).
edge(126, 47, 39).
edge(41, 159, 15).
edge(61, 107, 7).
edge(152, 42, 17).
edge(5, 45, 29).
edge(103, 154, 22).
edge(166, 77, 10).
edge(30, 108, 28).
edge(102, 74, 1).
edge(20, 117, 5).
edge(48, 175, 15).
edge(167, 69, 15).
edge(161, 142, 6).
edge(13, 31, 1).
edge(15, 20, 22).
edge(83, 77, 19).
edge(168, 19, 9).
edge(150, 141, 18).
edge(71, 19, 28).
edge(172, 134, 39).
edge(12, 73, 16).
edge(140, 122, 27).
edge(153, 81, 6).
edge(57, 146, 37).
edge(21, 163, 6).
edge(99, 111, 21).
edge(73, 7, 10).
edge(87, 13, 39).
edge(137, 92, 27).
edge(130, 152, 29).
edge(48, 115, 22).
edge(135, 107, 38).
edge(15, 65, 36).
edge(102, 83, 14).
edge(51, 86, 5).
edge(48, 120, 24).
edge(125, 63, 28).
edge(76, 46, 5).
edge(130, 85, 25).
edge(45, 7, 38).
edge(127, 108, 12).
edge(72, 70, 20).
edge(81, 48, 30).
edge(128, 147, 32).
edge(36, 118, 5).
edge(57, 147, 34).
edge(134, 57, 30).
edge(55, 71, 28).
edge(169, 13, 33).
edge(139, 160, 19).
edge(158, 87, 31).
edge(44, 8, 2).
edge(99, 164, 27).
edge(172, 34, 37).
edge(42, 4, 33).
edge(165, 61, 14).
edge(69, 3, 20).
edge(155, 106, 2).
edge(76, 54, 17).
edge(40, 174, 4).
edge(13, 19, 5).
edge(105, 100, 26).
edge(112, 61, 1).
edge(175, 25, 33).
edge(137, 72, 27).
edge(78, 176, 9).
edge(162, 22, 18).
edge(116, 79, 26).
edge(145, 103, 22).
edge(119, 46, 19).
edge(115, 46, 17).
edge(172, 85, 35).
edge(10, 28, 18).
edge(9, 26, 12).
edge(34, 40, 7).
edge(94, 78, 3).
edge(106, 104, 16).
edge(118, 10, 5).
edge(115, 91, 5).
edge(76, 117, 39).
edge(111, 85, 15).
edge(108, 96, 1).
edge(109, 48, 26).
edge(101, 97, 33).
edge(119, 43, 5).
edge(41, 62, 22).
edge(177, 137, 22).
edge(169, 17, 11).
edge(139, 105, 18).
edge(71, 157, 26).
edge(122, 26, 5).
edge(127, 75, 20).
edge(143, 82, 10).
edge(129, 69, 38).
edge(157, 152, 10).
edge(66, 50, 15).
edge(133, 17, 14).
edge(37, 112, 31).
edge(105, 40, 27).
edge(162, 106, 27).
edge(90, 85, 38).
edge(25, 58, 1).
edge(127, 53, 35).
edge(148, 67, 24).
edge(63, 5, 33).
edge(73, 87, 10).
edge(102, 42, 15).
edge(78, 7, 11).
edge(40, 43, 10).
edge(130, 133, 31).
edge(5, 163, 34).
edge(5, 159, 27).
edge(27, 143, 39).
edge(107, 167, 22).
edge(33, 35, 23).
edge(13, 38, 21).
edge(43, 71, 2).
edge(171, 107, 21).
edge(159, 38, 5).
edge(130, 11, 27).
edge(114, 63, 6).
edge(58, 157, 31).
edge(66, 74, 10).
edge(85, 112, 38).
edge(171, 9, 37).
edge(52, 141, 32).
edge(128, 15, 28).
edge(49, 109, 7).
edge(53, 18, 12).
edge(25, 11, 18).
edge(6, 150, 35).
edge(91, 111, 36).
edge(61, 57, 30).
edge(35, 53, 3).
edge(27, 68, 36).
edge(5, 169, 31).
edge(80, 48, 28).
edge(149, 157, 34).
edge(22, 7, 19).
edge(60, 19, 7).
edge(53, 119, 28).
edge(0, 152, 26).
edge(108, 48, 36).
edge(53, 159, 39).
edge(64, 94, 21).
edge(163, 72, 35).
edge(59, 124, 5).
edge(53, 91, 5).
edge(61, 137, 19).
edge(165, 81, 26).
edge(150, 79, 9).
edge(114, 89, 20).
edge(77, 91, 18).
edge(84, 36, 14).
edge(123, 151, 33).
edge(174, 56, 22).
edge(113, 70, 17).
edge(36, 116, 10).
edge(103, 160, 25).
edge(49, 83, 2).
edge(31, 154, 14).
edge(96, 10, 16).
edge(15, 97, 18).
edge(139, 84, 14).
edge(107, 5, 6).
edge(87, 29, 25).
edge(83, 0, 30).
edge(116, 112, 10).
edge(81, 93, 28).
edge(168, 134, 9).
edge(90, 78, 13).
edge(126, 43, 9).
edge(132, 85, 19).
edge(31, 129, 13).
edge(114, 139, 39).
edge(66, 31, 25).
edge(97, 132, 38).
edge(87, 98, 31).
edge(44, 175, 11).
edge(39, 32, 19).
edge(18, 134, 24).
edge(122, 1, 29).
edge(158, 125, 9).
edge(25, 155, 39).
edge(6, 157, 12).
edge(115, 159, 30).
edge(81, 165, 33).
edge(47, 94, 30).
edge(175, 162, 39).
edge(66, 174, 13).
edge(42, 126, 33).
edge(36, 8, 5).
edge(151, 169, 16).
edge(38, 144, 5).
edge(150, 128, 17).
edge(82, 54, 17).
edge(72, 25, 16).
edge(71, 65, 34).
edge(163, 24, 37).
edge(14, 174, 14).
edge(177, 142, 28).
edge(42, 12, 24).
edge(170, 2, 8).
edge(106, 132, 8).
edge(31, 10, 32).
edge(10, 33, 29).
edge(8, 71, 35).
edge(43, 60, 11).
edge(17, 140, 16).
edge(145, 13, 23).
edge(122, 135, 23).
edge(134, 51, 39).
edge(31, 112, 1).
edge(124, 141, 1).
edge(122, 67, 23).
edge(61, 122, 5).
edge(27, 95, 24).
edge(134, 151, 36).
edge(157, 165, 25).
edge(87, 167, 25).
edge(4, 69, 12).
edge(69, 19, 28).
edge(154, 41, 25).
edge(162, 2, 7).
edge(62, 66, 2).
edge(134, 94, 39).
edge(77, 25, 13).
edge(175, 6, 37).
edge(145, 83, 23).
edge(38, 47, 36).
edge(79, 67, 31).
edge(96, 66, 3).
edge(33, 53, 18).
edge(71, 101, 23).
edge(171, 165, 16).
edge(93, 66, 16).
edge(149, 100, 30).
edge(138, 75, 25).
edge(71, 22, 20).
edge(37, 87, 32).
edge(40, 20, 3).
edge(94, 70, 34).
edge(136, 111, 23).
edge(107, 87, 29).
edge(78, 104, 31).
edge(107, 121, 14).
edge(107, 18, 36).
edge(166, 135, 38).
edge(37, 173, 18).
edge(155, 170, 26).
edge(59, 88, 12).
edge(105, 103, 32).
edge(115, 118, 33).
edge(67, 149, 19).
edge(97, 25, 8).
edge(37, 74, 34).
edge(177, 136, 39).
edge(131, 159, 24).
edge(151, 157, 30).
edge(45, 21, 1).
edge(55, 170, 2).
edge(131, 147, 2).
edge(4, 101, 34).
edge(62, 131, 1).
edge(128, 31, 11).
edge(154, 28, 15).
edge(1, 117, 2).
edge(162, 108, 11).
edge(148, 145, 18).
edge(71, 60, 28).
edge(25, 128, 9).
edge(68, 38, 16).
edge(169, 121, 10).
edge(24, 58, 4).
edge(60, 123, 16).
edge(48, 102, 12).
edge(69, 86, 29).
edge(60, 177, 28).
edge(84, 128, 20).
edge(109, 36, 32).
edge(87, 141, 28).
edge(18, 153, 39).
edge(50, 163, 18).
edge(100, 0, 13).
edge(47, 77, 16).
edge(94, 63, 33).
edge(131, 51, 32).
edge(25, 67, 32).
edge(33, 66, 34).
edge(124, 73, 25).
edge(172, 110, 32).
edge(148, 149, 21).
edge(84, 46, 9).
edge(113, 107, 30).
edge(52, 99, 7).
edge(5, 136, 22).
edge(76, 32, 1).
edge(175, 120, 13).
edge(164, 95, 18).
edge(48, 55, 35).
edge(111, 15, 30).
edge(52, 169, 34).
edge(10, 78, 27).
edge(91, 92, 3).
edge(24, 133, 16).
edge(7, 156, 6).
edge(49, 116, 16).
edge(5, 85, 26).
edge(111, 119, 21).
edge(36, 75, 13).
edge(6, 56, 28).
edge(6, 70, 3).
edge(127, 94, 26).
edge(83, 34, 15).
edge(165, 162, 27).
edge(110, 113, 9).
edge(165, 166, 5).
edge(122, 106, 2).
edge(94, 109, 26).
edge(121, 171, 3).
edge(53, 129, 25).
edge(149, 33, 21).
edge(93, 34, 4).
edge(81, 56, 7).
edge(74, 175, 33).
edge(129, 169, 1).
edge(150, 149, 19).
edge(47, 18, 8).
edge(79, 117, 29).
edge(55, 171, 16).
edge(109, 87, 34).
edge(87, 72, 23).
edge(161, 10, 18).
edge(154, 148, 36).
edge(35, 39, 1).
edge(18, 99, 1).
edge(120, 29, 32).
edge(172, 52, 14).
edge(9, 156, 30).
edge(51, 107, 39).
edge(177, 76, 19).
edge(5, 124, 6).
edge(42, 6, 11).
edge(0, 37, 10).
edge(111, 135, 23).
edge(137, 164, 23).
edge(72, 95, 5).
edge(47, 143, 34).
edge(59, 27, 31).
edge(30, 88, 13).
edge(40, 21, 36).
edge(37, 167, 10).
edge(138, 166, 25).
edge(83, 51, 18).
edge(72, 33, 25).
edge(176, 174, 21).
edge(0, 106, 37).
edge(19, 122, 6).
edge(37, 20, 21).
edge(171, 69, 31).
edge(173, 152, 1).
edge(174, 33, 16).
edge(24, 19, 7).
edge(113, 124, 8).
edge(175, 111, 22).
edge(9, 98, 16).
edge(31, 169, 12).
edge(25, 81, 28).
edge(25, 146, 22).
edge(66, 156, 30).
edge(60, 146, 32).
edge(45, 28, 27).
edge(119, 31, 3).
edge(25, 94, 18).
edge(140, 23, 30).
edge(134, 65, 18).
edge(164, 162, 6).
edge(41, 26, 10).
edge(20, 152, 1).
edge(136, 113, 7).
edge(40, 169, 15).
edge(77, 129, 34).
edge(91, 82, 25).
edge(55, 139, 5).
edge(145, 4, 36).
edge(122, 155, 1).
edge(140, 166, 24).
edge(108, 68, 38).
edge(85, 61, 12).
edge(94, 167, 11).
edge(16, 122, 1).
edge(9, 33, 19).
edge(172, 136, 13).
edge(112, 153, 25).
edge(37, 82, 32).
edge(85, 23, 22).
edge(28, 105, 25).
edge(130, 121, 7).
edge(70, 22, 4).
edge(93, 95, 7).
edge(77, 152, 20).
edge(139, 161, 20).
edge(138, 65, 16).
edge(14, 70, 29).
edge(114, 92, 33).
edge(125, 53, 16).
edge(50, 15, 36).
edge(172, 130, 6).
edge(132, 77, 15).
edge(165, 109, 28).
edge(46, 148, 14).
edge(82, 56, 25).
edge(132, 131, 11).
edge(101, 25, 32).
edge(136, 166, 12).
edge(141, 62, 8).
edge(169, 134, 21).
edge(78, 51, 10).
edge(42, 110, 34).
edge(172, 7, 1).
edge(155, 70, 13).
edge(121, 131, 29).
edge(56, 156, 15).
edge(125, 162, 23).
edge(88, 113, 39).
edge(63, 44, 4).
edge(135, 43, 19).
edge(56, 82, 18).
edge(115, 158, 28).
edge(170, 90, 18).
edge(160, 38, 22).
edge(143, 57, 2).
edge(47, 36, 3).
edge(79, 84, 32).
edge(151, 48, 5).
edge(131, 156, 31).
edge(118, 35, 15).
edge(144, 66, 30).
edge(103, 90, 37).
edge(3, 113, 26).
edge(91, 27, 10).
edge(69, 170, 28).
edge(82, 32, 22).
edge(153, 118, 16).
edge(43, 157, 7).
edge(159, 172, 32).
edge(74, 3, 35).
edge(83, 167, 25).
edge(0, 146, 34).
edge(151, 30, 5).
edge(127, 29, 20).
edge(144, 124, 31).
edge(1, 24, 29).
edge(71, 7, 3).
edge(100, 36, 3).
edge(43, 166, 28).
edge(37, 110, 18).
edge(148, 127, 8).
edge(141, 73, 11).
edge(16, 15, 26).
edge(26, 10, 17).
edge(154, 136, 7).
edge(15, 163, 31).
edge(113, 27, 14).
edge(104, 13, 15).
edge(169, 10, 17).
edge(152, 105, 35).
edge(132, 149, 3).
edge(92, 28, 14).
edge(47, 153, 8).
edge(33, 74, 33).
edge(6, 57, 11).
edge(40, 18, 23).
edge(169, 140, 39).
edge(114, 52, 39).
edge(74, 116, 7).
edge(75, 6, 37).
edge(43, 101, 16).
edge(99, 145, 7).
edge(64, 114, 38).
edge(68, 116, 30).
edge(17, 38, 23).
edge(58, 109, 35).
edge(97, 77, 19).
edge(134, 10, 24).
edge(162, 151, 39).
edge(48, 146, 34).
edge(131, 41, 34).
edge(173, 150, 5).
edge(17, 103, 10).
edge(109, 121, 26).
edge(149, 79, 25).
edge(167, 170, 31).
edge(15, 64, 38).
edge(158, 44, 35).
edge(138, 27, 38).
edge(175, 94, 26).
edge(80, 177, 13).
edge(33, 136, 12).
edge(167, 148, 16).
edge(90, 1, 22).
edge(47, 165, 13).
edge(152, 47, 28).
edge(24, 63, 14).
edge(40, 10, 6).
edge(146, 149, 31).
edge(166, 27, 28).
edge(84, 130, 7).
edge(20, 44, 16).
edge(150, 161, 13).
edge(30, 113, 34).
edge(71, 2, 29).
edge(96, 50, 26).
edge(69, 88, 24).
edge(63, 172, 15).
edge(47, 156, 15).
edge(51, 44, 36).
edge(17, 86, 33).
edge(99, 55, 25).
edge(73, 108, 7).
edge(54, 144, 38).
edge(14, 61, 7).
edge(109, 50, 29).
edge(20, 73, 4).
edge(140, 176, 21).
edge(57, 150, 34).
edge(167, 45, 4).
edge(123, 33, 29).
edge(130, 86, 15).
edge(40, 139, 34).
edge(123, 37, 23).
edge(148, 14, 4).
edge(48, 163, 14).
edge(171, 61, 28).
edge(14, 78, 2).
edge(5, 162, 6).
edge(122, 103, 3).
edge(103, 38, 8).
edge(147, 13, 25).
edge(150, 100, 4).
edge(137, 105, 22).
edge(8, 16, 23).
edge(4, 21, 20).
edge(95, 125, 34).
edge(86, 55, 35).
edge(112, 8, 24).
edge(13, 27, 19).
edge(66, 46, 31).
edge(131, 12, 16).
edge(74, 67, 8).
edge(47, 154, 39).
edge(23, 89, 19).
edge(150, 142, 33).
edge(19, 61, 30).
edge(11, 171, 9).
edge(175, 5, 25).
edge(125, 64, 30).
edge(10, 147, 3).
edge(24, 54, 11).
edge(39, 76, 19).
edge(129, 5, 28).
edge(2, 176, 9).
edge(131, 50, 32).
edge(4, 117, 30).
edge(139, 121, 21).
edge(30, 75, 19).
edge(158, 96, 32).
edge(154, 45, 34).
edge(92, 121, 34).
edge(75, 147, 20).
edge(103, 42, 13).
edge(26, 72, 33).
edge(74, 169, 31).
edge(145, 144, 16).
edge(60, 167, 27).
edge(145, 37, 19).
edge(65, 24, 18).
edge(73, 82, 29).
edge(49, 25, 3).
edge(81, 98, 21).
edge(121, 175, 16).
edge(118, 134, 3).
edge(32, 92, 17).
edge(142, 173, 5).
edge(131, 144, 19).
edge(138, 40, 16).
edge(156, 158, 22).
edge(104, 114, 20).
edge(149, 167, 24).
edge(99, 94, 31).
edge(14, 163, 11).
edge(151, 115, 12).
edge(129, 16, 2).
edge(167, 124, 18).
edge(42, 73, 6).
edge(61, 13, 16).
edge(148, 119, 11).
edge(43, 61, 36).
edge(111, 170, 25).
edge(58, 84, 2).
edge(70, 104, 30).
edge(113, 139, 30).
edge(170, 134, 19).
edge(65, 33, 19).
edge(171, 12, 34).
edge(66, 80, 30).
edge(146, 13, 1).
edge(49, 26, 21).
edge(17, 0, 30).
edge(174, 117, 28).
edge(69, 98, 8).
edge(112, 2, 8).
edge(84, 157, 9).
edge(51, 100, 28).
edge(50, 148, 1).
edge(82, 66, 39).
edge(10, 110, 39).
edge(6, 23, 22).
edge(104, 153, 17).
edge(67, 103, 6).
edge(25, 143, 35).
edge(112, 155, 15).
edge(132, 174, 38).
edge(91, 0, 16).
edge(106, 126, 26).
edge(156, 173, 33).
edge(107, 91, 13).
edge(61, 94, 25).
edge(39, 70, 25).
edge(70, 31, 7).
edge(77, 84, 31).
edge(150, 3, 27).
edge(106, 125, 36).
edge(131, 130, 7).
edge(141, 174, 23).
edge(117, 41, 27).
edge(36, 112, 9).
edge(163, 176, 20).
edge(6, 101, 31).
edge(39, 28, 35).
edge(105, 145, 16).
edge(100, 99, 28).
edge(128, 152, 8).
edge(33, 69, 1).
edge(66, 8, 8).
edge(159, 61, 24).
edge(16, 39, 3).
edge(7, 69, 14).
edge(88, 85, 20).
edge(154, 64, 15).
edge(140, 86, 3).
edge(110, 99, 34).
edge(18, 50, 3).
edge(9, 138, 18).
edge(144, 56, 20).
edge(64, 96, 2).
edge(159, 99, 39).
edge(36, 150, 13).
edge(134, 46, 19).
edge(36, 87, 21).
edge(65, 143, 34).
edge(80, 98, 23).
edge(165, 117, 24).
edge(107, 126, 24).
edge(22, 108, 39).
edge(111, 139, 20).
edge(137, 1, 20).
edge(147, 133, 32).
edge(168, 31, 20).
edge(25, 149, 23).
edge(101, 146, 16).
edge(141, 114, 3).
edge(27, 174, 12).
edge(101, 122, 37).
edge(173, 88, 3).
edge(29, 79, 19).
edge(9, 65, 21).
edge(19, 170, 27).
edge(41, 19, 33).
edge(120, 110, 37).
edge(145, 74, 1).
edge(169, 58, 21).
edge(101, 177, 5).
edge(12, 22, 28).
edge(133, 143, 35).
edge(82, 166, 28).
edge(168, 62, 27).
edge(40, 79, 38).
edge(92, 128, 22).
edge(3, 101, 39).
edge(6, 44, 16).
edge(34, 114, 29).
edge(157, 7, 18).
edge(74, 128, 7).
edge(140, 0, 29).
edge(33, 12, 28).
edge(61, 0, 19).
edge(22, 82, 37).
edge(28, 110, 26).
edge(40, 36, 9).
edge(114, 80, 14).
edge(158, 19, 38).
edge(116, 149, 16).
edge(155, 107, 16).
edge(39, 144, 9).
edge(142, 105, 19).
edge(96, 146, 25).
edge(32, 106, 21).
edge(70, 150, 33).
edge(126, 105, 19).
edge(45, 127, 35).
edge(50, 32, 34).
edge(80, 5, 35).
edge(137, 0, 13).
edge(80, 75, 11).
edge(135, 20, 5).
edge(162, 170, 7).
edge(12, 38, 20).
edge(54, 45, 11).
edge(6, 172, 10).
edge(38, 14, 27).
edge(166, 174, 20).
edge(0, 170, 8).
edge(100, 102, 27).
edge(177, 44, 33).
edge(37, 118, 25).
edge(82, 78, 6).
edge(76, 122, 39).
edge(106, 81, 22).
edge(54, 58, 12).
edge(160, 77, 19).
edge(54, 125, 4).
edge(59, 163, 39).
edge(81, 28, 32).
edge(59, 3, 26).
edge(51, 9, 37).
edge(25, 117, 33).
edge(19, 32, 4).
edge(102, 141, 28).
edge(92, 104, 29).
edge(119, 5, 23).
edge(107, 16, 5).
edge(61, 120, 10).
edge(35, 75, 36).
edge(9, 150, 31).
edge(148, 53, 28).
edge(34, 169, 34).
edge(96, 98, 19).
edge(50, 66, 35).
edge(30, 139, 6).
edge(139, 153, 30).
edge(18, 112, 2).
edge(160, 26, 21).
edge(127, 45, 21).
edge(27, 6, 28).
edge(137, 101, 31).
edge(116, 14, 31).
edge(115, 55, 26).
edge(41, 14, 13).
edge(16, 40, 30).
edge(50, 154, 38).
edge(1, 129, 9).
edge(65, 20, 13).
edge(69, 162, 36).
edge(70, 98, 9).
edge(94, 74, 34).
edge(127, 157, 4).
edge(73, 65, 2).
edge(26, 84, 23).
edge(117, 90, 29).
edge(123, 67, 26).
edge(15, 155, 3).
edge(175, 130, 8).
edge(35, 10, 22).
edge(126, 138, 26).
edge(28, 147, 37).
edge(101, 45, 16).
edge(32, 10, 23).
edge(165, 120, 30).
edge(130, 39, 14).
edge(140, 108, 24).
edge(53, 30, 20).
edge(107, 10, 4).
edge(79, 120, 38).
edge(127, 34, 23).
edge(140, 174, 10).
edge(34, 18, 7).
edge(101, 11, 9).
edge(4, 159, 19).
edge(176, 127, 38).
edge(50, 7, 17).
edge(119, 56, 15).
edge(143, 176, 39).
edge(162, 4, 36).
edge(51, 109, 12).
edge(101, 150, 9).
edge(107, 76, 29).
edge(152, 155, 24).
edge(93, 165, 15).
edge(47, 112, 28).
edge(23, 124, 19).
edge(106, 16, 32).
edge(84, 56, 31).
edge(147, 47, 2).
edge(116, 17, 25).
edge(134, 26, 13).
edge(22, 172, 20).
edge(56, 28, 24).
edge(146, 148, 2).
edge(2, 5, 4).
edge(144, 129, 32).
edge(59, 128, 38).
edge(90, 152, 21).
edge(146, 143, 5).
edge(62, 7, 30).
edge(92, 130, 26).
edge(136, 125, 22).
edge(68, 177, 33).
edge(32, 173, 39).
edge(161, 52, 7).
edge(152, 33, 8).
edge(78, 108, 23).
edge(13, 5, 14).
edge(173, 24, 9).
edge(82, 12, 27).
edge(22, 87, 34).
edge(121, 69, 3).
edge(103, 144, 17).
edge(89, 132, 18).
edge(151, 49, 4).
edge(15, 43, 32).
edge(83, 60, 7).
edge(150, 103, 13).
edge(123, 50, 26).
edge(30, 143, 31).
edge(21, 137, 39).
edge(36, 96, 38).
edge(143, 44, 12).
edge(15, 167, 21).
edge(75, 26, 18).
edge(165, 164, 38).
edge(98, 20, 26).
edge(172, 116, 2).
edge(68, 54, 23).
edge(73, 44, 17).
edge(130, 94, 29).
edge(37, 93, 16).
edge(117, 76, 25).
edge(77, 128, 10).
edge(162, 131, 17).
edge(10, 2, 3).
edge(150, 135, 20).
edge(27, 79, 5).
edge(131, 49, 34).
edge(43, 81, 4).
edge(165, 24, 29).
edge(118, 111, 25).
edge(34, 109, 13).
edge(73, 18, 36).
edge(46, 13, 28).
edge(105, 144, 30).
edge(4, 151, 29).
edge(125, 80, 1).
edge(167, 71, 29).
edge(166, 48, 38).
edge(82, 49, 2).
edge(161, 15, 36).
edge(175, 16, 32).
edge(158, 2, 31).
edge(11, 72, 33).
edge(50, 110, 34).
edge(75, 27, 27).
edge(66, 121, 7).
edge(79, 106, 1).
edge(38, 161, 5).
edge(33, 40, 34).
edge(78, 160, 30).
edge(71, 38, 3).
edge(22, 101, 32).
edge(23, 14, 25).
edge(60, 118, 22).
edge(37, 149, 6).
edge(0, 20, 9).
edge(94, 112, 34).
edge(145, 3, 12).
edge(130, 103, 14).
edge(161, 74, 18).
edge(33, 84, 3).
edge(68, 4, 17).
edge(13, 33, 18).
edge(25, 28, 20).
edge(40, 78, 20).
edge(150, 104, 9).
edge(47, 114, 8).
edge(71, 127, 22).
edge(134, 8, 33).
edge(144, 64, 36).
edge(96, 45, 26).
edge(130, 114, 33).
edge(70, 144, 7).
edge(33, 146, 21).
edge(164, 10, 8).
edge(14, 144, 38).
edge(28, 140, 31).
edge(162, 141, 4).
edge(102, 130, 36).
edge(16, 47, 33).
edge(97, 116, 22).
edge(165, 107, 8).
edge(76, 99, 23).
edge(177, 18, 10).
edge(69, 174, 13).
edge(6, 19, 1).
edge(23, 156, 35).
edge(163, 50, 19).
edge(79, 27, 33).
edge(48, 15, 12).
edge(85, 164, 20).
edge(62, 60, 22).
edge(82, 0, 17).
edge(64, 139, 2).
edge(161, 77, 35).
edge(56, 167, 22).
edge(82, 164, 28).
edge(152, 6, 11).
edge(99, 32, 4).
edge(137, 88, 18).
edge(38, 1, 18).
edge(101, 12, 18).
edge(30, 170, 25).
edge(114, 79, 20).
edge(38, 125, 3).
edge(110, 154, 9).
edge(30, 149, 26).
edge(141, 154, 34).
edge(42, 75, 17).
edge(54, 169, 14).
edge(176, 103, 12).
edge(40, 41, 10).
edge(114, 30, 23).
edge(115, 26, 1).
edge(148, 70, 37).
edge(13, 36, 22).
edge(151, 91, 23).
edge(123, 46, 15).
edge(162, 39, 16).
edge(104, 20, 17).
edge(104, 98, 16).
edge(12, 74, 13).
edge(177, 28, 14).
edge(166, 176, 30).
edge(34, 154, 34).
edge(149, 73, 3).
edge(157, 72, 5).
edge(37, 34, 39).
edge(31, 8, 15).
edge(40, 171, 7).
edge(30, 17, 9).
edge(70, 6, 35).
edge(31, 54, 7).
edge(15, 93, 34).
edge(78, 66, 29).
edge(0, 129, 26).
edge(111, 122, 30).
edge(39, 26, 9).
edge(155, 102, 10).
edge(126, 10, 20).
edge(84, 108, 27).
edge(116, 127, 35).
edge(93, 32, 5).
edge(21, 134, 7).
edge(152, 43, 12).
edge(32, 23, 23).
edge(83, 69, 15).
edge(160, 29, 11).
edge(64, 0, 22).
edge(169, 5, 1).
edge(11, 39, 2).
edge(37, 177, 31).
edge(22, 32, 37).
edge(146, 56, 11).
edge(143, 110, 38).
edge(25, 62, 21).
edge(82, 74, 16).
edge(104, 147, 1).
edge(5, 167, 11).
edge(4, 65, 1).
edge(116, 77, 22).
edge(111, 147, 9).
edge(159, 27, 8).
edge(84, 0, 20).
edge(91, 170, 34).
edge(98, 165, 25).
edge(114, 16, 34).
edge(93, 142, 5).
edge(20, 59, 5).
edge(121, 93, 33).
edge(152, 62, 15).
edge(60, 8, 21).
edge(107, 35, 39).
edge(166, 165, 2).
edge(158, 95, 10).
edge(60, 149, 31).
edge(158, 57, 6).
edge(131, 140, 33).
edge(60, 130, 21).
edge(8, 70, 34).
edge(168, 105, 4).
edge(102, 20, 27).
edge(162, 7, 23).
edge(69, 85, 30).
edge(42, 120, 35).
edge(73, 42, 23).
edge(74, 167, 5).
edge(72, 97, 28).
edge(91, 63, 24).
edge(158, 101, 25).
edge(148, 68, 22).
edge(27, 109, 29).
edge(160, 85, 11).
edge(13, 41, 13).
edge(71, 53, 7).
edge(46, 156, 23).
edge(55, 60, 26).
edge(68, 74, 37).
edge(107, 92, 17).
edge(55, 45, 34).
edge(34, 104, 5).
edge(57, 155, 4).
edge(174, 93, 12).
edge(165, 170, 14).
edge(80, 4, 5).
edge(36, 132, 2).
edge(138, 112, 2).
edge(111, 28, 34).
edge(88, 97, 6).
edge(160, 140, 24).
edge(171, 60, 27).
edge(70, 167, 22).
edge(148, 66, 9).
edge(44, 62, 36).
edge(147, 62, 34).
edge(2, 155, 19).
edge(154, 173, 29).
edge(38, 25, 13).
edge(80, 82, 5).
edge(53, 131, 7).
edge(98, 104, 17).
edge(65, 146, 30).
edge(119, 128, 12).
edge(168, 89, 27).
edge(91, 105, 19).
edge(16, 71, 34).
edge(165, 38, 4).
edge(154, 174, 39).
edge(167, 51, 34).
edge(145, 21, 6).
edge(64, 168, 34).
edge(156, 133, 25).
edge(8, 124, 31).
edge(80, 87, 22).
edge(92, 52, 11).
edge(71, 74, 16).
edge(93, 108, 4).
edge(86, 83, 8).
edge(63, 101, 15).
edge(62, 84, 10).
edge(41, 36, 31).
edge(171, 172, 21).
edge(126, 136, 9).
edge(25, 64, 38).
edge(2, 96, 16).
edge(125, 70, 33).
edge(106, 92, 35).
edge(99, 46, 28).
edge(27, 71, 11).
edge(145, 38, 34).
edge(13, 108, 10).
edge(45, 15, 14).
edge(69, 21, 12).
edge(78, 39, 25).
edge(51, 75, 29).
edge(158, 162, 2).
edge(24, 79, 28).
edge(68, 90, 3).
edge(14, 48, 29).
edge(93, 69, 5).
edge(171, 163, 14).
edge(33, 173, 36).
edge(90, 50, 32).
edge(118, 20, 20).
edge(70, 109, 16).
edge(46, 81, 39).
edge(74, 157, 15).
edge(57, 89, 29).
edge(91, 120, 10).
edge(49, 93, 19).
edge(52, 85, 37).
edge(145, 48, 16).
edge(148, 89, 9).
edge(2, 7, 15).
edge(166, 172, 2).
edge(155, 115, 35).
edge(120, 159, 11).
edge(159, 67, 34).
edge(51, 69, 33).
edge(141, 175, 36).
edge(44, 22, 33).
edge(151, 154, 31).
edge(149, 177, 1).
edge(133, 56, 10).
edge(45, 51, 39).
edge(176, 92, 3).
edge(144, 176, 24).
edge(60, 164, 25).
edge(177, 121, 1).
edge(44, 27, 9).
edge(25, 172, 2).
edge(64, 13, 5).
edge(7, 118, 17).
edge(154, 89, 29).
edge(58, 138, 6).
edge(156, 1, 11).
edge(16, 115, 4).
edge(66, 105, 28).
edge(149, 92, 25).
edge(162, 52, 33).
edge(53, 127, 31).
edge(6, 108, 39).
edge(111, 70, 24).
edge(169, 51, 23).
edge(20, 39, 4).
edge(125, 41, 21).
edge(172, 78, 31).
edge(97, 126, 34).
edge(31, 122, 25).
edge(8, 161, 32).
edge(109, 104, 33).
edge(174, 46, 37).
edge(22, 52, 39).
edge(140, 39, 4).
edge(173, 56, 33).
edge(158, 108, 22).
edge(101, 46, 26).
edge(149, 24, 13).
edge(119, 69, 10).
edge(106, 147, 18).
edge(81, 60, 34).
edge(102, 88, 14).
edge(162, 140, 2).
edge(49, 84, 33).
edge(29, 10, 18).
edge(123, 131, 16).
edge(129, 50, 18).
edge(34, 2, 10).
edge(12, 111, 34).
edge(168, 33, 29).
edge(91, 138, 34).
edge(45, 161, 4).
edge(155, 72, 15).
edge(144, 163, 17).
edge(14, 12, 24).
edge(46, 90, 7).
edge(60, 66, 5).
edge(60, 29, 24).
edge(75, 50, 37).
edge(46, 79, 16).
edge(160, 82, 33).
edge(154, 19, 13).
edge(73, 162, 20).
edge(57, 13, 24).
edge(29, 45, 39).
edge(72, 0, 28).
edge(3, 165, 35).
edge(159, 9, 31).
edge(31, 123, 31).
edge(130, 57, 34).
edge(33, 46, 39).
edge(106, 162, 33).
edge(142, 52, 21).
edge(9, 76, 21).
edge(39, 112, 30).
edge(71, 52, 36).
edge(14, 150, 32).
edge(23, 76, 9).
edge(57, 116, 19).
edge(158, 104, 22).
edge(109, 34, 35).
edge(60, 165, 12).
edge(45, 173, 19).
edge(161, 71, 21).
edge(170, 42, 36).
edge(131, 176, 19).
edge(22, 153, 34).
edge(103, 113, 9).
edge(147, 153, 3).
edge(146, 127, 29).
edge(79, 95, 8).
edge(39, 24, 22).
edge(108, 167, 36).
edge(77, 125, 27).
edge(141, 137, 35).
edge(48, 128, 33).
edge(79, 6, 32).
edge(84, 39, 28).
edge(57, 10, 30).
edge(160, 159, 27).
edge(74, 88, 36).
edge(177, 82, 22).
edge(43, 153, 5).
edge(62, 107, 22).
edge(176, 106, 12).
edge(135, 52, 8).
edge(75, 46, 6).
edge(58, 30, 12).
edge(142, 124, 7).
edge(5, 88, 23).
edge(165, 147, 19).
edge(129, 112, 32).
edge(86, 52, 36).
edge(59, 164, 30).
edge(26, 0, 36).
edge(23, 48, 1).
edge(151, 69, 36).
edge(121, 61, 32).
edge(7, 72, 31).
edge(160, 111, 17).
edge(148, 171, 9).
edge(79, 72, 38).
edge(80, 77, 19).
edge(42, 162, 37).
edge(74, 136, 36).
edge(62, 31, 36).
edge(7, 33, 17).
edge(147, 145, 18).
edge(91, 136, 35).
edge(71, 55, 17).
edge(19, 3, 19).
edge(55, 101, 38).
edge(74, 14, 10).
edge(152, 172, 16).
edge(143, 112, 24).
edge(2, 170, 17).
edge(63, 109, 14).
edge(31, 42, 6).
edge(62, 146, 25).
edge(136, 16, 3).
edge(28, 142, 6).
edge(125, 157, 27).
edge(67, 16, 26).
edge(106, 15, 30).
edge(30, 171, 5).
edge(123, 49, 37).
edge(106, 112, 24).
edge(69, 120, 3).
edge(116, 24, 2).
edge(37, 96, 23).
edge(123, 163, 9).
edge(110, 28, 24).
edge(139, 95, 19).
edge(9, 35, 8).
edge(171, 75, 33).
edge(103, 26, 33).
edge(159, 144, 11).
edge(50, 108, 11).
edge(56, 174, 22).
edge(169, 14, 6).
edge(162, 129, 38).
edge(37, 13, 17).
edge(127, 81, 38).
edge(172, 149, 25).
edge(87, 59, 31).
edge(133, 58, 1).
edge(24, 167, 34).
edge(68, 48, 26).
edge(62, 122, 11).
edge(5, 157, 9).
edge(66, 30, 31).
edge(112, 131, 22).
edge(1, 130, 25).
edge(160, 143, 31).
edge(163, 5, 1).
edge(24, 124, 30).
edge(22, 78, 6).
edge(136, 127, 7).
edge(115, 21, 36).
edge(161, 149, 11).
edge(122, 138, 30).
edge(66, 122, 11).
edge(81, 170, 5).
edge(88, 67, 17).
edge(134, 159, 17).
edge(34, 156, 18).
edge(30, 109, 24).
edge(137, 123, 18).
edge(91, 112, 38).
edge(49, 165, 31).
edge(48, 144, 30).
edge(112, 39, 11).
edge(8, 123, 2).
edge(125, 110, 29).
edge(81, 156, 23).
edge(123, 108, 24).
edge(91, 64, 3).
edge(73, 81, 11).
edge(65, 163, 29).
edge(3, 18, 28).
edge(161, 113, 26).
edge(13, 29, 22).
edge(171, 151, 18).
edge(163, 138, 2).
edge(172, 83, 9).
edge(136, 82, 18).
edge(53, 79, 16).
edge(109, 152, 4).
edge(145, 1, 4).
edge(160, 72, 32).
edge(139, 165, 1).
edge(91, 48, 5).
edge(19, 104, 14).
edge(87, 158, 32).
edge(155, 4, 28).
edge(7, 5, 30).
edge(36, 135, 10).
edge(174, 83, 31).
edge(8, 166, 14).
edge(80, 76, 10).
edge(46, 49, 39).
edge(103, 85, 6).
edge(67, 107, 26).
edge(157, 124, 2).
edge(175, 147, 11).
edge(98, 13, 22).
edge(141, 115, 13).
edge(113, 116, 38).
edge(68, 111, 17).
edge(146, 57, 8).
edge(68, 114, 33).
edge(138, 110, 36).
edge(134, 90, 17).
edge(99, 81, 11).
edge(8, 9, 31).
edge(46, 21, 25).
edge(3, 87, 3).
edge(146, 62, 1).
edge(124, 98, 6).
edge(4, 90, 29).
edge(120, 50, 27).
edge(91, 57, 20).
edge(149, 10, 9).
edge(71, 85, 11).
edge(88, 36, 17).
edge(153, 135, 23).
edge(158, 14, 35).
edge(60, 166, 11).
edge(102, 52, 2).
edge(76, 33, 33).
edge(103, 65, 6).
edge(148, 175, 37).
edge(109, 35, 39).
edge(135, 108, 33).
edge(161, 127, 2).
edge(62, 68, 39).
edge(13, 37, 11).
edge(156, 23, 23).
edge(27, 82, 16).
edge(119, 139, 39).
edge(89, 101, 34).
edge(14, 47, 2).
edge(79, 126, 24).
edge(158, 16, 3).
edge(157, 171, 35).
edge(164, 69, 7).
edge(28, 126, 21).
edge(148, 143, 2).
edge(175, 29, 37).
edge(131, 32, 18).
edge(130, 23, 17).
edge(71, 34, 3).
edge(95, 2, 32).
edge(21, 113, 32).
edge(102, 164, 13).
edge(72, 6, 27).
edge(105, 176, 10).
edge(141, 33, 32).
edge(164, 92, 24).
edge(68, 41, 21).
edge(105, 156, 27).
edge(76, 67, 18).
edge(139, 47, 27).
edge(15, 127, 18).
edge(45, 122, 13).
edge(13, 134, 17).
edge(24, 74, 20).
edge(172, 29, 31).
edge(36, 90, 7).
edge(22, 150, 8).
edge(174, 156, 4).
edge(84, 124, 27).
edge(44, 3, 2).
edge(152, 127, 18).
edge(87, 82, 19).
edge(18, 154, 36).
edge(25, 141, 33).
edge(38, 147, 32).
edge(88, 114, 1).
edge(23, 168, 36).
edge(106, 150, 24).
edge(161, 56, 37).
edge(101, 33, 21).
edge(35, 163, 28).
edge(160, 121, 8).
edge(160, 158, 13).
edge(43, 152, 34).
edge(145, 174, 13).
edge(128, 57, 11).
edge(150, 87, 19).
edge(110, 64, 9).
edge(149, 168, 37).
edge(76, 40, 29).
edge(90, 41, 33).
edge(37, 124, 20).
edge(1, 59, 32).
edge(161, 167, 34).
edge(122, 143, 29).
edge(117, 31, 9).
edge(96, 57, 37).
edge(154, 22, 2).
edge(64, 159, 30).
edge(28, 56, 22).
edge(152, 84, 12).
edge(142, 9, 14).
edge(39, 141, 31).
edge(89, 109, 21).
edge(97, 40, 13).
edge(115, 145, 23).
edge(74, 118, 9).
edge(160, 28, 15).
edge(34, 136, 2).
edge(104, 8, 6).
edge(113, 142, 36).
edge(10, 153, 21).
edge(142, 14, 16).
edge(73, 39, 2).
edge(12, 141, 29).
edge(58, 97, 1).
edge(38, 74, 3).
edge(161, 42, 32).
edge(12, 96, 32).
edge(61, 109, 20).
edge(55, 58, 21).
edge(30, 81, 23).
edge(60, 5, 30).
edge(93, 46, 39).
edge(124, 25, 21).
edge(1, 43, 37).
edge(114, 110, 37).
edge(154, 67, 32).
edge(132, 116, 15).
edge(172, 86, 9).
edge(14, 146, 37).
edge(170, 169, 37).
edge(107, 55, 14).
edge(175, 28, 19).
edge(6, 90, 9).
edge(3, 30, 25).
edge(115, 69, 18).
edge(85, 100, 24).
edge(137, 32, 33).
edge(144, 17, 38).
edge(120, 175, 27).
edge(160, 126, 29).
edge(110, 87, 4).
edge(9, 7, 1).
edge(53, 106, 6).
edge(94, 120, 20).
edge(17, 26, 4).
edge(165, 104, 9).
edge(78, 62, 19).
edge(169, 43, 6).
edge(174, 154, 14).
edge(58, 120, 2).
edge(165, 47, 19).
edge(16, 131, 24).
edge(52, 34, 10).
edge(56, 50, 16).
edge(77, 82, 7).
edge(149, 176, 22).
edge(98, 29, 35).
edge(107, 80, 18).
edge(168, 155, 4).
edge(101, 78, 2).
edge(162, 35, 3).
edge(20, 17, 23).
edge(112, 60, 35).
edge(16, 104, 1).
edge(112, 67, 33).
edge(51, 96, 25).
edge(38, 95, 32).
edge(74, 23, 17).
edge(105, 175, 3).
edge(6, 145, 23).
edge(40, 66, 22).
edge(97, 3, 16).
edge(38, 153, 39).
edge(176, 109, 27).
edge(81, 100, 20).
edge(52, 8, 18).
edge(7, 34, 1).
edge(80, 14, 28).
edge(156, 58, 34).
edge(117, 58, 13).
edge(87, 105, 25).
edge(173, 147, 35).
edge(89, 30, 8).
edge(76, 137, 34).
edge(49, 51, 38).
edge(7, 22, 6).
edge(14, 153, 11).
edge(73, 115, 24).
edge(32, 28, 13).
edge(76, 115, 17).
edge(82, 39, 1).
edge(100, 73, 35).
edge(109, 80, 23).
edge(17, 76, 8).
edge(74, 143, 1).
edge(21, 13, 18).
edge(12, 110, 4).
edge(31, 117, 14).
edge(88, 143, 27).
edge(116, 151, 17).
edge(1, 94, 34).
edge(61, 173, 34).
edge(134, 104, 6).
edge(2, 108, 9).
edge(142, 12, 8).
edge(12, 160, 21).
edge(175, 97, 26).
edge(120, 10, 36).
edge(1, 6, 31).
edge(152, 1, 21).
edge(167, 127, 9).
edge(113, 77, 35).
edge(165, 87, 15).
edge(137, 50, 9).
edge(26, 108, 17).
edge(46, 83, 29).
edge(132, 33, 23).
edge(67, 77, 3).
edge(134, 67, 4).
edge(81, 162, 38).
edge(112, 100, 29).
edge(105, 127, 10).
edge(12, 116, 30).
edge(11, 51, 35).
edge(81, 67, 33).
edge(155, 28, 20).
edge(61, 133, 30).
edge(43, 154, 12).
edge(152, 65, 10).
edge(51, 173, 36).
edge(137, 97, 30).
edge(41, 22, 22).
edge(71, 86, 26).
edge(11, 114, 22).
edge(31, 53, 28).
edge(55, 162, 39).
edge(87, 162, 14).
edge(126, 168, 2).
edge(161, 93, 31).
edge(25, 7, 1).
edge(63, 138, 30).
edge(39, 162, 28).
edge(103, 176, 10).
edge(27, 144, 16).
edge(120, 44, 12).
edge(101, 20, 7).
edge(140, 99, 34).
edge(91, 71, 12).
edge(22, 132, 23).
edge(19, 31, 26).
edge(138, 111, 31).
edge(0, 139, 35).
edge(15, 80, 14).
edge(85, 104, 28).
edge(76, 2, 29).
edge(57, 141, 5).
edge(108, 161, 12).
edge(153, 110, 8).
edge(22, 145, 26).
edge(78, 117, 14).
edge(45, 147, 5).
edge(82, 137, 31).
edge(12, 17, 21).
edge(20, 57, 14).
edge(175, 174, 11).
edge(83, 117, 28).
edge(165, 101, 19).
edge(121, 105, 15).
edge(43, 169, 32).
edge(89, 0, 16).
edge(65, 103, 5).
edge(5, 6, 13).
edge(110, 32, 20).
edge(49, 31, 29).
edge(135, 103, 33).
edge(41, 164, 26).
edge(50, 166, 8).
edge(60, 95, 30).
edge(108, 141, 16).
edge(31, 177, 6).
edge(108, 147, 19).
edge(145, 170, 34).
edge(74, 139, 3).
edge(42, 52, 31).
edge(61, 23, 30).
edge(56, 132, 5).
edge(53, 69, 31).
edge(125, 117, 15).
edge(99, 52, 29).
edge(168, 111, 12).
edge(95, 61, 12).
edge(18, 120, 6).
edge(16, 36, 20).
edge(25, 49, 10).
edge(152, 57, 21).
edge(77, 7, 16).
edge(49, 44, 17).
edge(90, 54, 38).
edge(116, 59, 35).
edge(120, 45, 25).
edge(32, 110, 1).
edge(53, 38, 23).
edge(60, 154, 21).
edge(81, 137, 22).
edge(99, 95, 4).
edge(16, 33, 3).
edge(47, 141, 6).
edge(54, 40, 12).
edge(121, 89, 27).
edge(21, 39, 13).
edge(26, 67, 28).
edge(62, 172, 35).
edge(25, 80, 3).
edge(21, 136, 24).
edge(112, 150, 1).
edge(27, 24, 13).
edge(122, 117, 39).
edge(150, 144, 1).
edge(129, 27, 25).
edge(174, 22, 7).
edge(139, 100, 18).
edge(1, 30, 17).
edge(7, 18, 28).
edge(132, 11, 14).
edge(94, 160, 25).
edge(162, 167, 30).
edge(42, 94, 32).
edge(107, 23, 20).
edge(164, 62, 11).
edge(89, 110, 7).
edge(5, 75, 3).
edge(91, 26, 38).
edge(169, 124, 33).
edge(69, 136, 15).
edge(11, 117, 10).
edge(121, 55, 23).
edge(110, 52, 1).
edge(168, 87, 18).
edge(36, 68, 16).
edge(105, 119, 30).
edge(135, 175, 7).
edge(129, 55, 22).
edge(38, 13, 1).
edge(124, 126, 5).
edge(0, 36, 15).
edge(0, 29, 10).
edge(173, 59, 8).
edge(141, 48, 10).
edge(118, 124, 34).
edge(113, 35, 25).
edge(56, 67, 25).
edge(21, 40, 3).
edge(26, 97, 6).
edge(168, 25, 6).
edge(2, 51, 15).
edge(119, 105, 28).
edge(124, 37, 10).
edge(89, 128, 16).
edge(58, 144, 16).
edge(131, 152, 35).
edge(29, 28, 3).
edge(143, 32, 9).
edge(142, 77, 24).
edge(173, 87, 16).
edge(67, 106, 14).
edge(116, 45, 11).
edge(83, 71, 3).
edge(39, 5, 31).
edge(68, 18, 10).
edge(82, 23, 36).
edge(46, 78, 28).
edge(105, 109, 3).
edge(21, 164, 6).
edge(26, 140, 11).
edge(5, 29, 13).
edge(5, 151, 18).
edge(24, 3, 39).
edge(52, 75, 9).
edge(97, 160, 10).
edge(114, 111, 38).
edge(145, 111, 6).
edge(58, 17, 34).
edge(74, 36, 11).
edge(55, 163, 6).
edge(141, 155, 25).
edge(105, 155, 4).
edge(108, 128, 3).
edge(154, 134, 38).
edge(56, 125, 12).
edge(172, 20, 16).
edge(123, 42, 5).
edge(11, 59, 24).
edge(4, 125, 6).
edge(92, 82, 7).
edge(68, 146, 9).
edge(59, 136, 15).
edge(12, 58, 18).
edge(136, 75, 37).
edge(81, 148, 11).
edge(40, 117, 26).
edge(75, 157, 8).
edge(1, 116, 4).
edge(139, 64, 18).
edge(55, 29, 24).
edge(49, 81, 10).
edge(35, 12, 35).
edge(126, 150, 25).
edge(16, 141, 12).
edge(123, 47, 7).
edge(51, 17, 36).
edge(53, 45, 25).
edge(101, 4, 9).
edge(73, 5, 16).
edge(98, 140, 20).
edge(137, 93, 6).
edge(51, 166, 34).
edge(121, 7, 10).
edge(71, 43, 36).
edge(105, 1, 2).
edge(91, 114, 34).
edge(175, 95, 22).
edge(2, 94, 16).
edge(50, 176, 39).
edge(58, 56, 39).
edge(76, 113, 22).
edge(2, 156, 15).
edge(53, 6, 14).
edge(77, 15, 28).
edge(50, 90, 7).
edge(109, 84, 5).
edge(61, 40, 33).
edge(99, 34, 23).
edge(42, 170, 36).
edge(59, 62, 7).
edge(172, 50, 14).
edge(35, 152, 38).
edge(101, 148, 13).
edge(3, 16, 8).
edge(80, 131, 7).
edge(27, 8, 29).
edge(87, 142, 9).
edge(170, 112, 36).
edge(166, 71, 15).
edge(39, 130, 4).
edge(1, 87, 21).
edge(32, 21, 23).
edge(64, 119, 34).
edge(78, 99, 1).
edge(39, 17, 31).
edge(89, 56, 14).
edge(105, 15, 8).
edge(94, 139, 22).
edge(37, 134, 37).
edge(145, 15, 21).
edge(15, 53, 12).
edge(3, 170, 10).
edge(77, 109, 12).
edge(26, 50, 9).
edge(113, 91, 15).
edge(143, 125, 33).
edge(2, 59, 9).
edge(104, 23, 29).
edge(28, 176, 10).
edge(87, 51, 2).
edge(52, 43, 29).
edge(18, 93, 18).
edge(99, 108, 13).
edge(49, 15, 26).
edge(107, 45, 26).
edge(130, 53, 16).
edge(154, 147, 30).
edge(10, 39, 24).
edge(170, 17, 3).
edge(109, 47, 33).
edge(123, 150, 30).
edge(62, 168, 4).
edge(117, 121, 36).
edge(74, 48, 32).
edge(16, 70, 39).
edge(64, 37, 27).
edge(111, 124, 30).
edge(68, 31, 2).
edge(83, 47, 12).
edge(48, 65, 36).
edge(106, 85, 24).
edge(109, 76, 13).
edge(64, 32, 20).
edge(8, 141, 22).
edge(23, 51, 10).
edge(115, 162, 30).
edge(103, 83, 1).
edge(135, 92, 10).
edge(150, 167, 16).
edge(170, 51, 22).
edge(34, 94, 25).
edge(136, 36, 25).
edge(24, 125, 26).
edge(101, 65, 23).
edge(169, 62, 10).
edge(117, 173, 38).
edge(17, 130, 5).
edge(35, 100, 4).
edge(154, 176, 1).
edge(128, 158, 26).
edge(98, 36, 35).
edge(55, 149, 27).
edge(155, 111, 13).
edge(169, 85, 5).
edge(73, 144, 24).
edge(142, 26, 13).
edge(126, 100, 36).
edge(124, 51, 1).
edge(113, 78, 20).
edge(114, 68, 37).
edge(84, 50, 28).
edge(159, 42, 33).
edge(138, 168, 20).
edge(148, 147, 34).
edge(93, 78, 21).
edge(30, 132, 4).
edge(122, 95, 38).
edge(172, 38, 6).
edge(151, 41, 36).
edge(138, 161, 21).
edge(1, 128, 33).
edge(15, 22, 27).
edge(107, 27, 33).
edge(38, 82, 15).
edge(104, 63, 27).
edge(99, 113, 33).
edge(117, 28, 19).
edge(55, 144, 16).
edge(11, 176, 26).
edge(115, 82, 13).
edge(142, 69, 37).
edge(26, 55, 15).
edge(118, 24, 23).
edge(37, 150, 14).
edge(155, 51, 29).
edge(53, 109, 37).
edge(176, 96, 3).
edge(43, 161, 20).
edge(96, 103, 6).
edge(25, 90, 34).
edge(89, 18, 16).
edge(53, 169, 30).
edge(105, 129, 7).
edge(163, 121, 7).
edge(138, 105, 23).
edge(167, 102, 23).
edge(137, 145, 11).
edge(63, 134, 16).
edge(111, 163, 32).
edge(31, 131, 31).
edge(25, 85, 10).
edge(119, 63, 9).
edge(71, 161, 16).
edge(120, 48, 17).
edge(98, 144, 37).
edge(110, 104, 21).
edge(100, 138, 26).
edge(101, 88, 15).
edge(90, 156, 13).
edge(110, 62, 31).
edge(54, 143, 21).
edge(62, 12, 32).
edge(25, 116, 34).
edge(94, 97, 17).
edge(126, 174, 9).
edge(110, 12, 7).
edge(90, 168, 16).
edge(157, 49, 3).
edge(10, 38, 38).
edge(0, 64, 19).
edge(68, 51, 3).
edge(23, 26, 17).
edge(142, 28, 27).
edge(137, 47, 17).
edge(95, 113, 1).
edge(159, 94, 35).
edge(15, 82, 39).
edge(51, 15, 3).
edge(31, 165, 36).
edge(164, 140, 33).
edge(72, 3, 6).
edge(115, 101, 9).
edge(16, 176, 4).
edge(28, 117, 31).
edge(167, 97, 16).
edge(151, 117, 33).
edge(136, 27, 21).
edge(40, 107, 12).
edge(40, 123, 14).
edge(156, 81, 4).
edge(51, 95, 14).
edge(49, 32, 33).
edge(140, 79, 17).
edge(106, 33, 9).
edge(155, 38, 15).
edge(51, 6, 17).
edge(112, 21, 30).
edge(93, 94, 1).
edge(120, 99, 2).
edge(8, 83, 30).
edge(71, 142, 2).
edge(42, 146, 30).
edge(101, 55, 12).
edge(57, 31, 10).
edge(7, 166, 11).
edge(118, 139, 8).
edge(144, 121, 10).
edge(166, 103, 13).
edge(3, 177, 29).
edge(70, 38, 2).
edge(131, 56, 38).
edge(140, 27, 5).
edge(170, 56, 22).
edge(138, 151, 2).
edge(14, 34, 36).
edge(157, 89, 19).
edge(31, 7, 21).
edge(48, 8, 27).
edge(113, 162, 32).
edge(76, 63, 2).
edge(113, 76, 4).
edge(125, 129, 15).
edge(104, 86, 33).
edge(141, 78, 15).
edge(142, 101, 13).
edge(177, 104, 2).
edge(49, 86, 12).
edge(94, 76, 10).
edge(160, 129, 13).
edge(81, 121, 20).
edge(56, 175, 12).
edge(120, 169, 14).
edge(159, 37, 24).
edge(63, 11, 23).
edge(42, 111, 37).
edge(28, 75, 32).
edge(16, 4, 14).
edge(150, 84, 16).
edge(166, 92, 1).
edge(9, 63, 35).
edge(175, 18, 9).
edge(54, 61, 22).
edge(38, 68, 7).
edge(156, 62, 2).
edge(103, 28, 30).
edge(60, 138, 4).
edge(65, 25, 11).
edge(1, 124, 26).
edge(27, 3, 35).
edge(17, 3, 15).
edge(57, 170, 10).
edge(100, 169, 34).
edge(174, 133, 7).
edge(121, 167, 25).
edge(161, 13, 9).
edge(79, 51, 37).
edge(81, 79, 39).
edge(114, 17, 30).
edge(148, 102, 29).
edge(27, 118, 20).
edge(159, 25, 39).
edge(175, 114, 15).
edge(122, 133, 3).
edge(19, 161, 5).
edge(30, 95, 19).
edge(85, 111, 17).
edge(145, 140, 3).
edge(84, 92, 8).
edge(135, 116, 20).
edge(163, 119, 17).
edge(136, 144, 36).
edge(161, 81, 16).
edge(42, 123, 29).
edge(26, 73, 18).
edge(4, 108, 15).
edge(144, 130, 13).
edge(93, 138, 30).
edge(31, 65, 18).
edge(73, 131, 21).
edge(19, 5, 28).
edge(170, 104, 26).
edge(7, 121, 21).
edge(44, 170, 24).
edge(38, 15, 5).
edge(54, 46, 2).
edge(103, 23, 3).
edge(143, 162, 32).
edge(2, 18, 24).
edge(43, 107, 12).
edge(87, 7, 34).
edge(111, 140, 36).
edge(39, 42, 16).
edge(86, 146, 30).
edge(154, 141, 33).
edge(141, 65, 17).
edge(85, 149, 37).
edge(57, 76, 36).
edge(88, 159, 32).
edge(119, 73, 26).
edge(169, 73, 16).
edge(7, 17, 38).
edge(96, 85, 18).
edge(72, 52, 22).
edge(84, 49, 12).
edge(115, 50, 36).
edge(162, 91, 18).
edge(85, 150, 24).
edge(1, 4, 33).
edge(20, 101, 32).
edge(157, 135, 4).
edge(110, 156, 25).
edge(1, 145, 22).
edge(154, 23, 27).
edge(98, 32, 20).
edge(80, 7, 37).
edge(12, 27, 35).
edge(99, 78, 4).
edge(14, 74, 19).
edge(52, 83, 11).
edge(50, 54, 36).
edge(83, 107, 31).
edge(41, 53, 33).
edge(95, 126, 37).
edge(107, 94, 6).
edge(80, 42, 36).
edge(111, 175, 26).
edge(136, 52, 36).
edge(12, 81, 35).
edge(136, 71, 39).
edge(28, 47, 37).
edge(158, 138, 15).
edge(55, 70, 3).
edge(17, 54, 32).
edge(25, 156, 22).
edge(67, 20, 6).
edge(169, 63, 24).
edge(35, 38, 4).
edge(71, 96, 3).
edge(69, 13, 34).
edge(24, 80, 5).
edge(134, 5, 3).
edge(140, 136, 29).
edge(23, 32, 22).
edge(140, 133, 26).
edge(29, 175, 21).
edge(9, 28, 26).
edge(85, 50, 35).
edge(127, 5, 27).
edge(79, 99, 31).
edge(18, 49, 5).
edge(16, 114, 34).
edge(76, 79, 19).
edge(5, 44, 19).
edge(110, 173, 38).
edge(166, 58, 8).
edge(71, 133, 34).
edge(6, 87, 7).
edge(20, 110, 2).
edge(158, 30, 3).
edge(79, 141, 15).
edge(36, 0, 15).
edge(76, 156, 9).
edge(95, 155, 25).
edge(163, 145, 14).
edge(54, 66, 31).
edge(101, 100, 23).
edge(74, 89, 1).
edge(172, 10, 4).
edge(98, 30, 25).
edge(111, 98, 34).
edge(16, 6, 28).
edge(169, 143, 32).
edge(34, 96, 6).
edge(142, 71, 29).
edge(101, 71, 13).
edge(7, 102, 29).
edge(54, 5, 30).
edge(48, 149, 15).
edge(153, 173, 27).
edge(148, 54, 16).
edge(17, 122, 38).
edge(133, 75, 2).
edge(158, 5, 4).
edge(13, 49, 14).
edge(138, 63, 1).
edge(99, 152, 14).
edge(138, 72, 25).
edge(176, 79, 39).
edge(130, 72, 7).
edge(138, 148, 17).
edge(20, 108, 30).
edge(171, 85, 9).
edge(105, 132, 8).
edge(5, 17, 15).
edge(55, 154, 19).
edge(51, 31, 18).
edge(63, 43, 33).
edge(129, 59, 32).
edge(13, 172, 36).
edge(48, 14, 1).
edge(65, 102, 36).
edge(42, 119, 32).
edge(53, 68, 18).
edge(1, 125, 26).
edge(17, 81, 31).
edge(69, 12, 31).
edge(31, 73, 7).
edge(43, 109, 37).
edge(22, 157, 9).
edge(39, 164, 29).
edge(114, 141, 5).
edge(144, 0, 29).
edge(76, 157, 28).
edge(28, 143, 29).
edge(54, 10, 4).
edge(172, 151, 27).
edge(115, 168, 34).
edge(112, 91, 15).
edge(106, 129, 12).
edge(23, 164, 32).
edge(108, 82, 2).
edge(155, 73, 20).
edge(170, 177, 29).
edge(65, 134, 35).
edge(47, 135, 23).
edge(92, 6, 14).
edge(174, 72, 34).
edge(45, 176, 8).
edge(141, 14, 17).
edge(152, 80, 5).
edge(117, 165, 29).
edge(54, 9, 10).
edge(19, 23, 29).
edge(6, 11, 20).
edge(87, 77, 26).
edge(10, 12, 26).
edge(109, 40, 7).
edge(85, 136, 32).
edge(28, 135, 25).
edge(155, 54, 12).
edge(8, 147, 36).
edge(159, 50, 11).
edge(85, 114, 17).
edge(85, 126, 21).
edge(132, 84, 9).
edge(33, 27, 19).
edge(80, 83, 22).
edge(76, 174, 26).
edge(99, 27, 20).
edge(23, 49, 30).
edge(147, 94, 12).
edge(81, 104, 26).
edge(140, 20, 33).
edge(87, 48, 38).
edge(105, 70, 12).
edge(160, 167, 14).
edge(55, 31, 34).
edge(52, 97, 34).
edge(25, 57, 20).
edge(85, 89, 2).
edge(87, 124, 32).
edge(82, 169, 15).
edge(9, 46, 4).
edge(154, 37, 38).
edge(82, 44, 10).
edge(11, 44, 23).
edge(6, 96, 3).
edge(41, 60, 14).
edge(133, 42, 10).
edge(32, 95, 27).
edge(25, 144, 37).
edge(123, 43, 18).
edge(94, 20, 17).
edge(19, 4, 22).
edge(126, 89, 4).
edge(103, 151, 28).
edge(81, 152, 38).
edge(169, 160, 23).
edge(104, 152, 27).
edge(103, 50, 17).
edge(84, 31, 39).
edge(43, 165, 31).
edge(15, 100, 22).
edge(101, 86, 9).
edge(24, 152, 35).
edge(32, 156, 9).
edge(157, 74, 10).
edge(15, 66, 18).
edge(48, 21, 17).
edge(25, 89, 21).
edge(59, 32, 21).
edge(160, 30, 11).
edge(130, 10, 16).
edge(151, 88, 22).
edge(22, 155, 12).
edge(123, 59, 11).
edge(47, 161, 21).
edge(58, 70, 23).
edge(77, 8, 14).
edge(132, 108, 32).
edge(73, 135, 24).
edge(68, 159, 2).
edge(115, 60, 2).
edge(63, 29, 22).
edge(25, 145, 19).
edge(3, 13, 30).
edge(124, 26, 29).
edge(77, 37, 10).
edge(151, 3, 25).
edge(62, 54, 32).
edge(172, 123, 6).
edge(149, 88, 7).
edge(121, 162, 18).
edge(165, 139, 18).
edge(66, 77, 9).
edge(155, 11, 3).
edge(145, 100, 31).
edge(46, 10, 5).
edge(43, 125, 6).
edge(33, 88, 5).
edge(139, 2, 22).
edge(124, 131, 24).
edge(109, 17, 13).
edge(63, 115, 2).
edge(49, 21, 35).
edge(105, 11, 35).
edge(100, 95, 8).
edge(103, 173, 1).
edge(149, 57, 7).
edge(177, 169, 23).
edge(85, 84, 16).
edge(173, 13, 26).
edge(135, 36, 10).
edge(111, 34, 20).
edge(85, 2, 32).
edge(78, 68, 1).
edge(73, 122, 8).
edge(66, 15, 19).
edge(157, 17, 38).
edge(106, 29, 29).
edge(16, 34, 31).
edge(129, 25, 28).
edge(123, 102, 22).
edge(160, 156, 2).
edge(172, 176, 4).
edge(30, 14, 14).
edge(125, 76, 7).
edge(168, 58, 33).
edge(122, 140, 27).
edge(12, 68, 29).
edge(125, 19, 3).
edge(132, 39, 15).
edge(117, 78, 32).
edge(128, 83, 20).
edge(30, 22, 37).
edge(83, 113, 16).
edge(138, 32, 27).
edge(145, 133, 9).
edge(131, 177, 6).
edge(29, 48, 22).
edge(14, 32, 18).
edge(83, 103, 16).
edge(175, 82, 38).
edge(165, 142, 3).
edge(42, 58, 28).
edge(34, 128, 14).
edge(33, 14, 39).
edge(25, 20, 20).
edge(111, 155, 3).
edge(9, 158, 23).
edge(60, 92, 24).
edge(128, 114, 23).
edge(140, 170, 27).
edge(176, 75, 6).
edge(61, 58, 18).
edge(114, 125, 5).
edge(166, 130, 23).
edge(138, 33, 3).
edge(134, 70, 9).
edge(87, 50, 8).
edge(41, 24, 16).
edge(140, 93, 18).
edge(84, 142, 31).
edge(86, 151, 11).
edge(68, 46, 18).
edge(19, 166, 39).
edge(21, 33, 2).
edge(90, 101, 26).
edge(151, 1, 21).
edge(167, 79, 31).
edge(175, 160, 35).
edge(168, 67, 31).
edge(39, 96, 20).
edge(115, 131, 13).
edge(91, 124, 19).
edge(132, 61, 4).
edge(7, 124, 31).
edge(4, 51, 25).
edge(76, 125, 26).
edge(163, 8, 15).
edge(4, 122, 33).
edge(7, 136, 7).
edge(124, 49, 10).
edge(66, 133, 24).
edge(151, 51, 38).
edge(55, 140, 36).
edge(135, 177, 28).
edge(50, 8, 12).
edge(9, 105, 12).
edge(71, 36, 17).
edge(164, 153, 6).
edge(50, 65, 35).
edge(51, 135, 30).
edge(177, 31, 27).
edge(113, 74, 33).
edge(118, 130, 39).
edge(137, 166, 1).
edge(35, 13, 8).
edge(174, 106, 21).
edge(46, 40, 31).
edge(171, 63, 22).
edge(92, 69, 34).
edge(149, 75, 15).
edge(176, 78, 9).
edge(149, 66, 1).
edge(124, 43, 36).
edge(143, 91, 11).
edge(95, 5, 24).
edge(3, 15, 21).
edge(118, 89, 2).
edge(73, 146, 2).
edge(116, 100, 32).
edge(23, 80, 26).
edge(30, 86, 5).
edge(116, 153, 26).
edge(44, 145, 33).
edge(168, 153, 36).
edge(143, 98, 14).
edge(176, 104, 7).
edge(110, 21, 14).
edge(108, 175, 17).
edge(95, 49, 19).
edge(64, 34, 13).
edge(67, 131, 20).
edge(51, 62, 2).
edge(66, 61, 33).
edge(5, 120, 20).
edge(157, 144, 35).
edge(137, 8, 20).
edge(22, 98, 37).
edge(77, 72, 18).
edge(97, 100, 28).
edge(60, 44, 39).
edge(2, 168, 1).
edge(125, 163, 17).
edge(0, 70, 15).
edge(150, 31, 31).
edge(24, 84, 18).
edge(110, 168, 1).
edge(64, 175, 3).
edge(115, 166, 11).
edge(3, 175, 28).
edge(63, 42, 24).
edge(25, 160, 35).
edge(64, 4, 13).
edge(98, 55, 38).
edge(45, 131, 17).
edge(24, 39, 31).
edge(125, 146, 33).
edge(58, 153, 35).
edge(110, 95, 2).
edge(118, 58, 38).
edge(22, 18, 8).
edge(61, 174, 30).
edge(112, 45, 22).
edge(14, 119, 37).
edge(75, 21, 25).
edge(7, 92, 6).
edge(65, 41, 25).
edge(98, 8, 33).
edge(62, 160, 29).
edge(92, 122, 37).
edge(40, 68, 27).
edge(144, 108, 6).
edge(159, 134, 37).
edge(59, 149, 13).
edge(84, 122, 37).
edge(97, 23, 35).
edge(125, 164, 11).
edge(17, 132, 28).
edge(88, 90, 8).
edge(113, 45, 39).
edge(118, 162, 19).
edge(124, 3, 6).
edge(20, 161, 23).
edge(161, 27, 33).
edge(138, 106, 28).
edge(65, 64, 31).
edge(163, 54, 19).
edge(28, 132, 38).
edge(145, 156, 39).
edge(77, 10, 32).
edge(63, 153, 8).
edge(74, 68, 22).
edge(49, 119, 38).
edge(93, 50, 22).
edge(89, 61, 9).
edge(95, 118, 23).
edge(127, 132, 37).
edge(177, 27, 14).
edge(152, 116, 39).
edge(25, 98, 9).
edge(123, 90, 12).
edge(101, 44, 24).
edge(61, 28, 16).
edge(123, 125, 35).
edge(109, 139, 18).
edge(91, 72, 12).
edge(13, 6, 5).
edge(1, 133, 7).
edge(170, 76, 36).
edge(10, 77, 17).
edge(175, 48, 11).
edge(117, 100, 20).
edge(82, 26, 14).
edge(78, 30, 15).
edge(110, 96, 38).
edge(39, 61, 36).
edge(115, 156, 18).
edge(44, 92, 12).
edge(14, 9, 5).
edge(115, 80, 29).
edge(62, 161, 19).
edge(67, 117, 18).
edge(157, 66, 31).
edge(70, 51, 31).
edge(77, 124, 28).
edge(174, 84, 10).
edge(73, 77, 10).
edge(4, 9, 11).
edge(127, 125, 38).
edge(173, 23, 2).
edge(58, 54, 6).
edge(32, 146, 13).
edge(18, 77, 36).
edge(61, 30, 9).
edge(4, 37, 11).
edge(122, 145, 31).
edge(42, 68, 36).
edge(147, 160, 33).
edge(66, 76, 10).
edge(90, 60, 16).
edge(151, 35, 4).
edge(162, 158, 31).
edge(157, 13, 39).
edge(98, 127, 15).
edge(34, 15, 26).
edge(11, 63, 36).
edge(29, 133, 4).
edge(148, 23, 37).
edge(81, 47, 8).
edge(17, 127, 30).
edge(135, 56, 2).
edge(20, 1, 33).
edge(79, 77, 31).
edge(13, 123, 38).
edge(139, 63, 20).
edge(42, 69, 4).
edge(122, 7, 27).
edge(107, 17, 17).
edge(66, 26, 39).
edge(49, 63, 26).
edge(150, 94, 31).
edge(76, 64, 22).
edge(30, 35, 22).
edge(159, 97, 6).
edge(146, 105, 33).
edge(40, 65, 4).
edge(41, 136, 20).
edge(8, 77, 38).
edge(90, 83, 11).
edge(174, 29, 21).
edge(27, 160, 31).
edge(58, 86, 16).
edge(170, 151, 20).
edge(168, 77, 10).
edge(161, 22, 23).
edge(58, 164, 26).
edge(133, 158, 33).
edge(102, 97, 10).
edge(94, 17, 28).
edge(89, 136, 1).
edge(89, 171, 13).
edge(135, 139, 7).
edge(78, 147, 10).
edge(42, 23, 21).
edge(48, 12, 28).
edge(73, 175, 22).
edge(112, 148, 14).
edge(68, 83, 14).
edge(159, 129, 4).
edge(122, 71, 36).
edge(134, 128, 11).
edge(35, 173, 36).
edge(151, 110, 24).
edge(82, 162, 39).
edge(141, 97, 16).
edge(143, 96, 19).
edge(162, 121, 31).
edge(84, 107, 26).
edge(94, 31, 38).
edge(166, 49, 22).
edge(132, 7, 18).
edge(121, 59, 4).
edge(84, 94, 15).
edge(81, 131, 30).
edge(59, 146, 13).
edge(147, 102, 24).
edge(161, 50, 37).
edge(155, 44, 21).
edge(45, 172, 14).
edge(18, 149, 6).
edge(60, 128, 31).
edge(81, 76, 28).
edge(126, 41, 19).
edge(41, 33, 15).
edge(60, 114, 31).
edge(9, 58, 8).
edge(171, 128, 20).
edge(76, 151, 21).
edge(43, 62, 35).
edge(26, 112, 18).
edge(76, 86, 18).
edge(143, 37, 31).
edge(99, 79, 15).
edge(147, 57, 13).
edge(82, 24, 30).
edge(79, 89, 33).
edge(38, 70, 6).
edge(157, 159, 2).
edge(60, 13, 38).
edge(23, 171, 18).
edge(128, 165, 32).
edge(77, 172, 7).
edge(172, 16, 10).
edge(130, 9, 4).
edge(33, 50, 8).
edge(156, 64, 13).
edge(173, 67, 16).
edge(45, 68, 1).
edge(36, 14, 28).
edge(42, 20, 14).
edge(164, 81, 26).
edge(16, 175, 4).
edge(89, 143, 28).
edge(86, 31, 22).
edge(54, 171, 39).
edge(1, 32, 34).
edge(160, 39, 3).
edge(122, 69, 26).
edge(37, 106, 38).
edge(82, 102, 17).
edge(162, 46, 10).
edge(3, 34, 3).
edge(135, 162, 22).
edge(130, 106, 8).
edge(0, 44, 17).
edge(88, 98, 35).
edge(138, 144, 16).
edge(45, 158, 8).
edge(119, 125, 10).
edge(29, 24, 17).
edge(101, 136, 29).
edge(120, 124, 18).
edge(103, 52, 13).
edge(164, 106, 12).
edge(65, 61, 4).
edge(22, 118, 9).
edge(68, 78, 12).
edge(2, 149, 15).
edge(94, 67, 15).
edge(135, 114, 12).
edge(149, 170, 25).
edge(86, 41, 20).
edge(38, 30, 32).
edge(16, 108, 6).
edge(99, 5, 18).
edge(2, 67, 17).
edge(82, 55, 24).
edge(42, 2, 6).
edge(52, 100, 9).
edge(82, 13, 17).
edge(7, 19, 3).
edge(131, 125, 4).
edge(166, 96, 23).
edge(173, 63, 31).
edge(12, 82, 6).
edge(59, 174, 26).
edge(46, 48, 28).
edge(99, 147, 12).
edge(71, 8, 21).
edge(152, 170, 32).
edge(109, 71, 36).
edge(0, 142, 17).
edge(53, 167, 11).
edge(105, 125, 3).
edge(41, 30, 30).
edge(23, 72, 13).
edge(162, 25, 9).
edge(133, 127, 38).
edge(4, 163, 24).
edge(69, 33, 35).
edge(25, 140, 6).
edge(144, 165, 31).
edge(174, 146, 3).
edge(146, 167, 6).
edge(99, 174, 35).
edge(100, 26, 29).
edge(5, 161, 8).
edge(156, 79, 26).
edge(98, 156, 26).
edge(54, 27, 35).
edge(120, 112, 18).
edge(121, 8, 27).
edge(48, 177, 30).
edge(93, 87, 34).
edge(138, 17, 6).
edge(3, 92, 17).
edge(148, 98, 1).
edge(47, 75, 34).
edge(76, 16, 17).
edge(20, 37, 8).
edge(114, 75, 10).
edge(73, 23, 39).
edge(7, 24, 16).
edge(26, 25, 29).
edge(93, 128, 18).
edge(2, 150, 29).
edge(142, 165, 16).
edge(96, 159, 8).
edge(29, 83, 30).
edge(163, 82, 4).
edge(175, 54, 35).
edge(154, 68, 38).
edge(163, 32, 36).
edge(147, 56, 33).
edge(128, 17, 7).
edge(5, 67, 16).
edge(129, 47, 18).
edge(75, 7, 21).
edge(138, 101, 26).
edge(105, 147, 21).
edge(176, 177, 28).
edge(129, 58, 22).
edge(92, 145, 33).
edge(43, 121, 24).
edge(77, 99, 7).
edge(101, 48, 36).
edge(111, 53, 24).
edge(135, 28, 28).
edge(152, 11, 16).
edge(16, 1, 35).
edge(131, 93, 20).
edge(8, 122, 3).
edge(171, 64, 16).
edge(55, 150, 17).
edge(167, 29, 27).
edge(44, 74, 6).
edge(92, 35, 39).
edge(94, 51, 9).
edge(136, 155, 16).
edge(173, 125, 23).
edge(9, 147, 2).
edge(3, 110, 2).
edge(28, 23, 24).
edge(76, 114, 25).
edge(8, 144, 14).
edge(132, 58, 10).
edge(168, 114, 3).
edge(154, 160, 12).
edge(2, 158, 13).
edge(70, 110, 20).
edge(136, 163, 22).
edge(125, 69, 39).
edge(15, 124, 6).
edge(56, 135, 6).
edge(140, 7, 31).
edge(30, 54, 27).
edge(31, 13, 39).
edge(26, 144, 15).
edge(1, 17, 16).
edge(126, 55, 22).
edge(14, 109, 3).
edge(54, 124, 9).
edge(84, 129, 11).
edge(106, 78, 26).
edge(80, 170, 5).
edge(170, 106, 2).
edge(46, 8, 19).
edge(46, 87, 21).
edge(60, 81, 32).
edge(17, 85, 5).
edge(17, 4, 8).
edge(32, 90, 35).
edge(137, 84, 11).
edge(24, 166, 3).
edge(66, 99, 11).
edge(155, 52, 37).
edge(102, 149, 17).
edge(124, 24, 4).
edge(117, 98, 39).
edge(92, 2, 3).
edge(174, 79, 30).
edge(123, 107, 38).
edge(42, 17, 27).
edge(47, 140, 13).
edge(78, 47, 23).
edge(164, 176, 28).
edge(110, 122, 38).
edge(20, 163, 5).
edge(169, 80, 7).
edge(74, 99, 35).
edge(177, 23, 13).
edge(147, 40, 34).
edge(50, 156, 34).
edge(24, 34, 37).
edge(98, 17, 10).
edge(14, 118, 12).
edge(76, 109, 26).
edge(62, 98, 2).
edge(153, 14, 6).
edge(177, 130, 31).
edge(77, 155, 34).
edge(24, 106, 18).
edge(43, 137, 9).
edge(47, 170, 33).
edge(32, 149, 5).
edge(82, 35, 19).
edge(144, 143, 13).
edge(115, 84, 31).
edge(175, 86, 25).
edge(101, 113, 2).
edge(150, 47, 20).
edge(95, 65, 15).
edge(154, 9, 9).
edge(6, 15, 28).
edge(124, 94, 13).
edge(21, 19, 24).
edge(166, 89, 23).
edge(154, 140, 14).
edge(47, 8, 34).
edge(145, 34, 27).
edge(32, 40, 15).
edge(64, 79, 8).
edge(64, 160, 38).
edge(138, 159, 29).
edge(134, 6, 30).
edge(70, 176, 6).
edge(103, 32, 23).
edge(162, 57, 24).
edge(130, 131, 27).
edge(30, 129, 28).
edge(163, 172, 23).
edge(100, 117, 10).
edge(121, 143, 31).
edge(165, 48, 35).
edge(78, 177, 20).
edge(153, 147, 27).
edge(94, 130, 27).
edge(44, 26, 29).
edge(61, 33, 2).
edge(20, 170, 9).
edge(147, 158, 18).
edge(58, 130, 29).
edge(14, 88, 21).
edge(55, 102, 32).
edge(85, 99, 2).
edge(70, 114, 12).
edge(152, 67, 35).
edge(58, 78, 18).
edge(72, 62, 20).
edge(89, 134, 19).
edge(65, 67, 34).
edge(28, 1, 20).
edge(120, 62, 12).
edge(177, 168, 8).
edge(47, 168, 2).
edge(149, 137, 32).
edge(160, 117, 37).
edge(162, 13, 15).
edge(162, 9, 35).
edge(136, 42, 22).
edge(23, 77, 31).
edge(130, 34, 39).
edge(121, 67, 19).
edge(154, 104, 17).
edge(163, 31, 2).
edge(82, 130, 35).
edge(176, 99, 27).
edge(143, 121, 22).
edge(67, 65, 38).
edge(128, 10, 6).
edge(1, 57, 31).
edge(63, 53, 39).
edge(31, 41, 29).
edge(134, 30, 15).
edge(162, 148, 34).
edge(29, 139, 2).
edge(129, 64, 30).
edge(103, 39, 6).
edge(115, 107, 35).
edge(154, 3, 17).
edge(6, 131, 39).
edge(62, 82, 36).
edge(169, 41, 5).
edge(163, 9, 33).
edge(127, 131, 32).
edge(46, 124, 16).
edge(137, 5, 37).
edge(128, 113, 22).
edge(102, 166, 21).
edge(68, 36, 2).
edge(90, 131, 11).
edge(169, 20, 25).
edge(92, 59, 30).
edge(22, 54, 21).
edge(162, 153, 24).
edge(114, 51, 2).
edge(162, 16, 35).
edge(51, 127, 2).
edge(112, 3, 11).
edge(11, 145, 39).
edge(41, 176, 17).
edge(6, 17, 11).
edge(124, 31, 32).
edge(17, 79, 8).
edge(68, 108, 28).
edge(70, 34, 2).
edge(35, 19, 14).
edge(128, 149, 8).
edge(29, 32, 10).
edge(12, 71, 1).
edge(168, 91, 20).
edge(142, 10, 30).
edge(138, 99, 24).
edge(159, 87, 3).
edge(99, 2, 6).
edge(151, 164, 21).
edge(87, 67, 13).
edge(52, 119, 33).
edge(139, 59, 26).
edge(10, 19, 7).
edge(119, 123, 4).
edge(161, 51, 3).
edge(149, 67, 1).
edge(88, 43, 34).
edge(32, 111, 17).
edge(100, 20, 13).
edge(23, 95, 24).
edge(63, 56, 7).
edge(76, 48, 18).
edge(42, 93, 32).
edge(49, 76, 11).
edge(123, 169, 4).
edge(24, 134, 8).
edge(28, 166, 21).
edge(94, 22, 19).
edge(83, 158, 1).
edge(37, 165, 9).
edge(161, 73, 21).
edge(64, 143, 21).
edge(173, 94, 8).
edge(156, 112, 18).
edge(82, 69, 6).
edge(72, 136, 23).
edge(103, 82, 17).
edge(95, 31, 11).
edge(101, 87, 11).
edge(50, 138, 6).
edge(159, 47, 7).
edge(133, 35, 16).
edge(46, 126, 6).
edge(43, 110, 13).
edge(152, 68, 37).
edge(174, 108, 5).
edge(38, 80, 28).
edge(112, 59, 10).
edge(118, 109, 14).
edge(63, 90, 27).
edge(151, 18, 10).
edge(105, 6, 15).
edge(42, 148, 9).
edge(2, 120, 5).
edge(43, 175, 22).
edge(116, 9, 7).
edge(27, 131, 31).
edge(72, 126, 39).
edge(177, 41, 14).
edge(146, 163, 10).
edge(123, 7, 4).
edge(55, 17, 28).
edge(2, 153, 12).
edge(126, 77, 24).
edge(53, 158, 36).
edge(105, 160, 29).
edge(53, 146, 16).
edge(167, 145, 32).
edge(27, 40, 12).
edge(154, 90, 4).
edge(166, 106, 30).
edge(19, 171, 33).
edge(27, 139, 2).
edge(79, 22, 6).
edge(84, 32, 21).
edge(98, 33, 20).
edge(110, 111, 24).
edge(169, 42, 3).
edge(84, 126, 15).
edge(45, 159, 17).
edge(77, 45, 33).
edge(101, 175, 31).
edge(151, 145, 17).
edge(129, 77, 31).
edge(132, 31, 24).
edge(83, 44, 13).
edge(121, 142, 15).
edge(30, 114, 35).
edge(121, 26, 28).
edge(149, 115, 27).
edge(167, 61, 23).
edge(102, 87, 20).
edge(74, 72, 12).
edge(54, 127, 24).
edge(166, 3, 37).
edge(16, 163, 22).
edge(57, 110, 21).
edge(172, 143, 13).
edge(167, 169, 18).
edge(125, 61, 35).
edge(56, 139, 14).
edge(94, 26, 6).
edge(142, 70, 7).
edge(49, 146, 11).
edge(67, 14, 39).
edge(41, 128, 35).
edge(50, 98, 17).
edge(67, 78, 5).
edge(121, 23, 17).
edge(65, 107, 6).
edge(22, 61, 23).
edge(6, 65, 15).
edge(29, 97, 7).
edge(174, 94, 13).
edge(48, 165, 23).
edge(69, 143, 2).
edge(55, 126, 6).
edge(81, 65, 7).
edge(119, 107, 17).
edge(71, 118, 36).
edge(157, 69, 39).
edge(37, 128, 4).
edge(103, 84, 22).
edge(39, 75, 8).
edge(150, 65, 5).
edge(119, 140, 15).
edge(32, 12, 15).
edge(10, 144, 26).
edge(29, 129, 32).
edge(27, 30, 4).
edge(159, 143, 23).
edge(168, 141, 8).
edge(75, 62, 13).
edge(119, 163, 12).
edge(4, 175, 1).
edge(122, 56, 17).
edge(115, 6, 39).
edge(92, 19, 14).
edge(156, 116, 22).
edge(63, 17, 16).
edge(172, 120, 11).
edge(61, 145, 17).
edge(87, 40, 27).
edge(3, 4, 3).
edge(62, 39, 28).
edge(107, 73, 36).
edge(45, 6, 13).
edge(113, 43, 38).
edge(86, 158, 18).
edge(24, 94, 30).
edge(169, 157, 19).
edge(165, 144, 37).
edge(44, 118, 34).
edge(26, 166, 24).
edge(109, 19, 1).
edge(153, 88, 10).
edge(28, 120, 7).
edge(11, 58, 5).
edge(133, 38, 11).
edge(161, 32, 24).
edge(40, 165, 20).
edge(173, 5, 37).
edge(54, 15, 29).
edge(89, 33, 31).
edge(30, 164, 37).
edge(150, 139, 39).
edge(137, 42, 12).
edge(142, 176, 23).
edge(10, 59, 6).
edge(115, 102, 29).
edge(142, 43, 2).
edge(79, 43, 8).
edge(115, 175, 20).
edge(120, 75, 27).
edge(134, 167, 39).
edge(31, 157, 20).
edge(168, 102, 17).
edge(100, 97, 10).
edge(117, 14, 29).
edge(110, 46, 26).
edge(84, 63, 21).
edge(91, 78, 30).
edge(8, 37, 32).
edge(60, 153, 27).
edge(136, 108, 25).
edge(33, 167, 8).
edge(78, 102, 30).
edge(33, 91, 30).
edge(66, 69, 36).
edge(17, 14, 3).
edge(10, 105, 38).
edge(25, 21, 33).
edge(119, 86, 35).
edge(140, 82, 18).
edge(163, 165, 8).
edge(116, 92, 17).
edge(168, 171, 11).
edge(9, 69, 3).
edge(153, 172, 29).
edge(54, 6, 1).
edge(42, 141, 1).
edge(148, 47, 9).
edge(28, 25, 31).
edge(120, 116, 32).
edge(11, 16, 7).
edge(99, 74, 9).
edge(87, 106, 30).
edge(167, 89, 31).
edge(143, 115, 15).
edge(139, 133, 16).
edge(148, 37, 15).
edge(19, 135, 32).
edge(172, 61, 2).
edge(103, 150, 29).
edge(154, 96, 7).
edge(154, 48, 18).
edge(63, 81, 2).
edge(71, 48, 21).
edge(167, 55, 15).
edge(117, 95, 26).
edge(118, 149, 29).
edge(151, 36, 29).
edge(39, 35, 6).
edge(64, 125, 11).
edge(131, 67, 33).
edge(94, 65, 39).
edge(140, 77, 14).
edge(148, 57, 19).
edge(144, 73, 38).
edge(92, 29, 9).
edge(58, 62, 9).
edge(12, 125, 7).
edge(54, 107, 2).
edge(101, 161, 5).
edge(41, 153, 13).
edge(9, 152, 9).
edge(111, 174, 20).
edge(7, 117, 18).
edge(130, 6, 36).
edge(20, 69, 37).
edge(99, 172, 10).
edge(5, 73, 34).
edge(169, 47, 23).
edge(115, 88, 10).
edge(158, 66, 35).
edge(74, 151, 17).
edge(69, 63, 7).
edge(119, 44, 11).
edge(13, 65, 30).
edge(127, 38, 4).
edge(0, 31, 33).
edge(58, 132, 9).
edge(41, 140, 4).
edge(30, 84, 13).
edge(90, 81, 22).
edge(130, 75, 26).
edge(39, 67, 29).
edge(167, 41, 20).
edge(35, 46, 16).
edge(0, 140, 2).
edge(89, 85, 8).
edge(103, 16, 29).
edge(42, 166, 14).
edge(37, 54, 38).
edge(153, 17, 1).
edge(8, 85, 30).
edge(124, 93, 21).
edge(113, 64, 21).
edge(98, 71, 31).
edge(97, 129, 20).
edge(65, 174, 17).
edge(110, 175, 29).
edge(33, 169, 8).
edge(72, 27, 14).
edge(23, 128, 14).
edge(27, 138, 18).
edge(64, 115, 14).
edge(177, 64, 15).
edge(17, 177, 29).
edge(37, 111, 28).
edge(80, 43, 9).
edge(18, 78, 27).
edge(25, 106, 27).
edge(91, 37, 4).
edge(11, 89, 7).
edge(7, 9, 8).
edge(160, 63, 12).
edge(28, 24, 16).
edge(23, 112, 21).
edge(29, 165, 2).
edge(13, 122, 39).
edge(159, 53, 21).
edge(101, 121, 2).
edge(98, 38, 23).
edge(89, 77, 29).
edge(104, 88, 25).
edge(20, 52, 14).
edge(41, 15, 17).
edge(104, 21, 2).
edge(134, 64, 8).
edge(12, 65, 31).
edge(123, 60, 35).
edge(10, 5, 32).
edge(138, 152, 3).
edge(19, 174, 20).
edge(129, 107, 1).
edge(85, 33, 10).
edge(147, 55, 23).
edge(69, 121, 30).
edge(136, 4, 6).
edge(55, 133, 32).
edge(147, 51, 10).
edge(138, 123, 27).
edge(111, 172, 6).
edge(161, 123, 26).
edge(159, 128, 1).
edge(11, 64, 19).
edge(45, 153, 5).
edge(175, 172, 23).
edge(44, 70, 37).
edge(13, 158, 35).
edge(77, 103, 29).
edge(131, 86, 15).
edge(9, 44, 1).
edge(163, 85, 38).
edge(142, 39, 15).
edge(91, 5, 5).
edge(168, 0, 3).
edge(165, 82, 15).
edge(113, 84, 22).
edge(18, 12, 34).
edge(73, 85, 27).
edge(77, 88, 4).
edge(22, 104, 15).
edge(111, 160, 37).
edge(30, 76, 3).
edge(169, 100, 37).
edge(140, 25, 12).
edge(113, 85, 22).
edge(35, 37, 19).
edge(23, 104, 20).
edge(79, 69, 33).
edge(132, 45, 25).
edge(130, 62, 26).
edge(126, 162, 36).
edge(91, 7, 38).
edge(45, 49, 4).
edge(67, 25, 27).
edge(157, 91, 27).
edge(53, 35, 20).
edge(169, 45, 18).
edge(102, 146, 3).
edge(84, 60, 37).
edge(117, 29, 27).
edge(138, 92, 24).
edge(82, 119, 33).
edge(138, 94, 37).
edge(143, 73, 14).
edge(107, 127, 26).
edge(78, 142, 25).
edge(31, 67, 26).
edge(41, 12, 25).
edge(114, 101, 24).
edge(109, 172, 15).
edge(102, 160, 31).
edge(129, 138, 33).
edge(145, 12, 30).
edge(58, 136, 37).
edge(78, 80, 29).
edge(149, 156, 30).
edge(176, 84, 36).
edge(138, 86, 22).
edge(126, 119, 38).
edge(59, 24, 26).
edge(31, 106, 19).
edge(78, 23, 15).
edge(173, 138, 3).
edge(162, 34, 26).
edge(133, 1, 9).
edge(176, 110, 26).
edge(81, 126, 30).
edge(40, 8, 20).
edge(143, 83, 35).
edge(152, 162, 37).
edge(125, 25, 30).
edge(41, 10, 38).
edge(62, 163, 30).
edge(156, 0, 7).
edge(26, 123, 1).
edge(152, 156, 16).
edge(114, 56, 20).
edge(75, 100, 25).
edge(172, 13, 5).
edge(143, 26, 29).
edge(162, 152, 6).
edge(70, 87, 34).
edge(166, 20, 27).
edge(101, 103, 35).
edge(5, 105, 1).
edge(128, 18, 31).
edge(109, 6, 16).
edge(12, 53, 39).
edge(62, 86, 28).
edge(137, 17, 31).
edge(146, 103, 36).
edge(31, 148, 39).
edge(28, 84, 14).
edge(120, 131, 22).
edge(109, 153, 38).
edge(84, 89, 23).
edge(97, 85, 10).
edge(77, 116, 30).
edge(17, 91, 17).
edge(28, 113, 21).
edge(37, 147, 1).
edge(163, 174, 16).
edge(95, 63, 5).
edge(148, 93, 25).
edge(136, 91, 38).
edge(138, 96, 36).
edge(29, 30, 7).
edge(169, 79, 22).
edge(40, 172, 36).
edge(152, 7, 21).
edge(32, 177, 31).
edge(31, 93, 26).
edge(4, 11, 20).
edge(114, 117, 29).
edge(157, 82, 4).
edge(59, 95, 18).
edge(144, 111, 21).
edge(143, 168, 25).
edge(48, 73, 15).
edge(35, 77, 3).
edge(136, 70, 4).
edge(39, 56, 37).
edge(22, 174, 14).
edge(148, 164, 33).
edge(50, 100, 2).
edge(28, 118, 23).
edge(44, 171, 34).
edge(165, 158, 14).
edge(127, 112, 38).
edge(120, 170, 23).
edge(9, 27, 25).
edge(156, 8, 6).
edge(167, 70, 23).
edge(107, 67, 15).
edge(145, 175, 37).
edge(146, 166, 29).
edge(55, 62, 1).
edge(95, 163, 22).
edge(77, 105, 3).
edge(19, 11, 14).
edge(65, 72, 29).
edge(175, 37, 8).
edge(66, 44, 5).
edge(5, 141, 39).
edge(68, 69, 5).
edge(64, 31, 33).
edge(126, 117, 6).
edge(88, 104, 15).
edge(70, 55, 26).
edge(71, 138, 4).
edge(168, 117, 14).
edge(61, 121, 26).
edge(145, 40, 31).
edge(125, 90, 28).
edge(54, 44, 23).
edge(176, 126, 28).
edge(12, 24, 15).
edge(84, 62, 11).
edge(37, 1, 24).
edge(95, 25, 1).
edge(33, 82, 20).
edge(59, 48, 10).
edge(169, 19, 25).
edge(38, 113, 26).
edge(132, 173, 21).
edge(70, 9, 15).
edge(95, 69, 11).
edge(11, 86, 34).
edge(96, 97, 19).
edge(100, 107, 30).
edge(140, 159, 17).
edge(38, 26, 5).
edge(148, 71, 4).
edge(49, 65, 18).
edge(33, 99, 38).
edge(50, 103, 10).
edge(97, 83, 14).
edge(30, 9, 37).
edge(52, 133, 30).
edge(161, 122, 10).
edge(3, 114, 38).
edge(60, 156, 11).
edge(141, 148, 10).
edge(35, 174, 30).
edge(113, 69, 12).
edge(49, 69, 19).
edge(129, 149, 1).
edge(117, 118, 8).
edge(139, 149, 9).
edge(91, 1, 3).
edge(104, 154, 31).
edge(88, 95, 29).
edge(4, 43, 32).
edge(173, 110, 16).
edge(2, 171, 1).
edge(160, 59, 32).
edge(88, 78, 1).
edge(95, 57, 8).
edge(50, 67, 20).
edge(116, 136, 12).
edge(14, 165, 19).
edge(21, 172, 26).
edge(141, 136, 38).
edge(23, 147, 5).
edge(149, 116, 30).
edge(128, 106, 8).
edge(171, 102, 15).
edge(170, 113, 32).
edge(107, 8, 8).
edge(96, 18, 22).
edge(88, 20, 9).
edge(173, 166, 38).
edge(85, 34, 31).
edge(134, 24, 34).
edge(115, 14, 30).
edge(35, 131, 39).
edge(16, 35, 16).
edge(78, 5, 3).
edge(68, 120, 35).
edge(67, 80, 15).
edge(31, 28, 13).
edge(41, 107, 39).
edge(79, 175, 27).
edge(4, 156, 30).
edge(49, 138, 18).
edge(34, 148, 9).
edge(153, 117, 36).
edge(112, 93, 7).
edge(108, 23, 3).
edge(132, 112, 35).
edge(142, 136, 23).
edge(8, 3, 13).
edge(47, 32, 25).
edge(130, 25, 26).
edge(8, 164, 6).
edge(20, 94, 14).
edge(132, 147, 28).
edge(56, 104, 30).
edge(148, 114, 25).
edge(176, 154, 36).
edge(126, 30, 19).
edge(103, 89, 19).
edge(154, 82, 5).
edge(36, 97, 19).
edge(85, 78, 14).
edge(79, 164, 24).
edge(176, 132, 3).
edge(170, 13, 19).
edge(62, 26, 22).
edge(152, 58, 28).
edge(125, 118, 14).
edge(171, 44, 20).
edge(2, 47, 17).
edge(49, 169, 34).
edge(76, 50, 4).
edge(65, 62, 35).
edge(51, 87, 29).
edge(107, 155, 16).
edge(117, 126, 21).
edge(177, 70, 39).
edge(142, 141, 19).
edge(35, 5, 38).
edge(51, 52, 22).
edge(102, 115, 37).
edge(92, 26, 33).
edge(90, 146, 7).
edge(168, 37, 22).
edge(18, 84, 32).
edge(73, 21, 20).
edge(120, 61, 17).
edge(161, 16, 1).
edge(70, 75, 17).
edge(54, 4, 18).
edge(145, 62, 7).
edge(83, 41, 36).
edge(59, 36, 35).
edge(37, 4, 16).
edge(110, 66, 23).
edge(112, 83, 19).
edge(115, 39, 27).
edge(11, 157, 4).
edge(168, 63, 39).
edge(176, 28, 17).
edge(153, 177, 29).
edge(96, 131, 38).
edge(86, 163, 28).
edge(160, 148, 22).
edge(38, 170, 16).
edge(174, 0, 17).
edge(85, 172, 36).
edge(134, 112, 1).
edge(103, 145, 23).
edge(21, 99, 33).
edge(48, 25, 10).
edge(50, 127, 15).
edge(60, 24, 31).
edge(105, 22, 33).
edge(70, 99, 21).
edge(47, 148, 8).
edge(111, 38, 37).
edge(173, 96, 28).
edge(142, 154, 2).
edge(131, 3, 21).
edge(24, 18, 3).
edge(0, 34, 3).
edge(158, 156, 3).
edge(21, 159, 36).
edge(21, 90, 28).
edge(65, 106, 35).
edge(156, 155, 7).
edge(5, 168, 1).
edge(55, 116, 31).
edge(125, 48, 7).
edge(30, 159, 35).
edge(103, 75, 24).
edge(23, 96, 38).
edge(88, 62, 33).
edge(132, 164, 5).
edge(23, 65, 18).
edge(65, 141, 2).
edge(63, 30, 29).
edge(147, 123, 21).
edge(153, 22, 16).
edge(31, 83, 9).
edge(78, 14, 4).
edge(47, 107, 37).
edge(55, 39, 16).
edge(84, 79, 20).
edge(23, 27, 1).
edge(148, 91, 39).
edge(83, 119, 10).
edge(162, 44, 19).
edge(67, 177, 13).
edge(32, 115, 39).
edge(43, 163, 25).
edge(49, 60, 29).
edge(101, 118, 35).
edge(17, 21, 6).
edge(117, 17, 11).
edge(174, 34, 26).
edge(167, 0, 2).
edge(165, 88, 36).
edge(166, 0, 33).
edge(162, 56, 2).
edge(72, 175, 25).
edge(17, 15, 36).
edge(54, 29, 15).
edge(128, 33, 31).
edge(18, 166, 38).
edge(19, 59, 10).
edge(46, 111, 37).
edge(10, 149, 31).
edge(6, 117, 10).
edge(69, 36, 28).
edge(111, 110, 38).
edge(14, 173, 27).
edge(55, 47, 1).
edge(120, 96, 22).
edge(124, 45, 24).
edge(104, 91, 8).
edge(58, 171, 10).
edge(26, 132, 2).
edge(31, 49, 35).
edge(60, 35, 33).
edge(44, 79, 2).
edge(88, 164, 4).
edge(99, 47, 14).
edge(86, 18, 24).
edge(62, 27, 32).
edge(164, 134, 28).
edge(87, 148, 34).
edge(116, 42, 15).
edge(0, 174, 7).
edge(52, 14, 7).
edge(125, 15, 2).
edge(71, 112, 28).
edge(89, 115, 9).
edge(49, 132, 12).
edge(142, 130, 9).
edge(97, 90, 2).
edge(141, 45, 24).
edge(105, 171, 36).
edge(50, 80, 31).
edge(4, 61, 3).
edge(29, 15, 27).
edge(83, 64, 7).
edge(135, 149, 25).
edge(129, 96, 24).
edge(115, 76, 34).
edge(74, 94, 16).
edge(4, 97, 29).
edge(176, 9, 20).
edge(43, 36, 10).
edge(59, 96, 35).
edge(36, 67, 24).
edge(3, 63, 12).
edge(132, 6, 33).
edge(15, 32, 6).
edge(55, 99, 10).
edge(167, 136, 26).
edge(165, 74, 5).
edge(134, 86, 13).
edge(155, 61, 31).
edge(160, 150, 33).
edge(3, 124, 36).
edge(5, 40, 22).
edge(119, 141, 26).
edge(99, 91, 37).
edge(172, 163, 2).
edge(6, 8, 21).
edge(124, 46, 24).
edge(90, 141, 23).
edge(151, 176, 30).
edge(10, 136, 34).
edge(120, 66, 3).
edge(115, 61, 18).
edge(31, 80, 5).
edge(108, 74, 37).
edge(8, 106, 8).
edge(91, 85, 9).
edge(54, 142, 29).
edge(83, 78, 27).
edge(121, 24, 27).
edge(15, 150, 25).
edge(51, 0, 14).
edge(170, 67, 29).
edge(15, 107, 32).
edge(54, 112, 11).
edge(111, 64, 32).
edge(132, 21, 27).
edge(38, 168, 17).
edge(28, 78, 29).
edge(32, 130, 34).
edge(44, 34, 12).
edge(26, 78, 13).
edge(145, 161, 18).
edge(143, 155, 20).
edge(90, 29, 24).
edge(99, 83, 2).
edge(55, 51, 34).
edge(158, 171, 25).
edge(20, 35, 27).
edge(5, 89, 29).
edge(1, 34, 16).
edge(158, 124, 18).
edge(39, 147, 22).
edge(157, 151, 27).
edge(54, 141, 29).
edge(13, 113, 18).
edge(1, 68, 14).
edge(82, 91, 14).
edge(126, 109, 11).
edge(135, 17, 20).
edge(38, 101, 17).
edge(102, 26, 14).
edge(58, 80, 14).
edge(20, 167, 26).
edge(164, 168, 31).
edge(119, 79, 6).
edge(60, 143, 29).
edge(122, 58, 5).
edge(90, 3, 14).
edge(104, 12, 9).
edge(4, 6, 36).
edge(81, 88, 18).
edge(155, 169, 30).
edge(162, 61, 26).
edge(164, 21, 24).
edge(85, 38, 6).
edge(153, 146, 26).
edge(129, 171, 25).
edge(103, 9, 12).
edge(43, 104, 7).
edge(49, 67, 22).
edge(175, 7, 8).
edge(120, 57, 27).
edge(66, 95, 5).
edge(106, 55, 12).
edge(162, 143, 16).
edge(107, 31, 30).
edge(128, 108, 36).
edge(87, 5, 18).
edge(5, 97, 17).
edge(103, 80, 23).
edge(177, 149, 8).
edge(129, 101, 4).
edge(48, 38, 16).
edge(58, 166, 39).
edge(75, 116, 4).
edge(72, 157, 14).
edge(108, 155, 6).
edge(142, 150, 3).
edge(125, 37, 19).
edge(145, 70, 35).
edge(115, 127, 34).
edge(43, 29, 30).
edge(5, 106, 13).
edge(98, 173, 19).
edge(78, 153, 30).
edge(132, 103, 31).
edge(148, 126, 17).
edge(14, 147, 14).
edge(99, 97, 15).
edge(111, 141, 18).
edge(108, 99, 26).
edge(108, 162, 20).
edge(88, 75, 5).
edge(137, 6, 11).
edge(116, 15, 3).
edge(40, 138, 38).
edge(38, 49, 14).
edge(141, 69, 2).
edge(106, 105, 23).
edge(165, 56, 20).
edge(131, 8, 1).
edge(77, 134, 35).
edge(51, 99, 39).
edge(10, 82, 31).
edge(92, 25, 20).
edge(170, 137, 15).
edge(177, 132, 4).
edge(131, 167, 22).
edge(29, 101, 31).
edge(30, 68, 38).
edge(127, 44, 5).
edge(24, 105, 22).
edge(114, 121, 8).
edge(155, 172, 23).
edge(161, 33, 32).
edge(26, 37, 31).
edge(89, 126, 8).
edge(146, 141, 25).
edge(26, 90, 37).
edge(167, 84, 26).
edge(90, 15, 6).
edge(27, 50, 24).
edge(122, 151, 14).
edge(22, 28, 14).
edge(71, 91, 1).
edge(92, 33, 9).
edge(85, 160, 3).
edge(129, 100, 36).
edge(40, 23, 34).
edge(129, 108, 1).
edge(34, 69, 2).
edge(116, 126, 12).
edge(105, 57, 25).
edge(52, 117, 29).
edge(142, 7, 6).
edge(164, 65, 12).
edge(63, 136, 1).
edge(57, 122, 7).
edge(167, 38, 33).
edge(32, 107, 25).
edge(100, 57, 19).
edge(21, 142, 19).
edge(41, 56, 3).
edge(164, 149, 14).
edge(47, 105, 25).
edge(142, 172, 18).
edge(33, 140, 32).
edge(160, 83, 10).
edge(23, 153, 2).
edge(23, 88, 28).
edge(20, 67, 1).
edge(4, 174, 8).
edge(103, 115, 2).
edge(49, 167, 16).
edge(110, 37, 24).
edge(67, 1, 3).
edge(104, 43, 12).
edge(168, 120, 38).
edge(115, 151, 14).
edge(96, 122, 11).
edge(177, 119, 39).
edge(175, 108, 19).
edge(39, 176, 3).
edge(81, 35, 25).
edge(157, 78, 19).
edge(158, 88, 18).
edge(126, 84, 4).
edge(7, 126, 3).
edge(0, 27, 15).
edge(172, 93, 31).
edge(144, 95, 9).
edge(75, 105, 17).
edge(86, 119, 18).
edge(89, 28, 29).
edge(66, 157, 9).
edge(58, 139, 17).
edge(37, 24, 28).
edge(103, 93, 11).
edge(84, 176, 35).
edge(124, 59, 14).
edge(93, 28, 32).
edge(99, 17, 39).
edge(159, 127, 37).
edge(68, 130, 28).
edge(65, 80, 10).
edge(158, 161, 36).
edge(90, 94, 13).
edge(99, 86, 2).
edge(75, 101, 9).
edge(31, 71, 24).
edge(99, 133, 22).
edge(72, 80, 3).
edge(173, 15, 30).
edge(133, 175, 24).
edge(40, 80, 8).
edge(164, 156, 30).
edge(80, 134, 1).
edge(55, 46, 35).
edge(3, 46, 23).
edge(24, 175, 6).
edge(91, 28, 36).
edge(123, 56, 25).
edge(131, 115, 20).
edge(23, 115, 3).
edge(134, 77, 16).
edge(134, 174, 15).
edge(17, 64, 25).
edge(89, 66, 10).
edge(32, 38, 13).
edge(24, 72, 31).
edge(87, 58, 29).
edge(65, 101, 9).
edge(67, 75, 38).
edge(107, 161, 25).
edge(146, 75, 17).
edge(137, 19, 11).
edge(89, 6, 10).
edge(133, 67, 34).
edge(46, 76, 5).
edge(168, 24, 24).
edge(120, 65, 10).
edge(161, 140, 1).
edge(166, 100, 33).
edge(108, 116, 24).
edge(95, 82, 11).
edge(15, 119, 20).
edge(46, 141, 33).
edge(103, 7, 37).
edge(6, 41, 35).
edge(50, 121, 28).
edge(122, 25, 27).
edge(162, 177, 17).
edge(58, 61, 34).
edge(140, 24, 10).
edge(73, 114, 9).
edge(171, 134, 22).
edge(36, 104, 22).
edge(45, 102, 23).
edge(107, 129, 23).
edge(61, 123, 13).
edge(153, 169, 11).
edge(153, 10, 33).
edge(103, 54, 31).
edge(102, 81, 1).
edge(85, 133, 21).
edge(140, 35, 32).
edge(65, 160, 8).
edge(30, 122, 39).
edge(167, 50, 14).
edge(160, 84, 12).
edge(23, 106, 31).
edge(34, 177, 2).
edge(54, 137, 22).
edge(21, 74, 24).
edge(28, 127, 8).
edge(112, 117, 31).
edge(177, 144, 9).
edge(54, 72, 18).
edge(4, 3, 33).
edge(166, 97, 17).
edge(158, 176, 9).
edge(9, 162, 32).
edge(119, 99, 39).
edge(112, 41, 31).
edge(48, 6, 39).
edge(122, 13, 1).
edge(142, 3, 7).
edge(123, 14, 26).
edge(27, 146, 38).
edge(35, 45, 11).
edge(83, 105, 3).
edge(124, 67, 30).
edge(87, 123, 21).
edge(82, 25, 32).
edge(5, 36, 32).
edge(169, 155, 22).
edge(37, 144, 22).
edge(24, 23, 13).
edge(64, 81, 13).
edge(45, 169, 30).
edge(133, 62, 25).
edge(86, 57, 39).
edge(20, 3, 11).
edge(157, 50, 15).
edge(140, 65, 5).
edge(41, 149, 21).
edge(100, 101, 29).
edge(97, 55, 3).
edge(152, 135, 37).
edge(96, 138, 3).
edge(32, 65, 34).
edge(100, 38, 34).
edge(81, 160, 20).
edge(127, 176, 10).
edge(16, 139, 3).
edge(99, 24, 39).
edge(27, 35, 36).
edge(154, 73, 17).
edge(46, 72, 37).
edge(67, 5, 1).
edge(106, 75, 17).
edge(4, 145, 21).
edge(125, 138, 21).
edge(162, 5, 4).
edge(70, 18, 6).
edge(74, 171, 27).
edge(56, 15, 37).
edge(155, 79, 12).
edge(7, 134, 35).
edge(76, 62, 27).
edge(166, 33, 8).
edge(151, 100, 32).
edge(35, 138, 10).
edge(174, 124, 17).
edge(86, 56, 25).
edge(13, 133, 17).
edge(151, 113, 31).
edge(0, 111, 6).
edge(171, 101, 6).
edge(156, 171, 16).
edge(62, 80, 38).
edge(112, 18, 21).
edge(157, 172, 6).
edge(171, 143, 22).
edge(143, 175, 34).
edge(146, 94, 19).
edge(133, 99, 10).
edge(73, 132, 13).
edge(101, 6, 32).
edge(147, 127, 11).
edge(55, 164, 9).
edge(4, 40, 21).
edge(107, 136, 27).
edge(168, 152, 33).
edge(84, 23, 22).
edge(126, 22, 33).
edge(40, 149, 14).
edge(16, 143, 6).
edge(148, 117, 10).
edge(87, 120, 1).
edge(117, 18, 24).
edge(30, 173, 17).
edge(145, 166, 37).
edge(6, 173, 30).
edge(40, 33, 27).
edge(125, 89, 21).
edge(75, 77, 5).
edge(18, 90, 15).
edge(133, 157, 32).
edge(115, 134, 12).
edge(102, 152, 15).
edge(91, 50, 19).
edge(30, 123, 34).
edge(111, 152, 9).
edge(42, 121, 19).
edge(127, 56, 13).
edge(74, 131, 35).
edge(42, 80, 34).
edge(1, 28, 16).
edge(158, 147, 19).
edge(84, 115, 24).
edge(4, 79, 25).
edge(96, 105, 31).
edge(169, 107, 4).
edge(163, 16, 24).
edge(16, 106, 35).
edge(64, 74, 18).
edge(52, 31, 39).
edge(78, 12, 35).
edge(60, 46, 22).
edge(85, 170, 36).
edge(165, 123, 38).
edge(36, 25, 13).
edge(50, 126, 11).
edge(81, 158, 12).
edge(66, 60, 20).
edge(176, 137, 32).
edge(24, 87, 17).
edge(157, 36, 25).
edge(146, 43, 31).
edge(151, 103, 17).
edge(130, 71, 16).
edge(8, 53, 32).
edge(120, 149, 37).
edge(70, 81, 21).
edge(138, 115, 24).
edge(33, 96, 31).
edge(144, 172, 7).
edge(164, 54, 15).
edge(132, 0, 4).
edge(123, 24, 10).
edge(27, 67, 13).
edge(128, 60, 36).
edge(156, 5, 28).
edge(128, 135, 18).
edge(40, 125, 38).
edge(58, 133, 36).
edge(11, 6, 1).
edge(143, 174, 29).
edge(73, 49, 31).
edge(63, 32, 8).
edge(176, 130, 12).
edge(92, 126, 14).
edge(17, 62, 17).
edge(106, 36, 3).
edge(132, 166, 15).
edge(170, 43, 35).
edge(135, 136, 21).
edge(57, 112, 35).
edge(21, 155, 15).
edge(110, 137, 1).
edge(6, 42, 5).
edge(97, 11, 9).
edge(126, 127, 10).
edge(170, 92, 36).
edge(118, 68, 37).
edge(83, 108, 36).
edge(28, 13, 31).
edge(28, 119, 13).
edge(134, 84, 9).
edge(112, 11, 13).
edge(131, 20, 15).
edge(28, 102, 5).
edge(86, 112, 7).
edge(91, 40, 10).
edge(85, 90, 1).
edge(62, 129, 30).
edge(123, 85, 15).
edge(33, 2, 30).
edge(115, 52, 13).
edge(95, 72, 23).
edge(53, 7, 23).
edge(144, 84, 35).
edge(114, 57, 25).
edge(143, 126, 29).
edge(54, 64, 35).
edge(147, 134, 8).
edge(16, 76, 5).
edge(165, 69, 18).
edge(70, 39, 2).
edge(127, 32, 18).
edge(123, 66, 31).
edge(8, 111, 23).
edge(169, 98, 25).
edge(36, 37, 24).
edge(154, 71, 12).
edge(30, 168, 11).
edge(111, 134, 5).
edge(177, 125, 27).
edge(107, 101, 36).
edge(47, 54, 7).
edge(160, 16, 11).
edge(110, 88, 33).
edge(76, 69, 23).
edge(138, 174, 12).
edge(5, 14, 29).
edge(116, 2, 18).
edge(81, 90, 37).
edge(13, 92, 20).
edge(43, 55, 23).
edge(157, 140, 18).
edge(116, 48, 2).
edge(52, 129, 31).
edge(59, 127, 36).
edge(133, 78, 17).
edge(145, 88, 38).
edge(41, 138, 18).
edge(174, 88, 15).
edge(45, 74, 32).
edge(143, 64, 30).
edge(148, 110, 27).
edge(65, 153, 2).
edge(163, 68, 4).
edge(58, 26, 28).
edge(97, 15, 16).
edge(130, 96, 37).
edge(124, 150, 29).
edge(156, 25, 39).
edge(72, 149, 33).
edge(117, 105, 9).
edge(75, 120, 17).
edge(51, 169, 19).
edge(102, 34, 26).
edge(80, 118, 36).
edge(141, 156, 39).
edge(2, 131, 18).
edge(78, 63, 17).
edge(71, 69, 23).
edge(113, 7, 2).
edge(107, 105, 11).
edge(171, 123, 15).
edge(122, 16, 8).
edge(60, 82, 28).
edge(114, 176, 18).
edge(129, 28, 27).
edge(72, 57, 5).
edge(174, 60, 30).
edge(136, 142, 35).
edge(58, 38, 26).
edge(18, 95, 22).
edge(59, 65, 4).
edge(175, 26, 15).
edge(145, 46, 26).
edge(94, 34, 6).
edge(173, 89, 37).
edge(148, 109, 22).
edge(122, 101, 27).
edge(123, 118, 5).
edge(42, 134, 4).
edge(152, 138, 21).
edge(94, 125, 7).
edge(162, 116, 28).
edge(23, 16, 20).
edge(122, 47, 33).
edge(134, 53, 33).
edge(27, 58, 5).
edge(86, 155, 18).
edge(107, 116, 20).
edge(172, 45, 8).
edge(159, 57, 39).
edge(19, 108, 30).
edge(138, 16, 9).
edge(160, 170, 13).
edge(50, 114, 29).
edge(127, 149, 21).
edge(87, 26, 39).
edge(164, 72, 36).
edge(80, 25, 6).
edge(157, 173, 8).
edge(48, 16, 32).
edge(28, 74, 10).
edge(47, 173, 16).
edge(110, 149, 28).
edge(78, 135, 1).
edge(177, 171, 37).
edge(146, 42, 31).
edge(138, 83, 8).
edge(167, 159, 33).
edge(46, 144, 27).
edge(11, 50, 22).
edge(109, 42, 9).
edge(153, 61, 12).
edge(142, 49, 11).
edge(145, 99, 36).
edge(66, 145, 37).
edge(160, 34, 6).
edge(41, 18, 34).
edge(85, 4, 29).
edge(6, 49, 28).
edge(77, 0, 11).
edge(92, 32, 7).
edge(100, 28, 13).
edge(138, 64, 29).
edge(172, 103, 23).
edge(90, 175, 27).
edge(157, 62, 13).
edge(147, 113, 24).
edge(116, 167, 18).
edge(146, 2, 13).
edge(55, 9, 18).
edge(8, 30, 27).
edge(149, 129, 15).
edge(151, 121, 31).
edge(57, 68, 5).
edge(89, 118, 24).
edge(88, 66, 6).
edge(25, 55, 38).
edge(107, 21, 34).
edge(26, 167, 36).
edge(152, 112, 36).
edge(38, 126, 19).
edge(24, 83, 37).
edge(56, 122, 1).
edge(12, 175, 11).
edge(25, 95, 25).
edge(29, 17, 1).
edge(121, 25, 10).
edge(175, 103, 37).
edge(75, 98, 17).
edge(117, 125, 32).
edge(16, 107, 20).
edge(118, 67, 13).
edge(106, 48, 10).
edge(82, 36, 21).
edge(149, 55, 16).
edge(145, 134, 4).
edge(170, 157, 12).
edge(6, 27, 13).
edge(167, 144, 30).
edge(140, 127, 33).
edge(57, 168, 39).
edge(33, 7, 37).
edge(133, 135, 13).
edge(125, 132, 35).
edge(169, 53, 27).
edge(175, 136, 15).
edge(79, 75, 29).
edge(151, 139, 32).
edge(7, 51, 5).
edge(69, 87, 38).
edge(73, 66, 35).
edge(61, 88, 14).
edge(47, 85, 33).
edge(25, 136, 24).
edge(143, 65, 21).
edge(47, 73, 37).
edge(24, 132, 13).
edge(74, 22, 17).
edge(138, 154, 16).
edge(16, 152, 14).
edge(58, 42, 24).
edge(136, 132, 4).
edge(115, 160, 39).
edge(145, 160, 34).
edge(53, 176, 26).
edge(66, 82, 8).
edge(61, 134, 6).
edge(23, 131, 27).
edge(112, 98, 9).
edge(51, 140, 29).
edge(115, 57, 32).
edge(153, 171, 31).
edge(81, 166, 36).
edge(32, 63, 7).
edge(95, 156, 2).
edge(23, 67, 17).
edge(44, 151, 1).
edge(148, 112, 16).
edge(151, 107, 2).
edge(56, 166, 27).
edge(81, 31, 30).
edge(94, 164, 16).
edge(135, 69, 10).
edge(15, 47, 21).
edge(76, 131, 36).
edge(51, 19, 38).
edge(0, 103, 25).
edge(153, 149, 14).
edge(18, 158, 31).
edge(94, 0, 22).
edge(122, 68, 1).
edge(88, 168, 6).
edge(164, 38, 1).
edge(107, 52, 36).
edge(78, 55, 29).
edge(105, 134, 38).
edge(118, 45, 14).
edge(165, 35, 6).
edge(12, 51, 9).
edge(8, 119, 9).
edge(154, 167, 32).
edge(48, 139, 5).
edge(94, 68, 11).
edge(24, 108, 19).
edge(24, 146, 22).
edge(154, 152, 5).
edge(87, 107, 6).
edge(125, 161, 2).
edge(23, 108, 33).
edge(96, 6, 20).
edge(13, 100, 22).
edge(163, 135, 21).
edge(36, 69, 39).
edge(126, 157, 37).
edge(62, 156, 28).
edge(16, 151, 37).
edge(98, 50, 39).
edge(171, 177, 2).
edge(176, 83, 12).
edge(60, 78, 20).
edge(141, 128, 9).
edge(172, 165, 27).
edge(140, 115, 13).
edge(118, 4, 17).
edge(110, 139, 30).
edge(58, 11, 5).
edge(171, 174, 17).
edge(41, 134, 5).
edge(68, 171, 37).
edge(126, 83, 35).
edge(148, 45, 12).
edge(157, 22, 30).
edge(55, 48, 28).
edge(79, 144, 10).
edge(80, 122, 3).
edge(41, 143, 10).
edge(98, 41, 24).
edge(10, 132, 33).
edge(117, 154, 32).
edge(112, 68, 7).
edge(119, 42, 12).
edge(83, 18, 37).
edge(145, 25, 2).
edge(147, 149, 2).
edge(125, 152, 26).
edge(166, 119, 23).
edge(134, 85, 18).
edge(5, 177, 19).
edge(62, 169, 2).
edge(32, 166, 23).
edge(127, 165, 34).
edge(107, 128, 6).
edge(160, 155, 30).
edge(121, 114, 14).
edge(160, 20, 27).
edge(123, 57, 7).
edge(25, 113, 20).
edge(14, 142, 21).
edge(109, 175, 35).
edge(108, 7, 29).
edge(77, 39, 10).
edge(146, 152, 13).
edge(66, 54, 34).
edge(50, 120, 3).
edge(5, 174, 24).
edge(30, 150, 10).
edge(55, 175, 3).
edge(95, 106, 2).
edge(137, 75, 23).
edge(130, 42, 37).
edge(49, 96, 32).
edge(113, 54, 18).
edge(106, 2, 5).
edge(92, 114, 16).
edge(69, 38, 38).
edge(33, 174, 35).
edge(44, 120, 2).
edge(112, 105, 15).
edge(164, 112, 8).
edge(85, 55, 1).
edge(71, 114, 23).
edge(143, 15, 34).
edge(176, 87, 35).
edge(20, 89, 1).
edge(2, 40, 17).
edge(38, 132, 24).
edge(148, 142, 28).
edge(148, 137, 38).
edge(72, 63, 19).
edge(3, 44, 31).
edge(122, 112, 39).
edge(32, 161, 3).
edge(38, 20, 21).
edge(22, 45, 29).
edge(44, 135, 39).
edge(70, 134, 5).
edge(132, 137, 16).
edge(137, 85, 16).
edge(16, 61, 38).
edge(52, 17, 1).
edge(0, 112, 17).
edge(42, 129, 36).
edge(119, 28, 4).
edge(31, 12, 39).
edge(47, 64, 14).
edge(12, 102, 15).
edge(34, 12, 13).
edge(32, 154, 3).
edge(3, 23, 24).
edge(80, 151, 35).
edge(99, 165, 34).
edge(48, 59, 4).
edge(122, 80, 24).
edge(168, 43, 35).
edge(119, 172, 19).
edge(167, 168, 7).
edge(54, 121, 7).
edge(4, 115, 24).
edge(98, 142, 27).
edge(37, 75, 38).
edge(92, 44, 3).
edge(151, 112, 22).
edge(82, 109, 2).
edge(70, 152, 15).
edge(74, 155, 26).
edge(47, 25, 12).
edge(168, 66, 39).
edge(162, 75, 36).
edge(160, 119, 2).
edge(65, 124, 8).
edge(123, 113, 24).
edge(43, 78, 29).
edge(130, 119, 18).
edge(118, 94, 17).
edge(168, 51, 6).
edge(3, 71, 8).
edge(99, 90, 8).
edge(154, 33, 1).
edge(166, 136, 27).
edge(81, 159, 9).
edge(11, 128, 19).
edge(149, 125, 23).
edge(117, 44, 29).
edge(102, 41, 36).
edge(34, 130, 10).
edge(2, 64, 35).
edge(52, 24, 37).
edge(67, 82, 20).
edge(37, 62, 33).
edge(37, 107, 24).
edge(82, 72, 19).
edge(144, 57, 36).
edge(83, 162, 36).
edge(59, 89, 17).
edge(171, 32, 7).
edge(103, 49, 14).
edge(172, 43, 20).
edge(88, 13, 1).
edge(2, 73, 1).
edge(110, 171, 37).
edge(72, 16, 14).
edge(11, 48, 10).
edge(80, 176, 11).
edge(123, 82, 32).
edge(68, 123, 32).
edge(35, 96, 13).
edge(139, 32, 25).
edge(143, 12, 11).
edge(134, 22, 16).
edge(1, 100, 1).
edge(76, 164, 24).
edge(21, 27, 22).
edge(168, 27, 12).
edge(162, 175, 17).
edge(52, 173, 37).
edge(33, 52, 29).
edge(128, 154, 30).
edge(36, 63, 16).
edge(56, 96, 9).
edge(164, 30, 28).
edge(101, 47, 7).
edge(17, 95, 21).
edge(9, 45, 16).
edge(10, 91, 7).
edge(82, 62, 20).
edge(170, 4, 17).
edge(162, 102, 15).
edge(119, 153, 9).
edge(39, 146, 8).
edge(88, 64, 32).
edge(47, 177, 28).
edge(23, 118, 11).
edge(122, 154, 30).
edge(163, 88, 12).
edge(67, 116, 1).
edge(13, 40, 14).
edge(26, 74, 26).
edge(133, 24, 11).
edge(168, 121, 1).
edge(84, 77, 33).
edge(43, 148, 9).
edge(140, 74, 11).
edge(123, 68, 39).
edge(120, 11, 10).
edge(26, 62, 23).
edge(146, 7, 26).
edge(153, 68, 33).
edge(23, 19, 1).
edge(110, 130, 38).
edge(100, 60, 17).
edge(118, 22, 34).
edge(1, 65, 9).
edge(41, 166, 7).
edge(40, 81, 38).
edge(88, 22, 13).
edge(114, 91, 2).
edge(138, 173, 32).
edge(174, 36, 1).
edge(65, 173, 22).
edge(121, 0, 17).
edge(167, 49, 21).
edge(16, 159, 21).
edge(106, 56, 36).
edge(76, 111, 37).
edge(117, 64, 5).
edge(172, 80, 12).
edge(18, 85, 6).
edge(141, 16, 25).
edge(5, 49, 15).
edge(84, 118, 13).
edge(3, 120, 25).
edge(99, 6, 20).
edge(113, 173, 18).
edge(174, 28, 4).
edge(62, 90, 23).
edge(18, 33, 21).
edge(48, 118, 2).
edge(143, 34, 29).
edge(97, 8, 3).
edge(82, 70, 28).
edge(14, 113, 12).
edge(52, 157, 20).
edge(118, 43, 12).
edge(116, 118, 16).
edge(97, 66, 24).
edge(80, 45, 2).
edge(47, 84, 22).
edge(41, 37, 23).
edge(126, 71, 38).
edge(107, 174, 4).
edge(148, 128, 34).
edge(76, 124, 5).
edge(150, 54, 21).
edge(72, 39, 36).
edge(7, 145, 37).
edge(19, 177, 26).
edge(129, 15, 19).
edge(138, 117, 21).
edge(161, 83, 28).
edge(153, 163, 31).
edge(156, 19, 10).
edge(54, 34, 14).
edge(97, 135, 20).
edge(18, 147, 37).
edge(99, 14, 11).
edge(142, 36, 10).
edge(127, 129, 20).
edge(129, 95, 25).
edge(70, 173, 22).
edge(163, 107, 6).
edge(74, 53, 24).
edge(130, 100, 6).
edge(21, 35, 35).
edge(43, 80, 2).
edge(80, 81, 36).
edge(116, 110, 29).
edge(131, 31, 22).
edge(38, 31, 2).
edge(29, 170, 18).
edge(156, 21, 32).
edge(39, 30, 6).
edge(145, 30, 10).
edge(157, 33, 15).
edge(175, 113, 5).
edge(77, 90, 39).
edge(175, 41, 22).
edge(72, 112, 11).
edge(155, 80, 33).
edge(70, 97, 29).
edge(91, 155, 35).
edge(149, 98, 19).
edge(63, 171, 31).
edge(40, 126, 32).
edge(47, 28, 37).
edge(55, 96, 22).
edge(69, 154, 26).
edge(85, 77, 28).
edge(11, 55, 15).
edge(161, 64, 33).
edge(16, 46, 2).
edge(161, 111, 24).
edge(96, 162, 29).
edge(57, 87, 7).
edge(51, 98, 7).
edge(134, 25, 10).
edge(50, 82, 8).
edge(112, 44, 4).
edge(168, 81, 25).
edge(46, 19, 39).
edge(18, 122, 17).
edge(135, 126, 11).
edge(155, 96, 1).
edge(123, 32, 16).
edge(78, 116, 32).
edge(56, 4, 22).
edge(98, 96, 23).
edge(89, 113, 33).
edge(82, 154, 26).
edge(28, 3, 30).
edge(134, 168, 9).
edge(110, 102, 3).
edge(48, 52, 22).
edge(162, 157, 22).
edge(90, 66, 30).
edge(11, 177, 17).
edge(111, 43, 24).
edge(72, 24, 31).
edge(45, 168, 33).
edge(57, 153, 38).
edge(3, 56, 29).
edge(8, 137, 5).
edge(7, 71, 13).
edge(92, 73, 22).
edge(12, 138, 2).
edge(96, 70, 10).
edge(36, 122, 27).
edge(12, 41, 8).
edge(173, 167, 34).
edge(62, 114, 5).
edge(34, 13, 27).
edge(144, 3, 38).
edge(66, 79, 21).
edge(160, 7, 38).
edge(173, 108, 33).
edge(57, 140, 5).
edge(67, 21, 11).
edge(122, 35, 7).
edge(106, 13, 21).
edge(43, 24, 36).
edge(107, 148, 28).
edge(137, 20, 39).
edge(24, 67, 14).
edge(69, 5, 19).
edge(103, 94, 21).
edge(170, 159, 14).
edge(60, 36, 34).
edge(163, 160, 12).
edge(55, 165, 13).
edge(2, 167, 3).
edge(0, 104, 19).
edge(81, 163, 32).
edge(142, 108, 6).
edge(175, 99, 29).
edge(75, 72, 23).
edge(142, 24, 5).
edge(74, 25, 29).
edge(39, 84, 13).
edge(26, 152, 13).
edge(14, 56, 16).
edge(154, 70, 30).
edge(31, 76, 11).
edge(168, 7, 2).
edge(48, 45, 12).
edge(31, 132, 15).
edge(156, 86, 1).
edge(30, 87, 10).
edge(173, 51, 35).
edge(125, 135, 3).
edge(102, 11, 8).
edge(166, 104, 13).
edge(109, 165, 28).
edge(71, 14, 4).
edge(135, 32, 21).
edge(138, 42, 16).
edge(108, 29, 35).
edge(119, 13, 15).
edge(131, 111, 38).
edge(94, 69, 17).
edge(23, 160, 28).
edge(94, 153, 21).
edge(23, 170, 11).
edge(64, 5, 38).
edge(27, 38, 22).
edge(150, 166, 10).
edge(150, 134, 8).
edge(128, 42, 12).
edge(33, 3, 38).
edge(165, 25, 14).
edge(156, 35, 23).
edge(82, 156, 6).
edge(14, 159, 5).
edge(150, 78, 1).
edge(126, 146, 5).
edge(154, 132, 35).
edge(46, 166, 18).
edge(49, 151, 11).
edge(47, 16, 8).
edge(112, 124, 29).
edge(113, 80, 21).
edge(89, 13, 22).
edge(46, 161, 6).
edge(34, 150, 16).
edge(152, 16, 23).
edge(128, 41, 2).
edge(148, 94, 7).
edge(146, 36, 12).
edge(95, 98, 18).
edge(94, 57, 30).
edge(153, 139, 23).
edge(121, 166, 7).
edge(78, 152, 6).
edge(103, 141, 7).
edge(26, 56, 32).
edge(103, 87, 30).
edge(74, 38, 25).
edge(6, 174, 14).
edge(119, 147, 16).
edge(20, 51, 30).
edge(9, 40, 20).
edge(172, 169, 39).
edge(94, 95, 34).
edge(44, 173, 3).
edge(38, 134, 5).
edge(29, 8, 39).
edge(41, 160, 32).
edge(78, 145, 33).
edge(16, 8, 36).
edge(118, 21, 34).
edge(119, 49, 2).
edge(75, 153, 24).
edge(54, 20, 18).
edge(67, 92, 33).
edge(117, 13, 30).
edge(43, 82, 38).
edge(93, 68, 20).
edge(13, 59, 9).
edge(73, 34, 38).
edge(103, 133, 23).
edge(141, 150, 19).
edge(24, 93, 36).
edge(89, 123, 10).
edge(15, 42, 9).
edge(36, 127, 15).
edge(37, 138, 4).
edge(23, 129, 13).
edge(31, 75, 32).
edge(43, 100, 22).
edge(41, 121, 8).
edge(33, 110, 10).
edge(79, 127, 22).
edge(63, 122, 9).
edge(137, 175, 1).
edge(52, 71, 3).
edge(83, 15, 34).
edge(13, 80, 15).
edge(60, 104, 18).
edge(28, 157, 29).
edge(102, 78, 8).
edge(57, 39, 16).
edge(45, 137, 4).
edge(112, 31, 12).
edge(127, 113, 32).
edge(172, 15, 31).
edge(155, 55, 9).
edge(49, 80, 10).
edge(0, 109, 28).
edge(108, 12, 1).
edge(89, 144, 10).
edge(87, 78, 38).
edge(21, 65, 3).
edge(15, 78, 12).
edge(107, 108, 24).
edge(146, 31, 3).
edge(143, 173, 26).
edge(117, 87, 29).
edge(154, 125, 25).
edge(97, 111, 22).
edge(99, 134, 28).
edge(48, 152, 32).
edge(49, 130, 7).
edge(51, 114, 17).
edge(98, 128, 1).
edge(72, 118, 10).
edge(108, 40, 31).
edge(44, 129, 34).
edge(58, 27, 7).
edge(74, 95, 35).
edge(31, 158, 8).
edge(2, 48, 29).
edge(92, 166, 35).
edge(39, 13, 1).
edge(115, 1, 34).
edge(142, 156, 4).
edge(86, 168, 34).
edge(149, 131, 14).
edge(106, 108, 13).
edge(117, 101, 27).
edge(87, 39, 20).
edge(16, 22, 38).
edge(18, 1, 6).
edge(62, 152, 9).
edge(165, 169, 17).
edge(20, 88, 19).
edge(161, 100, 4).
edge(161, 148, 20).
edge(75, 71, 23).
edge(146, 27, 2).
edge(171, 20, 32).
edge(46, 108, 23).
edge(112, 102, 14).
edge(173, 7, 2).
edge(159, 59, 16).
edge(169, 103, 26).
edge(164, 107, 37).
edge(173, 30, 20).
edge(108, 9, 32).
edge(148, 69, 37).
edge(98, 45, 9).
edge(140, 107, 4).
edge(19, 129, 4).
edge(140, 38, 9).
edge(33, 104, 36).
edge(3, 54, 6).
edge(47, 126, 35).
edge(102, 150, 18).
edge(86, 66, 36).
edge(0, 177, 13).
edge(94, 23, 14).
edge(56, 58, 23).
edge(42, 164, 18).
edge(100, 104, 15).
edge(94, 62, 35).
edge(174, 119, 27).
edge(130, 171, 29).
edge(56, 39, 1).
edge(59, 109, 14).
edge(159, 173, 12).
edge(28, 124, 8).
edge(149, 74, 33).
edge(62, 153, 21).
edge(100, 127, 16).
edge(150, 59, 26).
edge(174, 169, 28).
edge(61, 85, 5).
edge(174, 138, 25).
edge(39, 115, 34).
edge(175, 134, 19).
edge(105, 163, 1).
edge(116, 20, 25).
edge(22, 83, 5).
edge(6, 112, 23).
edge(114, 31, 3).
edge(111, 123, 34).
edge(141, 135, 30).
edge(159, 103, 15).
edge(104, 76, 10).
edge(104, 73, 16).
edge(17, 161, 13).
edge(23, 157, 20).
edge(108, 76, 14).
edge(130, 160, 25).
edge(158, 69, 9).
edge(167, 67, 31).
edge(120, 104, 24).
edge(13, 50, 39).
edge(83, 160, 7).
edge(121, 177, 4).
edge(93, 1, 7).
edge(151, 76, 30).
edge(129, 142, 17).
edge(77, 67, 25).
edge(68, 139, 20).
edge(42, 113, 12).
edge(32, 98, 31).
edge(101, 54, 12).
edge(34, 0, 20).
edge(83, 43, 32).
edge(52, 138, 24).
edge(164, 131, 18).
edge(71, 115, 15).
edge(155, 36, 34).
edge(25, 72, 10).
edge(94, 28, 19).
edge(42, 43, 22).
edge(92, 168, 21).
edge(7, 77, 17).
edge(76, 71, 22).
edge(64, 21, 35).
edge(103, 79, 29).
edge(159, 52, 10).
edge(54, 90, 10).
edge(31, 86, 16).
edge(117, 66, 25).
edge(17, 59, 20).
edge(33, 114, 34).
edge(76, 93, 4).
edge(130, 139, 5).
edge(63, 111, 28).
edge(73, 91, 26).
edge(59, 100, 7).
edge(142, 2, 18).
edge(115, 123, 14).
edge(53, 154, 39).
edge(25, 14, 27).
edge(135, 170, 30).
edge(42, 128, 27).
edge(66, 97, 28).
edge(50, 124, 8).
edge(160, 43, 2).
edge(71, 175, 17).
edge(67, 84, 20).
edge(58, 108, 36).
edge(102, 82, 17).
edge(153, 158, 7).
edge(156, 119, 33).
edge(33, 57, 4).
edge(137, 113, 19).
edge(88, 73, 11).
edge(35, 65, 22).
edge(65, 51, 2).
edge(166, 168, 11).
edge(47, 97, 1).
edge(63, 164, 21).
edge(59, 43, 12).
edge(78, 130, 31).
edge(170, 132, 35).
edge(140, 56, 28).
edge(17, 150, 9).
edge(77, 136, 18).
edge(69, 23, 18).
edge(5, 47, 1).
edge(35, 40, 18).
edge(37, 50, 23).
edge(83, 37, 27).
edge(77, 119, 2).
edge(84, 11, 1).
edge(42, 116, 13).
edge(109, 65, 27).
edge(83, 97, 34).
edge(161, 11, 27).
edge(24, 128, 12).
edge(81, 102, 30).
edge(43, 162, 17).
edge(100, 156, 27).
edge(110, 101, 39).
edge(15, 140, 26).
edge(49, 22, 2).
edge(30, 38, 35).
edge(31, 52, 17).
edge(177, 172, 35).
edge(127, 100, 24).
edge(17, 134, 22).
edge(61, 156, 23).
edge(131, 6, 27).
edge(139, 73, 21).
edge(33, 166, 15).
edge(53, 96, 12).
edge(55, 88, 9).
edge(22, 91, 9).
edge(87, 159, 4).
edge(149, 27, 10).
edge(124, 92, 30).
edge(160, 14, 38).
edge(150, 117, 35).
edge(139, 169, 38).
edge(67, 115, 39).
edge(160, 172, 22).
edge(140, 148, 30).
edge(65, 75, 31).
edge(150, 53, 36).
edge(9, 145, 33).
edge(149, 21, 21).
edge(38, 176, 25).
edge(81, 6, 12).
edge(130, 104, 20).
edge(92, 103, 17).
edge(46, 129, 26).
edge(23, 173, 13).
edge(146, 99, 21).
edge(176, 71, 3).
edge(102, 37, 19).
edge(17, 131, 35).
edge(150, 15, 3).
edge(40, 86, 3).
edge(77, 17, 15).
edge(175, 100, 29).
edge(127, 17, 36).
edge(176, 56, 33).
edge(58, 149, 29).
edge(155, 42, 39).
edge(31, 32, 14).
edge(54, 99, 27).
edge(126, 45, 12).
edge(24, 143, 35).
edge(23, 107, 30).
edge(155, 152, 20).
edge(107, 2, 17).
edge(32, 11, 13).
edge(6, 167, 2).
edge(173, 54, 9).
edge(130, 76, 19).
edge(18, 30, 30).
edge(148, 63, 19).
edge(49, 58, 2).
edge(131, 87, 22).
edge(157, 93, 31).
edge(117, 45, 37).
edge(90, 30, 15).
edge(122, 162, 38).
edge(146, 49, 29).
edge(53, 31, 11).
edge(121, 161, 2).
edge(128, 140, 17).
edge(127, 69, 14).
edge(74, 111, 23).
edge(23, 152, 10).
edge(8, 14, 39).
edge(148, 82, 39).
edge(176, 128, 33).
edge(24, 36, 1).
edge(58, 147, 31).
edge(83, 54, 35).
edge(55, 127, 16).
edge(64, 70, 14).
edge(25, 142, 32).
edge(151, 46, 8).
edge(171, 176, 12).
edge(69, 122, 8).
edge(94, 35, 21).
edge(16, 172, 11).
edge(60, 32, 20).
edge(61, 131, 1).
edge(130, 149, 18).
edge(174, 42, 16).
edge(152, 148, 13).
edge(97, 13, 8).
edge(165, 62, 23).
edge(13, 127, 17).
edge(11, 109, 33).
edge(28, 73, 18).
edge(33, 145, 10).
edge(49, 139, 19).
edge(152, 90, 16).
edge(173, 170, 13).
edge(142, 64, 14).
edge(8, 82, 24).
edge(73, 41, 17).
edge(125, 36, 35).
edge(45, 112, 15).
edge(128, 156, 3).
edge(105, 10, 31).
edge(170, 94, 11).
edge(38, 174, 11).
edge(41, 45, 3).
edge(30, 83, 27).
edge(94, 104, 9).
edge(172, 82, 24).
edge(52, 130, 11).
edge(92, 117, 38).
edge(12, 124, 29).
edge(30, 49, 24).
edge(98, 62, 14).
edge(5, 149, 4).
edge(29, 128, 5).
edge(78, 161, 23).
edge(128, 56, 38).
edge(112, 35, 33).
edge(26, 141, 22).
edge(61, 70, 17).
edge(135, 94, 2).
edge(113, 15, 35).
edge(94, 71, 20).
edge(29, 74, 18).
edge(57, 138, 23).
edge(167, 17, 39).
edge(106, 87, 33).
edge(124, 168, 19).
edge(120, 70, 32).
edge(17, 50, 25).
edge(28, 18, 8).
edge(46, 174, 18).
edge(166, 99, 25).
edge(95, 66, 34).
edge(16, 10, 8).
edge(102, 85, 2).
edge(41, 157, 11).
edge(170, 140, 23).
edge(50, 172, 37).
edge(47, 37, 21).
edge(9, 4, 12).
edge(88, 9, 3).
edge(151, 25, 23).
edge(135, 9, 25).
edge(132, 102, 7).
edge(172, 26, 28).
edge(49, 85, 22).
edge(3, 1, 24).
edge(82, 28, 9).
edge(53, 163, 10).
edge(91, 53, 18).
edge(89, 75, 2).
edge(129, 63, 28).
edge(114, 144, 12).
edge(68, 16, 34).
edge(7, 162, 24).
edge(83, 172, 39).
edge(30, 23, 25).
edge(136, 58, 28).
edge(100, 93, 11).
edge(139, 49, 20).
edge(62, 97, 36).
edge(164, 14, 32).
edge(122, 18, 24).
edge(104, 134, 9).
edge(140, 96, 31).
edge(82, 20, 37).
edge(9, 111, 25).
edge(84, 48, 33).
edge(59, 25, 4).
edge(58, 88, 17).
edge(100, 47, 2).
edge(167, 54, 12).
edge(132, 150, 15).
edge(15, 83, 16).
edge(122, 147, 38).
edge(7, 135, 14).
edge(60, 136, 4).
edge(22, 113, 22).
edge(95, 170, 13).
edge(111, 169, 28).
edge(8, 26, 17).
edge(14, 18, 37).
edge(40, 173, 23).
edge(63, 177, 5).
edge(4, 8, 33).
edge(76, 43, 20).
edge(131, 0, 30).
edge(123, 35, 25).
edge(16, 58, 31).
edge(16, 62, 27).
edge(133, 177, 3).
edge(158, 121, 39).
edge(2, 101, 38).
edge(126, 132, 33).
edge(159, 149, 14).
edge(114, 29, 7).
edge(161, 20, 37).
edge(177, 93, 6).
edge(79, 3, 21).
edge(9, 121, 10).
edge(11, 21, 23).
edge(134, 36, 5).
edge(42, 127, 9).
edge(76, 36, 19).
edge(146, 111, 26).
edge(10, 62, 5).
edge(133, 108, 39).
edge(100, 118, 19).
edge(56, 38, 15).
edge(54, 76, 36).
edge(172, 46, 21).
edge(23, 54, 8).
edge(9, 79, 24).
edge(64, 144, 10).
edge(89, 8, 11).
edge(19, 9, 12).
edge(53, 105, 37).
edge(28, 82, 5).
edge(70, 48, 27).
edge(146, 140, 2).
edge(145, 68, 4).
edge(75, 159, 34).
edge(55, 82, 37).
edge(139, 155, 4).
edge(87, 60, 24).
edge(38, 111, 17).
edge(168, 80, 35).
edge(70, 61, 21).
edge(42, 132, 33).
edge(162, 85, 31).
edge(175, 64, 20).
edge(168, 116, 15).
edge(31, 85, 4).
edge(121, 106, 34).
edge(135, 19, 24).
edge(76, 152, 37).
edge(159, 140, 12).
edge(174, 38, 35).
edge(37, 127, 28).
edge(95, 166, 36).
edge(48, 108, 15).
edge(64, 87, 19).
edge(75, 160, 8).
edge(21, 85, 36).
edge(36, 119, 12).
edge(120, 84, 37).
edge(102, 19, 6).
edge(42, 176, 23).
edge(78, 37, 17).
edge(73, 174, 23).
edge(81, 50, 11).
edge(102, 148, 11).
edge(168, 9, 35).
edge(172, 69, 36).
edge(146, 165, 1).
edge(28, 136, 8).
edge(69, 1, 9).
edge(11, 93, 34).
edge(0, 50, 16).
edge(93, 48, 30).
edge(134, 39, 16).
edge(60, 7, 22).
edge(54, 92, 12).
edge(130, 24, 39).
edge(91, 126, 7).
edge(69, 54, 3).
edge(128, 2, 20).
edge(92, 169, 10).
edge(130, 134, 39).
edge(170, 116, 23).
edge(164, 1, 13).
edge(89, 127, 7).
edge(0, 130, 18).
edge(143, 152, 35).
edge(70, 80, 7).
edge(55, 56, 10).
edge(176, 151, 3).
edge(14, 39, 18).
edge(54, 31, 35).
edge(123, 83, 1).
edge(63, 79, 12).
edge(108, 95, 7).
edge(50, 130, 27).
edge(37, 132, 22).
edge(109, 133, 26).
edge(70, 124, 10).
edge(143, 80, 32).
edge(84, 57, 6).
edge(61, 130, 18).
edge(73, 164, 21).
edge(164, 116, 1).
edge(14, 31, 21).
edge(106, 30, 21).
edge(71, 84, 19).
edge(153, 136, 2).
edge(146, 170, 33).
edge(171, 78, 39).
edge(22, 68, 18).
edge(6, 171, 11).
edge(145, 53, 18).
edge(170, 65, 38).
edge(27, 60, 33).
edge(8, 6, 25).
edge(57, 97, 18).
edge(127, 28, 8).
edge(145, 80, 38).
edge(18, 172, 7).
edge(82, 83, 16).
edge(39, 135, 16).
edge(92, 172, 25).
edge(20, 90, 38).
edge(143, 60, 16).
edge(114, 54, 35).
edge(38, 167, 29).
edge(127, 25, 3).
edge(68, 162, 13).
edge(161, 99, 36).
edge(43, 66, 24).
edge(25, 139, 39).
edge(11, 154, 26).
edge(27, 102, 9).
edge(103, 10, 13).
edge(65, 145, 30).
edge(166, 175, 35).
edge(64, 177, 4).
edge(115, 161, 17).
edge(168, 154, 26).
edge(15, 26, 6).
edge(46, 52, 7).
edge(156, 28, 38).
edge(130, 169, 3).
edge(107, 61, 10).
edge(67, 101, 22).
edge(28, 101, 19).
edge(158, 129, 21).
edge(94, 2, 8).
edge(161, 132, 36).
edge(37, 42, 34).
edge(39, 159, 33).
edge(15, 25, 10).
edge(3, 115, 1).
edge(132, 13, 39).
edge(77, 118, 1).
edge(99, 143, 25).
edge(143, 113, 8).
edge(43, 133, 34).
edge(118, 104, 25).
edge(61, 177, 21).
edge(53, 50, 22).
edge(174, 81, 14).
edge(80, 101, 11).
edge(54, 96, 29).
edge(170, 49, 28).
edge(2, 143, 2).
edge(52, 16, 16).
edge(156, 148, 8).
edge(100, 88, 30).
edge(136, 122, 32).
edge(16, 42, 30).
edge(149, 38, 35).
edge(18, 70, 22).
edge(161, 144, 34).
edge(53, 61, 12).
edge(142, 19, 21).
edge(84, 86, 35).
edge(104, 27, 31).
edge(170, 23, 32).
edge(158, 75, 28).
edge(176, 77, 23).
edge(61, 38, 31).
edge(120, 146, 6).
edge(154, 13, 26).
edge(130, 175, 9).
edge(56, 172, 17).
edge(121, 113, 1).
edge(25, 13, 16).
edge(3, 76, 9).
edge(117, 158, 12).
edge(19, 96, 12).
edge(28, 79, 17).
edge(114, 151, 25).
edge(105, 90, 24).
edge(27, 41, 10).
edge(63, 61, 15).
edge(118, 72, 11).
edge(168, 124, 6).
edge(95, 56, 31).
edge(28, 89, 17).
edge(73, 52, 12).
edge(95, 67, 9).
edge(98, 118, 14).
edge(20, 169, 30).
edge(107, 113, 25).
edge(93, 129, 4).
edge(122, 50, 32).
edge(41, 85, 14).
edge(47, 92, 2).
edge(169, 171, 3).
edge(98, 76, 1).
edge(108, 69, 8).
edge(152, 115, 14).
edge(120, 20, 9).
edge(130, 170, 36).
edge(63, 105, 4).
edge(39, 177, 22).
edge(97, 27, 33).
edge(152, 110, 32).
edge(129, 61, 3).
edge(49, 149, 24).
edge(123, 41, 8).
edge(40, 102, 5).
edge(18, 15, 26).
edge(68, 7, 18).
edge(105, 29, 12).
edge(62, 137, 35).
edge(134, 71, 27).
edge(65, 57, 18).
edge(88, 54, 5).
edge(132, 153, 4).
edge(177, 176, 16).
edge(160, 138, 4).
edge(74, 80, 18).
edge(39, 107, 20).
edge(10, 160, 35).
edge(161, 5, 28).
edge(53, 145, 35).
edge(65, 110, 2).
edge(41, 74, 35).
edge(137, 81, 2).
edge(63, 37, 9).
edge(157, 75, 29).
edge(9, 101, 39).
edge(17, 55, 17).
edge(109, 54, 2).
edge(42, 167, 17).
edge(96, 58, 33).
edge(13, 168, 21).
edge(167, 42, 34).
edge(164, 119, 34).
edge(167, 83, 16).
edge(29, 69, 15).
edge(85, 92, 31).
edge(161, 136, 36).
edge(137, 78, 35).
edge(83, 10, 30).
edge(64, 7, 37).
edge(138, 12, 15).
edge(169, 91, 13).
edge(38, 8, 6).
edge(37, 71, 1).
edge(40, 142, 38).
edge(35, 98, 4).
edge(75, 79, 28).
edge(48, 126, 23).
edge(33, 49, 21).
edge(27, 76, 4).
edge(64, 122, 37).
edge(29, 78, 30).
edge(82, 149, 22).
edge(68, 73, 5).
edge(144, 80, 30).
edge(68, 98, 2).
edge(147, 151, 7).
edge(81, 110, 13).
edge(99, 139, 15).
edge(58, 69, 34).
edge(52, 32, 18).
edge(72, 171, 4).
edge(28, 103, 38).
edge(30, 154, 21).
edge(72, 45, 16).
edge(163, 110, 21).
edge(15, 2, 35).
edge(47, 175, 30).
edge(15, 6, 18).
edge(56, 118, 10).
edge(8, 121, 11).
edge(92, 64, 15).
edge(114, 8, 22).
edge(128, 90, 10).
edge(118, 53, 23).
edge(101, 110, 20).
edge(151, 72, 17).
edge(97, 157, 14).
edge(106, 73, 17).
edge(106, 80, 12).
edge(78, 169, 21).
edge(63, 24, 28).
edge(122, 33, 27).
edge(44, 77, 9).
edge(133, 15, 14).
edge(151, 77, 10).
edge(25, 32, 36).
edge(67, 90, 30).
edge(58, 24, 29).
edge(124, 70, 8).
edge(90, 5, 28).
edge(165, 161, 14).
edge(149, 126, 18).
edge(131, 150, 34).
edge(8, 92, 23).
edge(16, 142, 39).
edge(131, 124, 18).
edge(116, 18, 7).
edge(176, 108, 12).
edge(175, 14, 38).
edge(51, 167, 30).
edge(121, 156, 17).
edge(47, 60, 33).
edge(21, 12, 24).
edge(97, 125, 1).
edge(14, 42, 26).
edge(24, 21, 29).
edge(61, 151, 13).
edge(147, 80, 22).
edge(119, 81, 39).
edge(55, 4, 13).
edge(12, 32, 30).
edge(15, 164, 21).
edge(27, 70, 21).
edge(165, 84, 31).
edge(8, 176, 34).
edge(147, 175, 24).
edge(50, 129, 22).
edge(147, 64, 12).
edge(177, 16, 7).
edge(52, 23, 4).
edge(148, 85, 7).
edge(61, 138, 14).
edge(99, 19, 5).
edge(110, 118, 1).
edge(31, 89, 26).
edge(161, 62, 10).
edge(59, 54, 12).
edge(150, 9, 36).
edge(168, 60, 14).
edge(22, 44, 13).
edge(85, 158, 25).
edge(95, 80, 16).
edge(119, 126, 16).
edge(166, 69, 22).
edge(26, 13, 9).
edge(120, 172, 28).
edge(166, 73, 31).
edge(19, 56, 16).
edge(30, 172, 25).
edge(13, 124, 27).
edge(7, 130, 20).
edge(173, 177, 12).
edge(141, 157, 26).
edge(164, 53, 10).
edge(156, 175, 28).
edge(168, 122, 37).
edge(20, 66, 34).
edge(80, 169, 14).
edge(133, 21, 22).
edge(5, 102, 18).
edge(157, 79, 15).
edge(25, 47, 12).
edge(20, 70, 18).
edge(177, 102, 34).
edge(97, 60, 16).
edge(79, 46, 2).
edge(72, 123, 38).
edge(135, 47, 22).
edge(154, 177, 24).
edge(125, 167, 36).
edge(123, 148, 2).
edge(32, 44, 22).
edge(47, 20, 19).
edge(104, 169, 7).
edge(176, 172, 32).
edge(46, 26, 11).
edge(26, 80, 7).
edge(174, 104, 6).
edge(169, 4, 12).
edge(162, 93, 39).
edge(174, 71, 31).
edge(148, 170, 13).
edge(167, 65, 1).
edge(68, 88, 39).
edge(18, 22, 14).
edge(114, 145, 2).
edge(165, 34, 17).
edge(82, 77, 20).
edge(9, 114, 23).
edge(47, 34, 27).
edge(113, 126, 30).
edge(150, 30, 3).
edge(83, 138, 7).
edge(77, 139, 6).
edge(47, 145, 6).
edge(103, 12, 23).
edge(133, 29, 23).
edge(75, 33, 3).
edge(22, 138, 30).
edge(114, 26, 14).
edge(141, 58, 4).
edge(27, 97, 33).
edge(139, 88, 18).
edge(81, 105, 31).
edge(177, 162, 22).
edge(26, 76, 25).
edge(148, 99, 33).
edge(91, 16, 37).
edge(140, 60, 4).
edge(134, 88, 8).
edge(157, 113, 5).
edge(167, 115, 5).
edge(171, 125, 37).
edge(147, 69, 30).
edge(26, 16, 29).
edge(49, 45, 7).
edge(15, 54, 33).
edge(50, 43, 27).
edge(102, 144, 24).
edge(104, 71, 28).
edge(117, 94, 34).
edge(101, 27, 26).
edge(100, 141, 16).
edge(36, 157, 26).
edge(106, 38, 21).
edge(86, 58, 12).
edge(125, 94, 13).
edge(138, 73, 9).
edge(142, 164, 30).
edge(133, 74, 13).
edge(89, 41, 7).
edge(136, 121, 32).
edge(4, 138, 3).
edge(80, 123, 4).
edge(63, 45, 22).
edge(13, 74, 19).
edge(41, 168, 2).
edge(138, 20, 35).
edge(23, 6, 22).
edge(124, 151, 19).
edge(122, 148, 30).
edge(86, 122, 39).
edge(49, 9, 18).
edge(34, 124, 31).
edge(165, 14, 15).
edge(61, 111, 38).
edge(62, 103, 3).
edge(78, 138, 33).
edge(113, 6, 28).
edge(70, 127, 25).
edge(121, 168, 11).
edge(68, 44, 30).
edge(64, 121, 20).
edge(159, 23, 37).
edge(126, 9, 19).
edge(105, 126, 3).
edge(33, 163, 16).
edge(63, 1, 3).
edge(53, 42, 25).
edge(142, 152, 3).
edge(33, 16, 32).
edge(163, 124, 35).
edge(118, 147, 16).
edge(81, 169, 36).
edge(174, 90, 7).
edge(101, 40, 4).
edge(120, 98, 26).
edge(78, 87, 31).
edge(63, 121, 17).
edge(165, 26, 25).
edge(29, 148, 3).
edge(117, 106, 25).
edge(83, 40, 10).
edge(63, 38, 27).
edge(36, 42, 24).
edge(157, 87, 29).
edge(166, 25, 30).
edge(53, 83, 7).
edge(96, 74, 12).
edge(160, 120, 11).
edge(155, 108, 25).
edge(38, 155, 25).
edge(30, 103, 33).
edge(41, 77, 17).
edge(56, 51, 37).
edge(53, 116, 11).
edge(29, 167, 31).
edge(133, 107, 12).
edge(116, 62, 29).
edge(146, 32, 23).
edge(131, 37, 18).
edge(146, 69, 18).
edge(32, 116, 5).
edge(116, 139, 20).
edge(163, 26, 6).
edge(106, 138, 28).
edge(78, 24, 25).
edge(164, 63, 38).
edge(56, 153, 33).
edge(139, 136, 6).
edge(3, 102, 32).
edge(80, 15, 22).
edge(135, 41, 35).
edge(170, 118, 18).
edge(123, 74, 13).
edge(171, 112, 32).
edge(136, 74, 25).
edge(115, 28, 28).
edge(52, 165, 31).
edge(63, 8, 9).
edge(13, 153, 36).
edge(100, 119, 14).
edge(133, 103, 17).
edge(53, 111, 29).
edge(59, 8, 34).
edge(137, 64, 5).
edge(45, 117, 15).
edge(54, 119, 14).
edge(3, 161, 36).
edge(44, 87, 6).
edge(146, 3, 4).
edge(76, 11, 3).
edge(102, 124, 7).
edge(35, 145, 16).
edge(164, 123, 30).
edge(56, 143, 16).
edge(101, 159, 19).
edge(175, 19, 9).
edge(112, 87, 32).
edge(85, 125, 24).
edge(18, 38, 8).
edge(169, 77, 7).
edge(150, 28, 16).
edge(54, 28, 6).
edge(144, 102, 17).
edge(156, 126, 17).
edge(114, 95, 13).
edge(46, 175, 12).
edge(102, 67, 12).
edge(38, 83, 26).
edge(129, 83, 20).
edge(15, 165, 24).
edge(149, 144, 19).
edge(116, 30, 21).
edge(65, 133, 11).
edge(76, 145, 20).
edge(101, 153, 15).
edge(102, 3, 24).
edge(108, 43, 16).
edge(140, 45, 24).
edge(46, 100, 28).
edge(139, 109, 25).
edge(138, 44, 15).
edge(13, 174, 16).
edge(124, 113, 2).
edge(37, 85, 30).
edge(64, 149, 33).
edge(177, 170, 36).
edge(57, 52, 22).
edge(57, 18, 18).
edge(116, 12, 33).
edge(98, 0, 7).
edge(85, 177, 29).
edge(166, 37, 26).
edge(54, 11, 4).
edge(109, 131, 14).
edge(15, 170, 1).
edge(57, 172, 10).
edge(8, 27, 33).
edge(128, 109, 7).
edge(46, 116, 30).
edge(76, 116, 6).
edge(22, 50, 14).
edge(34, 51, 20).
edge(79, 24, 6).
edge(57, 26, 39).
edge(3, 93, 13).
edge(113, 118, 31).
edge(173, 74, 38).
edge(162, 81, 6).
edge(142, 46, 13).
edge(43, 159, 24).
edge(56, 134, 7).
edge(82, 67, 39).
edge(143, 97, 9).
edge(158, 100, 5).
edge(156, 85, 5).
edge(46, 115, 10).
edge(88, 79, 28).
edge(38, 58, 2).
edge(28, 173, 24).
edge(11, 161, 29).
edge(118, 64, 30).
edge(154, 118, 25).
edge(7, 175, 18).
edge(104, 171, 39).
edge(42, 105, 37).
edge(101, 96, 36).
edge(164, 15, 38).
edge(110, 162, 21).
edge(168, 142, 3).
edge(139, 115, 16).
edge(34, 174, 39).
edge(142, 112, 8).
edge(60, 93, 7).
edge(160, 9, 20).
edge(133, 172, 12).
edge(167, 177, 32).
edge(88, 32, 33).
edge(80, 52, 25).
edge(83, 32, 10).
edge(22, 88, 5).
edge(58, 85, 16).
edge(31, 36, 29).
edge(153, 83, 20).
edge(166, 122, 21).
edge(30, 137, 4).
edge(43, 47, 18).
edge(151, 80, 15).
edge(65, 126, 6).
edge(176, 133, 11).
edge(37, 126, 5).
edge(134, 60, 5).
edge(159, 34, 31).
edge(141, 140, 24).
edge(30, 140, 21).
edge(177, 118, 29).
edge(140, 64, 23).
edge(170, 79, 29).
edge(56, 91, 9).
edge(46, 176, 35).
edge(21, 158, 16).
edge(131, 106, 2).
edge(1, 152, 29).
edge(176, 65, 25).
edge(125, 47, 19).
edge(70, 40, 28).
edge(118, 121, 39).
edge(26, 87, 22).
edge(127, 105, 3).
edge(72, 66, 17).
edge(65, 50, 25).
edge(107, 7, 13).
edge(72, 51, 22).
edge(11, 25, 6).
edge(131, 38, 29).
edge(66, 18, 21).
edge(24, 75, 30).
edge(52, 120, 18).
edge(98, 176, 34).
edge(67, 2, 2).
edge(129, 91, 36).
edge(81, 168, 21).
edge(140, 131, 21).
edge(24, 52, 30).
edge(145, 120, 27).
edge(165, 175, 31).
edge(114, 98, 13).
edge(147, 91, 2).
edge(11, 166, 34).
edge(132, 175, 9).
edge(141, 172, 30).
edge(68, 19, 29).
edge(18, 88, 13).
edge(10, 6, 8).
edge(121, 76, 23).
edge(168, 57, 21).
edge(172, 137, 16).
edge(45, 130, 28).
edge(56, 177, 28).
edge(82, 103, 38).
edge(170, 77, 23).
edge(65, 59, 16).
edge(158, 80, 1).
edge(62, 29, 1).
edge(97, 24, 25).
edge(121, 43, 29).
edge(130, 21, 31).
edge(151, 133, 34).
edge(121, 119, 20).
edge(170, 127, 3).
edge(149, 54, 18).
edge(150, 172, 11).
edge(155, 118, 5).
edge(62, 41, 2).
edge(149, 4, 22).
edge(78, 123, 27).
edge(102, 100, 13).
edge(43, 50, 33).
edge(49, 98, 21).
edge(63, 6, 14).
edge(90, 97, 10).
edge(72, 61, 20).
edge(159, 19, 25).
edge(112, 146, 35).
edge(77, 48, 17).
edge(167, 6, 2).
edge(64, 3, 16).
edge(32, 81, 14).
edge(135, 3, 38).
edge(28, 29, 8).
edge(83, 73, 26).
edge(136, 45, 20).
edge(68, 8, 38).
edge(134, 111, 38).
edge(159, 12, 18).
edge(79, 151, 20).
edge(62, 72, 32).
edge(28, 83, 22).
edge(21, 20, 15).
edge(54, 39, 27).
edge(153, 44, 21).
edge(9, 172, 12).
edge(29, 21, 15).
edge(17, 74, 1).
edge(102, 2, 6).
edge(13, 44, 28).
edge(165, 21, 13).
edge(75, 146, 32).
edge(153, 66, 37).
edge(154, 116, 33).
edge(67, 27, 13).
edge(139, 54, 35).
edge(75, 177, 8).
edge(119, 20, 14).
edge(14, 117, 10).
edge(23, 85, 29).
edge(46, 132, 27).
edge(167, 15, 10).
edge(86, 124, 26).
edge(162, 117, 8).
edge(135, 132, 2).
edge(64, 55, 16).
edge(125, 155, 26).
edge(47, 1, 7).
edge(33, 36, 9).
edge(78, 36, 2).
edge(166, 98, 31).
edge(144, 137, 38).
edge(176, 37, 18).
edge(105, 83, 9).
edge(174, 91, 5).
edge(126, 37, 30).
edge(152, 32, 20).
edge(151, 39, 13).
edge(169, 68, 8).
edge(68, 66, 19).
edge(79, 70, 12).
edge(4, 76, 28).
edge(148, 96, 8).
edge(138, 46, 11).
edge(33, 102, 37).
edge(156, 17, 33).
edge(110, 133, 11).
edge(37, 58, 23).
edge(143, 136, 36).
edge(158, 63, 34).
edge(168, 98, 20).
edge(7, 95, 13).
edge(124, 32, 15).
edge(42, 174, 24).
edge(147, 52, 33).
edge(113, 119, 29).
edge(137, 133, 26).
edge(52, 57, 23).
edge(104, 79, 19).
edge(94, 41, 34).
edge(177, 105, 30).
edge(41, 173, 13).
edge(15, 50, 17).
edge(5, 125, 15).
edge(42, 159, 9).
edge(66, 62, 37).
edge(60, 141, 4).
edge(139, 158, 30).
edge(143, 154, 37).
edge(173, 55, 31).
edge(148, 40, 18).
edge(106, 96, 39).
edge(75, 24, 2).
edge(78, 46, 12).
edge(124, 112, 17).
edge(4, 132, 37).
edge(108, 133, 24).
edge(50, 49, 30).
edge(26, 9, 7).
edge(64, 24, 3).
edge(35, 73, 28).
edge(2, 45, 13).
edge(111, 151, 12).
edge(79, 35, 24).
edge(50, 158, 20).
edge(152, 109, 21).
edge(112, 149, 17).
edge(94, 4, 13).
edge(177, 85, 33).
edge(40, 73, 2).
edge(30, 126, 17).
edge(98, 26, 13).
edge(89, 58, 15).
edge(53, 122, 28).
edge(69, 46, 10).
edge(139, 28, 13).
edge(172, 100, 11).
edge(108, 131, 30).
edge(0, 164, 35).
edge(37, 78, 32).
edge(91, 164, 33).
edge(140, 6, 28).
edge(39, 54, 9).
edge(0, 76, 3).
edge(173, 48, 11).
edge(124, 142, 12).
edge(147, 99, 26).
edge(175, 98, 22).
edge(173, 38, 33).
edge(27, 15, 15).
edge(173, 46, 11).
edge(104, 44, 35).
edge(69, 42, 31).
edge(128, 101, 7).
edge(89, 174, 20).
edge(62, 112, 30).
edge(69, 126, 20).
edge(125, 24, 31).
edge(100, 80, 34).
edge(99, 92, 4).
edge(3, 103, 3).
edge(131, 27, 11).
edge(150, 109, 36).
edge(55, 44, 8).
edge(37, 16, 7).
edge(112, 50, 38).
edge(118, 160, 2).
edge(60, 26, 12).
edge(72, 121, 18).
edge(96, 152, 4).
edge(134, 78, 16).
edge(51, 70, 26).
edge(117, 73, 31).
edge(121, 46, 15).
edge(36, 34, 9).
edge(125, 95, 27).
edge(19, 169, 21).
edge(122, 107, 4).
edge(7, 174, 27).
edge(94, 48, 28).
edge(63, 76, 35).
edge(113, 31, 2).
edge(95, 133, 8).
edge(105, 88, 17).
edge(61, 79, 35).
edge(122, 153, 14).
edge(162, 68, 4).
edge(128, 129, 30).
edge(141, 125, 33).
edge(16, 166, 32).
edge(58, 135, 21).
edge(157, 95, 7).
edge(4, 7, 12).
edge(13, 26, 37).
edge(36, 20, 32).
edge(45, 37, 4).
edge(43, 132, 24).
edge(148, 16, 21).
edge(86, 19, 2).
edge(78, 56, 29).
edge(116, 156, 26).
edge(45, 155, 30).
edge(67, 62, 7).
edge(114, 122, 22).
edge(150, 168, 14).
edge(127, 151, 5).
edge(41, 61, 29).
edge(52, 70, 19).
edge(45, 30, 19).
edge(53, 97, 20).
edge(92, 43, 11).
edge(85, 139, 11).
edge(24, 4, 27).
edge(108, 33, 34).
edge(134, 50, 36).
edge(149, 56, 6).
edge(62, 170, 16).
edge(102, 50, 13).
edge(137, 98, 14).
edge(109, 106, 32).
edge(94, 168, 16).
edge(136, 170, 10).
edge(61, 45, 12).
edge(118, 44, 38).
edge(162, 165, 3).
edge(116, 65, 38).
edge(68, 49, 33).
edge(61, 52, 37).
edge(92, 171, 32).
edge(165, 7, 17).
edge(171, 93, 13).
edge(1, 119, 20).
edge(22, 176, 27).
edge(110, 0, 25).
edge(173, 82, 11).
edge(49, 100, 9).
edge(94, 59, 13).
edge(12, 49, 39).
edge(133, 52, 31).
edge(166, 117, 10).
edge(13, 32, 26).
edge(132, 165, 7).
edge(100, 126, 5).
edge(148, 146, 10).
edge(147, 115, 11).
edge(45, 123, 30).
edge(163, 80, 30).
edge(170, 74, 22).
edge(148, 173, 4).
edge(82, 142, 23).
edge(77, 93, 6).
edge(118, 145, 34).
edge(1, 47, 28).
edge(119, 162, 8).
edge(73, 27, 20).
edge(147, 44, 34).
edge(126, 50, 15).
edge(156, 30, 36).
edge(114, 45, 27).
edge(73, 14, 37).
edge(126, 133, 26).
edge(18, 62, 32).
edge(9, 30, 1).
edge(140, 101, 37).
edge(90, 51, 13).
edge(34, 82, 15).
edge(159, 17, 22).
edge(106, 149, 19).
edge(55, 173, 36).
edge(32, 78, 34).
edge(169, 126, 2).
edge(27, 116, 25).
edge(84, 116, 19).
edge(142, 109, 5).
edge(2, 112, 10).
edge(107, 34, 22).
edge(171, 168, 21).
edge(176, 140, 13).
edge(56, 165, 14).
edge(97, 119, 25).
edge(10, 30, 10).
edge(50, 141, 34).
edge(29, 104, 33).
edge(120, 36, 10).
edge(129, 145, 23).
edge(38, 156, 6).
edge(104, 50, 10).
edge(78, 167, 39).
edge(146, 80, 30).
edge(69, 177, 15).
edge(138, 61, 7).
edge(86, 142, 13).
edge(10, 69, 38).
edge(99, 8, 16).
edge(24, 14, 15).
edge(118, 38, 20).
edge(6, 113, 5).
edge(172, 124, 38).
edge(160, 51, 25).
edge(91, 106, 31).
edge(116, 64, 3).
edge(28, 96, 6).
edge(146, 8, 31).
edge(51, 150, 4).
edge(158, 49, 4).
edge(84, 101, 9).
edge(173, 101, 7).
edge(125, 2, 19).
edge(137, 140, 38).
edge(37, 9, 26).
edge(57, 161, 4).
edge(123, 69, 20).
edge(38, 122, 25).
edge(48, 33, 18).
edge(113, 47, 4).
edge(164, 91, 38).
edge(127, 80, 4).
edge(134, 83, 36).
edge(120, 64, 3).
edge(84, 78, 17).
edge(18, 132, 27).
edge(115, 137, 29).
edge(69, 49, 34).
edge(111, 55, 24).
edge(47, 129, 2).
edge(101, 77, 12).
edge(9, 146, 22).
edge(113, 150, 26).
edge(104, 157, 24).
edge(155, 6, 19).
edge(77, 113, 19).
edge(136, 64, 21).
edge(71, 18, 23).
edge(127, 23, 39).
edge(63, 49, 30).
edge(177, 141, 20).
edge(18, 59, 23).
edge(77, 157, 35).
edge(80, 99, 39).
edge(123, 1, 6).
edge(143, 46, 36).
edge(148, 163, 15).
edge(54, 36, 1).
edge(126, 177, 26).
edge(136, 126, 16).
edge(85, 117, 3).
edge(37, 44, 30).
edge(139, 107, 37).
edge(170, 87, 32).
edge(43, 111, 19).
edge(90, 114, 20).
edge(129, 136, 38).
edge(36, 121, 11).
edge(175, 118, 28).
edge(45, 84, 29).
edge(11, 120, 19).
edge(45, 90, 22).
edge(90, 39, 39).
edge(172, 113, 2).
edge(123, 65, 34).
edge(139, 1, 25).
edge(51, 26, 30).
edge(152, 78, 8).
edge(121, 116, 26).
edge(155, 119, 20).
edge(102, 47, 20).
edge(80, 159, 28).
edge(82, 96, 11).
edge(47, 76, 4).
edge(172, 57, 25).
edge(40, 122, 36).
edge(46, 65, 16).
edge(115, 108, 30).
edge(37, 101, 7).
edge(169, 144, 9).
edge(138, 56, 39).
edge(154, 74, 12).
edge(102, 79, 29).
edge(33, 94, 27).
edge(110, 93, 3).
edge(174, 165, 38).
edge(22, 2, 1).
edge(162, 8, 20).
edge(78, 165, 28).
edge(105, 63, 13).
edge(114, 128, 26).
edge(36, 141, 6).
edge(174, 57, 35).
edge(158, 115, 4).
edge(2, 78, 8).
edge(3, 55, 36).
edge(172, 49, 15).
edge(132, 177, 39).
edge(85, 43, 32).
edge(20, 87, 37).
edge(169, 69, 8).
edge(148, 150, 9).
edge(107, 120, 8).
edge(126, 78, 23).
edge(19, 124, 20).
edge(49, 157, 25).
edge(112, 137, 27).
edge(94, 135, 28).
edge(160, 104, 28).
edge(64, 166, 25).
edge(3, 40, 33).
edge(125, 165, 23).
edge(119, 54, 26).
edge(97, 155, 7).
edge(52, 7, 21).
edge(74, 82, 38).
edge(53, 40, 3).
edge(69, 151, 28).
edge(75, 37, 35).
edge(18, 74, 20).
edge(61, 41, 25).
edge(25, 167, 21).
edge(167, 66, 29).
edge(60, 135, 13).
edge(141, 139, 23).
edge(122, 83, 24).
edge(31, 116, 23).
edge(65, 149, 27).
edge(17, 167, 29).
edge(140, 105, 11).
edge(6, 168, 24).
edge(49, 64, 7).
edge(34, 63, 5).
edge(62, 71, 14).
edge(5, 144, 31).
edge(49, 135, 4).
edge(40, 119, 11).
edge(147, 84, 29).
edge(148, 55, 12).
edge(74, 159, 39).
edge(23, 133, 7).
edge(6, 47, 3).
edge(23, 79, 17).
edge(131, 10, 7).
edge(112, 77, 35).
edge(48, 107, 11).
edge(75, 0, 31).
edge(160, 123, 27).
edge(144, 36, 5).
edge(11, 106, 8).
edge(95, 35, 12).
edge(105, 13, 23).
edge(88, 177, 32).
edge(145, 66, 22).
edge(43, 164, 1).
edge(173, 103, 13).
edge(29, 171, 22).
edge(112, 24, 31).
edge(148, 50, 29).
edge(162, 65, 33).
edge(135, 141, 12).
edge(59, 28, 11).
edge(2, 136, 8).
edge(28, 51, 5).
edge(59, 58, 24).
edge(33, 62, 39).
edge(8, 43, 8).
edge(176, 69, 38).
edge(64, 48, 31).
edge(67, 55, 20).
edge(158, 6, 34).
edge(163, 151, 28).
edge(116, 41, 18).
edge(138, 22, 33).
edge(150, 165, 9).
edge(100, 130, 29).
edge(147, 144, 33).
edge(0, 12, 19).
edge(175, 170, 23).
edge(99, 13, 29).
edge(90, 136, 28).
edge(11, 126, 33).
edge(28, 156, 20).
edge(62, 134, 34).
edge(73, 64, 37).
edge(144, 9, 10).
edge(10, 111, 28).
edge(56, 133, 22).
edge(24, 82, 17).
edge(124, 121, 10).
edge(175, 154, 15).
edge(70, 33, 36).
edge(60, 168, 5).
edge(176, 50, 28).
edge(168, 34, 11).
edge(79, 109, 12).
edge(154, 88, 29).
edge(49, 30, 10).
edge(137, 176, 18).
edge(33, 29, 9).
edge(121, 141, 4).
edge(80, 17, 18).
edge(37, 159, 9).
edge(93, 10, 18).
edge(101, 167, 17).
edge(93, 5, 34).
edge(104, 173, 16).
edge(22, 134, 26).
edge(62, 35, 8).
edge(10, 57, 14).
edge(10, 161, 30).
edge(146, 135, 38).
edge(47, 86, 7).
edge(40, 111, 2).
edge(30, 174, 32).
edge(71, 121, 23).
edge(52, 56, 12).
edge(52, 46, 26).
edge(131, 148, 19).
edge(106, 121, 12).
edge(93, 76, 1).
edge(39, 19, 29).
edge(122, 79, 14).
edge(144, 48, 27).
edge(18, 31, 35).
edge(58, 35, 23).
edge(157, 158, 36).
edge(1, 41, 9).
edge(126, 57, 13).
edge(120, 9, 37).
edge(102, 138, 36).
edge(177, 87, 26).
edge(21, 30, 19).
edge(134, 87, 4).
edge(154, 156, 9).
edge(153, 62, 24).
edge(73, 47, 38).
edge(21, 129, 23).
edge(123, 26, 29).
edge(103, 61, 20).
edge(161, 150, 7).
edge(69, 165, 18).
edge(175, 110, 8).
edge(81, 128, 35).
edge(9, 135, 30).
edge(136, 96, 25).
edge(37, 68, 17).
edge(79, 56, 15).
edge(156, 9, 5).
edge(34, 19, 33).
edge(48, 79, 15).
edge(30, 15, 3).
edge(154, 52, 34).
edge(50, 132, 4).
edge(142, 115, 5).
edge(67, 161, 8).
edge(117, 141, 2).
edge(14, 50, 20).
edge(62, 109, 35).
edge(38, 98, 15).
edge(102, 32, 28).
edge(177, 165, 7).
edge(78, 59, 2).
edge(19, 100, 29).
edge(26, 3, 10).
edge(107, 162, 37).
edge(75, 117, 31).
edge(155, 47, 8).
edge(20, 148, 35).
edge(38, 135, 5).
edge(146, 101, 38).
edge(51, 72, 5).
edge(89, 53, 10).
edge(160, 61, 37).
edge(111, 146, 15).
edge(140, 116, 20).
edge(115, 62, 19).
edge(150, 155, 33).
edge(2, 4, 22).
edge(150, 75, 18).
edge(114, 135, 39).
edge(42, 157, 27).
edge(32, 83, 11).
edge(101, 105, 9).
edge(42, 133, 35).
edge(10, 45, 28).
edge(164, 136, 23).
edge(46, 47, 25).
edge(134, 155, 17).
edge(26, 66, 2).
edge(120, 49, 25).
edge(24, 1, 20).
edge(140, 72, 13).
edge(134, 31, 34).
edge(51, 106, 19).
edge(78, 148, 4).
edge(112, 110, 39).
edge(21, 60, 10).
edge(81, 135, 30).
edge(60, 75, 19).
edge(159, 139, 5).
edge(13, 70, 9).
edge(170, 73, 25).
edge(31, 138, 19).
edge(145, 14, 8).
edge(151, 135, 36).
edge(5, 123, 16).
edge(105, 136, 38).
edge(143, 39, 36).
edge(26, 12, 38).
edge(96, 32, 32).
edge(96, 106, 8).
edge(129, 34, 31).
edge(102, 132, 2).
edge(128, 89, 32).
edge(155, 40, 17).
edge(81, 27, 4).
edge(4, 111, 34).
edge(26, 65, 29).
edge(158, 89, 39).
edge(39, 158, 39).
edge(12, 130, 2).
edge(58, 115, 4).
edge(92, 79, 38).
edge(77, 115, 26).
edge(128, 46, 19).
edge(171, 100, 22).
edge(69, 157, 35).
edge(117, 27, 1).
edge(66, 169, 24).
edge(171, 146, 22).
edge(65, 118, 4).
edge(57, 107, 21).
edge(108, 54, 7).
edge(98, 37, 13).
edge(24, 85, 33).
edge(175, 72, 29).
edge(94, 146, 36).
edge(175, 45, 37).
edge(7, 132, 6).
edge(166, 160, 32).
edge(62, 30, 23).
edge(71, 111, 30).
edge(71, 105, 25).
edge(59, 82, 33).
edge(17, 174, 31).
edge(167, 4, 21).
edge(77, 1, 31).
edge(2, 107, 13).
edge(136, 143, 1).
edge(37, 80, 17).
edge(124, 28, 9).
edge(83, 128, 32).
edge(153, 119, 11).
edge(116, 93, 24).
edge(56, 115, 26).
edge(64, 124, 29).
edge(152, 44, 36).
edge(11, 121, 24).
edge(134, 35, 23).
edge(79, 108, 11).
edge(153, 121, 29).
edge(174, 128, 38).
edge(149, 146, 6).
edge(39, 79, 21).
edge(25, 165, 36).
edge(147, 126, 29).
edge(10, 165, 23).
edge(74, 138, 26).
edge(167, 94, 28).
edge(62, 83, 12).
edge(150, 91, 22).
edge(96, 54, 16).
edge(71, 165, 20).
edge(114, 41, 4).
edge(104, 17, 1).
edge(96, 7, 3).
edge(27, 114, 16).
edge(43, 15, 26).
edge(155, 90, 36).
edge(137, 116, 7).
edge(28, 64, 24).
edge(114, 42, 17).
edge(45, 121, 33).
edge(169, 112, 12).
edge(0, 38, 27).
edge(149, 165, 3).
edge(1, 176, 34).
edge(125, 79, 21).
edge(99, 58, 22).
edge(171, 46, 11).
edge(56, 141, 6).
edge(77, 51, 35).
edge(52, 13, 37).
edge(39, 94, 13).
edge(40, 12, 13).
edge(154, 59, 2).
edge(54, 22, 16).
edge(164, 147, 27).
edge(88, 19, 29).
edge(177, 58, 25).
edge(173, 34, 36).
edge(50, 41, 13).
edge(141, 12, 6).
edge(121, 155, 35).
edge(91, 142, 17).
edge(59, 98, 33).
edge(27, 105, 15).
edge(129, 40, 5).
edge(107, 33, 10).
edge(32, 91, 25).
edge(132, 94, 31).
edge(100, 172, 7).
edge(146, 122, 33).
edge(17, 16, 11).
edge(84, 13, 27).
edge(82, 14, 24).
edge(52, 54, 23).
edge(131, 63, 17).
edge(138, 153, 20).
edge(124, 175, 21).
edge(139, 131, 4).
edge(136, 148, 3).
edge(124, 13, 11).
edge(110, 65, 35).
edge(41, 27, 35).
edge(55, 120, 5).
edge(21, 121, 8).
edge(113, 140, 21).
edge(85, 25, 14).
edge(121, 15, 31).
edge(78, 71, 20).
edge(22, 17, 39).
edge(24, 156, 20).
edge(8, 25, 31).
edge(21, 67, 22).
edge(137, 149, 8).
edge(27, 29, 14).
edge(134, 4, 36).
edge(46, 122, 14).
edge(40, 74, 27).
edge(176, 8, 31).
edge(114, 120, 36).
edge(50, 0, 1).
edge(140, 102, 36).
edge(17, 78, 8).
edge(31, 84, 36).
edge(3, 6, 14).
edge(82, 173, 36).
edge(88, 132, 13).
edge(21, 130, 11).
edge(149, 53, 33).
edge(68, 77, 16).
edge(130, 116, 9).
edge(75, 47, 10).
edge(92, 55, 30).
edge(120, 133, 11).
edge(154, 57, 22).
edge(15, 147, 28).
edge(56, 6, 17).
edge(153, 137, 11).
edge(55, 53, 8).
edge(168, 53, 29).
edge(47, 90, 13).
edge(126, 151, 20).
edge(50, 142, 28).
edge(118, 113, 13).
edge(24, 77, 26).
edge(117, 9, 6).
edge(3, 145, 32).
edge(56, 159, 23).
edge(126, 125, 14).
edge(94, 136, 22).
edge(87, 27, 19).
edge(128, 66, 18).
edge(163, 168, 9).
edge(105, 111, 22).
edge(39, 4, 10).
edge(19, 16, 38).
edge(73, 80, 2).
edge(117, 19, 12).
edge(158, 86, 20).
edge(159, 43, 28).
edge(138, 130, 20).
edge(143, 160, 34).
edge(107, 41, 19).
edge(146, 79, 1).
edge(98, 103, 23).
edge(66, 101, 1).
edge(95, 73, 36).
edge(160, 133, 8).
edge(73, 58, 12).
edge(67, 26, 7).
edge(168, 97, 29).
edge(107, 15, 16).
edge(110, 20, 37).
edge(154, 26, 3).
edge(41, 150, 1).
edge(29, 2, 19).
edge(108, 170, 17).
edge(176, 116, 14).
edge(166, 80, 14).
edge(35, 86, 25).
edge(68, 96, 25).
edge(175, 141, 38).
edge(163, 102, 23).
edge(162, 149, 30).
edge(112, 96, 27).
edge(115, 122, 25).
edge(13, 3, 36).
edge(7, 68, 9).
edge(176, 171, 15).
edge(167, 68, 2).
edge(58, 48, 15).
edge(74, 106, 8).
edge(70, 151, 11).
edge(132, 38, 32).
edge(36, 120, 3).
edge(85, 11, 24).
edge(41, 35, 36).
edge(68, 59, 30).
edge(2, 142, 39).
edge(163, 141, 6).
edge(158, 24, 27).
edge(35, 52, 21).
edge(52, 1, 22).
edge(128, 125, 4).
edge(60, 31, 2).
edge(11, 3, 7).
edge(137, 74, 35).
edge(48, 81, 1).
edge(146, 45, 5).
edge(1, 26, 31).
edge(160, 11, 13).
edge(3, 162, 39).
edge(60, 22, 3).
edge(173, 143, 23).
edge(105, 48, 20).
edge(78, 172, 13).
edge(155, 141, 6).
edge(137, 37, 12).
edge(106, 99, 26).
edge(79, 138, 11).
edge(177, 8, 29).
edge(163, 86, 14).
edge(160, 8, 7).
edge(143, 111, 32).
edge(61, 81, 38).
edge(112, 144, 1).
edge(140, 110, 27).
edge(32, 125, 36).
edge(92, 144, 5).
edge(32, 62, 27).
edge(90, 48, 20).
edge(25, 3, 4).
edge(71, 126, 34).
edge(126, 102, 3).
edge(132, 138, 33).
edge(98, 112, 29).
edge(153, 12, 27).
edge(36, 151, 27).
edge(95, 169, 3).
edge(174, 126, 33).
edge(35, 123, 6).
edge(87, 101, 2).
edge(121, 31, 13).
edge(22, 67, 15).
edge(102, 161, 13).
edge(43, 87, 17).
edge(4, 104, 2).
edge(2, 159, 24).
edge(72, 75, 15).
edge(60, 9, 36).
edge(121, 33, 29).
edge(83, 98, 13).
edge(27, 52, 10).
edge(158, 22, 4).
edge(23, 69, 33).
edge(84, 168, 17).
edge(152, 174, 13).
edge(32, 134, 28).
edge(119, 159, 8).
edge(37, 30, 12).
edge(56, 161, 2).
edge(69, 32, 5).
edge(80, 71, 16).
edge(108, 132, 2).
edge(91, 139, 19).
edge(143, 3, 3).
edge(1, 110, 5).
edge(101, 99, 13).
edge(2, 74, 6).
edge(56, 149, 38).
edge(49, 97, 12).
edge(63, 51, 22).
edge(83, 86, 11).
edge(1, 158, 1).
edge(129, 45, 13).
edge(132, 126, 12).
edge(40, 37, 3).
edge(94, 101, 7).
edge(137, 112, 36).
edge(137, 173, 12).
edge(68, 37, 35).
edge(64, 88, 22).
edge(22, 154, 4).
edge(17, 92, 13).
edge(81, 69, 18).
edge(127, 76, 26).
edge(152, 76, 29).
edge(146, 102, 25).
edge(159, 20, 14).
edge(125, 92, 28).
edge(144, 54, 9).
edge(38, 166, 7).
edge(116, 163, 22).
edge(18, 26, 18).
edge(151, 128, 26).
edge(149, 109, 18).
edge(109, 96, 6).
edge(7, 32, 23).
edge(173, 33, 6).
edge(134, 97, 26).
edge(138, 39, 21).
edge(46, 112, 33).
edge(69, 66, 11).
edge(13, 22, 14).
edge(98, 105, 26).
edge(12, 164, 10).
edge(172, 170, 33).
edge(152, 87, 19).
edge(110, 11, 29).
edge(123, 170, 17).
edge(114, 18, 17).
edge(38, 65, 23).
edge(75, 10, 15).
edge(162, 136, 16).
edge(69, 97, 35).
edge(170, 85, 32).
edge(140, 164, 11).
edge(7, 133, 21).
edge(151, 37, 3).
edge(155, 19, 34).
edge(153, 145, 9).
edge(72, 41, 1).
edge(114, 37, 12).
edge(154, 40, 16).
edge(33, 10, 32).
edge(158, 168, 4).
edge(139, 167, 10).
edge(57, 14, 35).
edge(44, 160, 11).
edge(15, 1, 2).
edge(8, 158, 38).
edge(7, 131, 24).
edge(27, 66, 30).
edge(32, 169, 5).
edge(117, 157, 28).
edge(27, 54, 34).
edge(138, 171, 8).
edge(83, 100, 7).
edge(60, 67, 22).
edge(141, 84, 10).
edge(170, 121, 32).
edge(122, 29, 9).
edge(48, 127, 5).
edge(88, 176, 3).
edge(164, 151, 39).
edge(102, 105, 5).
edge(174, 58, 9).
edge(36, 176, 39).
edge(159, 11, 35).
edge(104, 138, 37).
edge(8, 17, 36).
edge(172, 102, 21).
edge(44, 123, 34).
edge(167, 3, 1).
edge(38, 169, 15).
edge(109, 135, 16).
edge(65, 162, 5).
edge(167, 31, 30).
edge(129, 18, 23).
edge(165, 121, 16).
edge(102, 103, 18).
edge(30, 16, 6).
edge(4, 36, 3).
edge(35, 158, 3).
edge(159, 95, 30).
edge(133, 83, 14).
edge(62, 155, 5).
edge(108, 143, 36).
edge(68, 97, 25).
edge(150, 115, 33).
edge(168, 156, 32).
edge(135, 165, 39).
edge(65, 21, 15).
edge(117, 81, 1).
edge(72, 139, 38).
edge(7, 100, 15).
edge(142, 110, 13).
edge(111, 51, 21).
edge(55, 145, 20).
edge(132, 156, 23).
edge(29, 87, 25).
edge(12, 155, 8).
edge(147, 142, 23).
edge(66, 161, 38).
edge(114, 152, 11).
edge(80, 1, 35).
edge(87, 19, 26).
edge(6, 93, 15).
edge(134, 122, 20).
edge(163, 96, 15).
edge(119, 53, 6).
edge(97, 165, 9).
edge(115, 78, 23).
edge(128, 97, 14).
edge(147, 150, 33).
edge(169, 132, 4).
edge(79, 57, 38).
edge(35, 79, 15).
edge(98, 25, 31).
edge(81, 99, 4).
edge(102, 48, 21).
edge(116, 13, 12).
edge(72, 147, 4).
edge(24, 90, 23).
edge(74, 134, 31).
edge(33, 144, 4).
edge(37, 98, 3).
edge(46, 1, 25).
edge(3, 137, 32).
edge(27, 86, 24).
edge(161, 134, 1).
edge(93, 81, 24).
edge(48, 156, 37).
edge(157, 105, 16).
edge(25, 177, 31).
edge(84, 35, 21).
edge(71, 9, 37).
edge(65, 105, 27).
edge(50, 91, 20).
edge(8, 142, 14).
edge(166, 60, 30).
edge(40, 83, 35).
edge(70, 77, 16).
edge(16, 7, 8).
edge(50, 40, 23).
edge(77, 146, 35).
edge(42, 18, 31).
edge(13, 132, 9).
edge(73, 150, 21).
edge(37, 108, 37).
edge(83, 148, 31).
edge(165, 36, 4).
edge(74, 56, 4).
edge(123, 149, 16).
edge(134, 166, 30).
edge(126, 96, 38).
edge(52, 19, 28).
edge(32, 79, 21).
edge(108, 28, 4).
edge(162, 115, 37).
edge(162, 90, 33).
edge(126, 158, 15).
edge(30, 19, 5).
edge(141, 21, 23).
edge(35, 118, 31).
edge(68, 61, 14).
edge(104, 100, 3).
edge(34, 56, 13).
edge(44, 53, 26).
edge(101, 30, 32).
edge(86, 40, 13).
edge(124, 76, 22).
edge(167, 34, 3).
edge(163, 164, 22).
edge(118, 151, 32).
edge(63, 12, 25).
edge(25, 135, 2).
edge(154, 120, 12).
edge(152, 146, 14).
edge(92, 62, 9).
edge(116, 35, 18).
edge(103, 121, 16).
edge(40, 133, 37).
edge(109, 173, 20).
edge(127, 2, 8).
edge(99, 103, 24).
edge(129, 165, 4).
edge(104, 26, 10).
edge(124, 140, 5).
edge(120, 2, 15).
edge(140, 171, 5).
edge(66, 28, 12).
edge(148, 120, 39).
edge(176, 164, 1).
edge(176, 63, 27).
edge(81, 73, 15).
edge(130, 19, 4).
edge(108, 151, 3).
edge(87, 161, 1).
edge(167, 157, 28).
edge(32, 68, 15).
edge(76, 19, 12).
edge(86, 154, 7).
edge(131, 126, 19).
edge(59, 15, 36).
edge(2, 60, 3).
edge(175, 153, 4).
edge(48, 84, 17).
edge(177, 60, 3).
edge(147, 65, 17).
edge(144, 148, 13).
edge(135, 156, 23).
edge(160, 6, 35).
edge(177, 40, 5).
edge(35, 170, 38).
edge(23, 94, 27).
edge(144, 113, 23).
edge(159, 76, 35).
edge(83, 13, 26).
edge(165, 10, 2).
edge(11, 95, 7).
edge(107, 104, 7).
edge(144, 98, 27).
edge(81, 127, 16).
edge(157, 65, 21).
edge(53, 74, 36).
edge(6, 4, 38).
edge(18, 170, 17).
edge(117, 164, 3).
edge(120, 167, 20).
edge(33, 117, 14).
edge(173, 113, 33).
edge(115, 37, 32).
edge(66, 135, 12).
edge(82, 37, 20).
edge(127, 163, 38).
edge(10, 26, 8).
edge(90, 11, 38).
edge(116, 22, 9).
edge(114, 28, 23).
edge(133, 46, 2).
edge(20, 92, 25).
edge(155, 134, 12).
edge(27, 80, 17).
edge(94, 9, 36).
edge(27, 128, 14).
edge(121, 44, 37).
edge(19, 45, 11).
edge(59, 81, 23).
edge(58, 143, 2).
edge(59, 118, 23).
edge(116, 87, 27).
edge(97, 62, 5).
edge(59, 150, 21).
edge(148, 24, 29).
edge(159, 85, 15).
edge(29, 26, 8).
edge(100, 16, 30).
edge(117, 4, 13).
edge(5, 170, 16).
edge(70, 102, 21).
edge(154, 135, 37).
edge(0, 90, 7).
edge(103, 35, 38).
edge(86, 13, 37).
edge(82, 11, 38).
edge(95, 87, 18).
edge(154, 100, 25).
edge(82, 58, 38).
edge(118, 41, 6).
edge(112, 51, 28).
edge(136, 80, 31).
edge(41, 124, 30).
edge(161, 87, 22).
edge(174, 16, 11).
edge(101, 70, 33).
edge(43, 99, 10).
edge(44, 140, 34).
edge(110, 7, 23).
edge(109, 164, 3).
edge(134, 120, 16).
edge(79, 158, 26).
edge(44, 112, 18).
edge(131, 75, 6).
edge(174, 70, 14).
edge(34, 49, 30).
edge(56, 114, 15).
edge(139, 69, 4).
edge(14, 95, 20).
edge(87, 91, 36).
edge(119, 24, 10).
edge(122, 4, 12).
edge(126, 99, 28).
edge(0, 123, 34).
edge(105, 114, 10).
edge(115, 177, 21).
edge(66, 108, 5).
edge(160, 33, 16).
edge(150, 76, 25).
edge(25, 51, 28).
edge(133, 82, 23).
edge(24, 129, 12).
edge(132, 171, 32).
edge(77, 101, 32).
edge(158, 170, 28).
edge(95, 48, 11).
edge(23, 127, 36).
edge(62, 175, 6).
edge(75, 67, 24).
edge(7, 103, 21).
edge(175, 173, 14).
edge(55, 43, 4).
edge(39, 60, 22).
edge(13, 23, 32).
edge(78, 18, 21).
edge(150, 107, 12).
edge(80, 168, 27).
edge(42, 37, 3).
edge(158, 52, 30).
edge(20, 139, 26).
edge(156, 11, 4).
edge(142, 100, 4).
edge(46, 138, 8).
edge(96, 78, 17).
edge(131, 30, 38).
edge(150, 29, 36).
edge(56, 20, 35).
edge(89, 169, 7).
edge(164, 39, 10).
edge(112, 66, 5).
edge(42, 21, 33).
edge(19, 48, 35).
edge(37, 141, 16).
edge(124, 137, 7).
edge(112, 157, 3).
edge(51, 10, 13).
edge(22, 126, 37).
edge(103, 120, 14).
edge(131, 169, 25).
edge(170, 117, 24).
edge(51, 67, 3).
edge(169, 35, 35).
edge(130, 51, 6).
edge(171, 150, 15).
edge(151, 15, 15).
edge(10, 58, 19).
edge(137, 38, 28).
edge(165, 159, 5).
edge(51, 142, 36).
edge(160, 25, 30).
edge(152, 160, 6).
edge(23, 167, 36).
edge(11, 108, 39).
edge(176, 14, 6).
edge(130, 48, 34).
edge(119, 50, 30).
edge(90, 26, 15).
edge(93, 23, 29).
edge(175, 52, 24).
edge(50, 164, 32).
edge(88, 4, 23).
edge(153, 109, 28).
edge(167, 149, 20).
edge(34, 37, 32).
edge(103, 167, 25).
edge(24, 42, 3).
edge(13, 143, 3).
edge(157, 174, 33).
edge(105, 62, 7).
edge(48, 78, 16).
edge(56, 100, 8).
edge(103, 118, 21).
edge(167, 103, 16).
edge(133, 65, 5).
edge(55, 20, 22).
edge(27, 78, 26).
edge(26, 136, 18).
edge(61, 35, 4).
edge(90, 4, 26).
edge(155, 32, 20).
edge(173, 116, 28).
edge(109, 66, 25).
edge(18, 125, 20).
edge(23, 55, 6).
edge(29, 49, 27).
edge(87, 97, 23).
edge(58, 25, 33).
edge(129, 90, 22).
edge(122, 60, 23).
edge(159, 63, 26).
edge(124, 108, 1).
edge(81, 112, 13).
edge(22, 43, 20).
edge(113, 57, 2).
edge(151, 166, 19).
edge(107, 119, 21).
edge(7, 88, 38).
edge(82, 118, 14).
edge(149, 35, 39).
edge(56, 62, 32).
edge(111, 59, 35).
edge(78, 20, 7).
edge(19, 95, 29).
edge(114, 14, 35).
edge(60, 140, 39).
edge(106, 77, 24).
edge(74, 40, 31).
edge(13, 139, 6).
edge(121, 125, 3).
edge(98, 35, 24).
edge(144, 37, 32).
edge(88, 142, 32).
edge(143, 51, 9).
edge(120, 153, 36).
edge(153, 46, 9).
edge(63, 50, 9).
edge(5, 175, 32).
edge(48, 109, 9).
edge(53, 11, 4).
edge(20, 104, 3).
edge(103, 126, 36).
edge(12, 5, 16).
edge(129, 86, 38).
edge(50, 119, 32).
edge(87, 177, 37).
edge(9, 61, 1).
edge(20, 120, 9).
edge(100, 34, 26).
edge(75, 1, 27).
edge(32, 16, 14).
edge(64, 137, 24).
edge(92, 23, 36).
edge(113, 17, 27).
edge(2, 44, 30).
edge(101, 144, 7).
edge(81, 71, 20).
edge(10, 120, 17).
edge(155, 8, 13).
edge(146, 155, 16).
edge(78, 91, 23).
edge(125, 31, 3).
edge(20, 121, 4).
edge(112, 54, 30).
edge(162, 45, 26).
edge(55, 50, 3).
edge(159, 154, 30).
edge(133, 6, 2).
edge(63, 13, 29).
edge(48, 23, 19).
edge(146, 93, 11).
edge(136, 54, 11).
edge(131, 60, 15).
edge(22, 92, 19).
edge(167, 118, 38).
edge(0, 8, 38).
edge(112, 79, 38).
edge(133, 171, 19).
edge(37, 91, 12).
edge(9, 1, 38).
edge(174, 102, 25).
edge(8, 91, 6).
edge(167, 46, 9).
edge(37, 158, 24).
edge(88, 48, 28).
edge(172, 144, 23).
edge(85, 3, 38).
edge(21, 52, 19).
edge(72, 42, 22).
edge(160, 98, 23).
edge(57, 164, 28).
edge(37, 5, 11).
edge(176, 125, 14).
edge(15, 166, 36).
edge(68, 13, 7).
edge(170, 95, 20).
edge(104, 139, 9).
edge(47, 7, 6).
edge(38, 11, 15).
edge(170, 54, 29).
edge(58, 21, 15).
edge(41, 89, 28).
edge(116, 21, 12).
edge(3, 24, 6).
edge(94, 138, 12).
edge(34, 52, 2).
edge(66, 52, 36).
edge(118, 163, 4).
edge(46, 70, 20).
edge(137, 143, 18).
edge(135, 97, 36).
edge(69, 100, 22).
edge(54, 56, 33).
edge(92, 105, 37).
edge(153, 59, 4).
edge(98, 7, 10).
edge(137, 83, 24).
edge(27, 44, 13).
edge(36, 60, 30).
edge(36, 125, 25).
edge(174, 172, 36).
edge(20, 105, 21).
edge(169, 22, 23).
edge(177, 37, 27).
edge(95, 97, 4).
edge(94, 37, 32).
edge(147, 58, 15).
edge(78, 131, 18).
edge(100, 165, 37).
edge(14, 72, 32).
edge(108, 168, 9).
edge(0, 48, 18).
edge(59, 103, 9).
edge(25, 173, 1).
edge(36, 136, 17).
edge(61, 157, 37).
edge(97, 54, 3).
edge(87, 28, 4).
edge(145, 9, 15).
edge(158, 166, 35).
edge(41, 169, 23).
edge(20, 174, 9).
edge(63, 91, 20).
edge(77, 6, 31).
edge(110, 5, 28).
edge(24, 33, 9).
edge(20, 76, 20).
edge(170, 22, 2).
edge(23, 120, 38).
edge(168, 161, 34).
edge(6, 163, 23).
edge(104, 92, 16).
edge(72, 90, 39).
edge(54, 97, 8).
edge(68, 132, 19).
edge(36, 9, 14).
edge(139, 55, 6).
edge(23, 122, 20).
edge(173, 124, 18).
edge(173, 118, 18).
edge(32, 60, 22).
edge(150, 89, 37).
edge(11, 84, 15).
edge(128, 166, 31).
edge(65, 117, 14).
edge(64, 10, 5).
edge(143, 167, 2).
edge(97, 71, 15).
edge(140, 1, 14).
edge(111, 46, 23).
edge(25, 96, 29).
edge(121, 144, 9).
edge(140, 66, 17).
edge(60, 77, 26).
edge(79, 48, 12).
edge(29, 42, 16).
edge(95, 172, 11).
edge(0, 131, 7).
edge(161, 158, 4).
edge(70, 89, 6).
edge(5, 96, 35).
edge(121, 137, 32).
edge(3, 133, 2).
edge(78, 83, 26).
edge(172, 127, 28).
edge(113, 11, 17).
edge(127, 99, 34).
edge(57, 7, 16).
edge(118, 114, 22).
edge(93, 74, 25).
edge(89, 29, 15).
edge(0, 124, 35).
edge(53, 84, 27).
edge(39, 108, 33).
edge(39, 20, 25).
edge(147, 90, 32).
edge(175, 116, 34).
edge(93, 27, 11).
edge(54, 159, 22).
edge(7, 141, 11).
edge(160, 21, 35).
edge(105, 47, 38).
edge(175, 84, 5).
edge(3, 150, 12).
edge(107, 145, 34).
edge(173, 0, 34).
edge(75, 65, 2).
edge(173, 97, 28).
edge(14, 111, 34).
edge(24, 163, 11).
edge(25, 166, 11).
edge(169, 48, 1).
edge(33, 151, 2).
edge(147, 82, 22).
edge(131, 9, 18).
edge(125, 140, 21).
edge(1, 9, 16).
edge(148, 26, 35).
edge(141, 104, 11).
edge(144, 118, 1).
edge(153, 80, 26).
edge(131, 42, 27).
edge(51, 105, 31).
edge(151, 16, 33).
edge(119, 30, 11).
edge(147, 152, 28).
edge(154, 113, 35).
edge(80, 163, 3).
edge(114, 147, 6).
edge(108, 136, 8).
edge(140, 54, 39).
edge(131, 119, 20).
edge(152, 66, 18).
edge(49, 17, 15).
edge(19, 27, 13).
edge(35, 91, 13).
edge(43, 172, 21).
edge(168, 151, 33).
edge(1, 164, 31).
edge(2, 95, 33).
edge(97, 52, 39).
edge(28, 158, 23).
edge(116, 38, 28).
edge(73, 143, 13).
edge(143, 106, 27).
edge(116, 107, 30).
edge(143, 129, 20).
edge(125, 139, 37).
edge(2, 128, 3).
edge(27, 121, 29).
edge(94, 159, 27).
edge(164, 34, 22).
edge(131, 28, 4).
edge(12, 134, 5).
edge(128, 30, 25).
edge(6, 170, 2).
edge(75, 52, 36).
edge(122, 167, 35).
edge(162, 133, 20).
edge(84, 171, 32).
edge(173, 72, 8).
edge(141, 56, 32).
edge(41, 73, 18).
edge(159, 60, 19).
edge(156, 98, 7).
edge(139, 78, 4).
edge(51, 108, 13).
edge(174, 50, 5).
edge(33, 170, 27).
edge(76, 27, 38).
edge(22, 8, 38).
edge(64, 140, 26).
edge(79, 18, 34).
edge(67, 43, 37).
edge(27, 122, 13).
edge(158, 119, 35).
edge(48, 93, 15).
edge(77, 100, 4).
edge(164, 76, 35).
edge(68, 60, 1).
edge(63, 73, 29).
edge(58, 101, 13).
edge(18, 148, 30).
edge(36, 106, 10).
edge(12, 161, 17).
edge(92, 54, 4).
edge(1, 157, 21).
edge(165, 71, 4).
edge(19, 1, 1).
edge(156, 61, 7).
edge(45, 13, 4).
edge(133, 136, 36).
edge(46, 93, 21).
edge(159, 88, 23).
edge(20, 157, 22).
edge(74, 32, 30).
edge(78, 26, 29).
edge(51, 74, 4).
edge(12, 42, 5).
edge(102, 128, 2).
edge(162, 31, 38).
edge(141, 6, 30).
edge(7, 21, 14).
edge(91, 144, 27).
edge(104, 144, 8).
edge(115, 97, 18).
edge(15, 13, 5).
edge(176, 11, 1).
edge(129, 0, 31).
edge(174, 23, 20).
edge(109, 12, 1).
edge(167, 58, 2).
edge(169, 33, 19).
edge(136, 89, 27).
edge(59, 50, 14).
edge(152, 71, 10).
edge(109, 145, 35).
edge(65, 158, 6).
edge(156, 10, 27).
edge(153, 36, 22).
edge(48, 36, 17).
edge(69, 70, 24).
edge(165, 156, 32).
edge(151, 111, 35).
edge(133, 76, 38).
edge(57, 90, 10).
edge(95, 102, 36).
edge(64, 71, 27).
edge(48, 155, 15).
edge(78, 52, 3).
edge(70, 142, 11).
edge(52, 121, 35).
edge(61, 24, 10).
edge(14, 98, 30).
edge(37, 18, 12).
edge(43, 69, 6).
edge(105, 117, 34).
edge(151, 47, 9).
edge(84, 41, 26).
edge(7, 27, 22).
edge(32, 97, 10).
edge(90, 16, 2).
edge(71, 147, 6).
edge(176, 4, 6).
edge(119, 154, 32).
edge(95, 116, 18).
edge(22, 142, 39).
edge(24, 176, 33).
edge(86, 105, 32).
edge(152, 141, 34).
edge(84, 99, 17).
edge(162, 3, 4).
edge(174, 87, 9).
edge(5, 9, 20).
edge(36, 6, 16).
edge(76, 1, 1).
edge(128, 155, 5).
edge(16, 77, 37).
edge(164, 129, 33).
edge(72, 20, 27).
edge(132, 10, 20).
edge(136, 79, 16).
edge(9, 113, 1).
edge(105, 92, 39).
edge(36, 172, 8).
edge(30, 142, 3).
edge(22, 114, 34).
edge(69, 73, 13).
edge(23, 172, 38).
edge(66, 100, 27).
edge(139, 60, 22).
edge(176, 22, 26).
edge(35, 59, 39).
edge(129, 97, 36).
edge(102, 80, 16).
edge(129, 98, 17).
edge(21, 156, 28).
edge(132, 73, 34).
edge(72, 163, 20).
edge(82, 52, 8).
edge(5, 135, 16).
edge(109, 94, 24).
edge(66, 90, 17).
edge(17, 35, 16).
edge(55, 122, 20).
edge(119, 136, 37).
edge(163, 116, 17).
edge(177, 157, 22).
edge(32, 143, 27).
edge(145, 49, 34).
edge(70, 141, 11).
edge(24, 144, 20).
edge(177, 1, 28).
edge(109, 63, 32).
edge(24, 20, 28).
edge(87, 46, 39).
edge(143, 93, 16).
edge(73, 30, 29).
edge(17, 163, 16).
edge(159, 156, 13).
edge(50, 165, 33).
edge(112, 115, 15).
edge(121, 42, 36).
edge(34, 76, 12).
edge(104, 66, 1).
edge(10, 73, 28).
edge(42, 22, 14).
edge(136, 141, 17).
edge(62, 53, 2).
edge(173, 122, 31).
edge(124, 171, 6).
edge(61, 89, 34).
edge(40, 67, 24).
edge(92, 156, 2).
edge(121, 90, 19).
edge(114, 15, 15).
edge(136, 68, 37).
edge(85, 73, 32).
edge(5, 145, 20).
edge(51, 132, 38).
edge(153, 105, 38).
edge(21, 177, 29).
edge(176, 32, 10).
edge(163, 66, 2).
edge(59, 53, 7).
edge(58, 127, 15).
edge(127, 30, 4).
edge(57, 60, 33).
edge(48, 28, 36).
edge(151, 171, 15).
edge(29, 144, 31).
edge(64, 111, 7).
edge(87, 73, 32).
edge(118, 55, 1).
edge(55, 113, 25).
edge(61, 37, 34).
edge(122, 86, 36).
edge(124, 167, 27).
edge(169, 137, 28).
edge(120, 17, 25).
edge(57, 157, 28).
edge(15, 58, 16).
edge(38, 163, 15).
edge(170, 37, 3).
edge(158, 105, 34).
edge(151, 42, 13).
edge(11, 74, 13).
edge(57, 160, 29).
edge(60, 171, 22).
edge(128, 69, 30).
edge(119, 4, 27).
edge(66, 2, 14).
edge(136, 149, 31).
edge(130, 144, 11).
edge(59, 148, 27).
edge(156, 56, 12).
edge(116, 23, 33).
edge(109, 2, 4).
edge(89, 27, 2).
edge(43, 35, 29).
edge(166, 66, 39).
edge(170, 124, 12).
edge(154, 144, 26).
edge(164, 115, 27).
edge(108, 138, 23).
edge(87, 49, 20).
edge(55, 130, 33).
edge(18, 89, 39).
edge(19, 6, 32).
edge(89, 31, 38).
edge(56, 57, 32).
edge(62, 24, 23).
edge(44, 97, 18).
edge(9, 13, 18).
edge(51, 82, 27).
edge(24, 109, 22).
edge(77, 159, 12).
edge(86, 59, 2).
edge(60, 55, 8).
edge(152, 169, 22).
edge(51, 63, 1).
edge(124, 65, 2).
edge(21, 29, 38).
edge(81, 62, 15).
edge(5, 91, 2).
edge(162, 173, 13).
edge(109, 14, 7).
edge(19, 114, 12).
edge(155, 117, 8).
edge(105, 5, 12).
edge(123, 146, 29).
edge(70, 23, 2).
edge(84, 161, 33).
edge(26, 117, 38).
edge(39, 126, 6).
edge(105, 107, 29).
edge(100, 46, 8).
edge(100, 63, 11).
edge(22, 42, 20).
edge(114, 115, 35).
edge(163, 19, 29).
edge(88, 160, 33).
edge(0, 84, 16).
edge(168, 138, 30).
edge(65, 35, 17).
edge(87, 110, 26).
edge(134, 116, 35).
edge(102, 39, 30).
edge(109, 100, 8).
edge(107, 56, 28).
edge(47, 134, 25).
edge(77, 46, 3).
edge(16, 119, 22).
edge(42, 98, 26).
edge(162, 94, 15).
edge(23, 5, 26).
edge(150, 7, 19).
edge(128, 87, 3).
edge(33, 85, 38).
edge(166, 2, 39).
edge(174, 89, 2).
edge(13, 130, 8).
edge(118, 88, 37).
edge(9, 161, 13).
edge(57, 131, 15).
edge(10, 35, 7).
edge(144, 136, 2).
edge(6, 149, 4).
edge(86, 72, 18).
edge(50, 99, 5).
edge(87, 143, 26).
edge(5, 117, 32).
edge(63, 143, 7).
edge(59, 4, 39).
edge(80, 22, 9).
edge(77, 89, 5).
edge(103, 13, 26).
edge(3, 132, 21).
edge(96, 109, 6).
edge(124, 15, 20).
edge(64, 157, 23).
edge(121, 1, 29).
edge(0, 149, 32).
edge(23, 33, 6).
edge(45, 94, 29).
edge(170, 133, 13).
edge(147, 28, 32).
edge(11, 173, 13).
edge(22, 143, 15).
edge(45, 81, 37).
edge(28, 91, 35).
edge(19, 149, 18).
edge(50, 58, 5).
edge(136, 76, 31).
edge(23, 31, 28).
edge(79, 17, 29).
edge(73, 149, 28).
edge(29, 130, 2).
edge(176, 136, 28).
edge(173, 102, 31).
edge(98, 81, 6).
edge(82, 85, 31).
edge(46, 14, 31).
edge(11, 76, 29).
edge(120, 55, 37).
edge(133, 49, 38).
edge(32, 147, 25).
edge(149, 175, 32).
edge(83, 155, 23).
edge(174, 136, 26).
edge(157, 57, 31).
edge(139, 106, 2).
edge(32, 85, 11).
edge(53, 114, 14).
edge(94, 165, 31).
edge(54, 149, 26).
edge(150, 158, 1).
edge(84, 173, 20).
edge(37, 57, 19).
edge(119, 16, 19).
edge(101, 56, 31).
edge(101, 81, 17).
edge(141, 123, 33).
edge(72, 60, 32).
edge(88, 87, 29).
edge(145, 122, 21).
edge(133, 156, 19).
edge(46, 5, 4).
edge(123, 99, 12).
edge(150, 170, 1).
edge(79, 23, 19).
edge(115, 147, 23).
edge(176, 85, 19).
edge(56, 76, 32).
edge(39, 87, 20).
edge(15, 9, 39).
edge(25, 75, 7).
edge(47, 59, 2).
edge(48, 94, 21).
edge(138, 113, 33).
edge(84, 175, 27).
edge(140, 147, 20).
edge(119, 71, 38).
edge(103, 127, 34).
edge(39, 161, 10).
edge(118, 102, 16).
edge(46, 88, 21).
edge(85, 167, 5).
edge(44, 16, 33).
edge(84, 166, 30).
edge(94, 96, 2).
edge(59, 70, 28).
edge(47, 31, 7).
edge(64, 27, 11).
edge(82, 111, 13).
edge(96, 148, 16).
edge(101, 132, 21).
edge(32, 140, 16).
edge(153, 24, 10).
edge(65, 10, 26).
edge(100, 167, 10).
edge(31, 124, 2).
edge(164, 137, 11).
edge(120, 33, 39).
edge(132, 125, 9).
edge(53, 88, 13).
edge(22, 117, 21).
edge(56, 112, 38).
edge(0, 52, 7).
edge(91, 97, 27).
edge(25, 114, 6).
edge(130, 30, 24).
edge(161, 79, 34).
edge(99, 105, 14).
edge(0, 136, 34).
edge(65, 54, 35).
edge(123, 101, 16).
edge(170, 53, 20).
edge(141, 170, 5).
edge(17, 149, 30).
edge(5, 54, 6).
edge(129, 155, 14).
edge(29, 1, 3).
edge(115, 169, 36).
edge(106, 79, 26).
edge(118, 54, 11).
edge(166, 6, 33).
edge(131, 73, 11).
edge(14, 26, 24).
edge(124, 81, 27).
edge(114, 86, 4).
edge(42, 60, 33).
edge(173, 151, 16).
edge(154, 66, 29).
edge(40, 131, 27).
edge(45, 19, 31).
edge(111, 66, 34).
edge(174, 141, 26).
edge(60, 48, 31).
edge(35, 50, 26).
edge(176, 90, 11).
edge(112, 140, 26).
edge(66, 16, 19).
edge(92, 137, 19).
edge(15, 145, 17).
edge(94, 176, 9).
edge(110, 123, 16).
edge(163, 94, 17).
edge(128, 82, 18).
edge(23, 113, 32).
edge(162, 123, 39).
edge(28, 7, 2).
edge(75, 25, 35).
edge(34, 46, 21).
edge(98, 53, 10).
edge(32, 74, 16).
edge(79, 66, 34).
edge(103, 67, 19).
edge(161, 68, 16).
edge(8, 154, 22).
edge(89, 76, 35).
edge(156, 132, 2).
edge(126, 62, 28).
edge(147, 114, 36).
edge(140, 31, 32).
edge(72, 82, 10).
edge(79, 114, 4).
edge(67, 22, 19).
edge(113, 58, 15).
edge(75, 70, 5).
edge(35, 176, 25).
edge(129, 41, 8).
edge(83, 99, 8).
edge(58, 79, 25).
edge(139, 138, 10).
edge(106, 84, 34).
edge(47, 12, 4).
edge(76, 34, 31).
edge(100, 2, 4).
edge(48, 54, 31).
edge(76, 60, 27).
edge(68, 87, 3).
edge(49, 82, 17).
edge(161, 75, 39).
edge(132, 120, 21).
edge(123, 98, 8).
edge(167, 77, 23).
edge(63, 80, 29).
edge(0, 128, 2).
edge(69, 53, 12).
edge(94, 16, 5).
edge(123, 174, 9).
edge(21, 89, 14).
edge(115, 135, 24).
edge(69, 52, 35).
edge(26, 41, 26).
edge(131, 114, 26).
edge(111, 3, 13).
edge(92, 21, 36).
edge(92, 151, 36).
edge(69, 130, 21).
edge(166, 126, 27).
edge(4, 32, 20).
edge(175, 89, 22).
edge(42, 135, 37).
edge(55, 160, 8).
edge(41, 96, 33).
edge(118, 106, 10).
edge(128, 71, 11).
edge(86, 8, 4).
edge(57, 176, 15).
edge(153, 43, 18).
edge(128, 170, 5).
edge(121, 107, 18).
edge(9, 23, 10).
edge(26, 105, 14).
edge(108, 105, 15).
edge(108, 87, 10).
edge(107, 24, 25).
edge(88, 53, 29).
edge(89, 100, 27).
edge(147, 78, 11).
edge(144, 25, 16).
edge(148, 167, 18).
edge(84, 139, 10).
edge(6, 160, 9).
edge(99, 16, 32).
edge(120, 14, 39).
edge(65, 3, 8).
edge(10, 150, 15).
edge(45, 20, 27).
edge(16, 167, 25).
edge(126, 2, 25).
edge(148, 105, 37).
edge(0, 35, 14).
edge(144, 45, 10).
edge(43, 98, 39).
edge(177, 30, 18).
edge(96, 42, 5).
edge(129, 117, 29).
edge(55, 52, 29).
edge(143, 101, 7).
edge(87, 169, 14).
edge(86, 162, 12).
edge(93, 24, 38).
edge(27, 74, 8).
edge(45, 144, 33).
edge(77, 162, 24).
edge(110, 107, 26).
edge(3, 59, 37).
edge(27, 103, 7).
edge(41, 51, 19).
edge(143, 22, 25).
edge(63, 98, 8).
edge(30, 24, 6).
edge(126, 106, 5).
edge(84, 64, 27).
edge(147, 167, 18).
edge(74, 149, 17).
edge(26, 177, 13).
edge(104, 6, 38).
edge(25, 29, 38).
edge(53, 142, 11).
edge(4, 165, 25).
edge(33, 22, 18).
edge(159, 80, 30).
edge(15, 36, 4).
edge(51, 165, 19).
edge(161, 4, 37).
edge(87, 70, 20).
edge(159, 49, 30).
edge(42, 145, 24).
edge(5, 154, 4).
edge(104, 101, 24).
edge(38, 131, 1).
edge(79, 94, 28).
edge(92, 27, 13).
edge(35, 139, 17).
edge(78, 122, 23).
edge(86, 106, 14).
edge(45, 35, 8).
edge(18, 64, 38).
edge(146, 88, 26).
edge(58, 0, 31).
edge(111, 47, 28).
edge(70, 161, 19).
edge(66, 116, 10).
edge(50, 96, 10).
edge(55, 1, 39).
edge(161, 97, 7).
edge(11, 100, 30).
edge(27, 7, 14).
edge(97, 10, 10).
edge(12, 48, 20).
edge(82, 97, 14).
edge(6, 130, 3).
edge(61, 160, 22).
edge(44, 93, 16).
edge(142, 80, 12).
edge(5, 148, 16).
edge(48, 114, 23).
edge(105, 74, 10).
edge(32, 20, 34).
edge(171, 137, 32).
edge(130, 159, 17).
edge(5, 15, 25).
edge(21, 44, 14).
edge(160, 125, 23).
edge(21, 51, 17).
edge(83, 140, 12).
edge(170, 83, 27).
edge(137, 170, 15).
edge(153, 100, 8).
edge(108, 42, 14).
edge(2, 135, 17).
edge(57, 162, 12).
edge(35, 23, 5).
edge(58, 146, 19).
edge(108, 80, 6).
edge(61, 91, 35).
edge(173, 163, 20).
edge(38, 69, 3).
edge(151, 40, 20).
edge(147, 71, 13).
edge(42, 30, 38).
edge(148, 139, 11).
edge(69, 141, 7).
edge(52, 142, 11).
edge(104, 1, 32).
edge(3, 134, 29).
edge(44, 17, 3).
edge(159, 112, 3).
edge(3, 89, 28).
edge(126, 28, 6).
edge(137, 96, 30).
edge(53, 156, 29).
edge(49, 53, 1).
edge(141, 26, 33).
edge(176, 73, 16).
edge(130, 132, 1).
edge(153, 132, 27).
edge(48, 132, 19).
edge(102, 129, 12).
edge(94, 14, 11).
edge(12, 108, 15).
edge(128, 116, 8).
edge(149, 17, 25).
edge(17, 109, 22).
edge(16, 14, 12).
edge(20, 109, 7).
edge(167, 121, 38).
edge(67, 173, 6).
edge(124, 2, 10).
edge(66, 84, 11).
edge(125, 171, 27).
edge(47, 160, 28).
edge(36, 165, 24).
edge(112, 145, 8).
edge(70, 82, 24).
edge(147, 137, 34).
edge(134, 149, 10).
edge(105, 93, 31).
edge(12, 55, 7).
edge(7, 70, 24).
edge(31, 176, 15).
edge(164, 57, 18).
edge(100, 98, 27).
edge(95, 38, 18).
edge(73, 98, 19).
edge(174, 101, 16).
edge(67, 12, 31).
edge(103, 131, 23).
edge(47, 70, 19).
edge(14, 53, 28).
edge(146, 67, 10).
edge(90, 91, 34).
edge(21, 161, 28).
edge(95, 157, 27).
edge(124, 95, 35).
edge(151, 129, 23).
edge(145, 67, 11).
edge(91, 81, 22).
edge(19, 87, 22).
edge(167, 150, 26).
edge(13, 7, 16).
edge(154, 121, 1).
edge(47, 91, 18).
edge(53, 20, 18).
edge(173, 174, 7).
edge(17, 123, 2).
edge(54, 88, 31).
edge(57, 46, 26).
edge(49, 122, 9).
edge(5, 74, 16).
edge(2, 127, 37).
edge(71, 92, 1).
edge(148, 159, 7).
edge(22, 47, 14).
edge(87, 15, 1).
edge(108, 152, 16).
edge(94, 61, 31).
edge(169, 26, 21).
edge(4, 41, 32).
edge(122, 87, 32).
edge(27, 130, 31).
edge(112, 141, 36).
edge(175, 142, 9).
edge(142, 76, 38).
edge(94, 151, 10).
edge(151, 119, 24).
edge(89, 25, 6).
edge(41, 126, 13).
edge(153, 84, 19).
edge(85, 91, 14).
edge(82, 7, 8).
edge(109, 116, 30).
edge(28, 36, 16).
edge(167, 119, 24).
edge(160, 106, 17).
edge(127, 162, 10).
edge(155, 95, 11).
edge(162, 99, 15).
edge(106, 170, 8).
edge(155, 130, 36).
edge(81, 74, 2).
edge(93, 38, 33).
edge(3, 130, 30).
edge(114, 64, 26).
edge(116, 121, 7).
edge(7, 43, 20).
edge(145, 105, 3).
edge(10, 47, 31).
edge(21, 98, 20).
edge(24, 170, 22).
edge(112, 132, 28).
edge(140, 88, 32).
edge(50, 39, 33).
edge(121, 49, 1).
edge(86, 118, 34).
edge(160, 147, 4).
edge(103, 97, 38).
edge(160, 89, 14).
edge(150, 96, 36).
edge(3, 139, 27).
edge(140, 141, 11).
edge(140, 167, 3).
edge(131, 13, 28).
edge(6, 16, 23).
edge(46, 64, 12).
edge(99, 77, 23).
edge(102, 151, 17).
edge(42, 175, 13).
edge(40, 105, 38).
edge(116, 140, 2).
edge(93, 153, 24).
edge(124, 66, 34).
edge(173, 112, 31).
edge(106, 145, 35).
edge(66, 81, 10).
edge(15, 139, 32).
edge(78, 53, 23).
edge(104, 103, 9).
edge(47, 52, 32).
edge(42, 88, 2).
edge(157, 121, 6).
edge(159, 167, 1).
edge(112, 139, 23).
edge(20, 61, 36).
edge(27, 164, 28).
edge(155, 24, 33).
edge(106, 122, 21).
edge(172, 58, 12).
edge(112, 30, 12).
edge(131, 122, 7).
edge(50, 97, 34).
edge(84, 106, 6).
edge(20, 38, 24).
edge(175, 56, 11).
edge(34, 59, 32).
edge(107, 164, 23).
edge(134, 7, 27).
edge(128, 123, 36).
edge(116, 32, 35).
edge(107, 144, 21).
edge(49, 62, 6).
edge(74, 101, 30).
edge(3, 28, 13).
edge(75, 81, 18).
edge(97, 7, 31).
edge(32, 139, 26).
edge(148, 20, 12).
edge(61, 47, 31).
edge(8, 157, 3).
edge(128, 63, 14).
edge(105, 2, 37).
edge(59, 11, 33).
edge(38, 106, 16).
edge(63, 23, 24).
edge(17, 166, 34).
edge(36, 126, 1).
edge(53, 90, 18).
edge(113, 99, 20).
edge(20, 30, 9).
edge(55, 156, 30).
edge(38, 103, 27).
edge(128, 153, 5).
edge(162, 1, 10).
edge(80, 155, 10).
edge(177, 49, 14).
edge(48, 53, 14).
edge(53, 164, 27).
edge(123, 88, 33).
edge(125, 74, 13).
edge(85, 27, 5).
edge(4, 114, 17).
edge(56, 150, 5).
edge(46, 168, 13).
edge(95, 22, 1).
edge(131, 55, 19).
edge(6, 136, 29).
edge(33, 48, 31).
edge(103, 60, 10).
edge(54, 172, 6).
edge(135, 31, 21).
edge(157, 6, 29).
edge(106, 9, 21).
edge(55, 74, 31).
edge(22, 24, 37).
edge(159, 162, 35).
edge(165, 168, 1).
edge(45, 151, 5).
edge(40, 54, 4).
edge(117, 67, 17).
edge(26, 6, 25).
edge(160, 109, 12).
edge(70, 49, 26).
edge(121, 164, 6).
edge(100, 92, 9).
edge(74, 166, 26).
edge(97, 131, 28).
edge(54, 12, 12).
edge(175, 131, 13).
edge(48, 95, 4).
edge(57, 149, 18).
edge(100, 177, 36).
edge(2, 19, 39).
edge(172, 129, 39).
edge(56, 49, 32).
edge(6, 80, 14).
edge(123, 116, 3).
edge(34, 122, 18).
edge(39, 25, 3).
edge(137, 68, 19).
edge(83, 75, 13).
edge(132, 90, 26).
edge(56, 60, 4).
edge(10, 167, 8).
edge(125, 137, 2).
edge(34, 151, 2).
edge(18, 127, 16).
edge(103, 88, 25).
edge(133, 59, 17).
edge(60, 145, 14).
edge(128, 21, 26).
edge(130, 120, 10).
edge(63, 67, 15).
edge(51, 133, 21).
edge(71, 16, 15).
edge(48, 72, 15).
edge(169, 66, 6).
edge(29, 27, 24).
edge(162, 89, 27).
edge(20, 140, 30).
edge(116, 4, 14).
edge(107, 57, 20).
edge(153, 125, 1).
edge(139, 48, 33).
edge(126, 75, 31).
edge(63, 94, 31).
edge(83, 63, 13).
edge(168, 169, 6).
edge(25, 119, 33).
edge(114, 21, 17).
edge(10, 90, 28).
edge(110, 71, 26).
edge(13, 62, 22).
edge(169, 161, 26).
edge(142, 158, 33).
edge(125, 121, 5).
edge(40, 4, 4).
edge(163, 41, 7).
edge(94, 115, 23).
edge(120, 127, 11).
edge(39, 0, 33).
edge(59, 10, 24).
edge(57, 177, 27).
edge(148, 108, 12).
edge(83, 56, 17).
edge(9, 118, 22).
edge(53, 148, 6).
edge(146, 147, 33).
edge(124, 68, 23).
edge(157, 138, 2).
edge(110, 80, 13).
edge(95, 16, 6).
edge(19, 50, 17).
edge(6, 124, 7).
edge(158, 79, 36).
edge(141, 17, 9).
edge(60, 68, 13).
edge(151, 172, 5).
edge(131, 33, 28).
edge(134, 28, 36).
edge(96, 60, 2).
edge(163, 105, 14).
edge(69, 104, 33).
edge(101, 154, 27).
edge(98, 9, 14).
edge(10, 109, 31).
edge(84, 12, 16).
edge(18, 55, 26).
edge(48, 101, 4).
edge(154, 55, 32).
edge(5, 34, 22).
edge(175, 112, 10).
edge(66, 171, 6).
edge(174, 20, 20).
edge(53, 63, 19).
edge(12, 66, 38).
edge(135, 137, 30).
edge(163, 77, 38).
edge(136, 134, 7).
edge(6, 24, 22).
edge(33, 147, 20).
edge(172, 77, 5).
edge(98, 91, 33).
edge(106, 175, 6).
edge(56, 22, 30).
edge(75, 151, 14).
edge(20, 126, 6).
edge(146, 33, 36).
edge(86, 126, 33).
edge(137, 46, 19).
edge(173, 69, 26).
edge(125, 84, 22).
edge(95, 94, 9).
edge(146, 113, 35).
edge(177, 66, 26).
edge(144, 31, 23).
edge(100, 31, 39).
edge(110, 147, 24).
edge(126, 141, 14).
edge(7, 40, 21).
edge(141, 60, 22).
edge(61, 97, 6).
edge(30, 90, 5).
edge(162, 169, 7).
edge(65, 96, 34).
edge(163, 57, 11).
edge(33, 177, 24).
edge(96, 3, 19).
edge(64, 172, 36).
edge(135, 53, 31).
edge(14, 83, 5).
edge(38, 128, 22).
edge(30, 118, 12).
edge(175, 168, 28).
edge(168, 48, 19).
edge(101, 112, 3).
edge(67, 171, 21).
edge(139, 111, 2).
edge(130, 146, 13).
edge(20, 134, 34).
edge(50, 21, 36).
edge(24, 177, 26).
edge(11, 94, 22).
edge(106, 76, 36).
edge(155, 1, 3).
edge(118, 46, 39).
edge(174, 150, 8).
edge(134, 142, 21).
edge(58, 75, 36).
edge(51, 81, 33).
edge(55, 64, 12).
edge(22, 81, 6).
edge(145, 127, 16).
edge(61, 148, 26).
edge(142, 45, 19).
edge(0, 153, 29).
edge(137, 131, 34).
edge(8, 5, 11).
edge(93, 20, 2).
edge(82, 143, 23).
edge(132, 14, 28).
edge(35, 66, 10).
edge(1, 89, 37).
edge(11, 37, 33).
edge(145, 139, 24).
edge(19, 141, 6).
edge(40, 164, 4).
edge(168, 176, 33).
edge(66, 68, 3).
edge(43, 86, 10).
edge(146, 78, 7).
edge(30, 165, 28).
edge(50, 24, 27).
edge(70, 106, 30).
edge(76, 45, 31).
edge(109, 93, 17).
edge(77, 26, 6).
edge(173, 66, 33).
edge(138, 84, 10).
edge(123, 62, 32).
edge(154, 0, 6).
edge(158, 164, 35).
edge(48, 62, 24).
edge(172, 48, 26).
edge(11, 141, 26).
edge(86, 45, 20).
edge(117, 124, 22).
edge(85, 88, 38).
edge(4, 152, 21).
edge(33, 142, 20).
edge(108, 53, 35).
edge(51, 4, 14).
edge(174, 98, 11).
edge(164, 96, 33).
edge(105, 20, 31).
edge(52, 58, 9).
edge(137, 69, 6).
edge(123, 87, 16).
edge(89, 54, 21).
edge(51, 155, 9).
edge(82, 114, 31).
edge(108, 46, 9).
edge(82, 161, 15).
edge(4, 18, 22).
edge(54, 167, 28).
edge(127, 10, 12).
edge(147, 163, 28).
edge(115, 132, 15).
edge(68, 118, 1).
edge(103, 143, 39).
edge(125, 133, 9).
edge(31, 141, 12).
edge(142, 74, 16).
edge(176, 26, 2).
edge(138, 103, 10).
edge(37, 148, 8).
edge(94, 50, 39).
edge(151, 44, 36).
edge(142, 96, 16).
edge(117, 127, 29).
edge(28, 59, 20).
edge(171, 120, 19).
edge(156, 42, 21).
edge(41, 165, 12).
edge(45, 128, 8).
edge(14, 44, 17).
edge(87, 151, 37).
edge(16, 23, 26).
edge(141, 133, 22).
edge(126, 135, 29).
edge(105, 122, 16).
edge(70, 117, 25).
edge(5, 86, 32).
edge(27, 167, 18).
edge(104, 118, 14).
edge(32, 153, 33).
edge(25, 118, 9).
edge(166, 114, 9).
edge(92, 36, 22).
edge(89, 157, 16).
edge(177, 29, 16).
edge(76, 106, 35).
edge(139, 99, 32).
edge(175, 0, 22).
edge(65, 66, 13).
edge(17, 143, 26).
edge(155, 84, 24).
edge(110, 58, 19).
edge(98, 83, 23).
edge(62, 106, 39).
edge(59, 63, 3).
edge(135, 70, 24).
edge(88, 26, 28).
edge(168, 72, 38).
edge(117, 2, 29).
edge(120, 111, 4).
edge(74, 21, 37).
edge(107, 64, 32).
edge(67, 0, 24).
edge(48, 138, 28).
edge(152, 49, 10).
edge(163, 35, 2).
edge(152, 121, 29).
edge(175, 66, 17).
edge(67, 156, 38).
edge(71, 163, 32).
edge(121, 41, 6).
edge(52, 168, 28).
edge(160, 141, 26).
edge(40, 64, 12).
edge(170, 158, 6).
edge(135, 104, 30).
edge(9, 174, 20).
edge(177, 54, 21).
edge(28, 63, 11).
edge(118, 165, 14).
edge(50, 146, 34).
edge(138, 8, 34).
edge(4, 99, 10).
edge(0, 107, 5).
edge(95, 42, 26).
edge(65, 86, 18).
edge(45, 157, 11).
edge(142, 99, 18).
edge(54, 160, 31).
edge(128, 122, 6).
edge(12, 112, 2).
edge(40, 113, 6).
edge(143, 2, 22).
edge(156, 69, 3).
edge(135, 122, 39).
edge(116, 47, 4).
edge(27, 142, 21).
edge(42, 149, 2).
edge(9, 89, 17).
edge(98, 157, 19).
edge(141, 31, 9).
edge(168, 65, 11).
edge(20, 153, 11).
edge(177, 6, 2).
edge(12, 3, 6).
edge(96, 100, 29).
edge(41, 101, 7).
edge(109, 30, 26).
edge(88, 100, 28).
edge(128, 19, 32).
edge(83, 90, 19).
edge(50, 47, 5).
edge(59, 57, 23).
edge(61, 5, 31).
edge(84, 132, 19).
edge(54, 67, 7).
edge(61, 143, 17).
edge(165, 125, 25).
edge(16, 177, 36).
edge(106, 46, 2).
edge(165, 119, 19).
edge(10, 177, 6).
edge(20, 137, 14).
edge(162, 103, 18).
edge(27, 152, 38).
edge(10, 141, 18).
edge(122, 170, 13).
edge(170, 26, 38).
edge(79, 76, 39).
edge(10, 104, 3).
edge(79, 16, 33).
edge(78, 170, 26).
edge(172, 162, 18).
edge(134, 13, 23).
edge(21, 8, 20).
edge(117, 20, 26).
edge(62, 121, 4).
edge(167, 80, 8).
edge(73, 22, 13).
edge(137, 158, 2).
edge(94, 175, 31).
edge(169, 148, 26).
edge(71, 103, 34).
edge(136, 118, 28).
edge(56, 152, 32).
edge(45, 170, 28).
edge(67, 68, 30).
edge(19, 106, 37).
edge(56, 43, 3).
edge(46, 0, 19).
edge(114, 44, 26).
edge(128, 12, 7).
edge(161, 59, 38).
edge(142, 146, 37).
edge(15, 49, 39).
edge(45, 174, 20).
edge(25, 65, 9).
edge(38, 118, 19).
edge(129, 168, 6).
edge(146, 169, 30).
edge(98, 120, 13).
edge(158, 46, 13).
edge(64, 25, 22).
edge(65, 13, 22).
edge(110, 44, 29).
edge(17, 115, 37).
edge(13, 66, 14).
edge(62, 101, 29).
edge(176, 57, 22).
edge(97, 49, 34).
edge(123, 129, 7).
edge(158, 157, 21).
edge(175, 124, 24).
edge(49, 39, 5).
edge(49, 118, 34).
edge(41, 5, 30).
edge(115, 83, 1).
edge(148, 83, 19).
edge(140, 32, 23).
edge(115, 173, 38).
edge(121, 82, 34).
edge(26, 91, 7).
edge(9, 102, 37).
edge(58, 177, 18).
edge(142, 40, 31).
edge(160, 100, 21).
edge(72, 99, 23).
edge(88, 134, 8).
edge(66, 3, 35).
edge(76, 126, 4).
edge(170, 55, 16).
edge(94, 111, 35).
edge(167, 74, 34).
edge(50, 118, 26).
edge(50, 115, 36).
edge(101, 172, 19).
edge(156, 123, 1).
edge(158, 169, 16).
edge(171, 135, 5).
edge(117, 97, 26).
edge(20, 95, 5).
edge(117, 62, 1).
edge(57, 79, 10).
edge(77, 78, 35).
edge(129, 148, 17).
edge(124, 36, 36).
edge(56, 101, 20).
edge(72, 78, 18).
edge(167, 10, 33).
edge(134, 49, 35).
edge(14, 0, 35).
edge(137, 95, 17).
edge(74, 124, 20).
edge(161, 96, 37).
edge(101, 91, 29).
edge(15, 152, 10).
edge(148, 12, 6).
edge(89, 172, 15).
edge(88, 58, 10).
edge(96, 38, 35).
edge(52, 175, 34).
edge(40, 69, 15).
edge(147, 97, 18).
edge(21, 7, 16).
edge(93, 177, 31).
edge(161, 34, 21).
edge(129, 20, 19).
edge(68, 129, 7).
edge(67, 133, 18).
edge(74, 63, 1).
edge(27, 53, 38).
edge(130, 174, 23).
edge(157, 118, 19).
edge(58, 141, 14).
edge(92, 89, 1).
edge(145, 91, 26).
edge(28, 20, 16).
edge(37, 0, 14).
edge(118, 133, 13).
edge(82, 80, 35).
edge(73, 118, 34).
edge(43, 84, 30).
edge(98, 137, 39).
edge(104, 41, 30).
edge(173, 91, 22).
edge(30, 0, 10).
edge(135, 74, 2).
edge(174, 45, 35).
edge(104, 161, 23).
edge(112, 9, 38).
edge(15, 10, 8).
edge(138, 114, 19).
edge(9, 100, 1).
edge(33, 160, 5).
edge(87, 129, 35).
edge(70, 69, 31).
edge(67, 36, 14).
edge(15, 90, 37).
edge(93, 164, 25).
edge(161, 174, 30).
edge(118, 137, 28).
edge(53, 48, 19).
edge(30, 6, 19).
edge(150, 121, 30).
edge(128, 126, 27).
edge(142, 174, 8).
edge(26, 121, 4).
edge(83, 124, 36).
edge(98, 153, 5).
edge(153, 38, 20).
edge(141, 142, 37).
edge(122, 96, 8).
edge(78, 79, 7).
edge(62, 105, 2).
edge(88, 92, 11).
edge(6, 52, 23).
edge(91, 123, 22).
edge(48, 31, 39).
edge(4, 173, 4).
edge(144, 60, 3).
edge(126, 73, 6).
edge(10, 43, 25).
edge(78, 28, 30).
edge(36, 2, 26).
edge(89, 93, 23).
edge(114, 22, 1).
edge(120, 23, 10).
edge(53, 117, 5).
edge(145, 136, 27).
edge(117, 150, 16).
edge(177, 47, 6).
edge(74, 122, 10).
edge(66, 117, 20).
edge(70, 159, 38).
edge(114, 161, 31).
edge(45, 14, 30).
edge(23, 143, 23).
edge(4, 128, 25).
edge(174, 135, 19).
edge(163, 53, 24).
edge(150, 145, 19).
edge(50, 92, 21).
edge(57, 49, 2).
edge(98, 169, 28).
edge(76, 56, 1).
edge(80, 154, 8).
edge(164, 58, 20).
edge(104, 174, 28).
edge(149, 99, 26).
edge(101, 131, 34).
edge(168, 5, 37).
edge(36, 168, 7).
edge(72, 59, 19).
edge(8, 52, 12).
edge(99, 49, 7).
edge(121, 86, 9).
edge(150, 64, 32).
edge(73, 67, 30).
edge(36, 171, 3).
edge(26, 83, 12).
edge(165, 11, 32).
edge(73, 129, 33).
edge(160, 37, 10).
edge(107, 65, 28).
edge(171, 66, 5).
edge(11, 107, 32).
edge(18, 177, 25).
edge(115, 13, 34).
edge(126, 149, 19).
edge(159, 83, 16).
edge(52, 64, 12).
edge(103, 40, 6).
edge(50, 128, 7).
edge(154, 2, 35).
edge(138, 71, 29).
edge(99, 18, 24).
edge(158, 40, 6).
edge(165, 160, 5).
edge(95, 128, 22).
edge(106, 154, 36).
edge(150, 37, 37).
edge(104, 125, 27).
edge(16, 74, 35).
edge(32, 148, 36).
edge(22, 160, 35).
edge(29, 109, 27).
edge(23, 148, 15).
edge(152, 83, 10).
edge(138, 81, 8).
edge(73, 79, 17).
edge(80, 0, 7).
edge(72, 87, 28).
edge(3, 97, 28).
edge(48, 50, 4).
edge(33, 97, 34).
edge(154, 124, 21).
edge(157, 115, 18).
edge(32, 101, 4).
edge(18, 124, 6).
edge(34, 75, 24).
edge(30, 41, 16).
edge(14, 30, 18).
edge(148, 6, 30).
edge(142, 42, 20).
edge(83, 130, 19).
edge(18, 119, 19).
edge(60, 80, 32).
edge(40, 112, 33).
edge(139, 135, 17).
edge(69, 133, 1).
edge(74, 90, 9).
edge(103, 24, 21).
edge(54, 98, 5).
edge(167, 76, 11).
edge(83, 58, 16).
edge(104, 149, 9).
edge(26, 47, 33).
edge(23, 103, 35).
edge(62, 51, 16).
edge(65, 150, 18).
edge(171, 5, 29).
edge(3, 45, 31).
edge(88, 72, 2).
edge(47, 176, 10).
edge(17, 25, 26).
edge(22, 161, 22).
edge(4, 63, 15).
edge(132, 136, 29).
edge(69, 30, 8).
edge(163, 76, 8).
edge(163, 23, 16).
edge(1, 33, 5).
edge(171, 7, 4).
edge(35, 155, 29).
edge(129, 26, 24).
edge(5, 107, 20).
edge(40, 98, 4).
edge(119, 93, 34).
edge(176, 102, 16).
edge(125, 28, 3).
edge(106, 45, 24).
edge(19, 79, 3).
edge(69, 43, 4).
edge(100, 61, 28).
edge(121, 95, 19).
edge(114, 70, 29).
edge(73, 17, 33).
edge(73, 70, 10).
edge(53, 59, 31).
edge(158, 142, 3).
edge(3, 147, 10).
edge(88, 138, 9).
edge(165, 114, 21).
edge(20, 82, 6).
edge(45, 106, 34).
edge(152, 24, 21).
edge(25, 6, 39).
edge(5, 25, 6).
edge(29, 91, 20).
edge(110, 49, 30).
edge(98, 86, 39).
edge(110, 34, 15).
edge(77, 34, 28).
edge(67, 37, 13).
edge(173, 107, 24).
edge(73, 96, 3).
edge(169, 108, 31).
edge(141, 80, 26).
edge(168, 160, 16).
edge(75, 142, 26).
edge(127, 6, 7).
edge(121, 5, 18).
edge(113, 130, 21).
edge(153, 28, 34).
edge(37, 88, 28).
edge(148, 118, 36).
edge(60, 97, 15).
edge(18, 138, 26).
edge(86, 39, 20).
edge(124, 52, 16).
edge(176, 146, 32).
edge(79, 149, 5).
edge(129, 92, 38).
edge(7, 119, 32).
edge(171, 18, 35).
edge(171, 73, 36).
edge(143, 86, 19).
edge(57, 127, 26).
edge(141, 87, 34).
edge(54, 23, 29).
edge(138, 43, 6).
edge(105, 96, 33).
edge(3, 160, 33).
edge(36, 72, 18).
edge(108, 177, 31).
edge(66, 11, 38).
edge(146, 95, 4).
edge(144, 115, 14).
edge(90, 17, 17).
edge(111, 23, 14).
edge(176, 145, 14).
edge(80, 132, 33).
edge(61, 147, 1).
edge(117, 33, 4).
edge(146, 53, 14).
edge(115, 75, 39).
edge(111, 103, 29).
edge(42, 51, 12).
edge(61, 90, 17).
edge(77, 151, 34).
edge(164, 110, 4).
edge(169, 44, 5).
edge(101, 2, 9).
edge(66, 85, 11).
edge(40, 1, 38).
edge(113, 97, 1).
edge(31, 48, 19).
edge(5, 110, 37).
edge(37, 175, 7).
edge(97, 168, 27).
edge(56, 110, 2).
edge(105, 19, 2).
edge(129, 137, 21).
edge(98, 134, 7).
edge(163, 142, 23).
edge(139, 92, 28).
edge(33, 86, 3).
edge(176, 53, 22).
edge(7, 81, 1).
edge(103, 156, 22).
edge(90, 87, 15).
edge(18, 155, 11).
edge(148, 17, 17).
edge(59, 19, 31).
edge(95, 108, 23).
edge(100, 55, 7).
edge(45, 52, 33).
edge(49, 163, 25).
edge(61, 22, 24).
edge(161, 28, 11).
edge(129, 67, 37).
edge(169, 11, 28).
edge(41, 79, 13).
edge(94, 45, 19).
edge(77, 80, 4).
edge(95, 41, 12).
edge(140, 75, 20).
edge(144, 33, 37).
edge(2, 70, 39).
edge(89, 19, 31).
edge(55, 117, 30).
edge(94, 75, 32).
edge(148, 28, 35).
edge(61, 66, 6).
edge(67, 96, 33).
edge(55, 61, 6).
edge(51, 39, 39).
edge(144, 53, 34).
edge(43, 44, 34).
edge(125, 30, 25).
edge(121, 147, 2).
edge(141, 162, 28).
edge(114, 143, 28).
edge(166, 150, 29).
edge(126, 155, 6).
edge(110, 59, 39).
edge(131, 129, 21).
edge(35, 140, 19).
edge(162, 164, 39).
edge(54, 89, 36).
edge(72, 13, 37).
edge(70, 59, 37).
edge(175, 127, 26).
edge(81, 64, 36).
edge(166, 61, 14).
edge(75, 149, 36).
edge(157, 106, 2).
edge(171, 127, 13).
edge(76, 49, 36).
edge(26, 145, 11).
edge(13, 34, 22).
edge(15, 24, 10).
edge(74, 121, 26).
edge(86, 75, 37).
edge(97, 147, 21).
edge(165, 30, 16).
edge(122, 160, 26).
edge(79, 90, 22).
edge(45, 61, 19).
edge(50, 59, 25).
edge(106, 21, 26).
edge(51, 33, 6).
edge(156, 43, 33).
edge(2, 124, 19).
edge(15, 37, 10).
edge(109, 11, 6).
edge(33, 37, 6).
edge(139, 57, 13).
edge(110, 166, 35).
edge(110, 167, 22).
edge(36, 89, 36).
edge(16, 29, 33).
edge(76, 15, 19).
edge(148, 27, 21).
edge(86, 65, 26).
edge(166, 14, 32).
edge(63, 173, 8).
edge(155, 146, 8).
edge(30, 101, 8).
edge(3, 117, 1).
edge(85, 5, 10).
edge(97, 31, 30).
edge(111, 1, 38).
edge(16, 171, 10).
edge(165, 32, 21).
edge(0, 19, 29).
edge(133, 89, 22).
edge(86, 172, 31).
edge(28, 94, 12).
edge(65, 70, 9).
edge(142, 31, 1).
edge(127, 85, 16).
edge(26, 79, 13).
edge(67, 24, 16).
edge(164, 148, 15).
edge(176, 111, 3).
edge(123, 177, 30).
edge(85, 26, 15).
edge(82, 175, 2).
edge(5, 72, 32).
edge(62, 13, 36).
edge(152, 131, 22).
edge(155, 63, 1).
edge(65, 161, 38).
edge(99, 89, 26).
edge(96, 41, 15).
edge(167, 163, 26).
edge(4, 12, 25).
edge(6, 53, 36).
edge(99, 4, 29).
edge(150, 120, 26).
edge(8, 159, 26).
edge(125, 9, 29).
edge(48, 125, 22).
edge(155, 158, 30).
edge(154, 162, 27).
edge(160, 115, 9).
edge(26, 160, 14).
edge(80, 62, 14).
edge(123, 77, 20).
edge(132, 82, 2).
edge(4, 20, 24).
edge(2, 42, 30).
edge(132, 99, 32).
edge(108, 35, 13).
edge(46, 143, 32).
edge(101, 52, 33).
edge(141, 2, 5).
edge(140, 43, 29).
edge(149, 128, 6).
edge(164, 48, 15).
edge(157, 170, 2).
edge(35, 18, 28).
edge(86, 145, 14).
edge(64, 146, 13).
edge(78, 121, 25).
edge(20, 12, 36).
edge(91, 177, 38).
edge(51, 101, 21).
edge(138, 37, 26).
edge(97, 33, 6).
edge(126, 118, 29).
edge(15, 71, 13).
edge(106, 171, 6).
edge(14, 21, 36).
edge(69, 173, 18).
edge(59, 143, 6).
edge(43, 94, 21).
edge(73, 151, 20).
edge(150, 2, 34).
edge(115, 41, 12).
edge(7, 56, 29).
edge(63, 47, 14).
edge(2, 52, 18).
edge(104, 5, 6).
edge(139, 26, 15).
edge(14, 7, 32).
edge(162, 76, 5).
edge(87, 113, 4).
edge(166, 68, 36).
edge(63, 107, 31).
edge(160, 136, 22).
edge(52, 167, 6).
edge(136, 11, 9).
edge(16, 125, 24).
edge(91, 98, 23).
edge(13, 64, 33).
edge(98, 111, 9).
edge(82, 33, 2).
edge(27, 117, 25).
edge(16, 111, 37).
edge(41, 84, 25).
edge(62, 70, 21).
edge(72, 43, 16).
edge(89, 14, 10).
edge(19, 2, 17).
edge(10, 112, 19).
edge(172, 118, 4).
edge(159, 16, 15).
edge(62, 33, 31).
edge(107, 138, 22).
edge(84, 88, 32).
edge(123, 63, 6).
edge(112, 136, 34).
edge(52, 109, 33).
edge(137, 115, 38).
edge(40, 22, 19).
edge(105, 99, 10).
edge(153, 140, 17).
edge(169, 52, 25).
edge(107, 83, 1).
edge(58, 173, 16).
edge(90, 145, 36).
edge(113, 125, 16).
edge(25, 16, 13).
edge(88, 16, 9).
edge(166, 141, 25).
edge(99, 142, 36).
edge(174, 155, 30).
edge(153, 58, 32).
edge(50, 122, 14).
edge(125, 99, 25).
edge(71, 89, 2).
edge(77, 149, 29).
edge(141, 43, 1).
edge(101, 94, 26).
edge(53, 175, 37).
edge(51, 118, 36).
edge(5, 81, 37).
edge(10, 36, 35).
edge(1, 3, 12).
edge(105, 177, 19).
edge(123, 100, 36).
edge(148, 141, 20).
edge(119, 155, 18).
edge(5, 63, 27).
edge(127, 104, 39).
edge(147, 38, 7).
edge(146, 1, 15).
edge(9, 39, 7).
edge(76, 20, 13).
edge(109, 144, 30).
edge(7, 144, 20).
edge(22, 19, 10).
edge(174, 160, 22).
edge(4, 172, 12).
edge(121, 97, 14).
edge(44, 31, 19).
edge(141, 27, 35).
edge(128, 44, 22).
edge(83, 68, 37).
edge(153, 51, 37).
edge(32, 165, 7).
edge(37, 160, 19).
edge(160, 4, 15).
edge(50, 117, 21).
edge(99, 100, 23).
edge(151, 68, 33).
edge(2, 69, 29).
edge(105, 71, 3).
edge(35, 172, 11).
edge(110, 124, 24).
edge(40, 53, 26).
edge(93, 33, 10).
edge(81, 7, 16).
edge(115, 85, 15).
edge(51, 35, 22).
edge(154, 47, 17).
edge(82, 4, 10).
edge(59, 9, 26).
edge(90, 150, 23).
edge(48, 61, 12).
edge(93, 92, 18).
edge(30, 124, 3).
edge(113, 105, 24).
edge(106, 131, 16).
edge(32, 14, 37).
edge(164, 50, 2).
edge(101, 156, 2).
edge(115, 79, 35).
edge(156, 121, 18).
edge(97, 14, 31).
edge(28, 148, 29).
edge(34, 163, 14).
edge(13, 88, 29).
edge(129, 84, 18).
edge(83, 95, 34).
edge(174, 151, 14).
edge(147, 141, 38).
edge(71, 70, 1).
edge(45, 118, 35).
edge(19, 29, 8).
edge(166, 155, 5).
edge(65, 99, 8).
edge(118, 42, 28).
edge(91, 43, 38).
edge(83, 111, 27).
edge(15, 23, 28).
edge(47, 38, 5).
edge(31, 37, 20).
edge(163, 20, 31).
edge(88, 17, 11).
edge(140, 15, 13).
edge(59, 121, 5).
edge(82, 135, 33).
edge(148, 103, 4).
edge(120, 129, 21).
edge(93, 147, 24).
edge(155, 164, 1).
edge(106, 40, 27).
edge(61, 127, 8).
edge(20, 166, 21).
edge(31, 19, 3).
edge(122, 27, 19).
edge(43, 56, 1).
edge(24, 92, 29).
edge(81, 45, 38).
edge(16, 155, 19).
edge(90, 2, 10).
edge(54, 132, 16).
edge(85, 115, 22).
edge(164, 135, 34).
edge(159, 176, 29).
edge(128, 112, 5).
edge(99, 162, 39).
edge(171, 89, 28).
edge(76, 128, 29).
edge(117, 65, 2).
edge(149, 45, 10).
edge(134, 176, 38).
edge(96, 43, 8).
edge(26, 128, 38).
edge(40, 70, 27).
edge(18, 118, 16).
edge(59, 2, 11).
edge(42, 160, 1).
edge(59, 67, 4).
edge(34, 99, 38).
edge(154, 14, 18).
edge(175, 161, 33).
edge(109, 110, 7).
edge(117, 22, 2).
edge(165, 22, 25).
edge(122, 5, 17).
edge(46, 171, 2).
edge(55, 5, 36).
edge(57, 25, 15).
edge(15, 134, 12).
edge(57, 124, 14).
edge(93, 7, 34).
edge(106, 141, 29).
edge(87, 56, 36).
edge(21, 151, 28).
edge(105, 85, 11).
edge(128, 115, 6).
edge(118, 169, 8).
edge(80, 104, 4).
edge(79, 118, 23).
edge(125, 88, 34).
edge(117, 160, 5).
edge(105, 110, 16).
edge(171, 104, 27).
edge(97, 117, 22).
edge(139, 172, 5).
edge(142, 137, 23).
edge(85, 74, 18).
edge(170, 155, 12).
edge(99, 110, 18).
edge(121, 120, 36).
edge(113, 71, 14).
edge(45, 115, 14).
edge(163, 11, 22).
edge(45, 132, 5).
edge(118, 50, 37).
edge(25, 130, 38).
edge(26, 49, 4).
edge(130, 37, 1).
edge(9, 73, 7).
edge(78, 144, 29).
edge(9, 117, 30).
edge(19, 159, 37).
edge(50, 77, 21).
edge(83, 159, 39).
edge(4, 107, 37).
edge(18, 173, 33).
edge(165, 145, 10).
edge(18, 39, 17).
edge(52, 10, 30).
edge(22, 86, 19).
edge(69, 112, 16).
edge(98, 69, 31).
edge(69, 37, 20).
edge(100, 21, 23).
edge(43, 40, 38).
edge(133, 111, 31).
edge(149, 94, 30).
edge(169, 74, 30).
edge(17, 20, 33).
edge(46, 130, 27).
edge(64, 129, 4).
edge(170, 89, 3).
edge(149, 124, 8).
edge(154, 43, 25).
edge(36, 140, 23).
edge(71, 11, 35).
edge(147, 17, 29).
edge(41, 112, 28).
edge(29, 73, 25).
edge(93, 122, 33).
edge(53, 3, 23).
edge(136, 24, 16).
edge(106, 59, 1).
edge(166, 93, 39).
edge(28, 125, 1).
edge(106, 25, 8).
edge(74, 44, 39).
edge(29, 6, 23).
edge(164, 130, 33).
edge(2, 61, 13).
edge(57, 125, 1).
edge(58, 81, 38).
edge(24, 131, 9).
edge(47, 101, 27).
edge(59, 41, 27).
edge(16, 72, 33).
edge(106, 146, 22).
edge(75, 12, 4).
edge(78, 109, 34).
edge(55, 152, 25).
edge(177, 115, 12).
edge(46, 62, 32).
edge(11, 87, 8).
edge(40, 132, 31).
edge(0, 157, 30).
edge(161, 48, 25).
edge(173, 114, 20).
edge(45, 22, 22).
edge(67, 86, 18).
edge(58, 65, 24).
edge(143, 89, 32).
edge(114, 39, 13).
edge(74, 73, 33).
edge(109, 176, 26).
edge(22, 46, 23).
edge(120, 115, 12).
edge(108, 119, 1).
edge(40, 62, 2).
edge(78, 159, 9).
edge(143, 33, 18).
edge(123, 128, 26).
edge(100, 120, 9).
edge(13, 95, 38).
edge(87, 23, 10).
edge(96, 108, 24).
edge(64, 151, 33).
edge(105, 37, 39).
edge(38, 79, 13).
edge(40, 177, 35).
edge(139, 173, 33).
edge(28, 150, 8).
edge(99, 15, 39).
edge(69, 35, 36).
edge(151, 45, 27).
edge(21, 115, 37).
edge(54, 140, 34).
edge(150, 35, 17).
edge(56, 66, 29).
edge(111, 21, 38).
edge(23, 13, 34).
edge(103, 177, 23).
edge(133, 134, 6).
edge(160, 15, 37).
edge(158, 153, 24).
edge(41, 144, 9).
edge(84, 61, 37).
edge(161, 14, 14).
edge(42, 1, 5).
edge(74, 37, 21).
edge(168, 128, 19).
edge(25, 70, 12).
edge(4, 91, 18).
edge(19, 142, 21).
edge(39, 73, 26).
edge(30, 48, 34).
edge(17, 19, 23).
edge(141, 94, 11).
edge(84, 159, 38).
edge(40, 163, 26).
edge(176, 121, 22).
edge(158, 21, 4).
edge(146, 59, 14).
edge(19, 44, 25).
edge(74, 160, 1).
edge(2, 39, 13).
edge(92, 97, 13).
edge(85, 29, 14).
edge(103, 100, 31).
edge(15, 21, 20).
edge(139, 75, 2).
edge(110, 76, 12).
edge(53, 81, 10).
edge(52, 78, 10).
edge(11, 61, 33).
edge(94, 102, 10).
edge(90, 166, 24).
edge(18, 72, 31).
edge(30, 74, 12).
edge(5, 60, 39).
edge(120, 43, 36).
edge(109, 62, 10).
edge(14, 90, 16).
edge(140, 41, 20).
edge(11, 168, 9).
edge(50, 131, 39).
edge(154, 53, 16).
edge(64, 167, 35).
edge(118, 52, 17).
edge(8, 130, 2).
edge(48, 140, 11).
edge(35, 76, 13).
edge(93, 156, 31).
edge(141, 44, 26).
edge(110, 41, 18).
edge(73, 106, 18).
edge(95, 135, 6).
edge(177, 143, 19).
edge(97, 38, 1).
edge(166, 156, 25).
edge(58, 14, 9).
edge(120, 77, 38).
edge(62, 102, 3).
edge(169, 168, 1).
edge(82, 100, 26).
edge(44, 50, 30).
edge(126, 156, 37).
edge(15, 138, 27).
edge(100, 11, 28).
edge(20, 65, 7).
edge(75, 35, 38).
edge(146, 154, 5).
edge(36, 166, 4).
edge(5, 101, 2).
edge(71, 141, 8).
edge(73, 169, 25).
edge(163, 95, 15).
edge(97, 53, 8).
edge(92, 119, 3).
edge(107, 152, 31).
edge(89, 26, 31).
edge(62, 154, 4).
edge(34, 105, 30).
edge(138, 142, 1).
edge(58, 53, 14).
edge(127, 77, 11).
edge(153, 96, 30).
edge(164, 142, 26).
edge(128, 99, 27).
edge(80, 59, 33).
edge(89, 103, 39).
edge(144, 132, 36).
edge(19, 111, 36).
edge(32, 172, 21).
edge(101, 162, 18).
edge(16, 164, 5).
edge(171, 25, 18).
edge(18, 6, 33).
edge(40, 94, 24).
edge(156, 122, 34).
edge(8, 74, 17).
edge(50, 177, 33).
edge(22, 57, 17).
edge(73, 99, 31).
edge(45, 67, 11).
edge(106, 119, 10).
edge(15, 108, 1).
edge(143, 102, 13).
edge(15, 113, 39).
edge(95, 24, 26).
edge(172, 158, 3).
edge(101, 41, 33).
edge(1, 147, 30).
edge(100, 84, 3).
edge(37, 39, 26).
edge(36, 149, 38).
edge(99, 45, 23).
edge(160, 62, 15).
edge(26, 95, 34).
edge(21, 11, 14).
edge(64, 38, 9).
edge(55, 16, 22).
edge(13, 60, 8).
edge(109, 10, 24).
edge(142, 82, 7).
edge(63, 147, 2).
edge(136, 9, 36).
edge(154, 6, 33).
edge(117, 161, 7).
edge(85, 56, 33).
edge(28, 5, 27).
edge(5, 13, 30).
edge(8, 165, 1).
edge(39, 114, 34).
edge(91, 87, 33).
edge(40, 116, 7).
edge(101, 149, 9).
edge(96, 22, 15).
edge(155, 104, 14).
edge(138, 5, 39).
edge(129, 3, 18).
edge(167, 114, 32).
edge(89, 131, 38).
edge(154, 133, 29).
edge(128, 143, 25).
edge(148, 122, 6).
edge(177, 36, 25).
edge(73, 94, 16).
edge(112, 101, 8).
edge(33, 125, 30).
edge(147, 43, 8).
edge(167, 43, 33).
edge(133, 27, 14).
edge(149, 114, 33).
edge(117, 42, 32).
edge(5, 158, 22).
edge(21, 1, 10).
edge(54, 157, 24).
edge(130, 95, 30).
edge(133, 148, 18).
edge(21, 93, 38).
edge(42, 117, 23).
edge(63, 118, 37).
edge(139, 148, 30).
edge(96, 83, 1).
edge(147, 32, 14).
edge(122, 74, 20).
edge(129, 80, 2).
edge(81, 155, 21).
edge(50, 19, 4).
edge(115, 30, 30).
edge(56, 105, 15).
edge(128, 103, 2).
edge(156, 127, 30).
edge(76, 77, 36).
edge(151, 17, 39).
edge(174, 99, 13).
edge(37, 51, 38).
edge(103, 17, 22).
edge(57, 117, 18).
edge(135, 164, 17).
edge(65, 156, 16).
edge(146, 161, 7).
edge(60, 38, 9).
edge(126, 108, 19).
edge(77, 158, 10).
edge(176, 62, 3).
edge(127, 36, 32).
edge(144, 170, 18).
edge(21, 84, 28).
edge(65, 73, 17).
edge(133, 25, 20).
edge(168, 95, 14).
edge(141, 126, 17).
edge(67, 18, 26).
edge(111, 109, 33).
edge(124, 100, 16).
edge(72, 30, 26).
edge(105, 17, 36).
edge(4, 130, 13).
edge(171, 149, 24).
edge(50, 116, 9).
edge(25, 23, 21).
edge(118, 56, 4).
edge(122, 10, 29).
edge(152, 74, 34).
edge(9, 177, 34).
edge(175, 104, 29).
edge(155, 112, 15).
edge(75, 114, 21).
edge(7, 54, 31).
edge(88, 128, 5).
edge(91, 76, 28).
edge(12, 29, 34).
edge(168, 12, 13).
edge(120, 132, 22).
edge(164, 99, 19).
edge(13, 146, 20).
edge(20, 58, 24).
edge(49, 34, 30).
edge(21, 105, 2).
edge(125, 42, 25).
edge(116, 173, 10).
edge(151, 175, 10).
edge(41, 146, 4).
edge(117, 24, 15).
edge(79, 133, 24).
edge(103, 140, 10).
edge(52, 53, 14).
edge(50, 85, 24).
edge(14, 141, 23).
edge(107, 72, 30).
edge(89, 78, 25).
edge(156, 37, 31).
edge(102, 174, 34).
edge(123, 104, 27).
edge(127, 164, 26).
edge(77, 130, 38).
edge(164, 0, 37).
edge(30, 78, 2).
edge(142, 25, 8).
edge(28, 163, 31).
edge(134, 106, 19).
edge(52, 115, 24).
edge(119, 133, 21).
edge(152, 70, 20).
edge(154, 60, 21).
edge(99, 88, 17).
edge(135, 12, 7).
edge(88, 139, 22).
edge(17, 94, 10).
edge(80, 79, 8).
edge(86, 99, 27).
edge(65, 148, 37).
edge(2, 177, 3).
edge(174, 6, 17).
edge(57, 83, 8).
edge(68, 163, 22).
edge(59, 33, 35).
edge(76, 47, 2).
edge(67, 48, 21).
edge(24, 142, 12).
edge(106, 53, 14).
edge(7, 115, 6).
edge(25, 10, 28).
edge(2, 163, 37).
edge(17, 168, 30).
edge(138, 90, 3).
edge(75, 2, 20).
edge(85, 76, 22).
edge(99, 38, 10).
edge(123, 12, 2).
edge(27, 87, 7).
edge(97, 139, 19).
edge(3, 10, 15).
edge(165, 27, 9).
edge(112, 120, 30).
edge(33, 76, 4).
edge(91, 134, 32).
edge(46, 172, 16).
edge(56, 108, 26).
edge(4, 53, 14).
edge(28, 62, 23).
edge(20, 112, 17).
edge(51, 8, 23).
edge(28, 55, 20).
edge(71, 104, 16).
edge(32, 30, 37).
edge(17, 135, 15).
edge(7, 61, 9).
edge(79, 96, 24).
edge(97, 175, 6).
edge(133, 77, 16).
edge(120, 52, 34).
edge(8, 41, 11).
edge(84, 105, 6).
edge(34, 132, 18).
edge(131, 132, 37).
edge(112, 0, 4).
edge(10, 118, 5).
edge(15, 175, 5).
edge(38, 62, 3).
edge(73, 101, 11).
edge(176, 166, 38).
edge(50, 101, 38).
edge(47, 27, 28).
edge(59, 51, 20).
edge(35, 2, 2).
edge(164, 109, 32).
edge(128, 58, 12).
edge(138, 104, 15).
edge(164, 24, 8).
edge(58, 72, 14).
edge(92, 85, 33).
edge(92, 134, 5).
edge(83, 163, 13).
edge(135, 99, 9).
edge(110, 69, 11).
edge(124, 10, 25).
edge(54, 146, 17).
edge(2, 29, 36).
edge(144, 63, 8).
edge(80, 106, 3).
edge(111, 30, 16).
edge(111, 63, 10).
edge(142, 34, 17).
edge(83, 4, 6).
edge(18, 114, 36).
edge(124, 146, 37).
edge(72, 22, 34).
edge(34, 117, 32).
edge(102, 125, 34).
edge(108, 163, 24).
edge(49, 107, 10).
edge(44, 18, 13).
edge(165, 157, 27).
edge(65, 123, 5).
edge(127, 7, 36).
edge(16, 170, 8).
edge(62, 89, 16).
edge(123, 28, 39).
edge(67, 167, 39).
edge(39, 62, 17).
edge(6, 155, 9).
edge(63, 176, 36).
edge(133, 22, 29).
edge(144, 166, 35).
edge(31, 29, 11).
edge(141, 54, 34).
edge(148, 111, 38).
edge(34, 123, 2).
edge(27, 73, 6).
edge(129, 103, 12).
edge(139, 79, 23).
edge(57, 91, 25).
edge(65, 138, 3).
edge(97, 21, 37).
edge(167, 90, 29).
edge(46, 27, 10).
edge(136, 131, 30).
edge(68, 125, 17).
edge(127, 141, 39).
edge(20, 119, 19).
edge(155, 75, 25).
edge(20, 11, 20).
edge(95, 26, 6).
edge(40, 151, 35).
edge(100, 79, 14).
edge(152, 142, 5).
edge(160, 122, 32).
edge(83, 101, 20).
edge(94, 149, 33).
edge(144, 89, 5).
edge(137, 177, 30).
edge(125, 14, 34).
edge(108, 142, 26).
edge(10, 81, 25).
edge(123, 4, 17).
edge(41, 174, 11).
edge(71, 139, 12).
edge(116, 131, 28).
edge(104, 32, 36).
edge(79, 28, 5).
edge(110, 29, 25).
edge(143, 28, 7).
edge(157, 53, 5).
edge(43, 21, 18).
edge(158, 27, 7).
edge(6, 177, 18).
edge(44, 132, 24).
edge(31, 14, 17).
edge(54, 60, 18).
edge(129, 99, 14).
edge(128, 105, 31).
edge(93, 14, 39).
edge(158, 32, 22).
edge(98, 56, 35).
edge(77, 173, 24).
edge(159, 160, 39).
edge(94, 156, 22).
edge(128, 3, 35).
edge(170, 125, 11).
edge(37, 53, 33).
edge(94, 123, 2).
edge(126, 170, 36).
edge(89, 95, 36).
edge(135, 140, 4).
edge(65, 97, 24).
edge(85, 101, 2).
edge(29, 105, 2).
edge(52, 170, 29).
edge(4, 118, 1).
edge(130, 0, 24).
edge(0, 74, 26).
edge(32, 170, 11).
edge(6, 128, 3).
edge(171, 77, 36).
edge(97, 151, 27).
edge(96, 86, 19).
edge(67, 45, 25).
edge(115, 58, 13).
edge(97, 122, 2).
edge(13, 136, 10).
edge(75, 94, 21).
edge(137, 56, 9).
edge(134, 98, 23).
edge(82, 50, 25).
edge(168, 104, 36).
edge(7, 108, 32).
edge(46, 24, 19).
edge(145, 28, 17).
edge(1, 163, 16).
edge(16, 136, 39).
edge(104, 52, 5).
edge(97, 32, 38).
edge(27, 83, 28).
edge(21, 88, 27).
edge(107, 142, 11).
edge(160, 41, 11).
edge(34, 65, 5).
edge(167, 166, 14).
edge(49, 52, 28).
edge(52, 20, 28).
edge(35, 166, 14).
edge(133, 119, 10).
edge(161, 117, 13).
edge(150, 108, 23).
edge(149, 64, 10).
edge(171, 166, 32).
edge(49, 168, 38).
edge(5, 59, 6).
edge(139, 18, 34).
edge(165, 152, 14).
edge(34, 73, 7).
edge(169, 70, 11).
edge(135, 115, 36).
edge(134, 61, 37).
edge(107, 175, 37).
edge(162, 88, 18).
edge(158, 131, 35).
edge(76, 127, 37).
edge(63, 9, 1).
edge(88, 91, 15).
edge(125, 32, 23).
edge(90, 157, 3).
edge(88, 89, 34).
edge(41, 127, 10).
edge(1, 122, 10).
edge(143, 69, 3).
edge(30, 147, 26).
edge(135, 57, 14).
edge(91, 10, 19).
edge(151, 163, 15).
edge(119, 22, 24).
edge(46, 155, 10).
edge(150, 90, 11).
edge(71, 110, 6).
edge(113, 121, 8).
edge(155, 161, 6).
edge(113, 152, 28).
edge(168, 108, 19).
edge(92, 77, 5).
edge(73, 112, 6).
edge(47, 119, 19).
edge(75, 8, 9).
edge(96, 5, 7).
edge(161, 0, 4).
edge(98, 143, 35).
edge(101, 60, 29).
edge(27, 25, 36).
edge(141, 109, 7).
edge(166, 72, 2).
edge(4, 75, 38).
edge(150, 125, 4).
edge(149, 102, 3).
edge(147, 154, 12).
edge(144, 92, 1).
edge(17, 7, 33).
edge(55, 169, 16).
edge(109, 21, 11).
edge(112, 108, 25).
edge(112, 63, 17).
edge(154, 44, 7).
edge(97, 114, 37).
edge(35, 78, 5).
edge(49, 172, 29).
edge(39, 120, 27).
edge(36, 44, 11).
edge(48, 142, 4).
edge(8, 170, 9).
edge(52, 101, 8).
edge(101, 73, 16).
edge(31, 5, 23).
edge(168, 126, 26).
edge(61, 167, 11).
edge(49, 36, 13).
edge(53, 94, 27).
edge(144, 14, 4).
edge(59, 76, 23).
edge(144, 70, 5).
edge(45, 142, 2).
edge(128, 127, 35).
edge(4, 78, 26).
edge(47, 166, 30).
edge(109, 26, 16).
edge(26, 176, 36).
edge(149, 111, 13).
edge(148, 176, 23).
edge(75, 28, 36).
edge(78, 34, 13).
edge(165, 171, 2).
edge(52, 123, 14).
edge(30, 72, 30).
edge(92, 58, 21).
edge(77, 94, 15).
edge(163, 137, 3).
edge(154, 101, 15).
edge(147, 162, 30).
edge(5, 80, 18).
edge(139, 42, 25).
edge(92, 164, 9).
edge(102, 118, 31).
edge(70, 133, 38).
edge(23, 121, 19).
edge(135, 89, 19).
edge(9, 131, 35).
edge(129, 46, 14).
edge(53, 52, 20).
edge(1, 107, 8).
edge(129, 35, 1).
edge(89, 153, 22).
edge(81, 177, 30).
edge(85, 138, 29).
edge(77, 47, 2).
edge(77, 33, 39).
edge(55, 94, 35).
edge(16, 57, 15).
edge(46, 101, 27).
edge(34, 53, 24).
edge(27, 177, 30).
edge(96, 167, 16).
edge(41, 71, 8).
edge(64, 106, 31).
edge(162, 26, 32).
edge(31, 146, 37).
edge(51, 91, 15).
edge(139, 97, 2).
edge(30, 29, 23).
edge(170, 153, 26).
edge(70, 8, 21).
edge(12, 39, 39).
edge(155, 153, 18).
edge(40, 59, 18).
edge(94, 177, 9).
edge(63, 18, 1).
edge(98, 34, 3).
edge(146, 87, 30).
edge(96, 135, 30).
edge(77, 137, 3).
edge(117, 170, 23).
edge(158, 165, 24).
edge(41, 65, 35).
edge(174, 1, 35).
edge(47, 79, 14).
edge(157, 14, 10).
edge(34, 145, 35).
edge(59, 0, 33).
edge(31, 59, 5).
edge(166, 47, 25).
edge(108, 139, 11).
edge(122, 125, 37).
edge(23, 165, 20).
edge(135, 111, 30).
edge(97, 45, 5).
edge(25, 152, 5).
edge(79, 142, 29).
edge(91, 108, 4).
edge(49, 143, 15).
edge(0, 88, 4).
edge(16, 148, 31).
edge(0, 134, 29).
edge(86, 121, 4).
edge(137, 102, 38).
edge(32, 108, 19).
edge(140, 152, 28).
edge(153, 129, 38).
edge(167, 28, 20).
edge(161, 166, 21).
edge(175, 11, 6).
edge(149, 82, 16).
edge(68, 1, 23).
edge(83, 7, 3).
edge(58, 29, 27).
edge(44, 36, 19).
edge(88, 126, 13).
edge(35, 51, 9).
edge(37, 29, 17).
edge(71, 117, 31).
edge(130, 101, 10).
edge(129, 116, 19).
edge(10, 98, 37).
edge(100, 32, 6).
edge(163, 152, 15).
edge(11, 0, 24).
edge(41, 158, 5).
edge(45, 99, 12).
edge(142, 90, 16).
edge(91, 36, 18).
edge(35, 122, 11).
edge(52, 125, 6).
edge(26, 103, 36).
edge(86, 48, 1).
edge(132, 27, 18).
edge(80, 33, 8).
edge(153, 50, 32).
edge(91, 31, 23).
edge(150, 13, 20).
edge(155, 39, 25).
edge(175, 91, 30).
edge(118, 11, 39).
edge(125, 72, 30).
edge(63, 7, 1).
edge(166, 146, 21).
edge(124, 130, 27).
edge(87, 157, 6).
edge(103, 123, 12).
edge(48, 7, 29).
edge(6, 40, 19).
edge(125, 85, 28).
edge(115, 81, 32).
edge(17, 41, 7).
edge(147, 103, 2).
edge(145, 118, 39).
edge(140, 63, 39).
edge(113, 8, 22).
edge(11, 118, 39).
edge(112, 170, 20).
edge(10, 34, 5).
edge(168, 56, 14).
edge(169, 139, 6).
edge(37, 3, 13).
edge(41, 38, 7).
edge(33, 19, 23).
edge(142, 135, 7).
edge(146, 71, 39).
edge(66, 20, 13).
edge(76, 107, 21).
edge(111, 149, 27).
edge(13, 56, 31).
edge(44, 57, 30).
edge(89, 12, 14).
edge(121, 87, 22).
edge(96, 23, 36).
edge(83, 74, 25).
edge(109, 39, 9).
edge(61, 26, 4).
edge(27, 75, 10).
edge(164, 19, 17).
edge(27, 156, 37).
edge(2, 84, 6).
edge(116, 101, 22).
edge(161, 53, 9).
edge(153, 52, 2).
edge(145, 87, 9).
edge(94, 155, 29).
edge(15, 171, 18).
edge(11, 88, 5).
edge(69, 39, 14).
edge(129, 14, 20).
edge(15, 144, 22).
edge(170, 16, 39).
edge(7, 28, 30).
edge(168, 163, 6).
edge(137, 51, 38).
edge(99, 0, 26).
edge(36, 76, 2).
edge(117, 174, 7).
edge(43, 168, 11).
edge(90, 161, 5).
edge(157, 92, 37).
edge(34, 31, 16).
edge(93, 154, 4).
edge(18, 3, 33).
edge(97, 48, 39).
edge(0, 116, 4).
edge(83, 144, 33).
edge(139, 154, 28).
edge(49, 162, 1).
edge(82, 59, 39).
edge(139, 16, 32).
edge(155, 37, 25).
edge(46, 92, 10).
edge(5, 115, 18).
edge(128, 29, 31).
edge(22, 124, 11).
edge(137, 132, 31).
edge(157, 163, 22).
edge(164, 47, 2).
edge(72, 32, 37).
edge(136, 135, 2).
edge(95, 23, 5).
edge(86, 176, 6).
edge(71, 151, 27).
edge(38, 102, 1).
edge(19, 121, 13).
edge(55, 12, 17).
edge(145, 155, 33).
edge(126, 26, 5).
edge(29, 159, 6).
edge(139, 65, 2).
edge(170, 30, 13).
edge(164, 6, 31).
edge(88, 129, 23).
edge(74, 107, 19).
edge(127, 43, 17).
edge(29, 54, 38).
edge(33, 31, 19).
edge(2, 34, 25).
edge(83, 50, 8).
edge(167, 120, 17).
edge(76, 53, 20).
edge(2, 6, 26).
edge(79, 61, 22).
edge(85, 116, 34).
edge(152, 126, 2).
edge(96, 172, 16).
edge(3, 32, 24).
edge(155, 41, 10).
edge(129, 143, 23).
edge(132, 100, 24).
edge(67, 35, 20).
edge(56, 173, 18).
edge(77, 106, 1).
edge(44, 35, 28).
edge(46, 102, 30).
edge(53, 87, 10).
edge(63, 128, 11).
edge(44, 84, 21).
edge(0, 69, 29).
edge(60, 126, 14).
edge(0, 155, 20).
edge(78, 54, 14).
edge(153, 25, 7).
edge(86, 64, 28).
edge(38, 34, 10).
edge(4, 88, 15).
edge(63, 130, 36).
edge(79, 172, 31).
edge(134, 132, 33).
edge(14, 10, 19).
edge(29, 177, 7).
edge(39, 10, 29).
edge(28, 66, 30).
edge(14, 28, 31).
edge(62, 59, 22).
edge(103, 58, 30).
edge(10, 8, 5).
edge(49, 137, 19).
edge(155, 78, 37).
edge(104, 25, 15).
edge(142, 114, 17).
edge(46, 67, 36).
edge(148, 161, 7).
edge(76, 31, 1).
edge(132, 95, 23).
edge(171, 124, 28).
edge(72, 108, 37).
edge(116, 152, 28).
edge(96, 77, 3).
edge(164, 44, 36).
edge(126, 172, 33).
edge(83, 153, 11).
edge(6, 162, 7).
edge(84, 85, 38).
edge(111, 165, 27).
edge(96, 133, 36).
edge(171, 136, 18).
edge(86, 37, 9).
edge(28, 114, 12).
edge(38, 56, 27).
edge(134, 40, 8).
edge(94, 18, 10).
edge(104, 10, 6).
edge(66, 27, 1).
edge(166, 162, 33).
edge(43, 90, 29).
edge(127, 98, 37).
edge(106, 93, 12).
edge(100, 15, 35).
edge(170, 24, 35).
edge(156, 176, 3).
edge(145, 45, 35).
edge(63, 20, 33).
edge(31, 151, 16).
edge(170, 172, 20).
edge(91, 116, 23).
edge(117, 103, 5).
edge(56, 94, 29).
edge(165, 103, 2).
edge(3, 148, 30).
edge(143, 105, 28).
edge(159, 66, 10).
edge(23, 52, 18).
edge(49, 120, 30).
edge(110, 1, 4).
edge(129, 75, 9).
edge(96, 16, 1).
edge(95, 127, 6).
edge(74, 2, 7).
edge(66, 106, 30).
edge(148, 95, 10).
edge(101, 164, 26).
edge(2, 72, 8).
edge(46, 128, 15).
edge(48, 5, 12).
edge(101, 158, 9).
edge(137, 11, 13).
edge(2, 0, 7).
edge(4, 10, 24).
edge(7, 8, 31).
edge(23, 93, 21).
edge(87, 122, 16).
edge(94, 54, 20).
edge(15, 12, 21).
edge(147, 85, 23).
edge(165, 45, 27).
edge(147, 159, 28).
edge(168, 125, 14).
edge(131, 16, 24).
edge(70, 3, 20).
edge(121, 77, 32).
edge(94, 49, 4).
edge(60, 45, 11).
edge(129, 36, 8).
edge(66, 34, 38).
edge(107, 88, 4).
edge(62, 93, 8).
edge(113, 141, 21).
edge(41, 98, 10).
edge(135, 24, 11).
edge(100, 145, 21).
edge(78, 67, 13).
edge(60, 43, 6).
edge(43, 65, 29).
edge(39, 63, 37).
edge(96, 118, 23).
edge(77, 104, 29).
edge(95, 130, 25).
edge(54, 120, 10).
edge(3, 8, 7).
edge(134, 23, 34).
edge(114, 156, 15).
edge(6, 76, 14).
edge(2, 82, 24).
edge(78, 158, 5).
edge(78, 4, 10).
edge(27, 2, 11).
edge(142, 73, 6).
edge(49, 141, 22).
edge(111, 84, 17).
edge(24, 171, 3).
edge(80, 115, 17).
edge(2, 103, 6).
edge(61, 161, 33).
edge(133, 13, 25).
edge(127, 126, 18).
edge(92, 61, 15).
edge(96, 76, 37).
edge(73, 145, 21).
edge(97, 50, 14).
edge(48, 51, 26).
edge(82, 147, 2).
edge(31, 152, 25).
edge(39, 53, 13).
edge(112, 164, 3).
edge(106, 155, 13).
edge(83, 27, 15).
edge(74, 54, 21).
edge(76, 163, 24).
edge(100, 65, 36).
edge(79, 45, 15).
edge(15, 114, 15).
edge(109, 170, 7).
edge(69, 147, 11).
edge(32, 57, 17).
edge(12, 59, 3).
edge(162, 150, 26).
edge(128, 27, 17).
edge(30, 98, 25).
edge(177, 81, 37).
edge(79, 20, 5).
edge(58, 174, 35).
edge(104, 47, 27).
edge(119, 120, 4).
edge(25, 169, 22).
edge(133, 95, 27).
edge(168, 118, 25).
edge(160, 102, 10).
edge(176, 16, 37).
edge(170, 62, 24).
edge(99, 124, 39).
edge(32, 77, 4).
edge(108, 146, 33).
edge(145, 96, 35).
edge(4, 80, 33).
edge(111, 108, 13).
edge(42, 115, 21).
edge(44, 155, 17).
edge(56, 92, 26).
edge(124, 128, 29).
edge(113, 102, 26).
edge(124, 144, 29).
edge(99, 177, 3).
edge(12, 13, 25).
edge(165, 99, 33).
edge(122, 6, 11).
edge(7, 146, 11).
edge(142, 117, 4).
edge(110, 120, 25).
edge(12, 100, 17).
edge(55, 106, 34).
edge(3, 9, 20).
edge(0, 60, 26).
edge(173, 171, 8).
edge(81, 171, 27).
edge(118, 152, 3).
edge(65, 164, 34).
edge(72, 65, 37).
edge(11, 1, 31).
edge(176, 160, 32).
edge(38, 145, 38).
edge(66, 129, 28).
edge(62, 95, 32).
edge(77, 27, 4).
edge(43, 38, 3).
edge(44, 126, 10).
edge(115, 63, 36).
edge(55, 141, 33).
edge(59, 78, 27).
edge(110, 53, 23).
edge(46, 163, 13).
edge(92, 167, 30).
edge(6, 46, 13).
edge(124, 164, 14).
edge(103, 73, 15).
edge(55, 18, 38).
edge(14, 65, 4).
edge(100, 58, 35).
edge(26, 85, 16).
edge(67, 56, 1).
edge(29, 92, 11).
edge(137, 61, 3).
edge(54, 150, 39).
edge(19, 173, 16).
edge(72, 130, 19).
edge(0, 7, 9).
edge(119, 145, 19).
edge(54, 53, 32).
edge(43, 67, 2).
edge(165, 128, 29).
edge(42, 19, 15).
edge(61, 149, 22).
edge(89, 125, 10).
edge(136, 41, 26).
edge(126, 160, 17).
edge(95, 146, 7).
edge(41, 115, 35).
edge(45, 66, 21).
edge(37, 130, 8).
edge(135, 119, 29).
edge(9, 166, 6).
edge(58, 39, 9).
edge(50, 16, 33).
edge(166, 143, 36).
edge(51, 152, 21).
edge(44, 43, 21).
edge(56, 19, 32).
edge(109, 138, 5).
edge(62, 65, 11).
edge(28, 90, 4).
edge(151, 137, 6).
edge(3, 41, 1).
edge(169, 174, 26).
edge(164, 157, 19).
edge(46, 110, 18).
edge(18, 137, 2).
edge(54, 42, 7).
edge(74, 70, 26).
edge(105, 112, 24).
edge(163, 159, 30).
edge(69, 68, 8).
edge(147, 22, 23).
edge(166, 18, 28).
edge(49, 156, 36).
edge(60, 117, 4).
edge(45, 177, 36).
edge(51, 2, 9).
edge(4, 55, 24).
edge(112, 127, 27).
edge(157, 1, 9).
edge(172, 14, 9).
edge(118, 37, 28).
edge(37, 142, 28).
edge(35, 164, 17).
edge(146, 158, 33).
edge(73, 74, 38).
edge(70, 0, 19).
edge(67, 130, 27).
edge(43, 59, 14).
edge(25, 175, 23).
edge(164, 89, 17).
edge(162, 78, 21).
edge(64, 44, 38).
edge(35, 4, 9).
edge(137, 40, 38).
edge(141, 146, 2).
edge(13, 140, 32).
edge(83, 141, 22).
edge(142, 175, 30).
edge(30, 39, 21).
edge(19, 17, 34).
edge(90, 70, 28).
edge(8, 65, 23).
edge(136, 34, 26).
edge(119, 118, 9).
edge(77, 107, 12).
edge(122, 37, 13).
edge(59, 101, 23).
edge(151, 50, 26).
edge(61, 100, 28).
edge(102, 168, 33).
edge(43, 142, 20).
edge(25, 17, 19).
edge(45, 34, 10).
edge(105, 166, 27).
edge(167, 63, 15).
edge(11, 97, 8).
edge(85, 16, 3).
edge(69, 105, 19).
edge(70, 164, 9).
edge(38, 75, 4).
edge(53, 51, 8).
edge(120, 150, 6).
edge(60, 87, 16).
edge(108, 173, 35).
edge(77, 143, 20).
edge(30, 50, 4).
edge(82, 38, 18).
edge(119, 109, 4).
edge(103, 14, 3).
edge(148, 158, 5).
edge(127, 111, 27).
edge(10, 29, 34).
edge(80, 58, 3).
edge(112, 121, 26).
edge(13, 61, 36).
edge(128, 168, 26).
edge(53, 173, 37).
edge(116, 89, 15).
edge(64, 65, 34).
edge(157, 45, 32).
edge(15, 85, 26).
edge(13, 147, 32).
edge(64, 45, 19).
edge(171, 70, 11).
edge(84, 134, 24).
edge(171, 79, 32).
edge(6, 75, 26).
edge(125, 59, 31).
edge(15, 125, 34).
edge(151, 67, 24).
edge(81, 38, 8).
edge(109, 167, 18).
edge(123, 115, 33).
edge(129, 87, 6).
edge(58, 20, 37).
edge(50, 171, 14).
edge(165, 106, 8).
edge(60, 62, 25).
edge(72, 100, 7).
edge(93, 169, 25).
edge(93, 115, 16).
edge(125, 109, 32).
edge(109, 101, 18).
edge(78, 129, 23).
edge(128, 4, 33).
edge(170, 102, 21).
edge(122, 118, 4).
edge(110, 126, 9).
edge(130, 158, 38).
edge(136, 77, 27).
edge(114, 136, 37).
edge(72, 76, 8).
edge(72, 144, 25).
edge(11, 105, 25).
edge(132, 154, 30).
edge(87, 31, 32).
edge(143, 8, 6).
edge(100, 108, 21).
edge(35, 9, 13).
edge(93, 114, 20).
edge(31, 149, 21).
edge(113, 175, 13).
edge(43, 10, 34).
edge(45, 97, 21).
edge(122, 90, 36).
edge(125, 176, 24).
edge(76, 169, 12).
edge(64, 138, 9).
edge(101, 89, 2).
edge(136, 165, 27).
edge(169, 170, 39).
edge(71, 153, 8).
edge(68, 131, 20).
edge(16, 79, 34).
edge(118, 6, 31).
edge(176, 10, 34).
edge(134, 107, 30).
edge(45, 63, 1).
edge(115, 112, 33).
edge(3, 172, 7).
edge(171, 140, 3).
edge(171, 47, 10).
edge(99, 36, 18).
edge(166, 44, 24).
edge(134, 18, 10).
edge(173, 146, 36).
edge(95, 115, 24).
edge(79, 136, 34).
edge(37, 23, 16).
edge(177, 77, 23).
edge(24, 89, 13).
edge(146, 68, 9).
edge(172, 30, 26).
edge(57, 81, 9).
edge(16, 154, 11).
edge(116, 40, 20).
edge(116, 57, 9).
edge(33, 171, 32).
edge(74, 147, 38).
edge(0, 175, 37).
edge(169, 153, 14).
edge(143, 177, 36).
edge(53, 64, 11).
edge(18, 98, 20).
edge(99, 12, 25).
edge(36, 82, 29).
edge(49, 4, 3).
edge(66, 94, 24).
edge(175, 158, 39).
edge(139, 174, 33).
edge(118, 77, 39).
edge(22, 65, 14).
edge(15, 35, 15).
edge(129, 38, 38).
edge(137, 15, 6).
edge(25, 99, 24).
edge(135, 90, 14).
edge(149, 7, 31).
edge(106, 23, 21).
edge(106, 114, 5).
edge(153, 48, 35).
edge(36, 32, 21).
edge(69, 135, 20).
edge(99, 7, 33).
edge(169, 18, 37).
edge(80, 16, 11).
edge(168, 74, 30).
edge(50, 64, 2).
edge(5, 173, 20).
edge(106, 74, 33).
edge(148, 116, 32).
edge(71, 80, 17).
edge(54, 136, 27).
edge(90, 58, 4).
edge(105, 12, 18).
edge(168, 28, 29).
edge(162, 58, 4).
edge(118, 84, 20).
edge(52, 62, 20).
edge(129, 72, 27).
edge(143, 164, 25).
edge(36, 4, 36).
edge(82, 94, 28).
edge(28, 123, 6).
edge(66, 109, 26).
edge(21, 110, 32).
edge(61, 101, 2).
edge(77, 43, 8).
edge(119, 164, 38).
edge(107, 9, 13).
edge(102, 114, 6).
edge(9, 128, 4).
edge(54, 49, 16).
edge(13, 76, 9).
edge(133, 140, 5).
edge(103, 107, 33).
edge(65, 12, 23).
edge(34, 71, 30).
edge(147, 121, 33).
edge(87, 173, 3).
edge(132, 42, 36).
edge(21, 25, 37).
edge(56, 157, 28).
edge(85, 6, 13).
edge(16, 173, 16).
edge(37, 40, 4).
edge(80, 128, 1).
edge(11, 110, 2).
edge(12, 176, 23).
edge(93, 65, 24).
edge(1, 79, 1).
edge(147, 169, 6).
edge(95, 147, 14).
edge(79, 146, 33).
edge(157, 20, 16).
edge(36, 153, 39).
edge(16, 68, 34).
edge(42, 16, 10).
edge(0, 40, 38).
edge(6, 143, 35).
edge(127, 143, 21).
edge(32, 17, 8).
edge(116, 165, 11).
edge(112, 76, 3).
edge(98, 18, 13).
edge(21, 14, 38).
edge(6, 94, 3).
edge(86, 14, 31).
edge(27, 20, 36).
edge(168, 166, 25).
edge(88, 55, 39).
edge(164, 60, 24).
edge(19, 120, 39).
edge(65, 7, 33).
edge(49, 102, 30).
edge(33, 135, 8).
edge(143, 87, 28).
edge(149, 89, 25).
edge(86, 130, 12).
edge(166, 95, 34).
edge(115, 33, 16).
edge(92, 51, 10).
edge(30, 166, 17).
edge(154, 97, 10).
edge(177, 175, 20).
edge(94, 43, 14).
edge(71, 146, 1).
edge(76, 0, 8).
edge(61, 6, 34).
edge(60, 28, 33).
edge(123, 13, 31).
edge(80, 92, 23).
edge(29, 99, 21).
edge(151, 33, 30).
edge(20, 176, 11).
edge(177, 94, 39).
edge(153, 93, 4).
edge(126, 23, 10).
edge(28, 169, 4).
edge(169, 173, 12).
edge(5, 143, 13).
edge(71, 37, 3).
edge(84, 103, 38).
edge(44, 141, 36).
edge(35, 69, 9).
edge(39, 3, 11).
edge(81, 154, 11).
edge(85, 120, 34).
edge(135, 85, 23).
edge(48, 170, 16).
edge(45, 79, 16).
edge(96, 72, 10).
edge(10, 54, 23).
edge(111, 19, 30).
edge(21, 53, 17).
edge(21, 10, 37).
edge(79, 105, 2).
edge(47, 133, 36).
edge(173, 52, 26).
edge(142, 147, 13).
edge(52, 95, 26).
edge(170, 58, 13).
edge(102, 106, 2).
edge(97, 64, 23).
edge(162, 41, 30).
edge(95, 0, 10).
edge(115, 89, 34).
edge(150, 68, 11).
edge(172, 42, 19).
edge(53, 37, 39).
edge(9, 80, 28).
edge(146, 10, 9).
edge(66, 73, 31).
edge(86, 141, 30).
edge(66, 127, 25).
edge(11, 77, 22).
edge(96, 124, 17).
edge(20, 114, 8).
edge(99, 115, 25).
edge(98, 108, 19).
edge(69, 67, 3).
edge(110, 153, 10).
edge(47, 118, 1).
edge(125, 81, 37).
edge(27, 9, 1).
edge(130, 165, 6).
edge(162, 112, 14).
edge(125, 170, 5).
edge(20, 0, 28).
edge(95, 100, 10).
edge(97, 29, 29).
edge(80, 36, 3).
edge(165, 15, 38).
edge(26, 111, 38).
edge(32, 70, 36).
edge(22, 26, 24).
edge(135, 76, 24).
edge(16, 112, 28).
edge(71, 122, 18).
edge(118, 108, 18).
edge(68, 24, 20).
edge(67, 150, 30).
edge(86, 21, 36).
edge(169, 127, 17).
edge(32, 29, 30).
edge(89, 17, 17).
edge(123, 155, 9).
edge(11, 30, 9).
edge(83, 11, 37).
edge(75, 78, 8).
edge(142, 155, 6).
edge(144, 168, 9).
edge(124, 8, 6).
edge(68, 89, 13).
edge(91, 59, 19).
edge(60, 73, 37).
edge(33, 138, 34).
edge(96, 171, 25).
edge(176, 70, 1).
edge(127, 74, 4).
edge(162, 50, 4).
edge(131, 157, 32).
edge(99, 53, 11).
edge(57, 55, 4).
edge(110, 14, 30).
edge(134, 14, 37).
edge(22, 105, 8).
edge(156, 143, 35).
edge(39, 106, 34).
edge(120, 105, 36).
edge(10, 163, 39).
edge(165, 126, 39).
edge(39, 68, 2).
edge(20, 29, 35).
edge(126, 80, 33).
edge(66, 47, 31).
edge(0, 176, 18).
edge(81, 30, 2).
edge(27, 99, 12).
edge(16, 101, 30).
edge(66, 102, 12).
edge(119, 40, 36).
edge(59, 130, 39).
edge(27, 4, 19).
edge(86, 74, 4).
edge(164, 71, 15).
edge(7, 57, 3).
edge(95, 152, 31).
edge(118, 8, 23).
edge(87, 81, 2).
edge(148, 115, 12).
edge(82, 98, 36).
edge(56, 130, 12).
edge(99, 121, 7).
edge(34, 41, 34).
edge(18, 176, 2).
edge(152, 37, 37).
edge(37, 90, 13).
edge(75, 40, 12).
edge(19, 74, 10).
edge(75, 135, 22).
edge(62, 157, 7).
edge(35, 160, 25).
edge(104, 85, 19).
edge(43, 75, 35).
edge(68, 110, 12).
edge(10, 137, 11).
edge(120, 21, 23).
edge(23, 102, 15).
edge(109, 102, 3).
edge(47, 131, 1).
edge(129, 130, 20).
edge(112, 119, 3).
edge(101, 108, 24).
edge(155, 13, 30).
edge(7, 154, 10).
edge(96, 93, 17).
edge(43, 143, 10).
edge(80, 119, 1).
edge(87, 153, 17).
edge(31, 51, 13).
edge(134, 114, 29).
edge(79, 21, 10).
edge(110, 143, 32).
edge(135, 125, 25).
edge(150, 71, 8).
edge(108, 41, 30).
edge(38, 51, 38).
edge(51, 64, 12).
edge(52, 126, 22).
edge(64, 133, 4).
edge(139, 80, 12).
edge(131, 99, 20).
edge(3, 86, 5).
edge(13, 39, 14).
edge(67, 79, 7).
edge(99, 155, 17).
edge(99, 138, 39).
edge(96, 174, 2).
edge(69, 109, 25).
edge(134, 69, 26).
edge(42, 95, 27).
edge(61, 62, 29).
edge(138, 156, 35).
edge(150, 20, 18).
edge(80, 2, 12).
edge(71, 134, 22).
edge(57, 134, 32).
edge(20, 81, 22).
edge(133, 43, 2).
edge(48, 86, 38).
edge(59, 83, 15).
edge(6, 125, 39).
edge(150, 122, 37).
edge(134, 96, 30).
edge(150, 131, 28).
edge(175, 164, 4).
edge(124, 88, 17).
edge(65, 60, 34).
edge(167, 116, 18).
edge(138, 38, 6).
edge(171, 157, 34).
edge(60, 127, 35).
edge(64, 165, 1).
edge(153, 8, 8).
edge(29, 55, 35).
edge(31, 70, 16).
edge(135, 169, 11).
edge(109, 125, 33).
edge(11, 31, 39).
edge(46, 73, 17).
edge(163, 122, 5).
edge(100, 113, 37).
edge(173, 137, 12).
edge(170, 64, 8).
edge(143, 67, 29).
edge(100, 18, 29).
edge(92, 0, 18).
edge(95, 112, 28).
edge(8, 55, 34).
edge(81, 77, 20).
edge(106, 94, 37).
edge(131, 143, 25).
edge(7, 30, 11).
edge(96, 113, 18).
edge(154, 72, 24).
edge(44, 29, 15).
edge(28, 19, 29).
edge(96, 110, 23).
edge(57, 94, 34).
edge(165, 102, 37).
edge(66, 40, 17).
edge(9, 160, 25).
edge(145, 44, 18).
edge(147, 25, 14).
edge(128, 11, 33).
edge(77, 170, 27).
edge(33, 68, 10).
edge(118, 80, 6).
edge(116, 128, 10).
edge(38, 90, 38).
edge(80, 150, 5).
edge(59, 46, 37).
edge(131, 22, 1).
edge(39, 90, 9).
edge(132, 141, 11).
edge(114, 32, 35).
edge(66, 19, 29).
edge(8, 28, 21).
edge(90, 72, 30).
edge(6, 115, 9).
edge(124, 47, 6).
edge(106, 90, 26).
edge(78, 48, 14).
edge(13, 152, 17).
edge(78, 58, 27).
edge(117, 146, 9).
edge(57, 72, 19).
edge(12, 90, 21).
edge(36, 173, 35).
edge(82, 117, 20).
edge(77, 171, 32).
edge(137, 31, 17).
edge(153, 127, 2).
edge(21, 135, 31).
edge(80, 145, 7).
edge(75, 44, 20).
edge(176, 118, 12).
edge(1, 135, 7).
edge(41, 95, 6).
edge(19, 131, 20).
edge(32, 132, 31).
edge(171, 113, 16).
edge(87, 22, 3).
edge(43, 141, 4).
edge(16, 100, 26).
edge(175, 109, 16).
edge(55, 28, 37).
edge(141, 55, 6).
edge(2, 54, 21).
edge(81, 119, 17).
edge(14, 57, 21).
edge(168, 101, 1).
edge(46, 75, 24).
edge(32, 118, 27).
edge(145, 124, 11).
edge(84, 167, 10).
edge(81, 106, 22).
edge(141, 86, 3).
edge(95, 173, 14).
edge(92, 15, 9).
edge(57, 143, 16).
edge(137, 130, 36).
edge(83, 146, 34).
edge(3, 60, 28).
edge(157, 54, 5).
edge(63, 14, 35).
edge(135, 72, 15).
edge(76, 35, 15).
edge(3, 17, 34).
edge(84, 76, 24).
edge(60, 131, 22).
edge(42, 150, 10).
edge(10, 70, 29).
edge(9, 75, 25).
edge(126, 171, 27).
edge(142, 102, 5).
edge(66, 42, 39).
edge(48, 42, 37).
edge(92, 12, 8).
edge(40, 32, 34).
edge(59, 26, 38).
edge(151, 73, 31).
edge(167, 62, 10).
edge(99, 59, 9).
edge(121, 30, 16).
edge(107, 106, 1).
edge(163, 15, 10).
edge(41, 8, 24).
edge(57, 54, 13).
edge(102, 30, 32).
edge(84, 172, 9).
edge(145, 150, 23).
edge(87, 168, 22).
edge(78, 2, 23).
edge(85, 79, 9).
edge(164, 172, 29).
edge(58, 160, 33).
edge(128, 81, 20).
edge(37, 157, 2).
edge(72, 5, 39).
edge(59, 69, 38).
edge(30, 151, 18).
edge(99, 123, 31).
edge(31, 114, 18).
edge(164, 83, 31).
edge(72, 169, 13).
edge(102, 162, 33).
edge(147, 143, 30).
edge(25, 24, 37).
edge(122, 11, 19).
edge(166, 131, 25).
edge(79, 78, 33).
edge(36, 54, 22).
edge(98, 54, 7).
edge(107, 160, 7).
edge(69, 14, 33).
edge(120, 34, 7).
edge(75, 92, 20).
edge(151, 64, 39).
edge(1, 102, 22).
edge(38, 40, 19).
edge(146, 66, 8).
edge(129, 13, 26).
edge(69, 4, 9).
edge(69, 34, 12).
edge(115, 155, 3).
edge(12, 139, 36).
edge(159, 163, 25).
edge(146, 35, 32).
edge(134, 17, 21).
edge(92, 140, 28).
edge(102, 71, 36).
edge(88, 106, 5).
edge(20, 173, 30).
edge(140, 95, 27).
edge(49, 29, 15).
edge(100, 166, 24).
edge(101, 61, 11).
edge(108, 52, 15).
edge(84, 98, 34).
edge(36, 15, 14).
edge(121, 169, 33).
edge(106, 161, 16).
edge(49, 14, 39).
edge(66, 91, 7).
edge(143, 108, 8).
edge(37, 63, 36).
edge(100, 87, 29).
edge(35, 177, 5).
edge(72, 156, 11).
edge(162, 107, 32).
edge(108, 107, 24).
edge(111, 173, 28).
edge(77, 21, 17).
edge(10, 20, 15).
edge(88, 119, 34).
edge(117, 139, 24).
edge(153, 56, 28).
edge(1, 93, 11).
edge(101, 9, 17).
edge(154, 161, 12).
edge(146, 138, 21).
edge(37, 15, 21).
edge(118, 138, 20).
edge(18, 9, 22).
edge(167, 24, 12).
edge(64, 142, 15).
edge(146, 177, 3).
edge(77, 30, 24).
edge(73, 51, 8).
edge(61, 60, 23).
edge(22, 76, 6).
edge(171, 36, 24).
edge(111, 118, 24).
edge(98, 162, 34).
edge(99, 33, 8).
edge(21, 15, 11).
edge(124, 21, 21).
edge(73, 43, 5).
edge(71, 42, 11).
edge(36, 85, 11).
edge(155, 69, 15).
edge(39, 86, 8).
edge(78, 35, 3).
edge(0, 156, 39).
edge(90, 160, 23).
edge(97, 80, 34).
edge(137, 128, 19).
edge(52, 18, 2).
edge(147, 27, 29).
edge(75, 172, 31).
edge(27, 120, 11).
edge(158, 7, 7).
edge(130, 52, 12).
edge(44, 94, 21).
edge(159, 44, 34).
edge(33, 13, 28).
edge(76, 10, 6).
edge(17, 9, 23).
edge(156, 22, 14).
edge(106, 65, 3).
edge(163, 153, 1).
edge(172, 150, 14).
edge(68, 107, 9).
edge(11, 8, 33).
edge(109, 91, 27).
edge(8, 110, 21).
edge(88, 47, 37).
edge(56, 11, 20).
edge(94, 141, 12).
edge(78, 45, 37).
edge(127, 87, 34).
edge(171, 41, 3).
edge(156, 13, 14).
edge(160, 127, 5).
edge(149, 108, 13).
edge(89, 35, 1).
edge(9, 43, 20).
edge(3, 152, 24).
edge(139, 114, 7).
edge(85, 110, 35).
edge(153, 34, 36).
edge(99, 31, 30).
edge(86, 132, 34).
edge(136, 138, 25).
edge(143, 59, 39).
edge(113, 2, 17).
edge(94, 77, 9).
edge(55, 77, 12).
edge(6, 55, 28).
edge(65, 139, 2).
edge(24, 127, 27).
edge(139, 33, 26).
edge(77, 166, 6).
edge(173, 70, 16).
edge(103, 37, 4).
edge(111, 50, 1).
edge(92, 87, 8).
edge(16, 85, 32).
edge(54, 117, 5).
edge(5, 92, 34).
edge(160, 132, 21).
edge(94, 88, 5).
edge(61, 82, 11).
edge(15, 160, 8).
edge(49, 121, 38).
edge(127, 47, 27).
edge(131, 164, 8).
edge(109, 88, 39).
edge(83, 88, 30).
edge(90, 155, 9).
edge(176, 98, 3).
edge(145, 110, 17).
edge(43, 32, 14).
edge(83, 161, 35).
edge(146, 60, 26).
edge(148, 168, 38).
edge(76, 74, 32).
edge(91, 41, 10).
edge(46, 107, 37).
edge(117, 70, 20).
edge(11, 90, 37).
edge(2, 88, 34).
edge(29, 110, 34).
edge(91, 4, 3).
edge(101, 18, 10).
edge(21, 173, 16).
edge(18, 63, 5).
edge(18, 54, 28).
edge(51, 121, 17).
edge(22, 71, 14).
edge(51, 129, 22).
edge(71, 12, 35).
edge(148, 22, 31).
edge(166, 132, 10).
edge(110, 136, 30).
edge(176, 60, 27).
edge(117, 40, 10).
edge(28, 67, 5).
edge(52, 174, 37).
edge(127, 169, 35).
edge(117, 108, 1).
edge(168, 144, 18).
edge(60, 113, 22).
edge(57, 95, 12).
edge(12, 33, 18).
edge(89, 47, 11).
edge(177, 164, 25).
edge(9, 48, 16).
edge(88, 57, 7).
edge(90, 77, 22).
edge(143, 169, 11).
edge(122, 93, 23).
edge(173, 77, 24).
edge(136, 156, 34).
edge(40, 152, 10).
edge(32, 167, 3).
edge(158, 172, 18).
edge(124, 82, 23).
edge(95, 7, 8).
edge(87, 144, 24).
edge(132, 117, 11).
edge(2, 118, 8).
edge(70, 95, 9).
edge(156, 104, 16).
edge(139, 120, 31).
edge(166, 84, 1).
edge(18, 10, 38).
edge(18, 25, 30).
edge(144, 59, 8).
edge(9, 141, 36).
edge(21, 111, 26).
edge(103, 137, 36).
edge(7, 143, 14).
edge(40, 9, 21).
edge(0, 78, 16).
edge(83, 112, 31).
edge(147, 19, 38).
edge(134, 63, 33).
edge(125, 111, 1).
edge(120, 42, 17).
edge(27, 22, 15).
edge(54, 79, 31).
edge(110, 18, 27).
edge(150, 61, 36).
edge(17, 71, 39).
edge(8, 103, 13).
edge(159, 5, 18).
edge(22, 90, 24).
edge(107, 89, 31).
edge(103, 27, 1).
edge(112, 147, 31).
edge(55, 128, 29).
edge(28, 8, 28).
edge(43, 116, 34).
edge(138, 167, 29).
edge(88, 151, 33).
edge(4, 157, 24).
edge(66, 10, 23).
edge(151, 156, 22).
edge(101, 16, 36).
edge(116, 102, 26).
edge(119, 66, 12).
edge(0, 3, 11).
edge(126, 72, 29).
edge(9, 18, 12).
edge(38, 93, 10).
edge(164, 9, 26).
edge(96, 117, 35).
edge(92, 31, 23).
edge(125, 126, 9).
edge(4, 15, 29).
edge(1, 66, 3).
edge(106, 148, 1).
edge(103, 41, 25).
edge(159, 121, 23).
edge(95, 164, 18).
edge(30, 177, 28).
edge(176, 2, 27).
edge(34, 119, 12).
edge(100, 162, 18).
edge(177, 80, 38).
edge(167, 53, 4).
edge(0, 89, 28).
edge(17, 70, 20).
edge(127, 11, 14).
edge(154, 8, 16).
edge(84, 58, 23).
edge(59, 66, 1).
edge(89, 166, 17).
edge(34, 101, 5).
edge(88, 105, 8).
edge(29, 71, 27).
edge(177, 100, 4).
edge(10, 87, 27).
edge(15, 120, 16).
edge(133, 18, 35).
edge(159, 150, 38).
edge(101, 169, 23).
edge(40, 109, 8).
edge(15, 30, 37).
edge(176, 119, 8).
edge(97, 44, 9).
edge(162, 119, 21).
edge(5, 79, 27).
edge(87, 95, 26).
edge(34, 139, 9).
edge(163, 154, 25).
edge(134, 73, 30).
edge(26, 28, 34).
edge(11, 104, 28).
edge(110, 72, 20).
edge(67, 174, 8).
edge(94, 122, 38).
edge(94, 56, 38).
edge(127, 72, 23).
edge(58, 98, 35).
edge(16, 49, 30).
edge(0, 161, 10).
edge(143, 43, 19).
edge(156, 54, 17).
edge(81, 173, 7).
edge(118, 51, 28).
edge(35, 70, 6).
edge(36, 92, 26).
edge(69, 71, 28).
edge(95, 110, 3).
edge(93, 166, 5).
edge(74, 105, 31).
edge(152, 102, 21).
edge(176, 21, 37).
edge(1, 80, 4).
edge(55, 80, 37).
edge(166, 169, 32).
edge(137, 55, 31).
edge(95, 119, 30).
edge(131, 89, 20).
edge(161, 3, 36).
edge(57, 6, 16).
edge(94, 143, 12).
edge(38, 175, 9).
edge(53, 65, 12).
edge(68, 12, 32).
edge(150, 41, 13).
edge(8, 150, 29).
edge(149, 117, 10).
edge(115, 124, 21).
edge(82, 124, 20).
edge(96, 125, 3).
edge(167, 132, 13).
edge(169, 64, 8).
edge(28, 155, 25).
edge(36, 13, 1).
edge(50, 155, 25).
edge(149, 0, 27).
edge(171, 23, 36).
edge(27, 88, 20).
edge(109, 57, 13).
edge(36, 46, 25).
edge(159, 56, 29).
edge(8, 172, 10).
edge(43, 41, 6).
edge(81, 18, 10).
edge(153, 108, 34).
edge(72, 7, 4).
edge(64, 135, 32).
edge(97, 37, 10).
edge(82, 157, 22).
edge(52, 91, 10).
edge(59, 55, 3).
edge(106, 49, 26).
edge(126, 145, 20).
edge(25, 45, 3).
edge(125, 55, 3).
edge(88, 166, 12).
edge(96, 4, 24).
edge(37, 171, 5).
edge(58, 116, 21).
edge(54, 165, 27).
edge(137, 48, 11).
edge(8, 94, 22).
edge(128, 151, 11).
edge(112, 135, 28).
edge(135, 44, 16).
edge(88, 60, 13).
edge(148, 39, 20).
edge(2, 32, 3).
edge(18, 11, 16).
edge(111, 27, 20).
edge(145, 82, 16).
edge(72, 37, 15).
edge(31, 34, 34).
edge(94, 32, 37).
edge(107, 19, 13).
edge(12, 31, 19).
edge(160, 151, 30).
edge(164, 33, 24).
edge(78, 42, 28).
edge(69, 28, 25).
edge(24, 88, 8).
edge(31, 163, 26).
edge(148, 1, 3).
edge(91, 90, 10).
edge(62, 127, 32).
edge(99, 62, 7).
edge(86, 42, 31).
edge(39, 1, 38).
edge(5, 153, 15).
edge(71, 29, 3).
edge(169, 101, 30).
edge(32, 103, 7).
edge(68, 160, 12).
edge(53, 177, 21).
edge(41, 75, 29).
edge(23, 25, 39).
edge(8, 38, 23).
edge(160, 139, 21).
edge(177, 74, 39).
edge(23, 21, 25).
edge(48, 137, 12).
edge(66, 175, 39).
edge(119, 143, 22).
edge(109, 129, 28).
edge(123, 121, 10).
edge(120, 59, 10).
edge(21, 109, 29).
edge(164, 150, 33).
edge(145, 123, 1).
edge(81, 78, 16).
edge(108, 22, 39).
edge(119, 168, 1).
edge(103, 81, 19).
edge(123, 91, 18).
edge(142, 160, 5).
edge(26, 45, 25).
edge(78, 89, 28).
edge(102, 90, 33).
edge(122, 12, 9).
edge(125, 93, 21).
edge(176, 115, 36).
edge(161, 12, 23).
edge(155, 136, 31).
edge(167, 35, 32).
edge(12, 10, 37).
edge(66, 123, 10).
edge(121, 127, 24).
edge(50, 26, 31).
edge(133, 45, 24).
edge(156, 174, 5).
edge(173, 58, 19).
edge(60, 58, 29).
edge(0, 62, 23).
edge(93, 56, 37).
edge(160, 110, 8).
edge(147, 83, 15).
edge(153, 157, 2).
edge(57, 93, 17).
edge(115, 149, 26).
edge(88, 27, 10).
edge(57, 85, 23).
edge(38, 72, 1).
edge(168, 49, 4).
edge(130, 73, 6).
edge(95, 32, 28).
edge(123, 23, 13).
edge(87, 3, 12).
edge(38, 17, 7).
edge(38, 35, 4).
edge(104, 170, 19).
edge(89, 108, 15).
edge(35, 85, 26).
edge(177, 97, 8).
edge(130, 41, 9).
edge(116, 60, 20).
edge(17, 56, 38).
edge(16, 126, 9).
edge(90, 171, 18).
edge(55, 63, 17).
edge(157, 61, 38).
edge(174, 170, 29).
edge(21, 83, 39).
edge(23, 62, 36).
edge(143, 75, 24).
edge(94, 131, 39).
edge(1, 131, 18).
edge(47, 17, 9).
edge(150, 62, 5).
edge(177, 109, 35).
edge(24, 136, 23).
edge(139, 4, 23).
edge(57, 173, 31).
edge(166, 145, 18).
edge(91, 45, 22).
edge(164, 11, 31).
edge(140, 172, 39).
edge(170, 152, 38).
edge(58, 90, 6).
edge(76, 149, 11).
edge(162, 32, 28).
edge(47, 0, 38).
edge(143, 21, 7).
edge(101, 155, 16).
edge(139, 21, 2).
edge(93, 145, 8).
edge(145, 2, 33).
edge(163, 127, 29).
edge(139, 164, 4).
edge(172, 81, 39).
edge(50, 162, 28).
edge(37, 43, 26).
edge(73, 1, 14).
edge(173, 6, 19).
edge(87, 131, 29).
edge(39, 71, 23).
edge(62, 23, 8).
edge(4, 23, 37).
edge(118, 15, 28).
edge(134, 58, 1).
edge(96, 128, 11).
edge(176, 27, 21).
edge(93, 141, 24).
edge(131, 66, 22).
edge(2, 161, 30).
edge(36, 52, 36).
edge(63, 40, 8).
edge(42, 66, 13).
edge(70, 36, 4).
edge(136, 161, 26).
edge(26, 102, 36).
edge(162, 125, 33).
edge(116, 0, 20).
edge(39, 137, 15).
edge(155, 5, 34).
edge(175, 107, 37).
edge(165, 31, 15).
edge(109, 68, 27).
edge(11, 81, 13).
edge(6, 139, 3).
edge(75, 34, 35).
edge(30, 79, 18).
edge(6, 85, 34).
edge(151, 12, 39).
edge(121, 130, 1).
edge(171, 13, 13).
edge(118, 123, 34).
edge(170, 126, 7).
edge(141, 81, 15).
edge(161, 155, 14).
edge(104, 96, 7).
edge(34, 129, 1).
edge(99, 37, 17).
edge(100, 27, 26).
edge(165, 23, 34).
edge(17, 67, 29).
edge(4, 42, 15).
edge(116, 132, 10).
edge(151, 99, 17).
edge(113, 26, 32).
edge(112, 165, 17).
edge(63, 58, 16).
edge(52, 98, 25).
edge(6, 153, 1).
edge(1, 51, 36).
edge(24, 117, 16).
edge(107, 79, 1).
edge(46, 97, 11).
edge(19, 148, 6).
edge(176, 17, 30).
edge(17, 159, 33).
edge(89, 96, 30).
edge(39, 59, 5).
edge(36, 23, 39).
edge(87, 10, 9).
edge(91, 175, 20).
edge(136, 112, 8).
edge(9, 91, 6).
edge(70, 169, 4).
edge(4, 135, 8).
edge(140, 151, 11).
edge(125, 46, 2).
edge(162, 168, 1).
edge(41, 148, 13).
edge(56, 36, 29).
edge(82, 86, 18).
edge(153, 174, 3).
edge(48, 1, 18).
edge(33, 63, 26).
edge(103, 56, 5).
edge(154, 99, 39).
edge(48, 134, 8).
edge(125, 150, 26).
edge(172, 112, 34).
edge(9, 6, 6).
edge(158, 146, 29).
edge(94, 133, 12).
edge(162, 47, 18).
edge(19, 13, 6).
edge(65, 140, 15).
edge(163, 144, 21).
edge(79, 173, 25).
edge(79, 160, 15).
edge(57, 38, 33).
edge(68, 128, 31).
edge(117, 133, 20).
edge(4, 149, 14).
edge(21, 58, 13).
edge(156, 128, 20).
edge(43, 79, 19).
edge(171, 74, 12).
edge(144, 153, 10).
edge(10, 56, 32).
edge(55, 161, 14).
edge(17, 57, 34).
edge(44, 69, 8).
edge(1, 16, 9).
edge(39, 15, 27).
edge(52, 50, 36).
edge(61, 153, 38).
edge(37, 73, 2).
edge(3, 0, 38).
edge(32, 113, 9).
edge(163, 147, 22).
edge(84, 156, 9).
edge(143, 11, 28).
edge(48, 161, 17).
edge(131, 44, 17).
edge(26, 114, 38).
edge(118, 161, 38).
edge(123, 0, 35).
edge(45, 4, 37).
edge(28, 34, 7).
edge(93, 13, 30).
edge(84, 155, 8).
edge(84, 81, 16).
edge(146, 24, 15).
edge(109, 58, 13).
edge(176, 129, 16).
edge(121, 101, 37).
edge(110, 24, 6).
edge(67, 134, 20).
edge(100, 163, 28).
edge(153, 26, 27).
edge(42, 10, 10).
edge(95, 9, 3).
edge(43, 72, 25).
edge(70, 73, 38).
edge(60, 161, 12).
edge(132, 158, 9).
edge(35, 14, 4).
edge(40, 155, 12).
edge(126, 175, 22).
edge(145, 61, 4).
edge(48, 57, 11).
edge(110, 116, 27).
edge(155, 103, 33).
edge(126, 134, 29).
edge(6, 9, 16).
edge(32, 43, 13).
edge(78, 154, 10).
edge(35, 6, 11).
edge(150, 86, 25).
edge(20, 93, 19).
edge(89, 90, 6).
edge(162, 64, 27).
edge(48, 41, 26).
edge(108, 81, 2).
edge(153, 175, 7).
edge(113, 23, 24).
edge(100, 159, 21).
edge(175, 76, 21).
edge(104, 29, 28).
edge(40, 93, 35).
edge(123, 18, 31).
edge(62, 3, 20).
edge(31, 115, 21).
edge(155, 10, 31).
edge(29, 36, 2).
edge(122, 55, 23).
edge(54, 43, 7).
edge(145, 78, 18).
edge(84, 135, 18).
edge(11, 22, 14).
edge(97, 6, 10).
edge(157, 85, 3).
edge(60, 129, 14).
edge(148, 44, 7).
edge(42, 109, 17).
edge(103, 46, 29).
edge(76, 168, 1).
edge(31, 81, 28).
edge(98, 46, 12).
edge(40, 47, 2).
edge(176, 76, 1).
edge(88, 153, 8).
edge(29, 166, 27).
edge(14, 46, 5).
edge(91, 15, 2).
edge(5, 27, 30).
edge(149, 104, 35).
edge(69, 125, 22).
edge(144, 155, 20).
edge(42, 71, 5).
edge(77, 42, 38).
edge(113, 22, 3).
edge(109, 149, 31).
edge(114, 66, 24).
edge(43, 108, 26).
edge(92, 70, 36).
edge(154, 69, 3).
edge(7, 152, 34).
edge(106, 91, 36).
edge(94, 93, 3).
edge(89, 36, 11).
edge(159, 170, 31).
edge(25, 69, 31).
edge(2, 115, 22).
edge(5, 55, 6).
edge(175, 9, 1).
edge(35, 58, 4).
edge(2, 68, 24).
edge(107, 143, 20).
edge(109, 55, 8).
edge(85, 40, 6).
edge(164, 35, 25).
edge(133, 110, 15).
edge(160, 45, 19).
edge(106, 72, 15).
edge(118, 76, 35).
edge(0, 41, 24).
edge(141, 169, 38).
edge(156, 31, 25).
edge(72, 35, 10).
edge(102, 154, 24).
edge(120, 58, 38).
edge(69, 60, 24).
edge(16, 137, 26).
edge(93, 146, 35).
edge(57, 51, 25).
edge(145, 0, 2).
edge(14, 22, 28).
edge(137, 134, 17).
edge(122, 157, 25).
edge(44, 28, 9).
edge(142, 88, 7).
edge(153, 124, 12).
edge(134, 146, 38).
edge(100, 143, 31).
edge(147, 6, 7).
edge(66, 126, 35).
edge(88, 65, 20).
edge(9, 16, 5).
edge(32, 71, 24).
edge(16, 12, 15).
edge(104, 4, 28).
edge(143, 30, 30).
edge(19, 92, 4).
edge(144, 86, 38).
edge(67, 89, 4).
edge(40, 153, 37).
edge(11, 65, 16).
edge(149, 90, 14).
edge(35, 113, 5).
edge(149, 80, 23).
edge(133, 54, 17).
edge(36, 27, 34).
edge(1, 25, 39).
edge(21, 162, 22).
edge(103, 130, 5).
edge(71, 172, 34).
edge(65, 94, 13).
edge(16, 116, 27).
edge(2, 121, 2).
edge(25, 30, 22).
edge(93, 152, 30).
edge(177, 12, 7).
edge(116, 27, 25).
edge(144, 110, 7).
edge(48, 141, 32).
edge(23, 70, 16).
edge(8, 169, 25).
edge(135, 6, 14).
edge(174, 168, 10).
edge(45, 136, 26).
edge(131, 65, 13).
edge(18, 44, 10).
edge(99, 125, 5).
edge(121, 16, 17).
edge(131, 39, 1).
edge(49, 164, 23).
edge(164, 124, 16).
edge(16, 109, 3).
edge(90, 86, 25).
edge(27, 31, 20).
edge(147, 108, 1).
edge(168, 70, 20).
edge(113, 63, 16).
edge(146, 164, 12).
edge(135, 67, 32).
edge(149, 169, 24).
edge(25, 9, 1).
edge(72, 155, 12).
edge(110, 121, 33).
edge(38, 115, 32).
edge(96, 1, 39).
edge(10, 48, 33).
edge(7, 48, 32).
edge(159, 65, 26).
edge(86, 44, 36).
edge(132, 161, 31).
edge(7, 53, 4).
edge(96, 111, 24).
edge(112, 7, 28).
edge(157, 83, 16).
edge(57, 156, 5).
edge(78, 61, 22).
edge(57, 98, 37).
edge(90, 0, 12).
edge(168, 38, 36).
edge(153, 67, 27).
edge(66, 70, 34).
edge(87, 100, 36).
edge(44, 105, 26).
edge(115, 40, 13).
edge(59, 39, 35).
edge(116, 33, 9).
edge(54, 162, 30).
edge(112, 1, 19).
edge(70, 145, 21).
edge(54, 130, 32).
edge(150, 130, 33).
edge(69, 139, 32).
edge(26, 92, 2).
edge(142, 44, 15).
edge(152, 89, 31).
edge(72, 55, 30).
edge(145, 36, 10).
edge(12, 133, 8).
edge(98, 95, 18).
edge(171, 30, 21).
edge(9, 21, 38).
edge(161, 90, 2).
edge(40, 19, 27).
edge(54, 86, 4).
edge(129, 94, 8).
edge(118, 177, 39).
edge(130, 108, 11).
edge(152, 114, 12).
edge(125, 177, 20).
edge(122, 72, 20).
edge(112, 168, 22).
edge(111, 35, 9).
edge(158, 18, 13).
edge(61, 112, 18).
edge(172, 25, 39).
edge(6, 107, 19).
edge(68, 43, 34).
edge(35, 88, 14).
edge(6, 84, 25).
edge(101, 64, 5).
edge(52, 59, 33).
edge(3, 138, 10).
edge(65, 93, 24).
edge(54, 177, 20).
edge(60, 39, 1).
edge(19, 72, 35).
edge(130, 54, 10).
edge(80, 113, 36).
edge(35, 29, 28).
edge(67, 144, 10).
edge(11, 162, 22).
edge(174, 44, 2).
edge(112, 5, 12).
edge(109, 28, 30).
edge(166, 57, 22).
edge(81, 4, 33).
edge(89, 73, 21).
edge(143, 81, 4).
edge(53, 9, 12).
edge(85, 12, 36).
edge(2, 98, 23).
edge(99, 73, 31).
edge(26, 31, 4).
edge(62, 57, 39).
edge(143, 157, 8).
edge(38, 114, 1).
edge(4, 93, 8).
edge(107, 134, 19).
edge(171, 169, 29).
edge(65, 44, 34).
edge(141, 167, 31).
edge(46, 43, 1).
edge(139, 177, 31).
edge(67, 114, 19).
edge(32, 82, 35).
edge(173, 154, 10).
edge(167, 105, 29).
edge(40, 25, 7).
edge(104, 84, 16).
edge(66, 57, 6).
edge(50, 168, 8).
edge(32, 67, 35).
edge(59, 176, 27).
edge(71, 33, 11).
edge(157, 127, 24).
edge(59, 166, 9).
edge(34, 7, 8).
edge(60, 14, 33).
edge(64, 161, 20).
edge(150, 132, 34).
edge(61, 162, 34).
edge(58, 57, 29).
edge(147, 107, 37).
edge(124, 5, 24).
edge(1, 23, 21).
edge(167, 99, 8).
edge(18, 174, 19).
edge(107, 0, 32).
edge(26, 81, 3).
edge(126, 19, 5).
edge(43, 77, 37).
edge(153, 143, 36).
edge(173, 120, 14).
edge(31, 125, 13).
edge(134, 100, 18).
edge(108, 156, 13).
edge(47, 67, 7).
edge(173, 130, 16).
edge(100, 110, 7).
edge(94, 145, 10).
edge(90, 46, 1).
edge(118, 73, 35).
edge(124, 63, 18).
edge(57, 69, 5).
edge(37, 114, 8).
edge(30, 163, 19).
edge(107, 36, 39).
edge(54, 168, 20).
edge(17, 145, 5).
edge(70, 76, 25).
edge(149, 68, 6).
edge(86, 164, 10).
edge(153, 166, 11).
edge(109, 154, 6).
edge(55, 147, 28).
edge(146, 54, 19).
edge(35, 143, 10).
edge(133, 116, 34).
edge(44, 109, 13).
edge(162, 63, 18).
edge(44, 121, 39).
edge(6, 176, 2).
edge(73, 78, 20).
edge(131, 170, 35).
edge(111, 20, 38).
edge(88, 124, 34).
edge(28, 12, 21).
edge(46, 99, 11).
edge(121, 40, 6).
edge(152, 144, 15).
edge(89, 87, 16).
edge(50, 134, 23).
edge(28, 45, 29).
edge(134, 20, 25).
edge(43, 123, 19).
edge(64, 176, 3).
edge(119, 134, 5).
edge(8, 131, 28).
edge(106, 97, 7).
edge(102, 111, 9).
edge(63, 100, 36).
edge(166, 173, 32).
edge(91, 125, 21).
edge(146, 126, 17).
edge(11, 7, 17).
edge(136, 84, 7).
edge(32, 66, 20).
edge(8, 34, 6).
edge(110, 54, 10).
edge(161, 17, 14).
edge(41, 76, 6).
edge(80, 32, 8).
edge(11, 73, 17).
edge(130, 64, 33).
edge(76, 161, 21).
edge(43, 2, 21).
edge(105, 142, 39).
edge(166, 107, 2).
edge(164, 171, 35).
edge(40, 29, 21).
edge(127, 92, 36).
edge(92, 112, 16).
edge(111, 142, 27).
edge(122, 163, 29).
edge(14, 162, 24).
edge(175, 53, 30).
edge(127, 107, 23).
edge(64, 47, 9).
edge(4, 66, 25).
edge(92, 115, 39).
edge(163, 175, 13).
edge(49, 23, 39).
edge(137, 34, 36).
edge(45, 87, 9).
edge(122, 36, 6).
edge(118, 61, 20).
edge(79, 103, 36).
edge(99, 76, 36).
edge(176, 80, 28).
edge(170, 146, 26).
edge(46, 95, 15).
edge(10, 168, 28).
edge(63, 83, 3).
edge(158, 174, 24).
edge(74, 108, 11).
edge(76, 94, 6).
edge(137, 25, 3).
edge(82, 46, 36).
edge(144, 42, 33).
edge(88, 46, 31).
edge(38, 151, 3).
edge(138, 175, 16).
edge(150, 39, 7).
edge(127, 49, 10).
edge(14, 92, 36).
edge(158, 76, 27).
edge(176, 0, 10).
edge(1, 82, 9).
edge(151, 142, 26).
edge(127, 158, 24).
edge(154, 83, 32).
edge(56, 131, 12).
edge(30, 45, 24).
edge(140, 124, 18).
edge(167, 9, 23).
edge(56, 47, 15).
edge(22, 63, 37).
edge(99, 151, 31).
edge(155, 85, 14).
edge(41, 125, 35).
edge(7, 173, 29).
edge(140, 85, 24).
edge(51, 151, 17).
edge(15, 94, 10).
edge(58, 122, 1).
edge(158, 1, 3).
edge(161, 173, 21).
edge(9, 95, 22).
edge(14, 161, 35).
edge(152, 25, 23).
edge(87, 25, 17).
edge(111, 171, 17).
edge(73, 86, 23).
edge(103, 96, 37).
edge(131, 137, 17).
edge(136, 65, 38).
edge(161, 1, 23).
edge(38, 99, 13).
edge(142, 120, 20).
edge(79, 9, 7).
edge(7, 104, 2).
edge(71, 21, 7).
edge(39, 45, 3).
edge(35, 97, 19).
edge(15, 60, 30).
edge(144, 120, 3).
edge(141, 15, 35).
edge(37, 22, 17).
edge(100, 48, 38).
edge(126, 81, 21).
edge(163, 171, 39).
edge(159, 62, 10).
edge(102, 92, 24).
edge(168, 32, 16).
edge(59, 112, 39).
edge(84, 54, 11).
edge(122, 176, 26).
edge(92, 142, 4).
edge(173, 49, 4).
edge(166, 76, 21).
edge(138, 47, 33).
edge(71, 124, 9).
edge(17, 40, 38).
edge(177, 39, 3).
edge(127, 3, 38).
edge(56, 171, 34).
edge(63, 87, 9).
edge(47, 167, 3).
edge(144, 52, 17).
edge(24, 169, 20).
edge(5, 52, 9).
edge(161, 108, 25).
edge(90, 9, 12).
edge(123, 5, 1).
edge(81, 175, 10).
edge(137, 160, 9).
edge(9, 103, 18).
edge(95, 21, 29).
edge(24, 26, 29).
edge(77, 32, 2).
edge(169, 110, 16).
edge(103, 68, 28).
edge(173, 10, 27).
edge(43, 70, 30).
edge(109, 98, 8).
edge(63, 35, 12).
edge(116, 5, 5).
edge(143, 146, 18).
edge(61, 36, 25).
edge(3, 78, 28).
edge(148, 65, 33).
edge(71, 125, 29).
edge(166, 12, 4).
edge(57, 41, 22).
edge(42, 27, 35).
edge(24, 101, 9).
edge(24, 123, 17).
edge(70, 115, 31).
edge(171, 90, 28).
edge(97, 63, 10).
edge(26, 14, 5).
edge(56, 14, 2).
edge(48, 19, 22).
edge(60, 101, 15).
edge(84, 30, 20).
edge(88, 18, 13).
edge(121, 129, 38).
edge(44, 37, 31).
edge(42, 153, 21).
edge(139, 81, 18).
edge(82, 152, 34).
edge(21, 28, 1).
edge(158, 141, 18).
edge(151, 150, 29).
edge(143, 16, 17).
edge(101, 50, 25).
edge(26, 36, 26).
edge(22, 148, 27).
edge(157, 56, 4).
edge(149, 121, 23).
edge(52, 164, 10).
edge(23, 78, 37).
edge(49, 56, 33).
edge(112, 74, 35).
edge(177, 101, 34).
edge(49, 158, 30).
edge(80, 74, 5).
edge(88, 74, 5).
edge(171, 26, 15).
edge(108, 91, 36).
edge(169, 176, 2).
edge(91, 39, 26).
edge(138, 11, 37).
edge(142, 67, 19).
edge(172, 138, 15).
edge(53, 73, 31).
edge(70, 160, 7).
edge(156, 45, 1).
edge(171, 145, 39).
edge(111, 162, 37).
edge(86, 23, 16).
edge(47, 6, 21).
edge(0, 4, 7).
edge(43, 171, 29).
edge(44, 20, 36).
edge(57, 99, 19).
edge(67, 139, 34).
edge(66, 153, 2).
edge(119, 160, 20).
edge(29, 102, 23).
edge(98, 113, 25).
edge(32, 4, 26).
edge(4, 72, 39).
edge(109, 157, 14).
edge(136, 13, 22).
edge(27, 1, 18).
edge(117, 147, 9).
edge(44, 165, 1).
edge(167, 110, 3).
edge(35, 142, 8).
edge(155, 29, 27).
edge(95, 124, 10).
edge(137, 10, 7).
edge(153, 87, 23).
edge(49, 8, 19).
edge(37, 99, 7).
edge(63, 25, 27).
edge(124, 34, 15).
edge(169, 147, 4).
edge(79, 1, 22).
edge(156, 99, 5).
edge(68, 50, 12).
edge(3, 57, 16).
edge(80, 114, 30).
edge(68, 34, 2).
edge(27, 91, 11).
edge(108, 85, 14).
edge(99, 158, 4).
edge(12, 37, 39).
edge(110, 73, 24).
edge(84, 151, 2).
edge(170, 144, 7).
edge(147, 63, 7).
edge(88, 115, 20).
edge(1, 14, 5).
edge(162, 111, 17).
edge(123, 103, 29).
edge(115, 8, 39).
edge(125, 1, 35).
edge(110, 177, 25).
edge(140, 81, 34).
edge(51, 24, 30).
edge(133, 72, 20).
edge(54, 148, 27).
edge(124, 42, 30).
edge(59, 140, 38).
edge(126, 16, 4).
edge(60, 18, 16).
edge(63, 3, 33).
edge(60, 33, 36).
edge(81, 40, 27).
edge(57, 151, 31).
edge(54, 50, 34).
edge(150, 49, 8).
edge(2, 89, 14).
edge(16, 51, 4).
edge(38, 86, 27).
edge(81, 19, 5).
edge(17, 139, 25).
edge(135, 75, 20).
edge(110, 6, 36).
edge(26, 18, 37).
edge(13, 17, 16).
edge(166, 137, 28).
edge(134, 55, 27).
edge(28, 112, 25).
edge(12, 86, 29).
edge(21, 9, 15).
edge(79, 2, 21).
edge(57, 78, 3).
edge(76, 173, 20).
edge(51, 161, 34).
edge(37, 76, 2).
edge(146, 41, 4).
edge(92, 63, 17).
edge(175, 79, 25).
edge(48, 164, 34).
edge(85, 71, 37).
edge(78, 164, 3).
edge(131, 48, 13).
edge(57, 169, 29).
edge(138, 9, 14).
edge(104, 160, 16).
edge(10, 142, 35).
edge(10, 7, 31).
edge(115, 3, 29).
edge(36, 47, 16).
edge(75, 102, 20).
edge(55, 103, 34).
edge(52, 65, 36).
edge(109, 31, 5).
edge(47, 46, 26).
edge(121, 165, 11).
edge(10, 75, 36).
edge(86, 71, 33).
edge(140, 169, 34).
edge(47, 103, 14).
edge(165, 16, 39).
edge(113, 147, 31).
edge(151, 177, 7).
edge(23, 50, 32).
edge(95, 52, 37).
edge(98, 163, 12).
edge(160, 93, 13).
edge(154, 163, 15).
edge(118, 175, 26).
edge(170, 171, 7).
edge(34, 172, 38).
edge(169, 149, 19).
edge(28, 42, 19).
edge(64, 169, 24).
edge(0, 45, 12).
edge(156, 107, 32).
edge(118, 57, 17).
edge(32, 8, 38).
edge(91, 172, 32).
edge(66, 173, 32).
edge(99, 160, 1).
edge(40, 135, 39).
edge(84, 6, 16).
edge(5, 121, 20).
edge(167, 175, 20).
edge(10, 101, 23).
edge(22, 163, 30).
edge(126, 64, 38).
edge(18, 116, 1).
edge(109, 23, 9).
edge(96, 13, 13).
edge(134, 133, 31).
edge(138, 129, 37).
edge(151, 56, 21).
edge(174, 53, 39).
edge(6, 10, 24).
edge(135, 13, 19).
edge(160, 55, 10).
edge(161, 159, 30).
edge(51, 113, 6).
edge(50, 111, 6).
edge(68, 176, 37).
edge(66, 36, 32).
edge(22, 144, 4).
edge(31, 100, 16).
edge(33, 121, 10).
edge(151, 170, 24).
edge(149, 11, 13).
edge(39, 145, 25).
edge(145, 42, 31).
edge(30, 63, 16).
edge(85, 121, 36).
edge(123, 29, 15).
edge(148, 156, 9).
edge(97, 73, 17).
edge(120, 100, 10).
edge(57, 154, 21).
edge(83, 19, 21).
edge(176, 5, 10).
edge(158, 74, 9).
edge(122, 111, 9).
edge(88, 167, 34).
edge(25, 127, 6).
edge(157, 119, 26).
edge(148, 41, 10).
edge(143, 68, 24).
edge(115, 96, 24).
edge(51, 23, 37).
edge(66, 58, 5).
edge(129, 30, 17).
edge(155, 142, 7).
edge(171, 114, 12).
edge(158, 128, 15).
edge(59, 18, 28).
edge(16, 90, 26).
edge(65, 121, 39).
edge(171, 105, 28).
edge(46, 106, 39).
edge(137, 154, 23).
edge(140, 149, 37).
edge(122, 174, 24).
edge(171, 58, 18).
edge(131, 113, 16).
edge(92, 84, 6).
edge(165, 133, 10).
edge(16, 93, 5).
edge(170, 72, 38).
edge(97, 130, 1).
edge(30, 67, 4).
edge(175, 12, 28).
edge(14, 20, 27).
edge(144, 150, 22).
edge(139, 130, 28).
edge(97, 75, 39).
edge(131, 72, 11).
edge(38, 7, 12).
edge(68, 20, 31).
edge(78, 33, 7).
edge(133, 73, 20).
edge(13, 4, 24).
edge(159, 92, 18).
edge(69, 102, 6).
edge(33, 72, 24).
edge(104, 36, 13).
edge(157, 76, 33).
edge(140, 163, 3).
edge(119, 95, 19).
edge(162, 105, 17).
edge(14, 152, 19).
edge(157, 153, 23).
edge(27, 159, 38).
edge(103, 169, 28).
edge(4, 110, 8).
edge(50, 109, 30).
edge(114, 167, 29).
edge(134, 2, 21).
edge(143, 153, 3).
edge(99, 170, 1).
edge(132, 142, 27).
edge(127, 110, 11).
edge(4, 96, 25).
edge(28, 22, 9).
edge(176, 101, 4).
edge(164, 174, 22).
edge(34, 166, 39).
edge(55, 36, 5).
edge(167, 20, 4).
edge(101, 163, 36).
edge(151, 127, 34).
edge(74, 12, 7).
edge(6, 38, 34).
edge(166, 105, 4).
edge(82, 31, 32).
edge(143, 145, 20).
edge(103, 62, 28).
edge(81, 33, 13).
edge(43, 156, 12).
edge(124, 118, 38).
edge(29, 168, 30).
edge(19, 109, 3).
edge(158, 163, 21).
edge(99, 23, 7).
edge(120, 126, 33).
edge(158, 107, 35).
edge(65, 38, 23).
edge(84, 104, 29).
edge(29, 158, 27).
edge(92, 147, 29).
edge(80, 139, 25).
edge(135, 0, 38).
edge(108, 71, 29).
edge(135, 54, 22).
edge(122, 52, 25).
edge(47, 48, 24).
edge(165, 68, 11).
edge(74, 112, 33).
edge(11, 62, 22).
edge(116, 26, 35).
edge(173, 9, 33).
edge(13, 68, 10).
edge(13, 46, 30).
edge(139, 9, 34).
edge(75, 85, 22).
edge(138, 93, 39).
edge(126, 95, 28).
edge(135, 109, 20).
edge(90, 110, 34).
edge(149, 13, 22).
edge(89, 155, 32).
edge(122, 104, 18).
edge(112, 19, 26).
edge(23, 71, 32).
edge(102, 175, 9).
edge(113, 38, 35).
edge(137, 29, 7).
edge(109, 99, 19).
edge(147, 66, 24).
edge(110, 117, 21).
edge(121, 148, 29).
edge(48, 47, 28).
edge(102, 143, 10).
edge(2, 20, 9).
edge(41, 67, 14).
edge(45, 55, 27).
edge(134, 80, 37).
edge(14, 23, 33).
edge(23, 116, 18).
edge(8, 63, 2).
edge(143, 156, 18).
edge(80, 124, 4).
edge(43, 144, 25).
edge(60, 163, 37).
edge(150, 52, 23).
edge(17, 52, 2).
edge(73, 71, 18).
edge(22, 110, 4).
edge(124, 77, 8).
edge(146, 131, 9).
edge(156, 80, 39).
edge(84, 177, 13).
edge(89, 55, 26).
edge(47, 33, 14).
edge(105, 45, 8).
edge(117, 96, 36).
edge(114, 24, 38).
edge(0, 63, 36).
edge(90, 100, 20).
edge(147, 161, 29).
edge(158, 81, 24).
edge(116, 94, 17).
edge(164, 82, 21).
edge(53, 132, 5).
edge(102, 167, 9).
edge(51, 177, 34).
edge(113, 66, 32).
edge(20, 107, 18).
edge(177, 2, 4).
edge(24, 13, 6).
edge(119, 135, 29).
edge(42, 89, 2).
edge(113, 36, 8).
edge(28, 11, 36).
edge(39, 100, 10).
edge(32, 99, 30).
edge(8, 13, 6).
edge(92, 133, 16).
edge(152, 9, 33).
edge(99, 159, 24).
edge(20, 100, 10).
edge(135, 68, 26).
edge(116, 1, 38).
edge(123, 161, 18).
edge(76, 134, 13).
edge(72, 174, 9).
edge(58, 170, 3).
edge(65, 81, 26).
edge(80, 160, 30).
edge(110, 151, 35).
edge(130, 156, 35).
edge(169, 2, 17).
edge(63, 144, 7).
edge(108, 118, 29).
edge(16, 99, 23).
edge(97, 118, 28).
edge(31, 69, 25).
edge(155, 25, 18).
edge(7, 62, 4).
edge(166, 167, 35).
edge(67, 136, 39).
edge(158, 70, 11).
edge(17, 162, 11).
edge(134, 103, 26).
edge(141, 130, 21).
edge(156, 91, 3).
edge(64, 12, 8).
edge(102, 177, 11).
edge(68, 92, 32).
edge(93, 53, 13).
edge(16, 133, 34).
edge(153, 148, 9).
edge(105, 158, 36).
edge(8, 23, 13).
edge(29, 135, 4).
edge(20, 21, 35).
edge(150, 126, 7).
edge(177, 138, 15).
edge(90, 172, 29).
edge(130, 3, 4).
edge(53, 99, 39).
edge(102, 51, 15).
edge(125, 87, 1).
edge(26, 158, 23).
edge(110, 128, 29).
edge(33, 137, 16).
edge(31, 33, 8).
edge(139, 108, 24).
edge(61, 54, 36).
edge(30, 66, 9).
edge(36, 124, 31).
edge(48, 3, 3).
edge(116, 36, 24).
edge(50, 157, 6).
edge(26, 138, 12).
edge(98, 63, 39).
edge(3, 127, 17).
edge(25, 109, 33).
edge(81, 39, 8).
edge(118, 98, 8).
edge(14, 71, 38).
edge(43, 102, 9).
edge(84, 165, 4).
edge(168, 68, 22).
edge(44, 21, 5).
edge(168, 42, 1).
edge(15, 154, 22).
edge(71, 170, 5).
edge(44, 13, 3).
edge(110, 50, 7).
edge(102, 59, 3).
edge(52, 0, 9).
edge(137, 171, 30).
edge(70, 37, 35).
edge(63, 145, 26).
edge(68, 52, 23).
edge(128, 1, 13).
edge(27, 19, 20).
edge(103, 25, 30).
edge(86, 60, 33).
edge(23, 177, 31).
edge(74, 26, 8).
edge(74, 10, 3).
edge(5, 1, 8).
edge(64, 54, 10).
edge(150, 46, 11).
edge(58, 34, 28).
edge(136, 151, 35).
edge(77, 175, 4).
edge(25, 79, 8).
edge(79, 170, 11).
edge(13, 18, 1).
edge(66, 176, 24).
edge(164, 77, 4).
edge(142, 133, 11).
edge(80, 78, 14).
edge(86, 117, 11).
edge(172, 41, 26).
edge(33, 65, 5).
edge(121, 139, 20).
edge(65, 177, 21).
edge(171, 129, 9).
edge(29, 62, 4).
edge(53, 140, 28).
edge(1, 104, 19).
edge(22, 29, 18).
edge(175, 166, 6).
edge(34, 100, 24).
edge(63, 159, 12).
edge(18, 163, 8).
edge(102, 33, 20).
edge(127, 67, 37).
edge(166, 7, 22).
edge(13, 9, 26).
edge(50, 1, 18).
edge(101, 82, 37).
edge(66, 166, 32).
edge(15, 38, 3).
edge(133, 159, 24).
edge(73, 136, 17).
edge(94, 163, 24).
edge(26, 120, 26).
edge(145, 32, 4).
edge(22, 100, 24).
edge(175, 13, 15).
edge(24, 154, 20).
edge(0, 26, 11).
edge(41, 120, 3).
edge(24, 59, 17).
edge(87, 138, 29).
edge(104, 136, 13).
edge(177, 83, 2).
edge(24, 32, 35).
edge(7, 140, 26).
edge(174, 48, 7).
edge(74, 129, 2).
edge(99, 64, 1).
edge(73, 158, 6).
edge(154, 175, 1).
edge(163, 59, 33).
edge(172, 155, 30).
edge(167, 139, 21).
edge(12, 35, 23).
edge(97, 121, 14).
edge(79, 174, 25).
edge(20, 26, 26).
edge(115, 139, 38).
edge(73, 177, 19).
edge(17, 112, 21).
edge(96, 63, 15).
edge(43, 13, 15).
edge(95, 93, 14).
edge(34, 84, 38).
edge(65, 58, 34).
edge(164, 114, 37).
edge(68, 143, 23).
edge(125, 175, 13).
edge(81, 138, 37).
edge(36, 133, 18).
edge(155, 133, 27).
edge(150, 148, 23).
edge(110, 135, 5).
edge(15, 46, 1).
edge(30, 60, 21).
edge(111, 57, 39).
edge(111, 33, 13).
edge(91, 20, 28).
edge(104, 46, 11).
edge(170, 34, 25).
edge(24, 113, 23).
edge(123, 159, 25).
edge(9, 70, 21).
edge(112, 29, 24).
edge(169, 82, 22).
edge(165, 44, 7).
edge(61, 128, 26).
edge(161, 30, 30).
edge(12, 119, 36).
edge(105, 89, 26).
edge(40, 28, 6).
edge(167, 44, 22).
edge(9, 34, 23).
edge(145, 142, 34).
edge(82, 159, 8).
edge(122, 94, 15).
edge(148, 58, 24).
edge(97, 12, 36).
edge(125, 23, 22).
edge(14, 145, 23).
edge(44, 100, 18).
edge(124, 169, 2).
edge(33, 79, 7).
edge(89, 175, 11).
edge(38, 84, 1).
edge(169, 162, 7).
edge(103, 116, 7).
edge(170, 59, 10).
edge(2, 86, 35).
edge(79, 74, 22).
edge(154, 129, 1).
edge(152, 54, 14).
edge(56, 18, 26).
edge(106, 137, 10).
edge(29, 151, 15).
edge(18, 92, 17).
edge(171, 141, 8).
edge(161, 63, 6).
edge(169, 95, 16).
edge(84, 3, 35).
edge(165, 80, 15).
edge(145, 17, 19).
edge(60, 139, 22).
edge(131, 98, 36).
edge(36, 55, 27).
edge(162, 14, 20).
edge(97, 115, 31).
edge(56, 144, 1).
edge(155, 116, 26).
edge(58, 114, 11).
edge(148, 86, 17).
edge(70, 11, 37).
edge(95, 45, 6).
edge(174, 137, 24).
edge(90, 149, 31).
edge(42, 50, 2).
edge(55, 138, 29).
edge(126, 111, 2).
edge(53, 89, 24).
edge(103, 104, 3).
edge(37, 64, 6).
edge(87, 163, 28).
edge(171, 34, 8).
edge(74, 13, 34).
edge(82, 127, 8).
edge(30, 21, 4).
edge(16, 121, 29).
edge(4, 127, 10).
edge(37, 176, 22).
edge(77, 117, 38).
edge(120, 125, 11).
edge(65, 31, 8).
edge(166, 4, 26).
edge(26, 86, 1).
edge(117, 171, 18).
edge(169, 145, 31).
edge(156, 165, 8).
edge(137, 62, 1).
edge(93, 137, 6).
edge(62, 21, 7).
edge(117, 175, 31).
edge(63, 175, 25).
edge(46, 38, 30).
edge(53, 162, 1).
edge(12, 162, 1).
edge(76, 150, 27).
edge(149, 51, 18).
edge(144, 106, 36).
edge(148, 18, 16).
edge(119, 55, 28).
edge(140, 80, 24).
edge(131, 103, 3).
edge(30, 27, 31).
edge(107, 70, 2).
edge(61, 158, 4).
edge(94, 15, 20).
edge(118, 0, 5).
edge(96, 27, 16).
edge(67, 145, 30).
edge(154, 27, 23).
edge(139, 91, 32).
edge(39, 50, 20).
edge(138, 49, 25).
edge(138, 66, 21).
edge(2, 10, 38).
edge(41, 102, 1).
edge(168, 150, 15).
edge(153, 60, 32).
edge(159, 123, 36).
edge(26, 156, 4).
edge(63, 108, 3).
edge(73, 3, 17).
edge(103, 158, 10).
edge(146, 91, 33).
edge(10, 79, 36).
edge(76, 155, 36).
edge(97, 42, 23).
edge(17, 116, 17).
edge(79, 125, 21).
edge(11, 144, 22).
edge(49, 174, 31).
edge(67, 124, 30).
edge(168, 6, 9).
edge(89, 63, 35).
edge(32, 58, 7).
edge(143, 29, 24).
edge(6, 137, 10).
edge(33, 155, 7).
edge(17, 47, 23).
edge(158, 42, 18).
edge(170, 57, 27).
edge(98, 150, 6).
edge(91, 109, 37).
edge(106, 164, 29).
edge(113, 73, 9).
edge(107, 29, 6).
edge(57, 20, 10).
edge(76, 120, 8).
edge(88, 163, 12).
edge(115, 25, 26).
edge(162, 110, 33).
edge(62, 73, 27).
edge(109, 43, 18).
edge(61, 48, 7).
edge(119, 100, 30).
edge(154, 114, 15).
edge(170, 161, 2).
edge(101, 0, 19).
edge(44, 88, 33).
edge(127, 154, 20).
edge(13, 118, 26).
edge(114, 129, 28).
edge(78, 103, 6).
edge(84, 5, 7).
edge(70, 46, 27).
edge(11, 165, 23).
edge(33, 118, 39).
edge(173, 8, 30).
edge(136, 56, 33).
edge(62, 110, 14).
edge(104, 67, 8).
edge(167, 19, 18).
edge(110, 78, 30).
edge(48, 39, 17).
edge(18, 103, 39).
edge(76, 14, 13).
edge(140, 123, 32).
edge(85, 68, 11).
edge(43, 140, 30).
edge(88, 68, 24).
edge(81, 96, 27).
edge(38, 172, 27).
edge(57, 19, 13).
edge(79, 124, 23).
edge(67, 110, 11).
edge(110, 150, 25).
edge(118, 13, 35).
edge(44, 99, 28).
edge(35, 151, 33).
edge(113, 25, 21).
edge(85, 42, 8).
edge(116, 108, 35).
edge(160, 57, 22).
edge(167, 106, 13).
edge(60, 69, 23).
edge(70, 153, 2).
edge(41, 175, 36).
edge(120, 73, 1).
edge(10, 24, 15).
edge(54, 123, 23).
edge(131, 96, 15).
edge(49, 153, 11).
edge(43, 85, 27).
edge(125, 49, 24).
edge(9, 108, 15).
edge(144, 87, 34).
edge(39, 168, 3).
edge(129, 88, 15).
edge(50, 13, 18).
edge(25, 71, 1).
edge(143, 56, 6).
edge(1, 63, 3).
edge(156, 160, 6).
edge(74, 126, 25).
edge(70, 157, 32).
edge(57, 32, 19).
edge(159, 18, 1).
edge(30, 82, 31).
edge(42, 81, 23).
edge(40, 100, 20).
edge(62, 14, 7).
edge(97, 39, 11).
edge(134, 138, 8).
edge(81, 132, 14).
edge(5, 37, 24).
edge(151, 84, 18).
edge(7, 3, 23).
edge(54, 84, 19).
edge(85, 75, 22).
edge(10, 173, 20).
edge(40, 31, 24).
edge(123, 144, 30).
edge(29, 125, 36).
edge(56, 48, 37).
edge(112, 173, 31).
edge(96, 136, 1).
edge(105, 23, 2).
edge(95, 39, 37).
edge(145, 16, 29).
edge(133, 121, 17).
edge(77, 176, 14).
edge(106, 61, 15).
edge(103, 19, 10).
edge(15, 137, 18).
edge(154, 15, 20).
edge(169, 16, 5).
edge(56, 17, 25).
edge(147, 129, 31).
edge(121, 91, 13).
edge(76, 88, 17).
edge(95, 74, 19).
edge(165, 83, 30).
edge(102, 77, 23).
edge(119, 17, 9).
edge(23, 8, 4).
edge(18, 139, 19).
edge(44, 91, 19).
edge(32, 162, 33).
edge(115, 38, 1).
edge(132, 12, 7).
edge(33, 172, 21).
edge(101, 17, 10).
edge(85, 175, 26).
edge(10, 42, 15).
edge(96, 81, 12).
edge(108, 101, 10).
edge(167, 100, 15).
edge(39, 38, 18).
edge(76, 92, 20).
edge(55, 41, 29).
edge(120, 164, 31).
edge(19, 162, 7).
edge(101, 66, 1).
edge(48, 68, 3).
edge(101, 130, 36).
edge(148, 74, 9).
edge(90, 18, 23).
edge(12, 117, 18).
edge(65, 95, 25).
edge(166, 139, 30).
edge(7, 38, 5).
edge(21, 62, 6).
edge(36, 147, 11).
edge(68, 42, 16).
edge(5, 71, 26).
edge(72, 58, 10).
edge(161, 38, 33).
edge(91, 154, 25).
edge(66, 125, 5).
edge(106, 63, 24).
edge(22, 48, 34).
edge(5, 53, 10).
edge(16, 0, 32).
edge(137, 94, 35).
edge(118, 154, 21).
edge(60, 175, 9).
edge(59, 111, 13).
edge(20, 133, 25).
edge(147, 53, 8).
edge(28, 133, 38).
edge(150, 138, 25).
edge(44, 95, 24).
edge(55, 135, 19).
edge(73, 83, 14).
edge(159, 45, 3).
edge(112, 36, 12).
edge(44, 166, 26).
edge(18, 68, 15).
edge(6, 66, 8).
edge(112, 94, 34).
edge(170, 81, 38).
edge(8, 12, 18).
edge(44, 59, 9).
edge(97, 112, 39).
edge(73, 90, 10).
edge(6, 92, 9).
edge(33, 1, 25).
edge(4, 64, 19).
edge(91, 119, 29).
edge(111, 49, 6).
edge(160, 137, 27).
edge(22, 127, 15).
edge(121, 80, 38).
edge(118, 5, 1).
edge(46, 114, 32).
edge(149, 58, 9).
edge(95, 6, 30).
edge(129, 52, 14).
edge(82, 43, 11).
edge(126, 140, 9).
edge(10, 157, 15).
edge(3, 21, 8).
edge(59, 7, 37).
edge(74, 65, 17).
edge(121, 38, 12).
edge(144, 135, 10).
edge(53, 138, 28).
edge(141, 89, 33).
edge(162, 166, 28).
edge(81, 25, 5).
edge(13, 166, 38).
edge(44, 115, 6).
edge(83, 129, 34).
edge(60, 34, 35).
edge(45, 86, 6).
edge(157, 104, 23).
edge(110, 16, 36).
edge(8, 79, 9).
edge(114, 93, 23).
edge(107, 172, 11).
edge(40, 158, 14).
edge(136, 114, 4).
edge(129, 81, 30).
edge(31, 91, 37).
edge(154, 54, 18).
edge(103, 55, 26).
edge(160, 92, 14).
edge(92, 174, 19).
edge(136, 153, 16).
edge(75, 152, 12).
edge(146, 81, 33).
edge(58, 113, 31).
edge(141, 59, 32).
edge(78, 40, 18).
edge(126, 39, 17).
edge(126, 13, 13).
edge(45, 103, 14).
edge(101, 5, 6).
edge(155, 3, 26).
edge(88, 41, 10).
edge(150, 45, 32).
edge(49, 66, 32).
edge(104, 150, 8).
edge(159, 155, 12).
edge(31, 155, 23).
edge(98, 82, 10).
edge(30, 145, 14).
edge(76, 132, 37).
edge(139, 152, 29).
edge(169, 158, 26).
edge(73, 84, 23).
edge(70, 24, 36).
edge(5, 43, 3).
edge(19, 35, 33).
edge(30, 134, 34).
edge(127, 97, 22).
edge(140, 22, 3).
edge(171, 139, 2).
edge(78, 96, 3).
edge(177, 156, 20).
edge(35, 0, 33).
edge(74, 45, 27).
edge(92, 132, 39).
edge(154, 108, 39).
edge(168, 177, 32).
edge(171, 133, 26).
edge(161, 160, 23).
edge(121, 6, 7).
edge(44, 81, 29).
edge(2, 57, 31).
edge(40, 127, 18).
edge(177, 99, 23).
edge(166, 1, 32).
edge(172, 164, 1).
edge(58, 91, 7).
edge(86, 88, 12).
edge(158, 117, 34).
edge(147, 156, 23).
edge(37, 121, 17).
edge(3, 42, 11).
edge(67, 94, 17).
edge(45, 100, 19).
edge(98, 154, 6).
edge(36, 93, 29).
edge(162, 43, 39).
edge(27, 98, 4).
edge(164, 46, 39).
edge(93, 171, 25).
edge(74, 57, 29).
edge(142, 151, 1).
edge(59, 170, 15).
edge(31, 35, 32).
edge(91, 152, 9).
edge(126, 128, 14).
edge(58, 163, 26).
edge(162, 126, 9).
edge(13, 137, 11).
edge(25, 53, 13).
edge(47, 35, 18).
edge(124, 79, 12).
edge(4, 17, 10).
edge(2, 100, 37).
edge(147, 0, 10).
edge(9, 115, 3).
edge(8, 104, 36).
edge(141, 83, 18).
edge(144, 105, 26).
edge(12, 174, 2).
edge(148, 107, 29).
edge(73, 24, 36).
edge(66, 45, 17).
edge(62, 104, 13).
edge(115, 29, 28).
edge(11, 122, 14).
edge(84, 119, 2).
edge(150, 137, 8).
edge(132, 44, 14).
edge(72, 69, 31).
edge(109, 107, 33).
edge(98, 138, 27).
edge(75, 22, 20).
edge(98, 119, 3).
edge(16, 78, 33).
edge(177, 166, 25).
edge(20, 75, 6).
edge(143, 118, 25).
edge(43, 177, 1).
edge(29, 76, 20).
edge(58, 71, 6).
edge(108, 14, 29).
edge(113, 176, 13).
edge(172, 65, 37).
edge(41, 43, 32).
edge(148, 135, 6).
edge(123, 112, 8).
edge(92, 141, 27).
edge(174, 145, 10).
edge(66, 104, 23).
edge(89, 146, 17).
edge(72, 110, 6).
edge(9, 164, 12).
edge(75, 168, 28).
edge(14, 116, 36).
edge(100, 72, 39).
edge(37, 65, 25).
edge(133, 87, 12).
edge(26, 161, 26).
edge(173, 76, 13).
edge(140, 9, 38).
edge(161, 154, 7).
edge(14, 36, 18).
edge(173, 111, 39).
edge(176, 47, 11).
edge(108, 55, 24).
edge(13, 89, 22).
edge(113, 19, 23).
edge(134, 44, 8).
edge(51, 36, 21).
edge(70, 2, 13).
edge(16, 81, 26).
edge(145, 33, 28).
edge(134, 92, 39).
edge(59, 104, 22).
edge(59, 92, 1).
edge(70, 57, 11).
edge(170, 52, 23).
edge(81, 53, 30).
edge(82, 53, 2).
edge(166, 111, 8).
edge(46, 103, 8).
edge(64, 131, 5).
edge(19, 7, 6).
edge(48, 168, 28).
edge(28, 32, 35).
edge(22, 173, 35).
edge(163, 118, 8).
edge(137, 106, 13).
edge(38, 97, 34).
edge(172, 106, 30).
edge(13, 99, 28).
edge(59, 14, 13).
edge(98, 73, 5).
edge(50, 147, 2).
edge(41, 100, 11).
edge(162, 114, 9).
edge(139, 53, 26).
edge(43, 120, 9).
edge(93, 35, 1).
edge(170, 46, 5).
edge(24, 48, 7).
edge(114, 40, 32).
edge(148, 136, 18).
edge(93, 96, 29).
edge(51, 80, 39).
edge(71, 99, 7).
edge(72, 93, 31).
edge(157, 137, 10).
edge(113, 67, 39).
edge(138, 170, 39).
edge(29, 124, 6).
edge(117, 167, 2).
edge(46, 34, 38).
edge(165, 41, 11).
edge(89, 129, 33).
edge(109, 136, 28).
edge(21, 152, 26).
edge(136, 174, 19).
edge(168, 23, 31).
edge(55, 112, 33).
edge(105, 138, 15).
edge(102, 131, 4).
edge(17, 13, 37).
edge(144, 8, 33).
edge(155, 68, 23).
edge(75, 48, 14).
edge(92, 95, 30).
edge(95, 84, 31).
edge(37, 172, 9).
edge(160, 47, 24).
edge(95, 83, 4).
edge(91, 44, 14).
edge(40, 11, 38).
edge(20, 96, 3).
edge(5, 20, 21).
edge(60, 63, 14).
edge(109, 70, 6).
edge(79, 13, 35).
edge(33, 120, 8).
edge(91, 103, 37).
edge(156, 76, 38).
edge(68, 95, 2).
edge(150, 106, 36).
edge(4, 60, 12).
edge(28, 165, 8).
edge(136, 20, 9).
edge(99, 168, 25).
edge(68, 115, 1).
edge(45, 162, 39).
edge(115, 18, 30).
edge(93, 25, 25).
edge(144, 2, 20).
edge(26, 43, 33).
edge(83, 26, 9).
edge(169, 102, 19).
edge(17, 124, 23).
edge(18, 51, 38).
edge(135, 22, 4).
edge(48, 158, 36).
edge(41, 2, 19).
edge(42, 14, 27).
edge(30, 11, 4).
edge(106, 174, 10).
edge(104, 123, 20).
edge(106, 169, 32).
edge(89, 60, 18).
edge(82, 126, 29).
edge(76, 144, 11).
edge(94, 66, 28).
edge(111, 128, 18).
edge(108, 134, 9).
edge(7, 76, 12).
edge(12, 170, 35).
edge(107, 169, 36).
edge(88, 155, 26).
edge(56, 46, 14).
edge(149, 28, 34).
edge(62, 78, 30).
edge(55, 95, 33).
edge(170, 18, 19).
edge(149, 95, 20).
edge(154, 18, 24).
edge(1, 101, 8).
edge(82, 60, 5).
edge(60, 142, 31).
edge(21, 95, 8).
edge(49, 126, 26).
edge(132, 79, 4).
edge(165, 105, 4).
edge(101, 116, 5).
edge(157, 107, 19).
edge(169, 92, 18).
edge(71, 76, 39).
edge(99, 122, 6).
edge(25, 74, 28).
edge(32, 145, 23).
edge(122, 159, 22).
edge(89, 10, 32).
edge(2, 104, 1).
edge(172, 6, 12).
edge(46, 42, 26).
edge(40, 143, 34).
edge(46, 118, 11).
edge(42, 5, 14).
edge(160, 145, 34).
edge(85, 13, 14).
edge(131, 161, 6).
edge(0, 121, 29).
edge(55, 159, 36).
edge(143, 70, 30).
edge(158, 73, 3).
edge(5, 140, 20).
edge(38, 87, 9).
edge(127, 0, 17).
edge(163, 34, 8).
edge(159, 153, 34).
edge(138, 54, 36).
edge(48, 43, 30).
edge(7, 150, 5).
edge(144, 94, 19).
edge(140, 49, 21).
edge(35, 36, 26).
edge(89, 140, 10).
edge(172, 142, 10).
edge(135, 124, 7).
edge(24, 139, 36).
edge(128, 67, 20).
edge(77, 140, 38).
edge(102, 5, 10).
edge(45, 29, 35).
edge(172, 153, 15).
edge(56, 3, 20).
edge(171, 24, 36).
edge(88, 14, 31).
edge(45, 80, 22).
edge(117, 119, 12).
edge(146, 38, 5).
edge(70, 74, 8).
edge(79, 91, 21).
edge(36, 138, 31).
edge(16, 145, 7).
edge(176, 131, 10).
edge(145, 165, 21).
edge(18, 152, 28).
edge(71, 95, 34).
edge(17, 44, 9).
edge(25, 87, 19).
edge(47, 142, 32).
edge(57, 109, 18).
edge(16, 5, 34).
edge(38, 5, 2).
edge(62, 28, 30).
edge(122, 66, 33).
edge(156, 100, 39).
edge(69, 45, 27).
edge(69, 175, 35).
edge(38, 77, 29).
edge(39, 153, 29).
edge(119, 80, 15).
edge(152, 139, 33).
edge(133, 109, 37).
edge(98, 166, 20).
edge(6, 164, 38).
edge(164, 23, 38).
edge(71, 58, 13).
edge(113, 56, 19).
edge(43, 103, 7).
edge(164, 167, 28).
edge(159, 48, 21).
edge(160, 46, 38).
edge(173, 156, 34).
edge(159, 91, 33).
edge(75, 163, 9).
edge(132, 113, 15).
edge(121, 4, 34).
edge(165, 86, 17).
edge(167, 72, 3).
edge(108, 121, 28).
edge(132, 172, 11).
edge(137, 45, 34).
edge(127, 140, 8).
edge(63, 146, 28).
edge(77, 14, 13).
edge(66, 25, 1).
edge(40, 175, 20).
edge(174, 112, 32).
edge(170, 123, 14).
edge(163, 173, 14).
edge(140, 44, 21).
edge(158, 48, 35).
edge(33, 95, 39).
edge(135, 105, 3).
edge(65, 79, 14).
edge(8, 102, 1).
edge(105, 16, 4).
edge(123, 80, 14).
edge(131, 2, 24).
edge(24, 17, 12).
edge(45, 59, 30).
edge(10, 170, 17).
edge(137, 7, 8).
edge(61, 115, 20).
edge(55, 90, 29).
edge(1, 134, 32).
edge(15, 63, 34).
edge(55, 111, 21).
edge(48, 74, 14).
edge(114, 5, 13).
edge(20, 155, 32).
edge(106, 167, 18).
edge(122, 89, 31).
edge(147, 1, 10).
edge(33, 157, 24).
edge(43, 7, 8).
edge(151, 165, 6).
edge(11, 78, 6).
edge(148, 19, 18).
edge(166, 108, 26).
edge(162, 130, 12).
edge(24, 86, 20).
edge(134, 158, 18).
edge(135, 81, 28).
edge(86, 43, 15).
edge(122, 144, 29).
edge(94, 39, 15).
edge(8, 168, 9).
edge(110, 23, 18).
edge(63, 157, 37).
edge(19, 69, 20).
edge(58, 119, 12).
edge(110, 141, 30).
edge(9, 116, 30).
edge(168, 76, 16).
edge(58, 156, 24).
edge(89, 82, 22).
edge(9, 97, 24).
edge(135, 166, 36).
edge(148, 106, 37).
edge(54, 82, 23).
edge(150, 123, 21).
edge(128, 94, 12).
edge(152, 95, 31).
edge(89, 21, 21).
edge(97, 156, 9).
edge(104, 65, 23).
edge(177, 114, 39).
edge(82, 51, 27).
edge(64, 136, 5).
edge(97, 172, 27).
edge(98, 61, 17).
edge(52, 144, 36).
edge(65, 11, 5).
edge(13, 98, 27).
edge(136, 37, 10).
edge(6, 122, 31).
edge(149, 141, 22).
edge(25, 121, 12).
edge(137, 99, 38).
edge(155, 145, 30).
edge(52, 38, 39).
edge(147, 171, 7).
edge(114, 172, 28).
edge(164, 126, 25).
edge(6, 33, 13).
edge(131, 136, 4).
edge(21, 138, 33).
edge(8, 51, 24).
edge(60, 107, 26).
edge(61, 32, 26).
edge(107, 93, 17).
edge(92, 5, 34).
edge(174, 9, 18).
edge(163, 27, 29).
edge(94, 89, 31).
edge(45, 10, 4).
edge(173, 169, 1).
edge(103, 31, 1).
edge(14, 84, 16).
edge(105, 43, 34).
edge(139, 77, 21).
edge(35, 144, 25).
edge(59, 120, 14).
edge(162, 101, 9).
edge(35, 30, 19).
edge(165, 5, 15).
edge(107, 114, 32).
edge(6, 134, 30).
edge(160, 152, 4).
edge(161, 37, 31).
edge(117, 1, 20).
edge(44, 163, 29).
edge(30, 62, 17).
edge(92, 81, 26).
edge(107, 28, 5).
edge(108, 47, 23).
edge(150, 112, 35).
edge(147, 8, 3).
edge(66, 168, 31).
edge(56, 75, 13).
edge(32, 22, 18).
edge(24, 60, 7).
edge(135, 26, 17).
edge(177, 98, 21).
edge(65, 32, 11).
edge(114, 13, 3).
edge(42, 91, 21).
edge(100, 40, 39).
edge(12, 159, 11).
edge(101, 142, 25).
edge(58, 73, 24).
edge(154, 77, 28).
edge(68, 124, 32).
edge(72, 36, 15).
edge(29, 50, 14).
edge(29, 67, 11).
edge(53, 123, 28).
edge(22, 39, 3).
edge(9, 119, 9).
edge(71, 79, 26).
edge(55, 86, 9).
edge(142, 81, 27).
edge(41, 31, 28).
edge(77, 70, 29).
edge(129, 56, 38).
edge(30, 31, 37).
edge(63, 26, 23).
edge(96, 104, 1).
edge(173, 168, 30).
edge(83, 131, 7).
edge(27, 62, 26).
edge(53, 113, 7).
edge(120, 101, 37).
edge(62, 124, 26).
edge(6, 102, 6).
edge(71, 28, 11).
edge(54, 106, 19).
edge(26, 115, 15).
edge(33, 24, 33).
edge(0, 144, 25).
edge(131, 153, 27).
edge(160, 23, 13).
edge(86, 157, 32).
edge(155, 123, 23).
edge(8, 107, 23).
edge(110, 174, 6).
edge(3, 91, 18).
edge(29, 65, 21).
edge(108, 5, 4).
edge(70, 170, 35).
edge(123, 147, 29).
edge(144, 138, 36).
edge(40, 154, 32).
edge(155, 87, 31).
edge(128, 24, 27).
edge(17, 37, 36).
edge(85, 28, 7).
edge(160, 124, 1).
edge(109, 141, 21).
edge(93, 8, 5).
edge(170, 119, 28).
edge(101, 79, 32).
edge(17, 65, 39).
edge(57, 59, 36).
edge(89, 104, 33).
edge(81, 10, 24).
edge(101, 8, 33).
edge(123, 154, 14).
edge(12, 8, 38).
edge(18, 57, 39).
edge(23, 109, 26).
edge(103, 146, 4).
edge(116, 124, 8).
edge(175, 46, 38).
edge(167, 78, 35).
edge(16, 59, 22).
edge(123, 52, 9).
edge(173, 20, 25).
edge(158, 91, 33).
edge(7, 52, 15).
edge(48, 89, 9).
edge(77, 163, 39).
edge(153, 82, 17).
edge(94, 100, 31).
edge(150, 169, 37).
edge(29, 161, 1).
edge(52, 137, 35).
edge(104, 129, 29).
edge(52, 160, 20).
edge(117, 53, 17).
edge(141, 100, 8).
edge(144, 162, 19).
edge(132, 92, 31).
edge(100, 142, 2).
edge(34, 108, 39).
edge(124, 152, 5).
edge(99, 75, 3).
edge(150, 10, 15).
edge(170, 166, 23).
edge(65, 74, 30).
edge(18, 131, 33).
edge(29, 120, 25).
edge(137, 167, 14).
edge(4, 59, 4).
edge(177, 14, 30).
edge(102, 29, 33).
edge(146, 144, 27).
edge(51, 145, 25).
edge(132, 65, 8).
edge(16, 37, 35).
edge(99, 106, 39).
edge(137, 146, 11).
edge(92, 47, 29).
edge(87, 1, 5).
edge(143, 7, 1).
edge(92, 80, 9).
edge(45, 3, 18).
edge(172, 88, 34).
edge(57, 15, 9).
edge(27, 145, 30).
edge(167, 107, 3).
edge(47, 40, 3).
edge(149, 142, 16).
edge(155, 67, 4).
edge(99, 136, 14).
edge(137, 4, 29).
edge(130, 123, 6).
edge(4, 148, 29).
edge(81, 101, 5).
edge(159, 107, 32).
edge(10, 27, 39).
edge(133, 39, 8).
edge(172, 67, 18).
edge(173, 123, 29).
edge(131, 160, 31).
edge(105, 94, 6).
edge(57, 23, 8).
edge(1, 168, 16).
edge(112, 125, 12).
edge(92, 149, 12).
edge(122, 34, 26).
edge(73, 152, 21).
edge(26, 104, 22).
edge(109, 137, 5).
edge(52, 127, 6).
edge(169, 109, 3).
edge(127, 39, 3).
edge(177, 46, 2).
edge(15, 34, 14).
edge(161, 23, 21).
edge(20, 141, 31).
edge(91, 75, 23).
edge(50, 170, 32).
edge(93, 175, 5).
edge(2, 11, 35).
edge(133, 162, 17).
edge(57, 22, 4).
edge(148, 81, 5).
edge(78, 64, 37).
edge(141, 39, 11).
edge(141, 32, 21).
edge(5, 166, 22).
edge(166, 46, 8).
edge(22, 121, 8).
edge(73, 140, 17).
edge(95, 161, 36).
edge(21, 36, 17).
edge(51, 131, 30).
edge(158, 13, 10).
edge(106, 43, 4).
edge(134, 161, 30).
edge(97, 82, 7).
edge(170, 147, 11).
edge(106, 157, 20).
edge(126, 79, 24).
edge(136, 32, 14).
edge(90, 93, 7).
edge(139, 22, 13).
edge(145, 148, 34).
edge(57, 114, 25).
edge(40, 134, 21).
edge(40, 141, 21).
edge(173, 92, 25).
edge(147, 11, 25).
edge(73, 172, 2).
edge(76, 136, 11).
edge(86, 17, 1).
edge(107, 48, 38).
edge(13, 52, 34).
edge(70, 132, 18).
edge(13, 102, 37).
edge(173, 43, 26).
edge(169, 122, 6).
edge(62, 164, 10).
edge(26, 29, 8).
edge(81, 118, 12).
edge(159, 161, 6).
edge(81, 94, 28).
edge(99, 116, 16).
edge(37, 56, 26).
edge(131, 76, 30).
edge(160, 42, 19).
edge(163, 166, 3).
edge(55, 109, 19).
edge(56, 99, 19).
edge(104, 176, 16).
edge(69, 167, 31).
edge(133, 128, 23).
edge(73, 76, 17).
edge(34, 173, 36).
edge(77, 40, 30).
edge(110, 119, 33).
edge(21, 82, 21).
edge(18, 46, 7).
edge(113, 9, 15).
edge(29, 107, 17).
edge(166, 109, 25).
edge(13, 109, 30).
edge(119, 75, 7).
edge(17, 156, 39).
edge(49, 61, 38).
edge(153, 72, 9).
edge(86, 149, 9).
edge(98, 132, 2).
edge(1, 61, 9).
edge(91, 67, 36).
edge(160, 80, 29).
edge(35, 120, 24).
edge(140, 16, 38).
edge(151, 10, 10).
edge(18, 130, 7).
edge(22, 77, 18).
edge(91, 161, 34).
edge(59, 21, 3).
edge(35, 125, 3).
edge(163, 48, 29).
edge(3, 136, 28).
edge(31, 140, 14).
edge(69, 176, 21).
edge(139, 116, 25).
edge(78, 155, 6).
edge(30, 1, 3).
edge(29, 0, 21).
edge(117, 39, 11).
edge(102, 6, 33).
edge(118, 171, 17).
edge(39, 119, 33).
edge(85, 148, 25).
edge(96, 168, 33).
edge(135, 131, 1).
edge(113, 89, 20).
edge(4, 146, 4).
edge(96, 48, 21).
edge(29, 117, 24).
edge(132, 133, 3).
edge(7, 31, 37).
edge(135, 147, 5).
edge(22, 34, 23).
edge(43, 97, 18).
edge(101, 75, 28).
edge(161, 129, 30).
edge(114, 2, 37).
edge(126, 86, 30).
edge(84, 160, 7).
edge(15, 84, 23).
edge(58, 12, 34).
edge(154, 94, 2).
edge(144, 145, 27).
edge(58, 32, 33).
edge(35, 119, 16).
edge(105, 68, 19).
edge(92, 108, 10).
edge(44, 111, 28).
edge(93, 19, 18).
edge(94, 13, 28).
edge(141, 129, 39).
edge(148, 155, 23).
edge(61, 65, 1).
edge(102, 108, 29).
edge(12, 40, 38).
edge(46, 104, 30).
edge(156, 149, 39).
edge(89, 71, 20).
edge(158, 43, 35).
edge(118, 146, 6).
edge(6, 104, 29).
edge(155, 143, 33).
edge(61, 50, 1).
edge(169, 156, 6).
edge(7, 16, 18).
edge(114, 96, 8).
edge(38, 146, 14).
edge(33, 106, 13).
edge(106, 3, 1).
edge(167, 122, 4).
edge(69, 127, 37).
edge(18, 52, 17).
edge(19, 34, 39).
edge(127, 55, 11).
edge(155, 92, 18).
edge(28, 162, 20).
edge(80, 96, 18).
edge(133, 26, 8).
edge(64, 92, 38).
edge(55, 10, 33).
edge(124, 1, 5).
edge(102, 95, 24).
edge(59, 6, 39).
edge(82, 110, 31).
edge(169, 83, 28).
edge(29, 39, 10).
edge(73, 50, 10).
edge(19, 53, 18).
edge(171, 76, 28).
edge(55, 40, 25).
edge(21, 78, 13).
edge(159, 7, 8).
edge(143, 133, 37).
edge(97, 96, 35).
edge(99, 44, 27).
edge(120, 24, 26).
edge(7, 87, 20).
edge(140, 98, 4).
edge(157, 59, 4).
edge(93, 43, 22).
edge(107, 165, 31).
edge(154, 169, 28).
edge(84, 74, 19).
edge(81, 116, 11).
edge(49, 95, 14).
edge(95, 171, 22).
edge(161, 145, 19).
edge(0, 16, 28).
edge(57, 3, 27).
edge(36, 58, 9).
edge(172, 9, 37).
edge(22, 14, 9).
edge(1, 12, 38).
edge(22, 152, 17).
edge(177, 148, 20).
edge(13, 148, 3).
edge(23, 83, 27).
edge(9, 170, 7).
edge(68, 76, 25).
edge(0, 100, 3).
edge(161, 146, 24).
edge(89, 40, 26).
edge(168, 92, 35).
edge(153, 162, 24).
edge(56, 42, 30).
edge(141, 46, 28).
edge(42, 139, 24).
edge(148, 162, 15).
edge(19, 77, 22).
edge(52, 40, 20).
edge(122, 30, 2).
edge(18, 27, 2).
edge(127, 103, 29).
edge(23, 97, 4).
edge(87, 133, 23).
edge(97, 46, 34).
edge(19, 39, 12).
edge(151, 28, 21).
edge(129, 8, 35).
edge(41, 162, 27).
edge(155, 59, 6).
edge(150, 72, 39).
edge(33, 143, 5).
edge(139, 66, 12).
edge(10, 40, 25).
edge(151, 174, 31).
edge(81, 16, 37).
edge(54, 102, 22).
edge(63, 151, 1).
edge(105, 95, 30).
edge(49, 148, 5).
edge(105, 4, 37).
edge(20, 49, 21).
edge(164, 45, 39).
edge(14, 102, 34).
edge(122, 88, 6).
edge(48, 18, 27).
edge(60, 21, 10).
edge(44, 60, 7).
edge(60, 176, 34).
edge(68, 140, 14).
edge(148, 153, 18).
edge(124, 120, 33).
edge(159, 73, 7).
edge(91, 173, 13).
edge(11, 142, 28).
edge(55, 38, 37).
edge(22, 169, 31).
edge(128, 7, 31).
edge(156, 147, 38).
edge(69, 117, 37).
edge(120, 13, 29).
edge(86, 174, 11).
edge(33, 5, 26).
edge(109, 128, 14).
edge(13, 35, 19).
edge(23, 28, 25).
edge(117, 123, 13).
edge(86, 131, 4).
edge(19, 57, 14).
edge(83, 14, 1).
edge(161, 84, 5).
edge(56, 0, 4).
edge(104, 110, 6).
edge(106, 109, 16).
edge(63, 99, 3).
edge(45, 164, 3).
edge(128, 49, 2).
edge(135, 110, 17).
edge(63, 27, 15).
edge(177, 52, 37).
edge(84, 146, 12).
edge(95, 137, 16).
edge(16, 82, 6).
edge(118, 85, 34).
edge(135, 121, 14).
edge(31, 44, 31).
edge(3, 119, 27).
edge(150, 26, 34).
edge(166, 134, 13).
edge(88, 63, 8).
edge(111, 12, 32).
edge(108, 137, 39).
edge(140, 137, 38).
edge(27, 111, 21).
edge(155, 62, 36).
edge(111, 91, 6).
edge(131, 118, 21).
edge(10, 68, 7).
edge(30, 77, 11).
edge(83, 89, 12).
edge(59, 173, 30).
edge(30, 111, 35).
edge(19, 40, 36).
edge(88, 103, 35).
edge(89, 24, 1).
edge(12, 85, 36).
edge(75, 36, 20).
edge(73, 117, 22).
edge(50, 135, 7).
edge(143, 50, 24).
edge(45, 105, 7).
edge(88, 5, 8).
edge(12, 97, 10).
edge(100, 122, 37).
edge(59, 97, 39).
edge(50, 72, 1).
edge(127, 120, 4).
edge(90, 37, 8).
edge(137, 18, 28).
edge(177, 151, 29).
edge(155, 31, 20).
edge(25, 129, 7).
edge(66, 43, 5).
edge(33, 60, 33).
edge(2, 77, 17).
edge(81, 153, 1).
edge(34, 79, 23).
edge(73, 148, 10).
edge(98, 161, 24).
edge(163, 156, 36).
edge(36, 38, 27).
edge(150, 16, 35).
edge(51, 116, 3).
edge(32, 37, 15).
edge(46, 28, 21).
edge(122, 59, 39).
edge(67, 164, 39).
edge(87, 93, 35).
edge(53, 136, 8).
edge(113, 28, 7).
edge(76, 85, 8).
edge(157, 34, 37).
edge(125, 169, 38).
edge(52, 94, 31).
edge(170, 0, 1).
edge(29, 98, 3).
edge(6, 99, 37).
edge(44, 80, 38).
edge(116, 122, 35).
edge(103, 155, 23).
edge(56, 26, 30).
edge(11, 54, 24).
edge(35, 82, 25).
edge(10, 154, 5).
edge(85, 174, 23).
edge(89, 72, 13).
edge(161, 176, 24).
edge(170, 168, 12).
edge(65, 0, 10).
edge(115, 35, 20).
edge(122, 149, 18).
edge(16, 32, 27).
edge(56, 53, 18).
edge(31, 74, 4).
edge(147, 2, 6).
edge(171, 29, 9).
edge(176, 67, 3).
edge(169, 8, 17).
edge(68, 26, 28).
edge(11, 169, 36).
edge(13, 48, 27).
edge(136, 31, 9).
edge(37, 154, 16).
edge(40, 42, 24).
edge(167, 165, 26).
edge(136, 107, 6).
edge(152, 168, 16).
edge(73, 63, 25).
edge(132, 168, 31).
edge(164, 64, 37).
edge(122, 9, 12).
edge(127, 90, 20).
edge(103, 110, 27).
edge(25, 77, 17).
edge(134, 56, 25).
edge(1, 54, 2).
edge(140, 142, 2).
edge(5, 16, 32).
edge(116, 109, 9).
edge(165, 52, 28).
edge(56, 81, 39).
edge(91, 66, 2).
edge(15, 8, 4).
edge(79, 42, 11).
edge(9, 72, 11).
edge(170, 88, 39).
edge(108, 160, 20).
edge(140, 156, 27).
edge(61, 12, 21).
edge(27, 115, 5).
edge(35, 34, 7).
edge(85, 163, 8).
edge(171, 54, 21).
edge(69, 138, 24).
edge(81, 43, 23).
edge(57, 66, 9).
edge(155, 166, 39).
edge(102, 66, 31).
edge(77, 5, 24).
edge(159, 15, 13).
edge(51, 102, 11).
edge(132, 129, 20).
edge(74, 35, 4).
edge(89, 122, 6).
edge(70, 54, 35).
edge(139, 38, 7).
edge(87, 149, 15).
edge(47, 163, 6).
edge(165, 95, 18).
edge(47, 23, 3).
edge(117, 49, 14).
edge(33, 0, 14).
edge(50, 104, 33).
edge(130, 141, 19).
edge(172, 40, 20).
edge(74, 86, 23).
edge(159, 122, 28).
edge(141, 28, 20).
edge(160, 142, 2).
edge(122, 150, 38).
edge(105, 173, 21).
edge(87, 150, 29).
edge(15, 18, 14).
edge(153, 77, 10).
edge(119, 167, 10).
edge(147, 117, 38).
edge(116, 53, 23).
edge(56, 1, 38).
edge(122, 99, 37).
edge(96, 101, 32).
edge(150, 17, 6).
edge(170, 110, 16).
edge(34, 164, 26).
edge(75, 170, 15).
edge(121, 99, 14).
edge(79, 19, 9).
edge(122, 171, 33).
edge(27, 84, 35).
edge(62, 87, 11).
edge(2, 122, 18).
edge(124, 133, 13).
edge(135, 37, 35).
edge(21, 34, 30).
edge(138, 85, 30).
edge(60, 27, 11).
edge(109, 18, 12).
edge(53, 10, 28).
edge(80, 93, 9).
edge(54, 85, 15).
edge(41, 177, 8).
edge(43, 0, 39).
edge(18, 159, 23).
edge(55, 151, 13).
edge(72, 96, 22).
edge(173, 53, 7).
edge(54, 129, 22).
edge(97, 30, 22).
edge(32, 142, 30).
edge(109, 46, 6).
edge(103, 159, 27).
edge(102, 107, 30).
edge(120, 53, 6).
edge(145, 5, 20).
edge(120, 32, 11).
edge(45, 163, 3).
edge(76, 38, 3).
edge(154, 31, 23).
edge(92, 3, 18).
edge(162, 137, 37).
edge(61, 14, 16).
edge(110, 163, 24).
edge(73, 104, 14).
edge(130, 68, 6).
edge(78, 141, 27).
edge(148, 133, 36).
edge(90, 35, 9).
edge(151, 52, 15).
edge(118, 87, 8).
edge(148, 52, 14).
edge(40, 49, 31).
edge(29, 61, 16).
edge(146, 51, 18).
edge(98, 123, 10).
edge(43, 160, 37).
edge(129, 114, 11).
edge(8, 64, 20).
edge(173, 172, 13).
edge(147, 98, 33).
edge(31, 60, 34).
edge(14, 169, 9).
edge(26, 146, 2).
edge(42, 99, 27).
edge(137, 39, 27).
edge(129, 29, 1).
edge(51, 94, 19).
edge(25, 110, 4).
edge(61, 73, 15).
edge(109, 155, 7).
edge(6, 127, 19).
edge(144, 131, 11).
edge(102, 24, 9).
edge(124, 99, 33).
edge(42, 104, 21).
edge(58, 159, 27).
edge(161, 60, 32).
edge(76, 176, 31).
edge(163, 149, 21).
edge(135, 15, 7).
edge(81, 86, 6).
edge(1, 49, 2).
edge(2, 172, 12).
edge(43, 106, 1).
edge(164, 139, 26).
edge(34, 11, 16).
edge(12, 109, 13).
edge(127, 50, 25).
edge(117, 152, 32).
edge(20, 160, 2).
edge(97, 146, 26).
edge(110, 33, 14).
edge(157, 84, 39).
edge(10, 31, 4).
edge(87, 117, 26).
edge(120, 156, 4).
edge(139, 127, 21).
edge(98, 84, 6).
edge(117, 107, 17).
edge(160, 10, 29).
edge(80, 11, 27).
edge(22, 0, 17).
edge(175, 17, 27).
edge(156, 130, 24).
edge(56, 140, 8).
edge(112, 4, 36).
edge(36, 114, 1).
edge(172, 98, 7).
edge(155, 91, 4).
edge(156, 152, 5).
edge(115, 146, 28).
edge(19, 28, 14).
edge(85, 105, 30).
edge(122, 70, 20).
edge(20, 118, 22).
edge(118, 174, 31).
edge(34, 90, 15).
edge(99, 35, 9).
edge(8, 18, 39).
edge(156, 113, 14).
edge(144, 32, 20).
edge(151, 116, 6).
edge(140, 17, 3).
edge(65, 2, 15).
edge(122, 119, 18).
edge(53, 128, 7).
edge(149, 145, 28).
edge(68, 45, 13).
edge(23, 169, 21).
edge(13, 28, 12).
edge(43, 63, 19).
edge(169, 175, 39).
edge(156, 94, 29).
edge(60, 42, 18).
edge(10, 148, 28).
edge(92, 93, 25).
edge(88, 135, 23).
edge(27, 59, 11).
edge(68, 103, 19).
edge(52, 79, 9).
edge(140, 111, 22).
edge(26, 143, 24).
edge(134, 148, 32).
edge(57, 105, 21).
edge(85, 146, 39).
edge(28, 107, 37).
edge(135, 152, 8).
edge(43, 129, 33).
edge(32, 72, 5).
edge(164, 152, 18).
edge(35, 156, 38).
edge(22, 12, 22).
edge(115, 125, 8).
edge(149, 143, 9).
edge(73, 8, 39).
edge(106, 152, 18).
edge(107, 98, 32).
edge(42, 13, 23).
edge(15, 45, 39).
edge(124, 166, 29).
edge(16, 150, 22).
edge(133, 71, 27).
edge(114, 90, 9).
edge(172, 166, 20).
edge(30, 64, 3).
edge(67, 118, 25).
edge(48, 135, 20).
edge(33, 159, 25).
edge(86, 171, 13).
edge(162, 154, 37).
edge(108, 58, 15).
edge(13, 10, 39).
edge(52, 27, 13).
edge(90, 23, 18).
edge(109, 15, 5).
edge(23, 18, 30).
edge(100, 17, 17).
edge(33, 150, 35).
edge(9, 96, 19).
edge(156, 145, 20).
edge(91, 84, 27).
edge(143, 27, 13).
edge(76, 24, 25).
edge(56, 126, 3).
edge(56, 7, 34).
edge(169, 129, 35).
edge(5, 129, 27).
edge(69, 106, 24).
edge(24, 121, 18).
edge(70, 79, 32).
edge(104, 30, 23).
edge(116, 105, 8).
edge(130, 89, 17).
edge(110, 176, 1).
edge(10, 51, 37).
edge(161, 171, 13).
edge(17, 110, 32).
edge(48, 24, 12).
edge(157, 25, 37).
edge(142, 47, 24).
edge(16, 63, 18).
edge(74, 92, 31).
edge(120, 89, 3).
edge(156, 26, 36).
edge(104, 172, 20).
edge(133, 98, 10).
edge(119, 26, 38).
edge(138, 176, 24).
edge(129, 22, 3).
edge(53, 33, 20).
edge(66, 112, 2).
edge(79, 148, 33).
edge(49, 145, 6).
edge(135, 7, 38).
edge(60, 170, 14).
edge(23, 9, 6).
edge(154, 65, 25).
edge(118, 30, 30).
edge(26, 133, 13).
edge(22, 85, 34).
edge(90, 143, 2).
edge(160, 70, 39).
edge(97, 162, 7).
edge(1, 177, 26).
edge(51, 32, 8).
edge(162, 73, 36).
edge(91, 11, 2).
edge(161, 40, 36).
edge(34, 23, 8).
edge(32, 47, 8).
edge(162, 142, 12).
edge(166, 142, 5).
edge(149, 43, 22).
edge(21, 125, 13).
edge(119, 129, 16).
edge(150, 113, 14).
edge(82, 123, 27).
edge(106, 32, 19).
edge(169, 60, 23).
edge(1, 0, 33).
edge(33, 100, 20).
edge(16, 26, 17).
edge(154, 103, 1).
edge(33, 98, 31).
edge(177, 88, 7).
edge(13, 84, 11).
edge(101, 117, 30).
edge(48, 147, 35).
edge(158, 4, 14).
edge(162, 174, 13).
edge(75, 128, 11).
edge(139, 175, 11).
edge(77, 114, 17).
edge(157, 166, 28).
edge(174, 10, 3).
edge(134, 169, 22).
edge(163, 167, 36).
edge(133, 20, 31).
edge(67, 71, 4).
edge(9, 133, 9).
edge(143, 63, 9).
edge(134, 136, 35).
edge(33, 158, 9).
edge(135, 173, 15).
edge(150, 152, 7).
edge(34, 50, 6).
edge(136, 172, 31).
edge(25, 59, 5).
edge(85, 151, 37).
edge(142, 98, 29).
edge(68, 6, 12).
edge(20, 116, 31).
edge(105, 84, 9).
edge(170, 96, 26).
edge(50, 151, 9).
edge(142, 75, 27).
edge(68, 93, 10).
edge(67, 28, 35).
edge(145, 6, 39).
edge(101, 59, 27).
edge(11, 153, 7).
edge(16, 43, 10).
edge(44, 58, 11).
edge(159, 33, 4).
edge(104, 105, 5).
edge(41, 103, 8).
edge(160, 144, 27).
edge(1, 86, 11).
edge(85, 53, 35).
edge(97, 19, 12).
edge(117, 54, 31).
edge(58, 10, 28).
edge(116, 66, 31).
edge(98, 65, 21).
edge(14, 37, 20).
edge(52, 66, 10).
edge(61, 21, 31).
edge(24, 140, 25).
edge(124, 153, 30).
edge(64, 66, 9).
edge(76, 66, 26).
edge(58, 112, 14).
edge(81, 21, 16).
edge(111, 72, 14).
edge(88, 10, 16).
edge(15, 128, 26).
edge(108, 117, 26).
edge(86, 91, 26).
edge(3, 135, 15).
edge(38, 130, 32).
edge(0, 154, 32).
edge(62, 116, 7).
edge(82, 22, 22).
edge(21, 31, 31).
edge(126, 25, 10).
edge(144, 61, 2).
edge(56, 24, 16).
edge(44, 156, 17).
edge(143, 9, 20).
edge(83, 24, 38).
edge(119, 165, 17).
edge(78, 175, 1).
edge(78, 114, 32).
edge(115, 5, 8).
edge(161, 107, 23).
edge(167, 88, 21).
edge(3, 38, 8).
edge(34, 116, 27).
edge(105, 133, 3).
edge(37, 123, 11).
edge(17, 173, 26).
edge(57, 58, 33).
edge(1, 167, 6).
edge(19, 68, 28).
edge(136, 39, 32).
edge(13, 96, 25).
edge(131, 141, 18).
edge(4, 167, 11).
edge(42, 138, 10).
edge(17, 29, 20).
edge(129, 24, 23).
edge(29, 174, 25).
edge(10, 94, 11).
edge(74, 77, 25).
edge(47, 15, 28).
edge(92, 34, 27).
edge(66, 130, 31).
edge(84, 150, 22).
edge(156, 108, 5).
edge(106, 173, 19).
edge(176, 97, 15).
edge(88, 71, 12).
edge(12, 9, 17).
edge(158, 145, 3).
edge(111, 73, 4).
edge(152, 149, 20).
edge(79, 47, 25).
edge(175, 59, 31).
edge(35, 74, 4).
edge(80, 47, 4).
edge(24, 8, 36).
edge(90, 106, 31).
edge(145, 22, 13).
edge(113, 154, 25).
edge(80, 26, 34).
edge(120, 106, 14).
edge(149, 23, 11).
edge(69, 142, 6).
edge(28, 72, 2).
edge(100, 77, 37).
edge(72, 31, 17).
edge(80, 171, 35).
edge(168, 135, 31).
edge(161, 102, 34).
edge(47, 123, 5).
edge(148, 77, 7).
edge(70, 28, 18).
edge(22, 123, 36).
edge(156, 103, 11).
edge(80, 136, 11).
edge(26, 32, 16).
edge(65, 137, 33).
edge(80, 89, 4).
edge(106, 66, 20).
edge(87, 33, 3).
edge(49, 54, 24).
edge(100, 174, 19).
edge(42, 47, 24).
edge(97, 74, 25).
edge(41, 137, 15).
edge(67, 38, 32).
edge(75, 73, 37).
edge(47, 95, 34).
edge(109, 124, 4).
edge(156, 117, 4).
edge(41, 29, 20).
edge(88, 25, 14).
edge(158, 60, 35).
edge(60, 0, 15).
edge(0, 97, 27).
edge(122, 63, 24).
edge(6, 132, 34).
edge(26, 40, 19).
edge(137, 67, 11).
edge(106, 151, 11).
edge(95, 153, 26).
edge(96, 156, 11).
edge(20, 164, 12).
edge(55, 73, 36).
edge(144, 109, 21).
edge(37, 49, 26).
edge(77, 73, 19).
edge(57, 102, 28).
edge(104, 122, 38).
edge(117, 172, 32).
edge(84, 68, 37).
edge(131, 69, 6).
edge(34, 165, 15).
edge(27, 65, 14).
edge(7, 49, 32).
edge(90, 8, 15).
edge(99, 157, 16).
edge(153, 114, 5).
edge(72, 109, 8).
edge(150, 111, 11).
edge(134, 130, 3).
edge(172, 84, 2).
edge(135, 148, 23).
edge(123, 34, 15).
edge(45, 96, 23).
edge(35, 147, 17).
edge(120, 95, 6).
edge(74, 11, 4).
edge(165, 108, 16).
edge(60, 41, 3).
edge(161, 131, 6).
edge(176, 123, 32).
edge(116, 158, 36).
edge(111, 158, 17).
edge(2, 117, 13).
edge(177, 84, 27).
edge(38, 16, 39).
edge(110, 160, 2).
edge(167, 92, 32).
edge(132, 47, 28).
edge(168, 79, 8).
edge(104, 62, 8).
edge(157, 150, 24).
edge(121, 75, 13).
edge(112, 159, 31).
edge(18, 146, 6).
edge(74, 170, 21).
edge(13, 77, 32).
edge(1, 72, 33).
edge(56, 71, 6).
edge(30, 85, 1).
edge(100, 149, 2).
edge(34, 102, 37).
edge(7, 84, 17).
edge(170, 68, 2).
edge(37, 79, 39).
edge(105, 146, 13).
edge(62, 136, 25).
edge(86, 161, 27).
edge(30, 99, 39).
edge(134, 47, 11).
edge(159, 117, 16).
edge(35, 56, 12).
edge(57, 0, 26).
edge(9, 137, 7).
edge(112, 123, 27).
edge(36, 129, 25).
edge(12, 62, 7).
edge(86, 136, 10).
edge(14, 2, 7).
edge(22, 140, 14).
edge(61, 77, 2).
edge(64, 52, 10).
edge(94, 162, 17).
edge(90, 33, 2).
edge(35, 80, 13).
edge(79, 162, 32).
edge(155, 0, 37).
edge(86, 95, 14).
edge(162, 98, 35).
edge(46, 153, 24).
edge(12, 4, 13).
edge(142, 104, 8).
edge(125, 83, 10).
edge(45, 129, 4).
edge(176, 49, 1).
edge(165, 148, 36).
edge(138, 36, 39).
edge(136, 15, 34).
edge(170, 27, 2).
edge(68, 136, 30).
edge(49, 124, 14).
edge(155, 30, 5).
edge(154, 58, 9).
edge(149, 12, 16).
edge(67, 132, 19).
edge(111, 87, 29).
edge(34, 118, 34).
edge(177, 152, 18).
edge(66, 56, 19).
edge(93, 98, 22).
edge(53, 170, 26).
edge(56, 64, 17).
edge(0, 28, 3).
edge(154, 80, 17).
edge(21, 56, 37).
edge(73, 10, 8).
edge(91, 167, 37).
edge(18, 16, 7).
edge(153, 120, 37).
edge(128, 79, 17).
edge(51, 5, 8).
edge(143, 41, 24).
edge(80, 157, 23).
edge(137, 117, 22).
edge(50, 125, 9).
edge(43, 6, 19).
edge(137, 58, 13).
edge(172, 101, 15).
edge(152, 93, 4).
edge(67, 44, 11).
edge(171, 99, 14).
edge(50, 51, 30).
edge(166, 81, 12).
edge(29, 53, 21).
edge(50, 20, 33).
edge(63, 70, 29).
edge(153, 79, 10).
edge(176, 36, 6).
edge(166, 153, 20).
edge(138, 23, 22).
edge(145, 51, 10).
edge(86, 3, 38).
edge(95, 68, 6).
edge(59, 138, 31).
edge(4, 137, 2).
edge(60, 30, 15).
edge(0, 13, 35).
edge(83, 59, 21).
edge(92, 76, 35).
edge(146, 18, 25).
edge(133, 120, 39).
edge(110, 146, 31).
edge(83, 115, 21).
edge(171, 121, 27).
edge(38, 160, 31).
edge(134, 16, 4).
edge(80, 9, 15).
edge(131, 120, 2).
edge(146, 12, 16).
edge(28, 145, 27).
edge(86, 170, 29).
edge(172, 128, 18).
edge(1, 143, 32).
edge(79, 29, 15).
edge(23, 68, 23).
edge(136, 18, 32).
edge(61, 140, 36).
edge(5, 103, 33).
edge(112, 122, 12).
edge(118, 135, 30).
edge(2, 165, 33).
edge(62, 1, 24).
edge(73, 137, 18).
edge(9, 38, 4).
edge(103, 77, 8).
edge(66, 49, 20).
edge(45, 50, 21).
edge(52, 33, 30).
edge(2, 114, 16).
edge(81, 109, 20).
edge(94, 98, 12).
edge(37, 139, 15).
edge(98, 80, 33).
edge(65, 17, 31).
edge(60, 158, 7).
edge(110, 152, 17).
edge(68, 133, 5).
edge(64, 99, 21).
edge(25, 41, 7).
edge(1, 31, 34).
edge(163, 21, 19).
edge(93, 79, 27).
edge(133, 155, 23).
edge(152, 23, 12).
edge(78, 17, 9).
edge(105, 157, 6).
edge(87, 121, 19).
edge(125, 142, 12).
edge(69, 90, 28).
edge(107, 43, 22).
edge(174, 171, 1).
edge(160, 90, 25).
edge(76, 110, 15).
edge(10, 119, 27).
edge(176, 31, 26).
edge(75, 32, 3).
edge(105, 167, 30).
edge(37, 48, 31).
edge(73, 127, 25).
edge(153, 123, 17).
edge(138, 147, 29).
edge(75, 162, 19).
edge(113, 13, 20).
edge(166, 163, 26).
edge(80, 85, 14).
edge(41, 64, 25).
edge(56, 119, 2).
edge(10, 124, 7).
edge(98, 107, 4).
edge(86, 116, 27).
edge(87, 35, 17).
edge(166, 123, 16).
edge(39, 160, 28).
edge(33, 107, 39).
edge(90, 174, 11).
edge(108, 10, 8).
edge(177, 127, 11).
edge(44, 78, 14).
edge(47, 104, 30).
edge(163, 126, 16).
edge(101, 170, 7).
edge(14, 148, 23).
edge(161, 2, 22).
edge(111, 81, 32).
edge(65, 56, 34).
edge(141, 151, 10).
edge(153, 15, 35).
edge(10, 171, 21).
edge(110, 115, 15).
edge(6, 61, 15).
edge(132, 76, 26).
edge(93, 174, 20).
edge(125, 112, 13).
edge(88, 101, 19).
edge(175, 8, 37).
edge(176, 105, 20).
edge(122, 173, 3).
edge(33, 130, 5).
edge(34, 89, 24).
edge(119, 35, 31).
edge(61, 164, 5).
edge(113, 134, 26).
edge(174, 76, 10).
edge(90, 27, 19).
edge(19, 128, 7).
edge(135, 35, 39).
edge(160, 17, 11).
edge(82, 88, 36).
edge(29, 134, 8).
edge(52, 156, 14).
edge(38, 4, 12).
edge(100, 66, 25).
edge(53, 137, 5).
edge(90, 104, 28).
edge(90, 6, 18).
edge(120, 130, 27).
edge(41, 123, 26).
edge(91, 61, 27).
edge(130, 97, 3).
edge(88, 1, 38).
edge(43, 128, 33).
edge(126, 18, 3).
edge(20, 131, 24).
edge(17, 111, 5).
edge(57, 11, 33).
edge(106, 82, 33).
edge(162, 59, 7).
edge(118, 29, 2).
edge(124, 83, 10).
edge(39, 128, 34).
edge(76, 55, 24).
edge(171, 87, 24).
edge(109, 3, 27).
edge(38, 154, 22).
edge(14, 166, 10).
edge(112, 85, 31).
edge(101, 145, 25).
edge(57, 65, 39).
edge(100, 7, 38).
edge(21, 124, 7).
edge(80, 13, 10).
edge(125, 35, 17).
edge(126, 60, 18).
edge(112, 114, 13).
edge(101, 23, 27).
edge(153, 49, 34).
edge(75, 132, 35).
edge(111, 143, 14).
edge(108, 78, 31).
edge(42, 29, 14).
edge(6, 64, 20).
edge(33, 149, 27).
edge(135, 29, 3).
edge(24, 9, 18).
edge(19, 42, 18).
edge(142, 54, 38).
edge(15, 81, 15).
edge(141, 113, 3).
edge(113, 81, 7).
edge(107, 156, 5).
edge(171, 81, 36).
edge(165, 129, 3).
edge(92, 155, 13).
edge(47, 100, 26).
edge(143, 135, 22).
edge(132, 115, 26).
edge(23, 125, 24).
edge(72, 83, 20).
edge(46, 98, 33).
edge(130, 56, 33).
edge(170, 99, 22).
edge(1, 88, 38).
edge(109, 24, 7).
edge(35, 43, 29).
edge(55, 177, 10).
edge(21, 100, 30).
edge(153, 31, 8).
edge(134, 79, 11).
edge(104, 14, 27).
edge(15, 130, 16).
edge(84, 96, 32).
edge(56, 169, 4).
edge(11, 163, 20).
edge(86, 11, 30).
edge(115, 68, 12).
edge(105, 149, 15).
edge(108, 16, 28).
edge(131, 149, 14).
edge(16, 60, 10).
edge(5, 99, 26).
edge(87, 38, 4).
edge(11, 127, 6).
edge(9, 59, 32).
edge(49, 161, 8).
edge(141, 110, 38).
edge(52, 118, 12).
edge(23, 119, 12).
edge(117, 115, 4).
edge(155, 46, 26).
edge(49, 117, 36).
edge(91, 101, 30).
edge(74, 9, 17).
edge(160, 18, 2).
edge(68, 11, 3).
edge(86, 69, 5).
edge(171, 43, 30).
edge(0, 171, 20).
edge(138, 6, 11).
edge(75, 131, 18).
edge(64, 60, 28).
edge(126, 65, 9).
edge(61, 139, 5).
edge(114, 132, 24).
edge(31, 139, 18).
edge(134, 139, 9).
edge(137, 150, 3).
edge(52, 96, 7).
edge(105, 56, 25).
edge(117, 176, 8).
edge(104, 121, 20).
edge(26, 164, 2).
edge(66, 150, 30).
edge(43, 155, 24).
edge(1, 74, 15).
edge(62, 85, 4).
edge(100, 62, 5).
edge(39, 142, 24).
edge(176, 161, 39).
edge(62, 43, 33).
edge(135, 5, 38).
edge(64, 158, 27).
edge(103, 149, 6).
edge(166, 29, 26).
edge(114, 47, 24).
edge(79, 154, 13).
edge(119, 174, 34).
edge(41, 99, 35).
edge(125, 17, 30).
edge(97, 109, 26).
edge(172, 171, 18).
edge(171, 154, 5).
edge(13, 161, 11).
edge(177, 113, 19).
edge(66, 158, 23).
edge(103, 11, 4).
edge(75, 106, 18).
edge(55, 32, 26).
edge(70, 92, 10).
edge(41, 39, 10).
edge(130, 65, 25).
edge(128, 9, 28).
edge(76, 139, 14).
edge(137, 65, 28).
edge(94, 124, 26).
edge(100, 94, 24).
edge(164, 74, 9).
edge(146, 136, 1).
edge(23, 142, 36).
edge(169, 123, 17).
edge(129, 144, 4).
edge(150, 32, 21).
edge(141, 116, 30).
edge(1, 52, 2).
edge(64, 156, 38).
edge(86, 160, 16).
edge(135, 98, 32).
edge(33, 116, 16).
edge(38, 66, 25).
edge(64, 67, 37).
edge(43, 173, 13).
edge(44, 46, 8).
edge(15, 39, 11).
edge(19, 84, 36).
edge(103, 175, 1).
edge(7, 86, 33).
edge(73, 105, 31).
edge(167, 146, 35).
edge(71, 32, 29).
edge(35, 16, 1).
edge(37, 77, 30).
edge(64, 93, 19).
edge(148, 30, 31).
edge(125, 159, 34).
edge(144, 142, 8).
edge(68, 164, 35).
edge(1, 11, 35).
edge(12, 52, 15).
edge(48, 151, 37).
edge(99, 131, 13).
edge(158, 122, 15).
edge(134, 15, 7).
edge(64, 42, 26).
edge(42, 147, 19).
edge(157, 109, 17).
edge(72, 172, 7).
edge(86, 177, 8).
edge(126, 20, 9).
edge(139, 137, 22).
edge(31, 30, 20).
edge(72, 26, 13).
edge(64, 19, 21).
edge(30, 158, 18).
edge(92, 11, 13).
edge(161, 88, 37).
edge(56, 107, 24).
edge(8, 174, 27).
edge(159, 41, 5).
edge(25, 107, 4).
edge(86, 152, 36).
edge(111, 154, 8).
edge(174, 73, 20).
edge(168, 17, 15).
edge(74, 76, 28).
edge(24, 7, 5).
edge(39, 172, 25).
edge(63, 96, 11).
edge(128, 159, 32).
edge(62, 40, 13).
edge(122, 81, 8).
edge(153, 63, 33).
edge(157, 67, 7).
edge(125, 108, 23).
edge(57, 104, 39).
edge(159, 111, 1).
edge(110, 108, 34).
edge(114, 60, 2).
edge(53, 172, 1).
edge(86, 68, 4).
edge(47, 132, 9).
edge(24, 95, 17).
edge(39, 155, 29).
edge(10, 126, 23).
edge(86, 5, 7).
edge(149, 52, 30).
edge(97, 128, 34).
edge(56, 65, 11).
edge(90, 153, 18).
edge(175, 152, 11).
edge(109, 8, 21).
edge(85, 17, 38).
edge(70, 66, 32).
edge(30, 69, 10).
edge(96, 34, 2).
edge(127, 102, 36).
edge(5, 95, 4).
edge(135, 130, 36).
edge(93, 135, 27).
edge(140, 46, 22).
edge(2, 113, 23).
edge(32, 174, 5).
edge(68, 137, 15).
edge(108, 6, 3).
edge(67, 54, 1).
edge(24, 45, 4).
edge(111, 115, 25).
edge(24, 172, 39).
edge(121, 124, 2).
edge(138, 34, 28).
edge(132, 101, 1).
edge(46, 177, 1).
edge(16, 97, 22).
edge(103, 106, 14).
edge(165, 135, 2).
edge(4, 2, 22).
edge(20, 129, 18).
edge(128, 52, 18).
edge(91, 23, 13).
edge(171, 3, 13).
edge(100, 125, 30).
edge(110, 158, 28).
edge(149, 154, 29).
edge(3, 155, 37).
edge(31, 162, 6).
edge(25, 15, 13).
edge(132, 75, 14).
edge(7, 167, 12).
edge(127, 42, 32).
edge(62, 46, 33).
edge(175, 44, 31).
edge(0, 2, 8).
edge(161, 85, 32).
edge(90, 137, 19).
edge(169, 36, 10).
edge(115, 20, 9).
edge(129, 111, 30).
edge(67, 148, 20).
edge(159, 70, 6).
edge(74, 158, 4).
edge(109, 117, 4).
edge(156, 92, 6).
edge(36, 163, 34).
edge(71, 40, 31).
edge(19, 125, 28).
edge(84, 95, 30).
edge(0, 141, 39).
edge(29, 164, 27).
edge(98, 75, 25).
edge(44, 104, 39).
edge(135, 40, 30).
edge(44, 30, 13).
edge(78, 19, 20).
edge(66, 24, 20).
edge(82, 174, 13).
edge(136, 49, 26).
edge(168, 123, 25).
edge(29, 40, 26).
edge(32, 168, 21).
edge(84, 72, 26).
edge(87, 104, 18).
edge(87, 86, 23).
edge(89, 52, 33).
edge(117, 59, 10).
edge(50, 152, 23).
edge(89, 91, 10).
edge(170, 3, 26).
edge(92, 109, 1).
edge(140, 71, 2).
edge(75, 130, 32).
edge(12, 104, 28).
edge(108, 111, 29).
edge(172, 39, 4).
edge(39, 134, 27).
edge(134, 162, 15).
edge(136, 137, 37).
edge(110, 17, 30).
edge(66, 118, 16).
edge(136, 69, 20).
edge(14, 93, 23).
edge(47, 115, 21).
edge(155, 154, 1).
edge(157, 154, 8).
edge(167, 142, 29).
edge(161, 163, 20).
edge(136, 87, 7).
edge(108, 18, 24).
edge(66, 159, 4).
edge(28, 14, 2).
edge(170, 1, 22).
edge(169, 50, 18).
edge(21, 171, 38).
edge(137, 26, 26).
edge(120, 41, 19).
edge(37, 33, 11).
edge(72, 159, 25).
edge(20, 48, 27).
edge(157, 125, 22).
edge(132, 143, 9).
edge(132, 29, 28).
edge(18, 24, 23).
edge(72, 34, 20).
edge(37, 122, 4).
edge(55, 59, 12).
edge(89, 112, 26).
edge(149, 39, 34).
edge(19, 143, 6).
edge(58, 52, 26).
edge(153, 165, 24).
edge(36, 107, 31).
edge(133, 33, 15).
edge(67, 42, 33).
edge(85, 1, 19).
edge(146, 175, 16).
edge(113, 151, 28).
edge(77, 56, 11).
edge(90, 49, 15).
edge(4, 24, 4).
edge(137, 114, 19).
edge(128, 51, 12).
edge(96, 161, 17).
edge(172, 157, 29).
edge(32, 61, 34).
edge(58, 5, 3).
edge(122, 20, 35).
edge(62, 10, 36).
edge(164, 121, 13).
edge(95, 151, 8).
edge(169, 96, 3).
edge(135, 86, 4).
edge(88, 38, 30).
edge(4, 68, 25).
edge(72, 19, 16).
edge(6, 72, 24).
edge(147, 106, 15).
edge(5, 31, 19).
edge(36, 53, 37).
edge(68, 3, 1).
edge(160, 135, 6).
edge(153, 154, 23).
edge(177, 129, 35).
edge(151, 7, 17).
edge(154, 20, 37).
edge(144, 140, 33).
edge(172, 107, 20).
edge(13, 114, 4).
edge(81, 124, 6).
edge(125, 154, 34).
edge(28, 2, 33).
edge(55, 134, 10).
edge(31, 39, 9).
edge(151, 167, 18).
edge(64, 109, 17).
edge(67, 53, 33).
edge(32, 124, 1).
edge(8, 112, 1).
edge(79, 58, 33).
edge(59, 123, 4).
edge(31, 43, 2).
edge(124, 48, 13).
edge(53, 46, 14).
edge(163, 71, 21).
edge(139, 23, 34).
edge(39, 49, 23).
edge(169, 116, 16).
edge(62, 74, 37).
edge(161, 19, 28).
edge(173, 29, 16).
edge(137, 70, 22).
edge(28, 35, 26).
edge(113, 159, 36).
edge(147, 109, 33).
edge(119, 83, 18).
edge(32, 128, 29).
edge(20, 25, 22).
edge(122, 102, 17).
edge(35, 15, 11).
edge(97, 120, 20).
edge(118, 86, 7).
edge(84, 70, 7).
edge(8, 173, 2).
edge(132, 135, 27).
edge(1, 156, 18).
edge(62, 91, 20).
edge(12, 1, 13).
edge(1, 21, 23).
edge(18, 56, 32).
edge(114, 59, 32).
edge(12, 92, 36).
edge(147, 5, 17).
edge(29, 89, 20).
edge(168, 100, 34).
edge(51, 73, 35).
edge(159, 105, 17).
edge(131, 166, 13).
edge(123, 164, 4).
edge(148, 11, 38).
edge(108, 159, 21).
edge(129, 60, 34).
edge(54, 21, 23).
edge(78, 9, 5).
edge(116, 169, 18).
edge(66, 120, 16).
edge(116, 78, 4).
edge(158, 110, 7).
edge(125, 65, 16).
edge(142, 132, 34).
edge(132, 53, 35).
edge(73, 160, 34).
edge(147, 60, 3).
edge(119, 131, 32).
edge(137, 144, 2).
edge(89, 160, 21).
edge(90, 14, 17).
edge(53, 166, 18).
edge(49, 113, 33).
edge(176, 89, 28).
edge(44, 65, 33).
edge(26, 20, 11).
edge(23, 43, 12).
edge(121, 150, 35).
edge(114, 61, 7).
edge(125, 134, 25).
edge(64, 153, 21).
edge(59, 56, 7).
edge(126, 104, 39).
edge(2, 109, 21).
edge(141, 3, 7).
edge(60, 4, 22).
edge(22, 147, 1).
edge(58, 89, 8).
edge(14, 122, 20).
edge(168, 55, 20).
edge(59, 133, 17).
edge(87, 69, 3).
edge(102, 9, 34).
edge(36, 115, 24).
edge(176, 20, 32).
edge(104, 19, 18).
edge(12, 76, 14).
edge(140, 119, 13).
edge(124, 50, 8).
edge(99, 102, 21).
edge(94, 116, 5).
edge(146, 134, 35).
edge(69, 64, 9).
edge(9, 155, 12).
edge(28, 21, 19).
edge(75, 49, 35).
edge(2, 27, 12).
edge(74, 165, 31).
edge(8, 134, 37).
edge(96, 28, 36).
edge(22, 89, 22).
edge(52, 134, 25).
edge(118, 157, 8).
edge(72, 151, 21).
edge(95, 103, 30).
edge(18, 136, 8).
edge(40, 106, 8).
edge(168, 148, 2).
edge(37, 125, 35).
edge(172, 33, 17).
edge(73, 53, 10).
edge(150, 98, 19).
edge(59, 30, 36).
edge(39, 104, 4).
edge(103, 109, 31).
edge(111, 150, 16).
edge(95, 86, 17).
edge(122, 110, 37).
edge(16, 156, 33).
edge(158, 167, 34).
edge(137, 110, 5).
edge(170, 109, 15).
edge(19, 73, 31).
edge(47, 13, 19).
edge(71, 41, 10).
edge(95, 1, 39).
edge(144, 151, 26).
edge(97, 127, 9).
edge(93, 58, 20).
edge(108, 109, 11).
edge(140, 55, 9).
edge(30, 100, 1).
edge(170, 86, 8).
edge(143, 159, 34).
edge(79, 123, 5).
edge(78, 90, 13).
edge(164, 61, 10).
edge(113, 34, 25).
edge(78, 1, 2).
edge(55, 11, 17).
edge(33, 156, 6).
edge(154, 157, 27).
edge(95, 47, 19).
edge(100, 131, 19).
edge(139, 166, 20).
edge(128, 84, 5).
edge(47, 111, 6).
edge(127, 83, 5).
edge(156, 141, 3).
edge(27, 36, 23).
edge(76, 146, 12).
edge(165, 77, 18).
edge(23, 57, 27).
edge(16, 120, 25).
edge(104, 128, 19).
edge(123, 166, 14).
edge(18, 143, 12).
edge(156, 163, 11).
edge(117, 60, 20).
edge(175, 149, 16).
edge(51, 84, 1).
edge(145, 147, 32).
edge(113, 1, 26).
edge(127, 166, 26).
edge(142, 51, 34).
edge(157, 21, 38).
edge(24, 70, 6).
edge(68, 56, 29).
edge(160, 176, 3).
edge(78, 127, 9).
edge(153, 150, 11).
edge(59, 49, 32).
edge(88, 146, 8).
edge(149, 65, 7).
edge(0, 71, 4).
edge(34, 22, 26).
edge(53, 29, 24).
edge(130, 46, 16).
edge(141, 95, 22).
edge(134, 1, 21).
edge(95, 129, 34).
edge(63, 41, 5).
edge(139, 145, 35).
edge(176, 117, 12).
edge(117, 138, 38).
edge(173, 31, 32).
edge(63, 120, 38).
edge(130, 164, 23).
edge(19, 78, 22).
edge(74, 28, 22).
edge(0, 91, 13).
edge(30, 120, 17).
edge(110, 91, 8).
edge(84, 120, 6).
edge(127, 117, 23).
edge(130, 22, 20).
edge(101, 102, 36).
edge(173, 41, 23).
edge(147, 86, 34).
edge(166, 78, 2).
edge(110, 38, 30).
edge(49, 6, 28).
edge(32, 88, 6).
edge(76, 133, 10).
edge(39, 58, 4).
edge(59, 17, 15).
edge(43, 76, 22).
edge(88, 23, 12).
edge(57, 126, 22).
edge(49, 89, 33).
edge(150, 105, 35).
edge(0, 73, 9).
edge(156, 114, 9).
edge(68, 144, 32).
edge(153, 126, 34).
edge(32, 112, 10).
edge(154, 35, 34).
edge(106, 118, 38).
edge(5, 28, 37).
edge(3, 105, 18).
edge(26, 159, 39).
edge(144, 13, 23).
edge(10, 23, 14).
edge(175, 165, 34).
edge(73, 12, 12).
edge(134, 140, 29).
edge(42, 74, 20).
edge(66, 6, 28).
edge(41, 40, 36).
edge(104, 142, 4).
edge(35, 20, 9).
edge(109, 79, 29).
edge(7, 75, 28).
edge(18, 108, 6).
edge(148, 43, 36).
edge(47, 121, 15).
edge(3, 94, 34).
edge(85, 86, 13).
edge(161, 135, 1).
edge(36, 162, 5).
edge(121, 81, 13).
edge(117, 55, 19).
edge(59, 175, 1).
edge(145, 27, 28).
edge(163, 74, 23).
edge(157, 94, 19).
edge(15, 126, 19).
edge(164, 133, 22).
edge(5, 114, 5).
edge(176, 39, 22).
edge(23, 24, 22).
edge(97, 94, 39).
edge(107, 69, 30).
edge(158, 83, 27).
edge(130, 128, 19).
edge(96, 95, 25).
edge(136, 98, 28).
edge(97, 133, 2).
edge(91, 130, 10).
edge(38, 32, 39).
edge(113, 155, 36).
edge(174, 125, 35).
edge(151, 79, 26).
edge(141, 149, 39).
edge(146, 72, 27).
edge(110, 112, 25).
edge(95, 92, 37).
edge(0, 150, 7).
edge(85, 65, 24).
edge(86, 51, 12).
edge(76, 73, 12).
edge(121, 111, 10).
edge(120, 134, 39).
edge(144, 125, 34).
edge(15, 79, 25).
edge(1, 144, 15).
edge(89, 3, 2).
edge(164, 84, 26).
edge(121, 68, 9).
edge(101, 58, 30).
edge(157, 90, 28).
edge(175, 106, 37).
edge(126, 33, 14).
edge(85, 93, 1).
edge(100, 13, 22).
edge(88, 172, 32).
edge(137, 80, 17).
edge(130, 69, 25).
edge(83, 20, 31).
edge(117, 144, 9).
edge(133, 151, 27).
edge(91, 52, 14).
edge(2, 9, 4).
edge(176, 139, 10).
edge(133, 104, 24).
edge(35, 129, 13).
edge(60, 12, 16).
edge(85, 46, 8).
edge(120, 18, 19).
edge(12, 165, 14).
edge(52, 139, 17).
edge(32, 3, 9).
edge(137, 23, 13).
edge(25, 50, 4).
edge(6, 138, 12).
edge(20, 125, 36).
edge(157, 155, 25).
edge(0, 167, 36).
edge(117, 169, 11).
edge(24, 25, 12).
edge(52, 93, 20).
edge(66, 149, 25).
edge(42, 112, 25).
edge(29, 47, 38).
edge(29, 142, 1).
edge(168, 47, 35).
edge(71, 97, 16).
edge(0, 30, 8).
edge(163, 12, 20).
edge(170, 20, 24).
edge(127, 95, 20).
edge(109, 115, 33).
edge(12, 83, 1).
edge(94, 79, 29).
edge(135, 45, 15).
edge(124, 110, 15).
edge(116, 160, 37).
edge(114, 76, 30).
edge(54, 69, 38).
edge(12, 137, 10).
edge(107, 96, 2).
edge(130, 92, 30).
edge(94, 53, 19).
edge(125, 26, 6).
edge(92, 7, 11).
edge(149, 133, 19).
edge(9, 36, 18).
edge(51, 13, 9).
edge(96, 51, 37).
edge(115, 92, 35).
edge(175, 167, 10).
edge(13, 11, 39).
edge(44, 137, 15).
edge(172, 133, 37).
edge(74, 52, 5).
edge(130, 151, 11).
edge(61, 16, 27).
edge(47, 51, 15).
edge(30, 161, 29).
edge(88, 86, 34).
edge(160, 131, 25).
edge(7, 120, 4).
edge(40, 140, 34).
edge(46, 117, 19).
edge(84, 71, 24).
edge(93, 100, 37).
edge(8, 73, 27).
edge(158, 0, 6).
edge(53, 27, 31).
edge(96, 121, 26).
edge(141, 101, 39).
edge(80, 137, 14).
edge(119, 114, 21).
edge(20, 7, 37).
edge(88, 49, 31).
edge(93, 151, 1).
edge(166, 53, 22).
edge(13, 8, 18).
edge(23, 45, 11).
edge(59, 167, 11).
edge(124, 29, 17).
edge(14, 129, 28).
edge(9, 53, 30).
edge(89, 99, 37).
edge(165, 28, 6).
edge(66, 48, 20).
edge(148, 177, 2).
edge(147, 101, 24).
edge(51, 22, 6).
edge(24, 10, 31).
edge(33, 108, 24).
edge(11, 124, 27).
edge(98, 168, 39).
edge(167, 123, 38).
edge(90, 128, 30).
edge(113, 123, 20).
edge(150, 0, 20).
edge(104, 51, 9).
edge(133, 57, 12).
edge(70, 165, 5).
edge(18, 34, 23).
edge(28, 172, 6).
edge(120, 46, 38).
edge(34, 35, 4).
edge(68, 113, 22).
edge(105, 148, 37).
edge(121, 85, 32).
edge(72, 115, 25).
edge(10, 50, 5).
edge(144, 5, 3).
edge(171, 51, 10).
edge(44, 52, 31).
edge(10, 15, 30).
edge(54, 152, 36).
edge(61, 78, 36).
edge(140, 70, 20).
edge(5, 41, 28).
edge(87, 109, 5).
edge(119, 41, 23).
edge(71, 24, 37).
edge(92, 143, 22).
edge(0, 24, 32).
edge(15, 161, 34).
edge(29, 154, 32).
edge(51, 92, 3).
edge(144, 28, 26).
edge(139, 35, 2).
edge(9, 3, 8).
edge(100, 85, 5).
edge(79, 83, 18).
edge(17, 165, 20).
edge(61, 106, 10).
edge(11, 26, 31).
edge(114, 62, 9).
edge(11, 70, 5).
edge(137, 49, 11).
edge(128, 16, 4).
edge(59, 108, 34).
edge(53, 104, 21).
edge(20, 60, 17).
edge(91, 25, 22).
edge(130, 111, 21).
edge(159, 8, 27).
edge(61, 1, 3).
edge(64, 73, 37).
edge(171, 138, 8).
edge(2, 145, 21).
edge(110, 57, 17).
edge(1, 121, 29).
edge(51, 153, 28).
edge(62, 9, 7).
edge(148, 174, 24).
edge(10, 115, 31).
edge(19, 38, 26).
edge(23, 81, 35).
edge(56, 95, 29).
edge(43, 167, 13).
edge(21, 160, 6).
edge(1, 103, 3).
edge(39, 18, 12).
edge(171, 1, 14).
edge(15, 106, 19).
edge(153, 160, 4).
edge(74, 140, 39).
edge(162, 36, 39).
edge(6, 110, 16).
edge(139, 151, 9).
edge(144, 39, 35).
edge(70, 111, 4).
edge(55, 33, 2).
edge(26, 70, 14).
edge(176, 170, 10).
edge(14, 125, 31).
edge(12, 84, 12).
edge(48, 11, 7).
edge(25, 131, 14).
edge(22, 33, 3).
edge(145, 152, 20).
edge(104, 34, 10).
edge(99, 140, 27).
edge(145, 79, 15).
edge(139, 94, 34).
edge(111, 156, 2).
edge(130, 14, 36).
edge(12, 132, 36).
edge(125, 51, 27).
edge(33, 4, 5).
edge(174, 68, 36).
edge(127, 128, 31).
edge(130, 148, 29).
edge(124, 156, 25).
edge(50, 149, 21).
edge(87, 47, 7).
edge(147, 93, 11).
edge(7, 0, 22).
edge(135, 167, 14).
edge(55, 142, 27).
edge(27, 155, 5).
edge(20, 99, 27).
edge(136, 159, 27).
edge(43, 11, 38).
edge(103, 70, 25).
edge(2, 99, 3).
edge(31, 107, 18).
edge(62, 37, 27).
edge(2, 166, 9).
edge(129, 49, 27).
edge(100, 90, 20).
edge(132, 67, 8).
edge(21, 2, 27).
edge(135, 129, 39).
edge(4, 131, 5).
edge(74, 17, 9).
edge(22, 93, 11).
edge(76, 65, 28).
edge(36, 3, 4).
edge(154, 164, 24).
edge(166, 151, 17).
edge(32, 96, 5).
edge(92, 123, 16).
edge(22, 130, 22).
edge(83, 87, 17).
edge(58, 7, 17).
edge(66, 137, 18).
edge(30, 176, 38).
edge(154, 111, 24).
edge(103, 51, 36).
edge(19, 126, 1).
edge(45, 116, 16).
edge(162, 134, 35).
edge(39, 77, 34).
edge(127, 46, 24).
edge(101, 134, 13).
edge(53, 168, 1).
edge(66, 96, 7).
edge(86, 153, 29).
edge(77, 127, 36).
edge(174, 2, 34).
edge(0, 51, 7).
edge(84, 25, 5).
edge(57, 43, 16).
edge(101, 124, 2).
edge(121, 54, 15).
edge(66, 9, 27).
edge(174, 115, 25).
edge(17, 82, 32).
edge(75, 51, 11).
edge(32, 64, 10).
edge(13, 173, 37).
edge(117, 21, 13).
edge(127, 167, 8).
edge(11, 92, 15).
edge(9, 132, 9).
edge(57, 63, 25).
edge(77, 123, 27).
edge(5, 104, 12).
edge(25, 37, 21).
edge(92, 88, 5).
edge(73, 6, 21).
edge(69, 119, 16).
edge(72, 116, 38).
edge(10, 116, 36).
edge(153, 2, 36).
edge(93, 107, 29).
edge(120, 157, 5).
edge(116, 123, 15).
edge(173, 149, 23).
edge(138, 24, 1).
edge(86, 120, 2).
edge(141, 70, 15).
edge(88, 158, 5).
edge(21, 91, 15).
edge(124, 71, 11).
edge(30, 36, 20).
edge(177, 67, 21).
edge(65, 36, 6).
edge(77, 81, 30).
edge(67, 91, 32).
edge(159, 36, 17).
edge(102, 56, 27).
edge(173, 133, 14).
edge(159, 86, 14).
edge(51, 146, 15).
edge(69, 6, 18).
edge(70, 72, 24).
edge(1, 78, 6).
edge(129, 173, 35).
edge(154, 10, 22).
edge(2, 30, 30).
edge(38, 140, 21).
edge(13, 138, 11).
edge(4, 47, 4).
edge(59, 71, 3).
edge(39, 11, 11).
edge(60, 96, 28).
edge(176, 169, 13).
edge(166, 21, 27).
edge(125, 21, 26).
edge(44, 0, 35).
edge(129, 19, 35).
edge(156, 177, 25).
edge(35, 169, 15).
edge(43, 3, 35).
edge(38, 108, 24).
edge(9, 106, 16).
edge(48, 148, 20).
edge(24, 50, 37).
edge(69, 111, 1).
edge(140, 134, 30).
edge(85, 67, 16).
edge(66, 21, 21).
edge(114, 43, 1).
edge(144, 27, 10).
edge(158, 9, 11).
edge(120, 143, 16).
edge(171, 52, 11).
edge(134, 19, 34).
edge(5, 38, 26).
edge(30, 121, 35).
edge(68, 154, 10).
edge(4, 162, 11).
edge(125, 107, 16).
edge(16, 95, 11).
edge(49, 166, 11).
edge(64, 103, 11).
edge(139, 126, 18).
edge(132, 22, 39).
edge(63, 46, 36).
edge(30, 125, 6).
edge(64, 62, 8).
edge(129, 167, 36).
edge(74, 130, 5).
edge(75, 161, 15).
edge(84, 91, 5).
edge(60, 172, 35).
edge(4, 22, 38).
edge(110, 35, 32).
edge(33, 80, 28).
edge(72, 4, 28).
edge(6, 166, 20).
edge(170, 148, 32).
edge(7, 96, 6).
edge(167, 48, 20).
edge(88, 37, 17).
edge(108, 83, 2).
edge(5, 137, 5).
edge(74, 148, 36).
edge(8, 127, 20).
edge(50, 71, 15).
edge(68, 167, 38).
edge(60, 83, 33).
edge(68, 169, 22).
edge(133, 96, 28).
edge(96, 88, 16).
edge(85, 147, 14).
edge(132, 17, 19).
edge(66, 35, 9).
edge(47, 102, 5).
edge(74, 115, 27).
edge(175, 151, 6).
edge(132, 30, 39).
edge(47, 151, 32).
edge(153, 73, 7).
edge(3, 104, 1).
edge(87, 114, 35).
edge(38, 149, 19).
edge(173, 117, 8).
edge(173, 106, 31).
edge(174, 144, 9).
edge(167, 12, 37).
edge(82, 2, 29).
edge(55, 125, 7).
edge(116, 73, 23).
edge(161, 152, 22).
edge(8, 97, 36).
edge(53, 133, 34).
edge(121, 176, 34).
edge(86, 84, 6).
edge(151, 61, 32).
edge(153, 164, 16).
edge(61, 25, 12).
edge(30, 148, 31).
edge(63, 71, 30).
edge(35, 167, 11).
edge(57, 2, 38).
edge(41, 48, 16).
edge(65, 135, 38).
edge(65, 55, 6).
edge(94, 132, 16).
edge(169, 135, 10).
edge(125, 124, 22).
edge(113, 144, 30).
edge(46, 134, 25).
edge(120, 103, 37).
edge(114, 140, 26).
edge(69, 168, 36).
edge(70, 88, 14).
edge(19, 90, 36).
edge(54, 154, 14).
edge(127, 66, 2).
edge(69, 137, 9).
edge(43, 115, 6).
edge(132, 64, 33).
edge(15, 77, 12).
edge(20, 55, 34).
edge(95, 4, 13).
edge(68, 168, 31).
edge(19, 147, 21).
edge(142, 169, 39).
edge(11, 80, 13).
edge(93, 29, 12).
edge(103, 128, 22).
edge(81, 14, 1).
edge(28, 138, 4).
edge(22, 96, 21).
edge(90, 31, 10).
edge(45, 77, 12).
edge(88, 154, 39).
edge(124, 4, 18).
edge(15, 136, 21).
edge(132, 110, 28).
edge(1, 141, 23).
edge(53, 100, 3).
edge(85, 134, 6).
edge(80, 108, 19).
edge(175, 81, 28).
edge(13, 15, 22).
edge(128, 145, 24).
edge(0, 163, 15).
edge(56, 68, 36).
edge(7, 151, 17).
edge(47, 19, 17).
edge(154, 30, 26).
edge(71, 10, 27).
edge(173, 79, 22).
edge(49, 13, 30).
edge(58, 46, 11).
edge(63, 62, 24).
edge(22, 5, 11).
edge(32, 104, 14).
edge(141, 0, 20).
edge(158, 152, 34).
edge(158, 159, 27).
edge(131, 151, 1).
edge(100, 69, 30).
edge(169, 30, 29).
edge(10, 99, 17).
edge(159, 102, 28).
edge(126, 88, 26).
edge(123, 105, 15).
edge(141, 120, 34).
edge(29, 81, 30).
edge(63, 34, 36).
edge(48, 88, 1).
edge(133, 31, 19).
edge(2, 24, 18).
edge(146, 168, 10).
edge(0, 158, 32).
edge(134, 82, 24).
edge(39, 117, 14).
edge(30, 119, 16).
edge(177, 32, 36).
edge(92, 99, 28).
edge(52, 103, 32).
edge(53, 26, 4).
edge(57, 4, 24).
edge(84, 8, 12).
edge(111, 104, 17).
edge(85, 20, 8).
edge(40, 137, 35).
edge(142, 162, 14).
edge(130, 107, 6).
edge(103, 125, 8).
edge(41, 66, 35).
edge(142, 94, 30).
edge(111, 127, 36).
edge(118, 144, 21).
edge(2, 130, 32).
edge(160, 103, 10).
edge(77, 141, 8).
edge(87, 24, 10).
edge(112, 49, 1).
edge(90, 20, 35).
edge(97, 43, 2).
edge(174, 134, 25).
edge(136, 33, 9).
edge(160, 149, 34).
edge(6, 28, 36).
edge(124, 27, 15).
edge(122, 21, 35).
edge(111, 177, 16).
edge(156, 18, 20).
edge(77, 75, 10).
edge(82, 5, 33).
edge(8, 81, 19).
edge(104, 112, 31).
edge(167, 18, 13).
edge(27, 147, 7).
edge(134, 75, 35).
edge(147, 72, 9).
edge(16, 84, 14).
edge(49, 7, 3).
edge(23, 74, 26).
edge(67, 8, 33).
edge(158, 93, 36).
edge(50, 63, 15).
edge(15, 11, 24).
edge(34, 25, 31).
edge(135, 87, 27).
edge(25, 150, 36).
edge(165, 174, 18).
edge(154, 142, 16).
edge(121, 122, 23).
edge(116, 81, 24).
edge(149, 50, 14).
edge(138, 88, 14).
edge(133, 169, 19).
edge(24, 104, 39).
edge(84, 82, 23).
edge(99, 129, 9).
edge(100, 25, 2).
edge(101, 98, 13).
edge(127, 26, 20).
edge(107, 117, 5).
edge(53, 1, 7).
edge(87, 172, 37).
edge(138, 41, 11).
edge(54, 75, 15).
edge(158, 28, 34).
edge(6, 147, 7).
edge(94, 106, 17).
edge(105, 66, 21).
edge(117, 111, 28).
edge(108, 3, 39).
edge(139, 24, 18).
edge(133, 163, 8).
edge(90, 24, 34).
edge(145, 108, 4).
edge(80, 18, 23).
edge(123, 8, 13).
edge(8, 96, 35).
edge(114, 124, 9).
edge(156, 39, 10).
edge(132, 59, 20).
edge(67, 137, 21).
edge(156, 14, 2).
edge(142, 37, 35).
edge(36, 142, 19).
edge(58, 13, 22).
edge(85, 45, 23).
edge(162, 96, 21).
edge(32, 86, 12).
edge(110, 82, 17).
edge(28, 4, 19).
edge(56, 52, 23).
edge(121, 51, 8).
edge(147, 61, 29).
edge(20, 85, 6).
edge(155, 48, 24).
edge(54, 164, 5).
edge(57, 16, 10).
edge(108, 97, 12).
edge(7, 79, 7).
edge(16, 165, 29).
edge(117, 83, 23).
edge(150, 44, 15).
edge(136, 94, 38).
edge(102, 57, 10).
edge(95, 43, 8).
edge(33, 129, 31).
edge(134, 95, 1).
edge(79, 65, 39).
edge(51, 46, 11).
edge(95, 14, 12).
edge(143, 170, 38).
edge(102, 104, 7).
edge(42, 101, 34).
edge(69, 20, 26).
edge(134, 37, 25).
edge(15, 5, 3).
edge(87, 152, 4).
edge(39, 21, 4).
edge(76, 52, 23).
edge(97, 67, 13).
edge(37, 137, 36).
edge(84, 9, 33).
edge(94, 52, 9).
edge(156, 57, 35).
edge(26, 151, 2).
edge(171, 161, 28).
edge(4, 56, 39).
edge(21, 80, 12).
edge(68, 9, 13).
edge(140, 168, 25).
edge(85, 44, 12).
edge(71, 20, 5).
edge(148, 123, 30).
edge(70, 126, 16).
edge(0, 9, 25).
edge(124, 97, 18).
edge(116, 147, 6).
edge(78, 136, 21).
edge(31, 174, 31).
edge(106, 135, 6).
edge(0, 105, 9).
edge(64, 84, 35).
edge(169, 24, 9).
edge(154, 7, 24).
edge(109, 126, 5).
edge(45, 11, 33).
edge(6, 7, 24).
edge(150, 57, 3).
edge(62, 142, 39).
edge(38, 165, 38).
edge(96, 112, 31).
edge(175, 123, 29).
edge(40, 159, 31).
edge(46, 145, 28).
edge(75, 123, 23).
edge(152, 157, 21).
edge(142, 122, 31).
edge(149, 134, 30).
edge(72, 114, 21).
edge(65, 83, 7).
edge(64, 126, 37).
edge(139, 144, 23).
edge(23, 117, 21).
edge(61, 9, 24).
edge(123, 54, 25).
edge(16, 160, 27).
edge(30, 110, 10).
edge(85, 66, 31).
edge(75, 14, 5).
edge(12, 95, 39).
edge(59, 94, 5).
edge(101, 160, 29).
edge(95, 10, 16).
edge(53, 54, 8).
edge(105, 52, 20).
edge(150, 1, 23).
edge(173, 64, 34).
edge(125, 18, 8).
edge(16, 27, 39).
edge(37, 41, 39).
edge(60, 88, 3).
edge(9, 87, 13).
edge(112, 167, 33).
edge(10, 74, 2).
edge(88, 11, 39).
edge(3, 142, 17).
edge(132, 3, 22).
edge(144, 18, 25).
edge(89, 116, 2).
edge(105, 46, 34).
edge(56, 88, 37).
edge(69, 115, 5).
edge(174, 21, 38).
edge(95, 141, 17).
edge(95, 111, 6).
edge(132, 97, 24).
edge(165, 6, 15).

1 { order(V,P) : pos(P) } 1 :- node(V).
1 { order(V,P) : node(V) } 1 :- pos(P).
back(U,V) :- edge(U,V,_), order(U,P1), order(V,P2), P1 > P2.
:~ back(U,V), edge(U,V,W). [W@1,U,V]
