node(0..176).
pos(1..177).
edge(50, 172, 30).
edge(170, 90, 31).
edge(132, 151, 13).
edge(147, 118, 28).
edge(26, 47, 36).
edge(32, 74, 38).
edge(81, 86, 24).
edge(127, 131, 3).
edge(176, 37, 25).
edge(130, 47, 21).
edge(130, 110, 12).
edge(65, 55, 10).
edge(66, 120, 31).
edge(143, 5, 25).
edge(25, 32, 36).
edge(140, 91, 15).
edge(115, 6, 24).
edge(118, 82, 23).
edge(43, 109, 31).
edge(31, 140, 24).
edge(95, 149, 10).
edge(119, 116, 18).
edge(59, 33, 10).
edge(133, 147, 33).
edge(121, 92, 36).
edge(166, 98, 8).
edge(91, 89, 18).
edge(92, 143, 27).
edge(0, 160, 20).
edge(91, 40, 27).
edge(53, 138, 9).
edge(83, 66, 25).
edge(175, 58, 24).
edge(56, 130, 27).
edge(132, 137, 37).
edge(63, 88, 15).
edge(63, 55, 11).
edge(13, 111, 13).
edge(20, 17, 23).
edge(134, 73, 22).
edge(154, 115, 17).
edge(107, 139, 26).
edge(122, 120, 13).
edge(61, 27, 28).
edge(107, 144, 23).
edge(10, 23, 35).
edge(164, 122, 23).
edge(129, 99, 2).
edge(28, 159, 38).
edge(84, 135, 20).
edge(1, 114, 13).
edge(123, 113, 31).
edge(117, 122, 35).
edge(26, 35, 39).
edge(102, 78, 24).
edge(33, 165, 3).
edge(92, 28, 1).
edge(40, 140, 15).
edge(125, 1, 7).
edge(25, 142, 24).
edge(129, 74, 19).
edge(81, 164, 19).
edge(4, 57, 9).
edge(127, 62, 9).
edge(66, 130, 9).
edge(50, 164, 13).
edge(55, 26, 1).
edge(48, 138, 16).
edge(7, 100, 25).
edge(125, 66, 27).
edge(15, 104, 39).
edge(46, 74, 30).
edge(126, 68, 2).
edge(137, 170, 18).
edge(138, 63, 37).
edge(56, 28, 3).
edge(173, 63, 28).
edge(83, 24, 33).
edge(93, 94, 35).
edge(60, 168, 4).
edge(62, 162, 7).
edge(40, 31, 11).
edge(135, 159, 34).
edge(171, 33, 13).
edge(100, 2, 28).
edge(164, 124, 20).
edge(47, 94, 27).
edge(92, 144, 27).
edge(76, 95, 15).
edge(104, 33, 3).
edge(113, 15, 17).
edge(127, 101, 16).
edge(133, 156, 30).
edge(59, 160, 27).
edge(72, 122, 18).
edge(74, 78, 4).
edge(124, 136, 20).
edge(149, 133, 17).
edge(17, 39, 4).
edge(80, 129, 6).
edge(43, 62, 9).
edge(79, 47, 15).
edge(50, 27, 14).
edge(89, 109, 10).
edge(8, 171, 3).
edge(155, 143, 24).
edge(74, 167, 32).
edge(131, 23, 3).
edge(70, 20, 4).
edge(91, 133, 4).
edge(52, 113, 5).
edge(161, 50, 6).
edge(29, 44, 13).
edge(105, 33, 33).
edge(36, 112, 35).
edge(89, 44, 6).
edge(71, 60, 5).
edge(45, 58, 23).
edge(113, 39, 24).
edge(69, 29, 7).
edge(94, 68, 4).
edge(60, 151, 39).
edge(160, 89, 33).
edge(27, 77, 24).
edge(130, 30, 18).
edge(124, 142, 33).
edge(115, 68, 23).
edge(159, 2, 36).
edge(57, 112, 18).
edge(126, 103, 35).
edge(136, 47, 12).
edge(11, 97, 24).
edge(138, 35, 37).
edge(30, 91, 4).
edge(156, 53, 1).
edge(158, 38, 4).
edge(39, 169, 6).
edge(174, 38, 33).
edge(113, 37, 7).
edge(61, 73, 35).
edge(133, 142, 26).
edge(147, 4, 34).
edge(105, 101, 2).
edge(154, 47, 33).
edge(142, 141, 10).
edge(2, 48, 9).
edge(152, 130, 13).
edge(15, 134, 27).
edge(104, 56, 30).
edge(86, 75, 14).
edge(51, 29, 29).
edge(54, 63, 22).
edge(113, 23, 37).
edge(92, 161, 10).
edge(86, 10, 7).
edge(174, 48, 20).
edge(59, 79, 2).
edge(161, 41, 28).
edge(115, 18, 2).
edge(16, 13, 33).
edge(1, 115, 39).
edge(56, 79, 23).
edge(33, 74, 31).
edge(26, 116, 18).
edge(35, 0, 1).
edge(92, 63, 33).
edge(87, 98, 33).
edge(125, 101, 15).
edge(136, 19, 33).
edge(141, 51, 10).
edge(171, 69, 5).
edge(13, 67, 32).
edge(134, 169, 12).
edge(137, 111, 14).
edge(168, 141, 9).
edge(10, 73, 6).
edge(158, 76, 14).
edge(16, 116, 17).
edge(39, 51, 12).
edge(73, 34, 11).
edge(104, 118, 37).
edge(104, 35, 19).
edge(100, 71, 7).
edge(72, 21, 6).
edge(36, 115, 4).
edge(99, 150, 28).
edge(119, 141, 25).
edge(125, 135, 34).
edge(72, 71, 9).
edge(39, 131, 36).
edge(12, 109, 22).
edge(77, 142, 32).
edge(35, 9, 12).
edge(116, 117, 6).
edge(37, 100, 13).
edge(39, 114, 4).
edge(117, 56, 31).
edge(93, 155, 11).
edge(37, 83, 36).
edge(108, 153, 11).
edge(81, 74, 4).
edge(2, 93, 24).
edge(116, 161, 34).
edge(85, 41, 32).
edge(3, 48, 21).
edge(39, 49, 3).
edge(67, 59, 20).
edge(31, 122, 14).
edge(126, 14, 3).
edge(55, 101, 16).
edge(62, 95, 15).
edge(87, 9, 4).
edge(90, 42, 19).
edge(116, 123, 35).
edge(88, 113, 6).
edge(110, 140, 20).
edge(72, 131, 28).
edge(16, 99, 4).
edge(3, 12, 5).
edge(30, 29, 16).
edge(169, 83, 15).
edge(175, 79, 21).
edge(79, 11, 34).
edge(99, 47, 25).
edge(33, 175, 39).
edge(35, 8, 18).
edge(29, 106, 25).
edge(160, 61, 33).
edge(161, 34, 23).
edge(167, 18, 31).
edge(169, 132, 2).
edge(84, 76, 27).
edge(113, 22, 3).
edge(165, 130, 29).
edge(49, 83, 14).
edge(13, 71, 30).
edge(52, 136, 32).
edge(142, 38, 32).
edge(152, 64, 13).
edge(53, 56, 11).
edge(50, 148, 6).
edge(174, 169, 10).
edge(124, 77, 33).
edge(13, 137, 3).
edge(34, 55, 24).
edge(156, 126, 18).
edge(27, 149, 20).
edge(71, 15, 16).
edge(51, 10, 23).
edge(125, 132, 2).
edge(101, 63, 33).
edge(115, 20, 2).
edge(98, 12, 16).
edge(63, 144, 22).
edge(91, 20, 34).
edge(116, 62, 23).
edge(173, 157, 21).
edge(132, 2, 18).
edge(7, 172, 14).
edge(54, 2, 2).
edge(2, 166, 2).
edge(24, 157, 18).
edge(79, 175, 22).
edge(68, 148, 10).
edge(171, 121, 7).
edge(111, 108, 17).
edge(37, 119, 5).
edge(1, 94, 10).
edge(48, 66, 25).
edge(139, 137, 17).
edge(133, 60, 24).
edge(152, 82, 20).
edge(139, 31, 26).
edge(136, 60, 23).
edge(81, 116, 32).
edge(68, 138, 17).
edge(91, 4, 20).
edge(40, 17, 30).
edge(13, 127, 12).
edge(37, 132, 38).
edge(105, 125, 28).
edge(0, 14, 10).
edge(6, 133, 27).
edge(18, 41, 28).
edge(48, 128, 13).
edge(17, 73, 14).
edge(20, 142, 33).
edge(24, 60, 25).
edge(171, 141, 3).
edge(2, 53, 20).
edge(76, 137, 8).
edge(176, 104, 38).
edge(4, 68, 39).
edge(97, 172, 8).
edge(54, 111, 36).
edge(89, 32, 1).
edge(163, 84, 25).
edge(27, 8, 28).
edge(29, 118, 10).
edge(11, 78, 17).
edge(12, 176, 37).
edge(166, 97, 2).
edge(54, 91, 23).
edge(169, 12, 1).
edge(143, 131, 27).
edge(1, 131, 12).
edge(97, 20, 13).
edge(32, 63, 10).
edge(176, 127, 10).
edge(61, 24, 26).
edge(172, 10, 38).
edge(61, 38, 26).
edge(129, 4, 32).
edge(9, 133, 2).
edge(139, 94, 13).
edge(161, 43, 33).
edge(163, 82, 19).
edge(49, 53, 35).
edge(162, 95, 22).
edge(160, 112, 6).
edge(39, 85, 1).
edge(115, 11, 3).
edge(121, 115, 26).
edge(65, 131, 3).
edge(6, 16, 34).
edge(143, 130, 4).
edge(62, 40, 23).
edge(153, 92, 37).
edge(97, 160, 31).
edge(126, 54, 16).
edge(61, 83, 26).
edge(149, 154, 6).
edge(142, 168, 9).
edge(48, 175, 15).
edge(30, 115, 4).
edge(113, 31, 14).
edge(133, 108, 11).
edge(95, 131, 25).
edge(79, 15, 3).
edge(57, 174, 26).
edge(108, 170, 12).
edge(173, 172, 27).
edge(81, 166, 14).
edge(131, 107, 22).
edge(41, 135, 18).
edge(156, 9, 23).
edge(106, 89, 28).
edge(101, 89, 3).
edge(113, 79, 37).
edge(100, 86, 23).
edge(150, 152, 10).
edge(103, 175, 21).
edge(8, 81, 38).
edge(4, 141, 35).
edge(21, 159, 1).
edge(166, 57, 33).
edge(146, 112, 37).
edge(78, 69, 29).
edge(73, 142, 23).
edge(173, 77, 14).
edge(30, 38, 24).
edge(145, 141, 15).
edge(6, 169, 13).
edge(113, 152, 18).
edge(166, 140, 2).
edge(19, 9, 27).
edge(159, 142, 26).
edge(119, 150, 24).
edge(60, 98, 29).
edge(20, 13, 7).
edge(97, 41, 38).
edge(44, 8, 22).
edge(76, 75, 23).
edge(73, 144, 4).
edge(176, 132, 26).
edge(66, 42, 15).
edge(86, 77, 33).
edge(103, 150, 12).
edge(124, 22, 13).
edge(106, 121, 22).
edge(165, 69, 13).
edge(119, 72, 13).
edge(38, 6, 8).
edge(96, 165, 33).
edge(133, 67, 13).
edge(171, 107, 10).
edge(142, 3, 34).
edge(23, 136, 12).
edge(82, 27, 37).
edge(155, 171, 19).
edge(68, 156, 11).
edge(147, 34, 18).
edge(171, 26, 33).
edge(46, 168, 11).
edge(45, 25, 20).
edge(96, 169, 31).
edge(81, 80, 19).
edge(117, 128, 3).
edge(18, 28, 4).
edge(113, 81, 34).
edge(98, 42, 23).
edge(169, 105, 22).
edge(35, 74, 9).
edge(176, 117, 14).
edge(164, 5, 21).
edge(153, 90, 8).
edge(58, 162, 31).
edge(20, 111, 34).
edge(58, 113, 28).
edge(109, 156, 25).
edge(136, 145, 39).
edge(59, 43, 5).
edge(88, 142, 6).
edge(142, 112, 36).
edge(18, 101, 25).
edge(124, 58, 6).
edge(115, 110, 31).
edge(113, 78, 10).
edge(19, 89, 39).
edge(120, 55, 24).
edge(116, 164, 21).
edge(59, 123, 3).
edge(153, 55, 36).
edge(153, 62, 16).
edge(159, 58, 31).
edge(171, 116, 3).
edge(25, 136, 4).
edge(108, 53, 27).
edge(157, 169, 5).
edge(12, 161, 29).
edge(96, 100, 10).
edge(45, 144, 8).
edge(82, 79, 16).
edge(135, 168, 39).
edge(0, 112, 17).
edge(164, 38, 29).
edge(149, 36, 20).
edge(167, 124, 25).
edge(21, 138, 39).
edge(50, 163, 35).
edge(149, 100, 4).
edge(103, 116, 34).
edge(139, 103, 35).
edge(145, 103, 7).
edge(170, 30, 34).
edge(109, 115, 31).
edge(123, 120, 8).
edge(93, 154, 24).
edge(111, 66, 18).
edge(69, 94, 21).
edge(107, 48, 24).
edge(103, 162, 8).
edge(97, 55, 35).
edge(25, 52, 33).
edge(60, 100, 14).
edge(27, 160, 37).
edge(12, 3, 20).
edge(77, 69, 27).
edge(33, 118, 14).
edge(24, 23, 23).
edge(16, 33, 18).
edge(19, 136, 30).
edge(43, 28, 22).
edge(13, 89, 15).
edge(156, 56, 33).
edge(83, 54, 20).
edge(82, 9, 29).
edge(118, 38, 3).
edge(3, 78, 6).
edge(161, 52, 33).
edge(17, 143, 4).
edge(48, 144, 28).
edge(128, 14, 17).
edge(164, 32, 19).
edge(18, 106, 35).
edge(92, 157, 20).
edge(125, 105, 21).
edge(100, 42, 36).
edge(123, 59, 36).
edge(121, 68, 36).
edge(2, 109, 16).
edge(102, 115, 31).
edge(104, 71, 8).
edge(141, 68, 36).
edge(70, 32, 23).
edge(14, 66, 5).
edge(109, 34, 20).
edge(163, 45, 26).
edge(91, 170, 20).
edge(84, 24, 37).
edge(1, 37, 35).
edge(32, 128, 32).
edge(31, 60, 3).
edge(134, 74, 19).
edge(10, 85, 3).
edge(36, 128, 13).
edge(67, 93, 28).
edge(56, 40, 39).
edge(129, 81, 2).
edge(151, 68, 8).
edge(33, 65, 32).
edge(160, 150, 22).
edge(172, 3, 12).
edge(38, 158, 30).
edge(78, 4, 26).
edge(132, 44, 12).
edge(74, 34, 8).
edge(133, 139, 1).
edge(16, 155, 15).
edge(2, 37, 36).
edge(137, 149, 30).
edge(24, 171, 39).
edge(176, 6, 8).
edge(18, 138, 37).
edge(2, 91, 5).
edge(129, 134, 21).
edge(112, 109, 20).
edge(117, 88, 16).
edge(30, 19, 1).
edge(152, 37, 35).
edge(25, 81, 26).
edge(18, 5, 29).
edge(170, 56, 8).
edge(16, 134, 4).
edge(12, 14, 32).
edge(118, 27, 19).
edge(163, 69, 17).
edge(43, 74, 38).
edge(77, 128, 16).
edge(113, 73, 1).
edge(172, 85, 38).
edge(107, 159, 32).
edge(100, 134, 4).
edge(74, 101, 13).
edge(116, 144, 39).
edge(36, 105, 17).
edge(143, 1, 37).
edge(148, 48, 20).
edge(166, 9, 24).
edge(2, 77, 23).
edge(80, 0, 26).
edge(176, 109, 33).
edge(76, 174, 24).
edge(22, 24, 1).
edge(169, 138, 35).
edge(143, 102, 29).
edge(122, 116, 15).
edge(106, 112, 37).
edge(157, 72, 39).
edge(4, 2, 36).
edge(95, 82, 39).
edge(91, 72, 28).
edge(48, 146, 26).
edge(67, 111, 36).
edge(161, 130, 15).
edge(140, 146, 13).
edge(51, 105, 8).
edge(33, 168, 34).
edge(7, 14, 36).
edge(95, 173, 20).
edge(4, 158, 3).
edge(162, 83, 9).
edge(145, 37, 17).
edge(27, 46, 13).
edge(6, 49, 17).
edge(67, 36, 1).
edge(137, 57, 30).
edge(107, 176, 4).
edge(167, 127, 33).
edge(10, 7, 12).
edge(44, 118, 2).
edge(131, 12, 28).
edge(125, 128, 17).
edge(54, 80, 31).
edge(55, 9, 17).
edge(97, 16, 38).
edge(90, 154, 1).
edge(161, 136, 34).
edge(87, 160, 39).
edge(31, 4, 36).
edge(49, 97, 29).
edge(138, 32, 24).
edge(176, 48, 39).
edge(86, 6, 5).
edge(79, 174, 21).
edge(150, 94, 35).
edge(4, 35, 29).
edge(133, 137, 21).
edge(55, 19, 19).
edge(158, 168, 1).
edge(162, 87, 2).
edge(118, 152, 3).
edge(155, 85, 35).
edge(135, 2, 6).
edge(16, 61, 19).
edge(64, 173, 18).
edge(150, 68, 8).
edge(102, 40, 10).
edge(59, 64, 33).
edge(117, 134, 26).
edge(140, 81, 4).
edge(38, 106, 23).
edge(98, 0, 5).
edge(46, 44, 28).
edge(113, 145, 3).
edge(58, 82, 9).
edge(76, 18, 30).
edge(117, 90, 21).
edge(24, 153, 8).
edge(31, 72, 15).
edge(86, 100, 28).
edge(170, 31, 22).
edge(134, 120, 22).
edge(173, 137, 27).
edge(35, 122, 5).
edge(118, 64, 22).
edge(40, 111, 10).
edge(22, 140, 28).
edge(59, 162, 19).
edge(103, 105, 11).
edge(71, 37, 31).
edge(129, 8, 12).
edge(144, 11, 36).
edge(61, 149, 21).
edge(172, 41, 4).
edge(107, 59, 32).
edge(163, 72, 25).
edge(109, 13, 36).
edge(63, 46, 10).
edge(53, 118, 16).
edge(76, 40, 5).
edge(114, 106, 13).
edge(109, 1, 20).
edge(120, 142, 3).
edge(5, 150, 8).
edge(28, 21, 6).
edge(169, 121, 27).
edge(126, 60, 19).
edge(47, 96, 31).
edge(74, 87, 12).
edge(147, 160, 19).
edge(8, 79, 35).
edge(50, 43, 27).
edge(49, 153, 28).
edge(166, 101, 6).
edge(57, 46, 26).
edge(122, 18, 28).
edge(35, 13, 27).
edge(153, 71, 19).
edge(123, 91, 29).
edge(175, 106, 29).
edge(118, 160, 8).
edge(103, 109, 13).
edge(95, 136, 26).
edge(169, 36, 16).
edge(167, 172, 19).
edge(54, 35, 9).
edge(150, 48, 5).
edge(11, 144, 1).
edge(110, 164, 24).
edge(55, 159, 22).
edge(150, 51, 21).
edge(104, 26, 2).
edge(144, 100, 8).
edge(96, 151, 29).
edge(53, 17, 31).
edge(129, 28, 25).
edge(9, 85, 15).
edge(55, 53, 21).
edge(171, 150, 2).
edge(34, 38, 21).
edge(36, 170, 23).
edge(0, 126, 27).
edge(153, 138, 5).
edge(110, 133, 22).
edge(54, 14, 36).
edge(65, 155, 21).
edge(131, 56, 33).
edge(106, 0, 10).
edge(102, 75, 39).
edge(31, 75, 31).
edge(147, 112, 26).
edge(66, 165, 4).
edge(27, 31, 39).
edge(28, 7, 33).
edge(111, 24, 24).
edge(49, 75, 4).
edge(22, 84, 9).
edge(93, 18, 3).
edge(157, 66, 5).
edge(151, 165, 31).
edge(65, 12, 18).
edge(59, 87, 17).
edge(119, 102, 7).
edge(80, 124, 14).
edge(19, 117, 35).
edge(16, 62, 33).
edge(47, 98, 7).
edge(18, 63, 10).
edge(140, 172, 34).
edge(152, 125, 14).
edge(123, 46, 16).
edge(107, 109, 15).
edge(20, 104, 17).
edge(33, 68, 19).
edge(16, 139, 23).
edge(87, 92, 38).
edge(147, 10, 12).
edge(68, 32, 38).
edge(43, 63, 36).
edge(45, 127, 39).
edge(163, 51, 10).
edge(59, 167, 12).
edge(8, 73, 19).
edge(176, 12, 31).
edge(11, 81, 24).
edge(1, 144, 12).
edge(11, 165, 12).
edge(104, 101, 4).
edge(122, 96, 38).
edge(93, 97, 15).
edge(35, 49, 1).
edge(161, 174, 17).
edge(88, 166, 13).
edge(157, 81, 30).
edge(18, 161, 17).
edge(6, 94, 15).
edge(76, 164, 4).
edge(154, 118, 10).
edge(165, 8, 20).
edge(100, 46, 32).
edge(52, 158, 37).
edge(124, 5, 17).
edge(76, 77, 33).
edge(149, 106, 16).
edge(50, 4, 7).
edge(118, 137, 5).
edge(80, 13, 1).
edge(142, 48, 31).
edge(80, 51, 32).
edge(29, 41, 38).
edge(68, 29, 5).
edge(102, 101, 14).
edge(101, 113, 8).
edge(131, 29, 1).
edge(134, 170, 21).
edge(136, 117, 28).
edge(151, 156, 26).
edge(0, 168, 36).
edge(17, 163, 4).
edge(55, 38, 38).
edge(9, 17, 14).
edge(55, 36, 3).
edge(160, 77, 38).
edge(132, 7, 2).
edge(66, 162, 18).
edge(134, 66, 19).
edge(134, 46, 4).
edge(67, 148, 4).
edge(48, 106, 3).
edge(141, 89, 17).
edge(161, 104, 33).
edge(38, 92, 16).
edge(138, 30, 5).
edge(43, 15, 1).
edge(112, 18, 32).
edge(84, 91, 39).
edge(9, 156, 15).
edge(111, 25, 5).
edge(131, 15, 2).
edge(133, 61, 38).
edge(29, 68, 9).
edge(86, 134, 7).
edge(172, 36, 13).
edge(148, 99, 30).
edge(167, 49, 33).
edge(11, 140, 1).
edge(3, 139, 2).
edge(167, 88, 18).
edge(19, 110, 2).
edge(28, 88, 13).
edge(133, 101, 35).
edge(32, 64, 6).
edge(1, 168, 6).
edge(81, 175, 14).
edge(53, 39, 12).
edge(12, 172, 18).
edge(170, 162, 25).
edge(67, 118, 22).
edge(14, 149, 38).
edge(30, 5, 5).
edge(33, 61, 3).
edge(26, 108, 9).
edge(155, 99, 10).
edge(70, 101, 34).
edge(90, 4, 17).
edge(175, 49, 14).
edge(169, 45, 13).
edge(64, 148, 20).
edge(67, 174, 12).
edge(149, 2, 20).
edge(138, 76, 25).
edge(157, 97, 24).
edge(14, 24, 11).
edge(172, 17, 30).
edge(156, 81, 26).
edge(120, 172, 1).
edge(102, 171, 29).
edge(145, 25, 31).
edge(11, 75, 38).
edge(44, 78, 15).
edge(52, 100, 35).
edge(154, 152, 25).
edge(154, 131, 10).
edge(155, 62, 34).
edge(148, 44, 31).
edge(54, 120, 34).
edge(45, 149, 36).
edge(40, 157, 23).
edge(82, 68, 13).
edge(35, 156, 34).
edge(17, 26, 26).
edge(132, 74, 34).
edge(8, 37, 18).
edge(151, 124, 13).
edge(114, 40, 28).
edge(74, 56, 16).
edge(51, 113, 19).
edge(104, 23, 20).
edge(97, 2, 18).
edge(52, 164, 20).
edge(172, 94, 34).
edge(169, 28, 25).
edge(104, 66, 7).
edge(120, 97, 39).
edge(74, 175, 16).
edge(23, 147, 26).
edge(99, 62, 30).
edge(4, 102, 39).
edge(23, 121, 3).
edge(74, 86, 3).
edge(15, 30, 19).
edge(81, 133, 25).
edge(139, 144, 16).
edge(49, 32, 17).
edge(147, 141, 12).
edge(2, 147, 26).
edge(165, 83, 21).
edge(78, 58, 35).
edge(161, 125, 7).
edge(138, 146, 26).
edge(112, 131, 9).
edge(108, 136, 34).
edge(53, 133, 17).
edge(83, 56, 34).
edge(71, 108, 31).
edge(86, 97, 15).
edge(46, 20, 23).
edge(70, 170, 2).
edge(75, 76, 11).
edge(69, 164, 35).
edge(18, 75, 15).
edge(70, 108, 22).
edge(74, 40, 11).
edge(28, 146, 34).
edge(36, 45, 7).
edge(89, 174, 33).
edge(119, 44, 8).
edge(83, 47, 6).
edge(87, 138, 35).
edge(123, 146, 39).
edge(38, 109, 5).
edge(161, 102, 17).
edge(143, 86, 36).
edge(34, 21, 39).
edge(104, 149, 31).
edge(152, 93, 26).
edge(21, 63, 35).
edge(151, 84, 32).
edge(10, 149, 2).
edge(175, 10, 19).
edge(175, 86, 36).
edge(45, 167, 36).
edge(24, 163, 8).
edge(148, 142, 32).
edge(91, 142, 7).
edge(122, 46, 11).
edge(136, 59, 10).
edge(130, 156, 17).
edge(117, 108, 2).
edge(66, 63, 39).
edge(23, 173, 19).
edge(13, 58, 29).
edge(7, 121, 20).
edge(102, 18, 5).
edge(101, 14, 5).
edge(17, 14, 30).
edge(24, 50, 33).
edge(31, 53, 35).
edge(68, 111, 4).
edge(72, 153, 39).
edge(160, 42, 31).
edge(120, 37, 29).
edge(104, 163, 15).
edge(143, 9, 11).
edge(16, 92, 2).
edge(40, 173, 19).
edge(10, 35, 8).
edge(57, 114, 18).
edge(67, 159, 16).
edge(12, 101, 1).
edge(116, 126, 36).
edge(164, 170, 37).
edge(33, 125, 16).
edge(44, 140, 34).
edge(134, 156, 36).
edge(171, 18, 31).
edge(60, 145, 14).
edge(82, 40, 22).
edge(70, 163, 5).
edge(67, 106, 24).
edge(153, 120, 12).
edge(122, 154, 34).
edge(38, 69, 10).
edge(73, 141, 21).
edge(79, 40, 34).
edge(161, 147, 35).
edge(115, 0, 32).
edge(36, 124, 38).
edge(94, 82, 5).
edge(59, 67, 18).
edge(153, 16, 38).
edge(39, 137, 13).
edge(175, 57, 27).
edge(13, 42, 8).
edge(101, 96, 10).
edge(170, 13, 30).
edge(165, 135, 32).
edge(20, 127, 26).
edge(66, 0, 11).
edge(95, 34, 7).
edge(114, 153, 22).
edge(160, 15, 5).
edge(151, 23, 23).
edge(116, 136, 17).
edge(17, 15, 3).
edge(82, 103, 27).
edge(122, 45, 3).
edge(174, 20, 26).
edge(151, 43, 33).
edge(12, 173, 2).
edge(54, 72, 31).
edge(101, 26, 6).
edge(32, 28, 4).
edge(68, 62, 4).
edge(159, 73, 23).
edge(27, 53, 23).
edge(36, 127, 24).
edge(51, 14, 23).
edge(94, 62, 26).
edge(72, 169, 15).
edge(138, 110, 26).
edge(161, 154, 23).
edge(114, 115, 37).
edge(85, 42, 13).
edge(161, 118, 11).
edge(137, 107, 19).
edge(114, 58, 24).
edge(134, 33, 39).
edge(176, 156, 6).
edge(51, 111, 11).
edge(108, 161, 32).
edge(59, 2, 24).
edge(66, 54, 10).
edge(135, 147, 21).
edge(74, 130, 30).
edge(100, 83, 4).
edge(65, 88, 33).
edge(2, 62, 17).
edge(62, 152, 27).
edge(161, 70, 20).
edge(61, 51, 6).
edge(28, 134, 31).
edge(145, 41, 7).
edge(98, 99, 12).
edge(44, 141, 1).
edge(96, 30, 3).
edge(30, 49, 6).
edge(128, 42, 28).
edge(21, 161, 17).
edge(45, 168, 24).
edge(62, 142, 14).
edge(135, 50, 38).
edge(51, 148, 16).
edge(105, 63, 16).
edge(72, 119, 24).
edge(148, 84, 33).
edge(139, 92, 17).
edge(167, 145, 7).
edge(29, 69, 12).
edge(72, 50, 28).
edge(10, 69, 20).
edge(91, 39, 18).
edge(38, 111, 19).
edge(125, 50, 37).
edge(32, 113, 11).
edge(108, 85, 37).
edge(138, 46, 38).
edge(5, 106, 11).
edge(113, 166, 6).
edge(67, 39, 25).
edge(161, 82, 17).
edge(92, 54, 26).
edge(31, 120, 30).
edge(40, 79, 34).
edge(171, 123, 14).
edge(110, 121, 37).
edge(2, 4, 28).
edge(50, 64, 23).
edge(76, 122, 12).
edge(101, 159, 11).
edge(36, 166, 38).
edge(39, 113, 13).
edge(153, 65, 28).
edge(86, 60, 3).
edge(98, 143, 18).
edge(74, 158, 10).
edge(70, 73, 12).
edge(56, 169, 18).
edge(166, 68, 18).
edge(19, 84, 20).
edge(126, 137, 34).
edge(27, 48, 8).
edge(72, 90, 12).
edge(167, 20, 4).
edge(28, 115, 28).
edge(121, 128, 33).
edge(81, 114, 22).
edge(11, 82, 28).
edge(84, 73, 20).
edge(21, 57, 32).
edge(115, 136, 19).
edge(97, 77, 11).
edge(58, 157, 27).
edge(84, 22, 15).
edge(28, 84, 2).
edge(10, 164, 21).
edge(156, 54, 36).
edge(116, 7, 25).
edge(97, 143, 20).
edge(124, 88, 6).
edge(146, 142, 24).
edge(144, 166, 32).
edge(31, 79, 4).
edge(77, 81, 30).
edge(124, 76, 4).
edge(119, 110, 4).
edge(40, 68, 39).
edge(69, 159, 32).
edge(95, 115, 32).
edge(69, 137, 7).
edge(63, 134, 36).
edge(111, 14, 5).
edge(97, 1, 26).
edge(171, 166, 13).
edge(22, 80, 3).
edge(133, 20, 15).
edge(154, 57, 12).
edge(26, 25, 15).
edge(166, 85, 13).
edge(160, 151, 7).
edge(69, 3, 32).
edge(98, 170, 13).
edge(112, 154, 25).
edge(115, 140, 24).
edge(157, 23, 36).
edge(41, 146, 39).
edge(128, 36, 7).
edge(116, 172, 39).
edge(72, 70, 13).
edge(112, 14, 29).
edge(164, 15, 9).
edge(161, 170, 38).
edge(102, 175, 19).
edge(61, 57, 35).
edge(172, 13, 22).
edge(88, 48, 20).
edge(76, 68, 8).
edge(0, 154, 35).
edge(82, 166, 13).
edge(78, 48, 8).
edge(162, 111, 34).
edge(42, 83, 28).
edge(136, 55, 7).
edge(35, 39, 23).
edge(84, 140, 39).
edge(112, 48, 9).
edge(117, 45, 10).
edge(63, 150, 35).
edge(12, 157, 36).
edge(166, 75, 19).
edge(119, 161, 18).
edge(150, 34, 1).
edge(127, 113, 21).
edge(59, 7, 13).
edge(27, 70, 24).
edge(50, 169, 12).
edge(83, 132, 37).
edge(104, 147, 31).
edge(99, 18, 29).
edge(64, 107, 4).
edge(32, 18, 15).
edge(132, 138, 10).
edge(81, 54, 26).
edge(42, 2, 37).
edge(95, 147, 7).
edge(37, 158, 28).
edge(53, 11, 19).
edge(101, 54, 7).
edge(64, 165, 17).
edge(0, 174, 8).
edge(71, 92, 35).
edge(129, 127, 29).
edge(79, 16, 20).
edge(34, 39, 37).
edge(98, 131, 10).
edge(72, 94, 31).
edge(102, 98, 27).
edge(43, 67, 13).
edge(18, 110, 15).
edge(93, 126, 18).
edge(170, 102, 6).
edge(68, 70, 17).
edge(82, 85, 33).
edge(32, 91, 32).
edge(172, 104, 8).
edge(135, 103, 12).
edge(105, 127, 12).
edge(73, 46, 39).
edge(10, 43, 20).
edge(35, 61, 16).
edge(122, 156, 1).
edge(141, 18, 27).
edge(79, 113, 1).
edge(27, 110, 23).
edge(155, 83, 6).
edge(149, 3, 38).
edge(170, 57, 18).
edge(25, 69, 33).
edge(126, 55, 3).
edge(164, 120, 16).
edge(70, 7, 7).
edge(144, 18, 17).
edge(25, 146, 31).
edge(151, 104, 17).
edge(109, 80, 13).
edge(134, 7, 34).
edge(25, 38, 30).
edge(39, 52, 4).
edge(142, 39, 30).
edge(114, 43, 13).
edge(90, 140, 38).
edge(155, 121, 20).
edge(163, 107, 17).
edge(21, 88, 29).
edge(54, 156, 27).
edge(171, 82, 25).
edge(17, 50, 3).
edge(96, 89, 10).
edge(47, 136, 3).
edge(163, 139, 30).
edge(50, 115, 5).
edge(106, 58, 26).
edge(39, 61, 14).
edge(150, 73, 20).
edge(108, 105, 32).
edge(158, 81, 18).
edge(154, 116, 14).
edge(108, 55, 16).
edge(117, 118, 14).
edge(60, 131, 8).
edge(125, 155, 10).
edge(75, 175, 25).
edge(120, 33, 9).
edge(102, 57, 29).
edge(154, 138, 35).
edge(143, 23, 16).
edge(156, 168, 8).
edge(31, 26, 13).
edge(71, 140, 1).
edge(71, 163, 19).
edge(56, 87, 13).
edge(43, 19, 29).
edge(142, 61, 36).
edge(111, 65, 12).
edge(109, 77, 15).
edge(0, 78, 24).
edge(118, 91, 15).
edge(174, 0, 37).
edge(73, 20, 33).
edge(158, 21, 37).
edge(77, 63, 3).
edge(158, 164, 3).
edge(20, 75, 38).
edge(132, 167, 16).
edge(5, 38, 8).
edge(116, 59, 37).
edge(158, 114, 25).
edge(78, 3, 24).
edge(168, 143, 39).
edge(40, 102, 12).
edge(10, 135, 3).
edge(150, 171, 5).
edge(15, 14, 8).
edge(104, 19, 31).
edge(33, 56, 24).
edge(67, 133, 21).
edge(62, 163, 33).
edge(37, 78, 14).
edge(33, 81, 38).
edge(112, 141, 3).
edge(108, 3, 23).
edge(11, 18, 15).
edge(4, 104, 12).
edge(170, 135, 14).
edge(81, 28, 10).
edge(34, 95, 16).
edge(132, 84, 34).
edge(62, 138, 33).
edge(88, 162, 27).
edge(80, 40, 16).
edge(172, 2, 27).
edge(78, 46, 34).
edge(129, 164, 21).
edge(5, 148, 11).
edge(149, 145, 4).
edge(84, 153, 24).
edge(122, 66, 30).
edge(106, 165, 29).
edge(168, 67, 25).
edge(159, 1, 19).
edge(116, 171, 17).
edge(90, 32, 38).
edge(73, 101, 1).
edge(133, 145, 30).
edge(144, 89, 7).
edge(162, 21, 17).
edge(98, 163, 4).
edge(145, 167, 30).
edge(168, 135, 27).
edge(134, 82, 1).
edge(142, 162, 12).
edge(10, 62, 12).
edge(5, 54, 4).
edge(88, 8, 13).
edge(160, 149, 29).
edge(76, 36, 18).
edge(4, 36, 13).
edge(114, 80, 9).
edge(57, 17, 29).
edge(58, 146, 23).
edge(151, 153, 5).
edge(49, 129, 13).
edge(118, 167, 16).
edge(99, 155, 6).
edge(149, 142, 25).
edge(93, 165, 2).
edge(148, 87, 22).
edge(16, 88, 19).
edge(139, 56, 17).
edge(64, 102, 23).
edge(48, 45, 3).
edge(112, 55, 23).
edge(161, 135, 23).
edge(105, 156, 11).
edge(69, 57, 7).
edge(4, 52, 39).
edge(74, 143, 2).
edge(144, 32, 2).
edge(73, 109, 29).
edge(149, 96, 37).
edge(21, 173, 37).
edge(144, 66, 21).
edge(3, 29, 18).
edge(63, 74, 5).
edge(87, 139, 30).
edge(51, 42, 14).
edge(50, 63, 31).
edge(156, 24, 20).
edge(17, 126, 1).
edge(66, 116, 24).
edge(138, 155, 34).
edge(39, 170, 30).
edge(95, 156, 12).
edge(143, 36, 33).
edge(15, 35, 28).
edge(69, 63, 22).
edge(92, 55, 35).
edge(35, 79, 12).
edge(71, 131, 30).
edge(23, 155, 18).
edge(16, 117, 21).
edge(76, 62, 4).
edge(3, 123, 39).
edge(92, 135, 36).
edge(88, 148, 32).
edge(115, 153, 3).
edge(150, 132, 18).
edge(62, 82, 27).
edge(6, 119, 6).
edge(95, 157, 22).
edge(134, 71, 33).
edge(144, 72, 4).
edge(32, 50, 30).
edge(172, 163, 22).
edge(49, 44, 6).
edge(13, 158, 4).
edge(7, 40, 4).
edge(147, 12, 28).
edge(39, 67, 8).
edge(157, 68, 32).
edge(22, 88, 1).
edge(6, 86, 24).
edge(71, 130, 2).
edge(92, 172, 28).
edge(25, 93, 24).
edge(76, 160, 32).
edge(12, 146, 17).
edge(159, 119, 9).
edge(17, 11, 31).
edge(24, 165, 12).
edge(19, 13, 19).
edge(145, 134, 24).
edge(48, 77, 28).
edge(171, 12, 28).
edge(83, 53, 10).
edge(29, 145, 1).
edge(140, 115, 24).
edge(164, 77, 34).
edge(44, 163, 26).
edge(107, 22, 13).
edge(92, 18, 25).
edge(148, 11, 21).
edge(37, 22, 29).
edge(152, 90, 31).
edge(161, 148, 28).
edge(176, 77, 32).
edge(144, 121, 10).
edge(171, 97, 18).
edge(115, 54, 5).
edge(38, 127, 4).
edge(60, 27, 37).
edge(28, 103, 28).
edge(87, 17, 4).
edge(103, 155, 9).
edge(151, 26, 8).
edge(95, 78, 16).
edge(164, 75, 30).
edge(82, 53, 22).
edge(20, 31, 1).
edge(52, 152, 1).
edge(18, 111, 33).
edge(40, 6, 17).
edge(62, 117, 17).
edge(38, 57, 1).
edge(156, 155, 22).
edge(18, 49, 29).
edge(132, 122, 3).
edge(111, 67, 32).
edge(128, 47, 7).
edge(41, 12, 38).
edge(13, 81, 3).
edge(122, 114, 39).
edge(121, 163, 13).
edge(18, 91, 26).
edge(164, 8, 31).
edge(65, 143, 24).
edge(143, 148, 3).
edge(123, 55, 32).
edge(124, 154, 36).
edge(5, 53, 34).
edge(31, 145, 30).
edge(8, 24, 15).
edge(2, 87, 13).
edge(107, 145, 4).
edge(18, 95, 39).
edge(120, 64, 21).
edge(69, 8, 21).
edge(41, 77, 3).
edge(32, 82, 12).
edge(125, 39, 26).
edge(160, 66, 19).
edge(88, 169, 5).
edge(65, 80, 23).
edge(129, 43, 24).
edge(52, 129, 34).
edge(1, 150, 22).
edge(140, 109, 1).
edge(138, 88, 38).
edge(170, 167, 22).
edge(104, 93, 25).
edge(133, 141, 30).
edge(0, 18, 37).
edge(50, 103, 39).
edge(151, 3, 4).
edge(9, 175, 38).
edge(0, 64, 16).
edge(110, 130, 11).
edge(154, 174, 22).
edge(40, 16, 34).
edge(132, 116, 25).
edge(39, 138, 22).
edge(98, 167, 21).
edge(159, 133, 34).
edge(60, 97, 20).
edge(146, 24, 29).
edge(139, 1, 16).
edge(122, 171, 32).
edge(14, 93, 13).
edge(108, 13, 36).
edge(106, 66, 33).
edge(48, 135, 5).
edge(95, 165, 3).
edge(123, 35, 32).
edge(176, 101, 25).
edge(89, 110, 19).
edge(24, 94, 2).
edge(112, 169, 11).
edge(149, 140, 32).
edge(7, 170, 11).
edge(118, 17, 29).
edge(161, 77, 19).
edge(132, 64, 26).
edge(97, 87, 29).
edge(45, 159, 19).
edge(9, 37, 21).
edge(114, 76, 10).
edge(102, 144, 33).
edge(55, 6, 4).
edge(136, 41, 25).
edge(37, 164, 10).
edge(114, 67, 12).
edge(159, 93, 5).
edge(100, 22, 25).
edge(144, 175, 37).
edge(10, 163, 33).
edge(65, 141, 31).
edge(99, 72, 22).
edge(38, 103, 14).
edge(98, 67, 30).
edge(163, 159, 1).
edge(57, 64, 38).
edge(53, 20, 38).
edge(111, 20, 16).
edge(77, 148, 4).
edge(29, 76, 25).
edge(14, 131, 1).
edge(124, 90, 23).
edge(79, 36, 20).
edge(50, 39, 17).
edge(71, 54, 10).
edge(48, 93, 31).
edge(88, 46, 35).
edge(107, 55, 28).
edge(107, 153, 1).
edge(141, 49, 29).
edge(48, 102, 1).
edge(68, 92, 21).
edge(22, 110, 27).
edge(50, 29, 39).
edge(171, 100, 24).
edge(76, 6, 39).
edge(87, 6, 23).
edge(40, 30, 20).
edge(47, 12, 2).
edge(99, 12, 4).
edge(26, 22, 39).
edge(110, 37, 3).
edge(6, 38, 35).
edge(144, 125, 9).
edge(134, 27, 5).
edge(75, 146, 32).
edge(1, 136, 29).
edge(6, 64, 34).
edge(125, 130, 15).
edge(69, 135, 25).
edge(72, 104, 13).
edge(90, 145, 11).
edge(65, 159, 37).
edge(34, 154, 11).
edge(108, 102, 21).
edge(51, 95, 37).
edge(27, 154, 18).
edge(125, 110, 3).
edge(34, 17, 20).
edge(14, 95, 38).
edge(98, 52, 33).
edge(24, 68, 29).
edge(117, 20, 30).
edge(135, 72, 18).
edge(166, 35, 14).
edge(128, 165, 26).
edge(87, 75, 29).
edge(38, 7, 31).
edge(116, 1, 36).
edge(105, 164, 22).
edge(81, 9, 27).
edge(114, 139, 20).
edge(166, 130, 8).
edge(83, 48, 36).
edge(89, 90, 29).
edge(10, 125, 21).
edge(77, 123, 10).
edge(27, 102, 13).
edge(97, 21, 17).
edge(116, 103, 14).
edge(48, 5, 12).
edge(25, 145, 22).
edge(120, 40, 27).
edge(68, 121, 14).
edge(90, 20, 11).
edge(61, 7, 9).
edge(3, 37, 36).
edge(16, 162, 5).
edge(114, 33, 33).
edge(84, 15, 26).
edge(49, 61, 8).
edge(167, 159, 35).
edge(111, 28, 38).
edge(142, 28, 24).
edge(59, 118, 19).
edge(17, 134, 35).
edge(95, 40, 8).
edge(80, 154, 37).
edge(10, 2, 30).
edge(133, 6, 7).
edge(5, 94, 32).
edge(27, 171, 18).
edge(92, 77, 13).
edge(50, 123, 12).
edge(135, 87, 1).
edge(120, 4, 32).
edge(67, 76, 12).
edge(146, 49, 8).
edge(46, 72, 31).
edge(142, 12, 25).
edge(83, 158, 28).
edge(139, 6, 10).
edge(31, 115, 2).
edge(33, 131, 35).
edge(121, 18, 33).
edge(23, 59, 24).
edge(137, 28, 25).
edge(101, 16, 28).
edge(119, 159, 17).
edge(27, 143, 28).
edge(42, 68, 5).
edge(106, 3, 27).
edge(69, 132, 10).
edge(131, 96, 39).
edge(65, 169, 20).
edge(154, 50, 18).
edge(83, 35, 8).
edge(93, 104, 37).
edge(156, 51, 16).
edge(85, 2, 17).
edge(121, 133, 5).
edge(30, 173, 37).
edge(114, 176, 31).
edge(87, 83, 34).
edge(138, 5, 38).
edge(3, 154, 2).
edge(132, 80, 34).
edge(26, 69, 9).
edge(129, 16, 37).
edge(22, 8, 22).
edge(44, 176, 9).
edge(80, 146, 5).
edge(51, 156, 1).
edge(37, 40, 22).
edge(94, 43, 7).
edge(16, 102, 13).
edge(110, 28, 35).
edge(110, 58, 17).
edge(109, 147, 36).
edge(174, 129, 19).
edge(126, 168, 12).
edge(128, 143, 5).
edge(94, 81, 26).
edge(18, 98, 16).
edge(116, 17, 21).
edge(169, 16, 22).
edge(106, 118, 9).
edge(77, 109, 4).
edge(167, 63, 2).
edge(161, 62, 34).
edge(12, 37, 20).
edge(85, 86, 19).
edge(135, 31, 38).
edge(46, 154, 34).
edge(92, 110, 3).
edge(175, 87, 30).
edge(135, 129, 24).
edge(146, 9, 1).
edge(107, 141, 9).
edge(50, 160, 1).
edge(45, 21, 9).
edge(18, 128, 30).
edge(65, 37, 16).
edge(6, 59, 16).
edge(165, 137, 32).
edge(56, 142, 5).
edge(0, 44, 37).
edge(174, 32, 15).
edge(35, 141, 5).
edge(98, 2, 2).
edge(175, 157, 32).
edge(140, 92, 2).
edge(38, 175, 37).
edge(70, 145, 23).
edge(135, 78, 1).
edge(47, 117, 10).
edge(176, 13, 17).
edge(124, 133, 13).
edge(24, 149, 12).
edge(8, 174, 3).
edge(43, 175, 26).
edge(113, 27, 16).
edge(19, 135, 7).
edge(76, 20, 25).
edge(174, 65, 15).
edge(160, 115, 33).
edge(151, 61, 37).
edge(174, 89, 22).
edge(114, 66, 11).
edge(47, 50, 3).
edge(47, 10, 9).
edge(18, 105, 26).
edge(33, 158, 31).
edge(66, 33, 30).
edge(14, 84, 32).
edge(59, 155, 2).
edge(7, 83, 11).
edge(12, 47, 37).
edge(11, 137, 25).
edge(118, 113, 36).
edge(81, 168, 23).
edge(27, 99, 7).
edge(30, 103, 5).
edge(133, 104, 22).
edge(114, 132, 26).
edge(49, 28, 6).
edge(61, 131, 31).
edge(80, 71, 26).
edge(142, 85, 6).
edge(17, 76, 7).
edge(99, 131, 16).
edge(126, 72, 33).
edge(79, 6, 24).
edge(64, 140, 34).
edge(4, 149, 23).
edge(172, 105, 39).
edge(4, 156, 5).
edge(95, 107, 7).
edge(89, 123, 23).
edge(142, 96, 27).
edge(172, 155, 23).
edge(129, 141, 15).
edge(12, 41, 30).
edge(153, 160, 20).
edge(56, 110, 13).
edge(115, 38, 1).
edge(36, 66, 5).
edge(176, 36, 5).
edge(153, 21, 17).
edge(98, 155, 33).
edge(153, 139, 34).
edge(67, 173, 7).
edge(119, 149, 27).
edge(52, 69, 32).
edge(108, 87, 14).
edge(170, 134, 36).
edge(18, 85, 34).
edge(167, 133, 8).
edge(146, 125, 19).
edge(82, 110, 17).
edge(111, 79, 5).
edge(41, 54, 22).
edge(32, 134, 27).
edge(35, 29, 6).
edge(20, 63, 15).
edge(6, 158, 10).
edge(147, 5, 31).
edge(82, 106, 13).
edge(128, 18, 30).
edge(158, 152, 25).
edge(2, 114, 20).
edge(89, 111, 27).
edge(33, 109, 39).
edge(123, 174, 27).
edge(0, 61, 32).
edge(49, 171, 10).
edge(106, 132, 30).
edge(32, 10, 8).
edge(14, 166, 34).
edge(130, 140, 11).
edge(99, 97, 38).
edge(56, 50, 29).
edge(136, 113, 29).
edge(74, 156, 3).
edge(154, 91, 30).
edge(134, 135, 38).
edge(155, 107, 23).
edge(29, 109, 17).
edge(24, 61, 6).
edge(18, 114, 18).
edge(50, 17, 10).
edge(133, 132, 37).
edge(114, 30, 39).
edge(96, 18, 37).
edge(38, 28, 15).
edge(38, 46, 23).
edge(64, 161, 26).
edge(160, 167, 29).
edge(97, 65, 33).
edge(41, 120, 37).
edge(92, 128, 8).
edge(75, 55, 37).
edge(143, 77, 10).
edge(162, 42, 17).
edge(120, 18, 20).
edge(40, 44, 39).
edge(37, 35, 29).
edge(106, 130, 11).
edge(68, 80, 29).
edge(102, 123, 19).
edge(68, 142, 3).
edge(4, 93, 38).
edge(129, 101, 28).
edge(64, 79, 13).
edge(87, 52, 10).
edge(17, 102, 2).
edge(53, 136, 7).
edge(35, 66, 20).
edge(18, 14, 25).
edge(131, 106, 20).
edge(91, 77, 27).
edge(59, 55, 37).
edge(150, 12, 1).
edge(67, 48, 33).
edge(32, 66, 39).
edge(141, 149, 2).
edge(15, 152, 18).
edge(165, 106, 23).
edge(126, 165, 13).
edge(127, 130, 21).
edge(6, 2, 27).
edge(95, 63, 2).
edge(129, 72, 23).
edge(172, 78, 36).
edge(113, 162, 17).
edge(150, 144, 32).
edge(91, 176, 23).
edge(169, 76, 21).
edge(49, 164, 10).
edge(131, 172, 11).
edge(102, 45, 13).
edge(134, 35, 29).
edge(137, 126, 30).
edge(106, 133, 16).
edge(169, 62, 32).
edge(30, 112, 28).
edge(49, 80, 21).
edge(41, 158, 6).
edge(25, 121, 26).
edge(18, 17, 27).
edge(81, 138, 38).
edge(139, 30, 38).
edge(87, 26, 36).
edge(119, 100, 24).
edge(147, 81, 13).
edge(74, 77, 38).
edge(153, 133, 25).
edge(34, 67, 4).
edge(61, 89, 27).
edge(141, 175, 25).
edge(118, 128, 10).
edge(127, 17, 16).
edge(9, 134, 35).
edge(160, 176, 36).
edge(17, 167, 29).
edge(138, 121, 10).
edge(168, 151, 31).
edge(124, 166, 19).
edge(22, 113, 24).
edge(3, 41, 34).
edge(89, 168, 33).
edge(72, 73, 19).
edge(118, 162, 5).
edge(46, 104, 19).
edge(130, 60, 32).
edge(158, 66, 12).
edge(16, 105, 6).
edge(100, 63, 37).
edge(58, 10, 5).
edge(14, 117, 7).
edge(43, 61, 34).
edge(174, 131, 7).
edge(36, 108, 5).
edge(65, 162, 30).
edge(113, 156, 14).
edge(152, 30, 30).
edge(45, 120, 10).
edge(116, 152, 26).
edge(166, 100, 37).
edge(153, 75, 13).
edge(74, 111, 29).
edge(87, 159, 8).
edge(59, 94, 1).
edge(64, 110, 19).
edge(15, 143, 33).
edge(33, 78, 31).
edge(5, 48, 31).
edge(134, 6, 33).
edge(79, 107, 22).
edge(127, 55, 25).
edge(108, 128, 35).
edge(144, 163, 15).
edge(129, 105, 10).
edge(85, 37, 27).
edge(161, 73, 25).
edge(130, 23, 14).
edge(15, 141, 25).
edge(56, 71, 21).
edge(42, 152, 24).
edge(139, 91, 35).
edge(119, 163, 25).
edge(125, 43, 26).
edge(159, 148, 32).
edge(100, 90, 30).
edge(139, 174, 25).
edge(30, 161, 35).
edge(89, 74, 14).
edge(93, 5, 29).
edge(1, 31, 1).
edge(170, 132, 39).
edge(118, 48, 28).
edge(61, 152, 7).
edge(64, 73, 2).
edge(68, 78, 29).
edge(157, 16, 25).
edge(70, 130, 10).
edge(53, 115, 2).
edge(39, 7, 6).
edge(94, 110, 18).
edge(142, 27, 31).
edge(65, 59, 7).
edge(70, 137, 20).
edge(28, 157, 11).
edge(1, 50, 12).
edge(138, 12, 22).
edge(102, 25, 19).
edge(170, 9, 37).
edge(58, 13, 24).
edge(80, 131, 30).
edge(81, 33, 25).
edge(56, 42, 15).
edge(153, 67, 23).
edge(109, 145, 36).
edge(135, 99, 23).
edge(99, 87, 20).
edge(63, 151, 8).
edge(114, 148, 26).
edge(91, 139, 15).
edge(161, 140, 13).
edge(17, 51, 10).
edge(125, 35, 15).
edge(51, 150, 23).
edge(163, 155, 18).
edge(97, 75, 38).
edge(144, 80, 2).
edge(58, 5, 8).
edge(58, 155, 28).
edge(154, 8, 24).
edge(62, 175, 17).
edge(31, 124, 24).
edge(121, 134, 5).
edge(57, 103, 31).
edge(68, 59, 4).
edge(34, 82, 15).
edge(18, 120, 28).
edge(2, 61, 35).
edge(81, 64, 31).
edge(100, 20, 32).
edge(176, 110, 5).
edge(50, 145, 3).
edge(0, 158, 33).
edge(26, 11, 34).
edge(86, 3, 3).
edge(12, 54, 36).
edge(97, 141, 34).
edge(93, 10, 22).
edge(100, 167, 26).
edge(64, 59, 24).
edge(61, 54, 17).
edge(70, 134, 8).
edge(129, 124, 14).
edge(161, 31, 1).
edge(134, 130, 3).
edge(68, 125, 26).
edge(80, 137, 11).
edge(10, 21, 8).
edge(59, 73, 33).
edge(52, 20, 11).
edge(81, 100, 15).
edge(17, 44, 13).
edge(164, 103, 18).
edge(20, 29, 16).
edge(100, 69, 39).
edge(53, 151, 24).
edge(123, 168, 12).
edge(55, 58, 30).
edge(67, 130, 26).
edge(173, 4, 7).
edge(162, 56, 20).
edge(149, 107, 19).
edge(148, 21, 32).
edge(39, 117, 20).
edge(164, 83, 1).
edge(112, 120, 22).
edge(50, 44, 10).
edge(13, 29, 29).
edge(63, 122, 29).
edge(15, 10, 11).
edge(68, 12, 9).
edge(15, 28, 21).
edge(36, 5, 23).
edge(157, 118, 15).
edge(96, 107, 31).
edge(50, 129, 7).
edge(145, 56, 14).
edge(133, 165, 34).
edge(35, 85, 38).
edge(42, 92, 23).
edge(169, 79, 9).
edge(103, 52, 2).
edge(75, 8, 39).
edge(142, 166, 36).
edge(174, 49, 9).
edge(99, 52, 1).
edge(19, 29, 23).
edge(81, 103, 35).
edge(104, 175, 13).
edge(83, 155, 27).
edge(159, 125, 23).
edge(11, 16, 7).
edge(22, 133, 24).
edge(74, 70, 9).
edge(168, 94, 22).
edge(107, 0, 21).
edge(173, 118, 8).
edge(115, 95, 17).
edge(51, 18, 1).
edge(126, 140, 11).
edge(25, 110, 25).
edge(92, 99, 39).
edge(131, 157, 24).
edge(9, 16, 31).
edge(22, 54, 22).
edge(132, 93, 18).
edge(22, 42, 14).
edge(25, 26, 1).
edge(54, 127, 9).
edge(109, 30, 19).
edge(157, 140, 3).
edge(145, 158, 16).
edge(104, 57, 30).
edge(57, 80, 35).
edge(43, 128, 12).
edge(130, 119, 23).
edge(104, 62, 12).
edge(35, 133, 32).
edge(52, 60, 11).
edge(66, 16, 30).
edge(9, 93, 5).
edge(53, 165, 26).
edge(171, 45, 36).
edge(18, 96, 32).
edge(80, 174, 1).
edge(77, 90, 36).
edge(62, 45, 30).
edge(40, 59, 6).
edge(62, 110, 9).
edge(41, 43, 32).
edge(165, 161, 11).
edge(60, 113, 27).
edge(22, 155, 1).
edge(41, 25, 32).
edge(36, 158, 35).
edge(158, 79, 15).
edge(32, 176, 24).
edge(66, 17, 2).
edge(103, 157, 1).
edge(73, 66, 9).
edge(83, 154, 6).
edge(149, 130, 12).
edge(21, 97, 3).
edge(70, 76, 29).
edge(135, 146, 17).
edge(99, 138, 25).
edge(31, 10, 23).
edge(56, 9, 38).
edge(116, 8, 21).
edge(119, 54, 7).
edge(75, 163, 12).
edge(160, 51, 34).
edge(144, 106, 33).
edge(72, 154, 4).
edge(16, 101, 35).
edge(2, 35, 32).
edge(93, 91, 5).
edge(129, 61, 25).
edge(93, 27, 15).
edge(116, 153, 26).
edge(117, 0, 22).
edge(118, 119, 11).
edge(133, 161, 14).
edge(82, 108, 21).
edge(0, 52, 37).
edge(123, 63, 28).
edge(119, 86, 21).
edge(128, 147, 29).
edge(128, 21, 6).
edge(149, 165, 16).
edge(141, 34, 28).
edge(118, 55, 9).
edge(15, 21, 19).
edge(156, 138, 16).
edge(103, 82, 5).
edge(58, 80, 31).
edge(22, 0, 7).
edge(4, 95, 32).
edge(25, 140, 8).
edge(53, 102, 36).
edge(174, 12, 26).
edge(56, 176, 27).
edge(81, 45, 34).
edge(62, 72, 8).
edge(22, 31, 7).
edge(46, 138, 34).
edge(75, 69, 7).
edge(120, 150, 17).
edge(169, 68, 25).
edge(54, 65, 8).
edge(4, 135, 25).
edge(26, 154, 4).
edge(130, 165, 29).
edge(25, 151, 18).
edge(132, 159, 22).
edge(19, 93, 19).
edge(79, 48, 34).
edge(58, 119, 28).
edge(50, 54, 1).
edge(100, 30, 14).
edge(160, 174, 23).
edge(136, 166, 34).
edge(134, 109, 5).
edge(55, 123, 18).
edge(101, 138, 29).
edge(53, 125, 39).
edge(81, 42, 1).
edge(134, 36, 38).
edge(53, 98, 33).
edge(71, 105, 25).
edge(32, 13, 18).
edge(1, 112, 19).
edge(69, 158, 1).
edge(31, 38, 31).
edge(98, 45, 19).
edge(155, 49, 14).
edge(102, 151, 22).
edge(64, 132, 31).
edge(52, 24, 18).
edge(121, 166, 18).
edge(128, 10, 27).
edge(27, 65, 22).
edge(121, 10, 31).
edge(139, 157, 6).
edge(147, 175, 17).
edge(69, 45, 2).
edge(139, 167, 15).
edge(142, 164, 12).
edge(113, 83, 11).
edge(148, 69, 7).
edge(71, 9, 38).
edge(106, 160, 2).
edge(146, 108, 33).
edge(154, 18, 19).
edge(101, 111, 13).
edge(9, 28, 15).
edge(129, 76, 13).
edge(35, 38, 27).
edge(128, 151, 19).
edge(110, 75, 8).
edge(146, 42, 33).
edge(95, 163, 38).
edge(94, 97, 39).
edge(36, 139, 35).
edge(44, 82, 37).
edge(29, 152, 26).
edge(135, 54, 22).
edge(173, 76, 9).
edge(131, 164, 12).
edge(80, 119, 9).
edge(25, 61, 3).
edge(158, 12, 6).
edge(48, 143, 30).
edge(146, 107, 26).
edge(55, 112, 10).
edge(10, 11, 31).
edge(157, 71, 22).
edge(143, 44, 17).
edge(174, 170, 8).
edge(150, 6, 32).
edge(75, 142, 24).
edge(13, 21, 12).
edge(153, 36, 19).
edge(66, 171, 28).
edge(72, 29, 34).
edge(48, 100, 25).
edge(103, 136, 5).
edge(64, 75, 25).
edge(41, 105, 26).
edge(28, 173, 15).
edge(169, 126, 13).
edge(23, 74, 6).
edge(89, 38, 20).
edge(21, 175, 18).
edge(168, 43, 23).
edge(82, 143, 33).
edge(129, 59, 39).
edge(153, 52, 36).
edge(62, 87, 12).
edge(51, 30, 28).
edge(5, 105, 5).
edge(76, 136, 24).
edge(120, 132, 4).
edge(148, 67, 32).
edge(13, 27, 27).
edge(20, 7, 25).
edge(158, 37, 20).
edge(65, 22, 29).
edge(168, 81, 28).
edge(175, 125, 26).
edge(35, 64, 28).
edge(175, 128, 10).
edge(77, 171, 24).
edge(69, 166, 8).
edge(48, 123, 4).
edge(28, 125, 22).
edge(108, 61, 28).
edge(45, 3, 6).
edge(86, 83, 32).
edge(8, 49, 37).
edge(134, 4, 39).
edge(19, 50, 23).
edge(120, 103, 14).
edge(5, 51, 9).
edge(139, 163, 38).
edge(169, 143, 12).
edge(114, 161, 29).
edge(67, 8, 7).
edge(130, 108, 37).
edge(46, 111, 17).
edge(119, 10, 36).
edge(9, 120, 20).
edge(128, 9, 13).
edge(117, 25, 31).
edge(114, 72, 34).
edge(29, 25, 20).
edge(94, 159, 25).
edge(61, 155, 11).
edge(76, 90, 31).
edge(73, 143, 39).
edge(59, 9, 36).
edge(89, 98, 24).
edge(7, 95, 34).
edge(108, 62, 35).
edge(121, 131, 12).
edge(22, 56, 36).
edge(137, 82, 30).
edge(170, 168, 25).
edge(37, 139, 35).
edge(120, 63, 27).
edge(109, 5, 3).
edge(152, 167, 23).
edge(24, 37, 38).
edge(136, 53, 1).
edge(46, 171, 25).
edge(43, 137, 21).
edge(145, 108, 34).
edge(168, 111, 30).
edge(0, 22, 13).
edge(96, 171, 24).
edge(13, 175, 21).
edge(83, 107, 7).
edge(27, 30, 17).
edge(129, 140, 38).
edge(146, 111, 29).
edge(58, 8, 9).
edge(171, 109, 11).
edge(84, 69, 9).
edge(47, 77, 21).
edge(172, 86, 37).
edge(17, 86, 21).
edge(97, 44, 22).
edge(110, 146, 23).
edge(39, 156, 25).
edge(24, 127, 14).
edge(131, 117, 24).
edge(19, 67, 6).
edge(67, 1, 11).
edge(85, 90, 26).
edge(110, 111, 9).
edge(176, 97, 8).
edge(70, 57, 6).
edge(151, 13, 22).
edge(105, 69, 29).
edge(105, 80, 28).
edge(57, 141, 18).
edge(6, 118, 15).
edge(61, 84, 35).
edge(161, 9, 13).
edge(139, 41, 16).
edge(14, 167, 17).
edge(25, 50, 31).
edge(13, 55, 28).
edge(90, 8, 23).
edge(114, 20, 1).
edge(9, 39, 33).
edge(27, 132, 34).
edge(110, 5, 2).
edge(5, 20, 10).
edge(167, 114, 35).
edge(173, 176, 30).
edge(51, 27, 2).
edge(82, 69, 23).
edge(0, 67, 6).
edge(126, 174, 17).
edge(109, 20, 9).
edge(154, 169, 14).
edge(25, 95, 5).
edge(126, 56, 25).
edge(8, 165, 6).
edge(85, 118, 35).
edge(58, 107, 10).
edge(55, 28, 19).
edge(70, 121, 20).
edge(103, 31, 31).
edge(86, 70, 30).
edge(38, 78, 13).
edge(14, 147, 6).
edge(119, 76, 30).
edge(65, 13, 7).
edge(84, 85, 31).
edge(124, 168, 18).
edge(146, 61, 3).
edge(145, 70, 37).
edge(60, 157, 33).
edge(5, 163, 32).
edge(111, 77, 36).
edge(1, 5, 31).
edge(36, 92, 4).
edge(112, 19, 8).
edge(19, 56, 22).
edge(123, 88, 21).
edge(76, 56, 2).
edge(28, 127, 26).
edge(55, 132, 37).
edge(125, 161, 11).
edge(1, 159, 21).
edge(22, 75, 22).
edge(173, 62, 2).
edge(64, 60, 32).
edge(58, 18, 11).
edge(0, 97, 25).
edge(93, 73, 11).
edge(33, 108, 27).
edge(167, 79, 9).
edge(101, 110, 37).
edge(2, 100, 25).
edge(169, 165, 12).
edge(80, 30, 12).
edge(163, 22, 6).
edge(30, 83, 37).
edge(74, 37, 36).
edge(157, 128, 10).
edge(95, 20, 23).
edge(33, 120, 3).
edge(154, 102, 11).
edge(24, 172, 39).
edge(84, 40, 11).
edge(135, 108, 37).
edge(31, 37, 14).
edge(169, 30, 17).
edge(10, 103, 5).
edge(95, 126, 22).
edge(39, 74, 5).
edge(54, 109, 37).
edge(148, 118, 5).
edge(122, 90, 6).
edge(162, 76, 34).
edge(51, 112, 1).
edge(116, 78, 38).
edge(42, 16, 1).
edge(50, 84, 39).
edge(111, 38, 16).
edge(5, 93, 15).
edge(47, 84, 24).
edge(5, 164, 21).
edge(163, 26, 24).
edge(15, 173, 38).
edge(82, 51, 9).
edge(74, 47, 4).
edge(158, 136, 14).
edge(96, 133, 35).
edge(148, 160, 26).
edge(136, 137, 39).
edge(29, 95, 12).
edge(127, 165, 31).
edge(32, 49, 18).
edge(173, 70, 5).
edge(160, 29, 17).
edge(147, 84, 27).
edge(91, 73, 26).
edge(137, 103, 38).
edge(74, 14, 18).
edge(8, 91, 37).
edge(101, 141, 38).
edge(103, 75, 10).
edge(171, 135, 18).
edge(133, 10, 4).
edge(38, 101, 30).
edge(173, 21, 16).
edge(63, 130, 6).
edge(79, 31, 29).
edge(103, 0, 32).
edge(25, 117, 20).
edge(163, 170, 33).
edge(147, 61, 36).
edge(108, 168, 23).
edge(106, 85, 8).
edge(166, 18, 21).
edge(19, 91, 19).
edge(34, 5, 29).
edge(10, 156, 10).
edge(89, 145, 7).
edge(34, 92, 6).
edge(21, 66, 37).
edge(142, 88, 18).
edge(176, 86, 32).
edge(73, 43, 39).
edge(87, 105, 34).
edge(38, 99, 5).
edge(12, 78, 39).
edge(110, 48, 27).
edge(77, 169, 1).
edge(25, 170, 21).
edge(100, 57, 14).
edge(84, 89, 17).
edge(27, 127, 18).
edge(164, 7, 9).
edge(136, 123, 9).
edge(49, 173, 39).
edge(138, 101, 2).
edge(77, 118, 29).
edge(168, 139, 21).
edge(64, 159, 16).
edge(126, 10, 11).
edge(124, 34, 26).
edge(162, 131, 14).
edge(7, 146, 12).
edge(13, 74, 18).
edge(125, 12, 39).
edge(94, 119, 26).
edge(143, 142, 21).
edge(10, 67, 25).
edge(43, 41, 5).
edge(173, 121, 8).
edge(157, 136, 8).
edge(18, 51, 9).
edge(164, 64, 19).
edge(63, 5, 4).
edge(101, 42, 34).
edge(112, 61, 17).
edge(93, 65, 37).
edge(165, 124, 5).
edge(81, 5, 9).
edge(71, 112, 9).
edge(150, 60, 24).
edge(136, 126, 11).
edge(15, 156, 29).
edge(23, 34, 39).
edge(49, 23, 32).
edge(126, 79, 23).
edge(101, 52, 24).
edge(61, 45, 21).
edge(122, 173, 39).
edge(99, 127, 23).
edge(110, 116, 28).
edge(102, 37, 36).
edge(31, 85, 2).
edge(88, 136, 5).
edge(153, 42, 36).
edge(6, 82, 39).
edge(168, 82, 27).
edge(87, 106, 37).
edge(168, 89, 11).
edge(32, 119, 8).
edge(57, 157, 28).
edge(56, 53, 20).
edge(26, 169, 39).
edge(112, 88, 2).
edge(158, 24, 35).
edge(119, 115, 1).
edge(132, 176, 25).
edge(38, 20, 37).
edge(92, 4, 17).
edge(107, 143, 8).
edge(152, 155, 7).
edge(78, 119, 2).
edge(52, 141, 24).
edge(68, 7, 28).
edge(123, 66, 19).
edge(65, 30, 3).
edge(82, 80, 24).
edge(104, 44, 20).
edge(84, 27, 20).
edge(172, 45, 28).
edge(126, 42, 25).
edge(95, 42, 25).
edge(72, 117, 37).
edge(134, 86, 26).
edge(147, 111, 25).
edge(157, 162, 36).
edge(10, 37, 11).
edge(173, 82, 24).
edge(106, 153, 10).
edge(63, 115, 12).
edge(165, 86, 10).
edge(51, 162, 24).
edge(67, 136, 14).
edge(174, 68, 39).
edge(82, 5, 18).
edge(148, 129, 31).
edge(9, 125, 5).
edge(149, 15, 17).
edge(40, 110, 10).
edge(98, 128, 39).
edge(80, 67, 7).
edge(20, 33, 13).
edge(118, 29, 38).
edge(139, 32, 11).
edge(68, 137, 37).
edge(40, 37, 39).
edge(34, 45, 17).
edge(14, 41, 3).
edge(11, 135, 11).
edge(174, 146, 9).
edge(81, 12, 36).
edge(112, 31, 7).
edge(121, 172, 35).
edge(152, 69, 18).
edge(98, 78, 7).
edge(44, 158, 13).
edge(87, 45, 38).
edge(13, 1, 29).
edge(111, 37, 17).
edge(39, 44, 11).
edge(9, 171, 16).
edge(11, 88, 4).
edge(99, 103, 35).
edge(102, 124, 9).
edge(21, 149, 17).
edge(69, 97, 10).
edge(171, 77, 14).
edge(76, 151, 24).
edge(138, 73, 3).
edge(109, 57, 34).
edge(101, 68, 20).
edge(106, 23, 7).
edge(1, 67, 8).
edge(73, 51, 11).
edge(7, 109, 23).
edge(160, 127, 1).
edge(109, 138, 11).
edge(16, 2, 15).
edge(176, 126, 18).
edge(159, 124, 13).
edge(157, 1, 19).
edge(131, 64, 27).
edge(168, 83, 3).
edge(113, 175, 28).
edge(64, 57, 3).
edge(40, 154, 25).
edge(140, 119, 32).
edge(133, 27, 18).
edge(55, 85, 28).
edge(94, 135, 25).
edge(124, 161, 25).
edge(22, 7, 23).
edge(22, 72, 23).
edge(72, 110, 23).
edge(128, 145, 24).
edge(154, 149, 20).
edge(94, 39, 26).
edge(133, 158, 5).
edge(102, 53, 33).
edge(94, 5, 22).
edge(50, 33, 27).
edge(106, 65, 24).
edge(104, 121, 21).
edge(112, 125, 38).
edge(26, 36, 38).
edge(161, 69, 10).
edge(155, 31, 38).
edge(11, 2, 14).
edge(115, 58, 20).
edge(24, 67, 2).
edge(19, 88, 10).
edge(175, 170, 10).
edge(167, 55, 11).
edge(62, 9, 1).
edge(70, 45, 6).
edge(138, 164, 15).
edge(151, 30, 34).
edge(110, 79, 8).
edge(132, 133, 34).
edge(125, 74, 30).
edge(119, 132, 28).
edge(20, 89, 1).
edge(36, 68, 29).
edge(55, 98, 16).
edge(133, 84, 17).
edge(144, 139, 24).
edge(148, 7, 23).
edge(55, 79, 4).
edge(95, 94, 13).
edge(5, 119, 28).
edge(112, 116, 33).
edge(134, 172, 22).
edge(114, 74, 22).
edge(100, 78, 22).
edge(168, 24, 5).
edge(47, 51, 4).
edge(174, 35, 20).
edge(135, 167, 26).
edge(27, 75, 33).
edge(50, 80, 5).
edge(51, 157, 25).
edge(27, 139, 21).
edge(154, 30, 34).
edge(73, 12, 18).
edge(135, 138, 14).
edge(13, 57, 1).
edge(62, 52, 6).
edge(43, 107, 32).
edge(37, 48, 9).
edge(82, 171, 32).
edge(159, 11, 19).
edge(8, 93, 29).
edge(17, 27, 9).
edge(107, 136, 5).
edge(107, 124, 18).
edge(25, 23, 31).
edge(80, 122, 27).
edge(56, 90, 35).
edge(78, 123, 9).
edge(12, 49, 12).
edge(114, 49, 25).
edge(77, 0, 8).
edge(124, 27, 31).
edge(33, 59, 28).
edge(156, 25, 31).
edge(169, 129, 3).
edge(94, 36, 26).
edge(172, 74, 15).
edge(63, 85, 3).
edge(129, 86, 24).
edge(79, 152, 18).
edge(49, 101, 11).
edge(118, 125, 9).
edge(116, 6, 10).
edge(92, 59, 30).
edge(175, 92, 15).
edge(43, 157, 16).
edge(25, 106, 14).
edge(105, 144, 3).
edge(20, 83, 36).
edge(81, 156, 8).
edge(40, 47, 21).
edge(10, 159, 17).
edge(146, 106, 19).
edge(143, 65, 33).
edge(90, 85, 32).
edge(166, 162, 3).
edge(150, 72, 39).
edge(67, 112, 23).
edge(121, 150, 36).
edge(29, 15, 11).
edge(60, 5, 22).
edge(172, 44, 8).
edge(41, 42, 16).
edge(98, 136, 10).
edge(15, 60, 5).
edge(44, 144, 30).
edge(138, 62, 31).
edge(10, 136, 26).
edge(7, 152, 33).
edge(3, 136, 28).
edge(4, 159, 26).
edge(79, 141, 16).
edge(106, 158, 17).
edge(75, 136, 15).
edge(49, 110, 20).
edge(127, 70, 28).
edge(120, 121, 10).
edge(12, 2, 5).
edge(145, 157, 17).
edge(35, 125, 8).
edge(66, 38, 6).
edge(120, 47, 24).
edge(175, 98, 1).
edge(5, 132, 33).
edge(121, 0, 26).
edge(73, 107, 1).
edge(105, 84, 11).
edge(159, 165, 19).
edge(142, 91, 19).
edge(19, 146, 21).
edge(170, 138, 26).
edge(105, 159, 16).
edge(86, 61, 7).
edge(123, 43, 1).
edge(138, 85, 6).
edge(127, 57, 20).
edge(47, 82, 15).
edge(110, 66, 24).
edge(88, 153, 9).
edge(170, 103, 29).
edge(121, 153, 33).
edge(20, 87, 12).
edge(71, 45, 38).
edge(169, 41, 23).
edge(68, 100, 29).
edge(14, 17, 20).
edge(137, 47, 8).
edge(163, 79, 29).
edge(3, 77, 5).
edge(75, 12, 10).
edge(123, 29, 12).
edge(121, 13, 22).
edge(78, 28, 28).
edge(90, 13, 13).
edge(149, 127, 9).
edge(158, 56, 36).
edge(102, 15, 3).
edge(106, 24, 35).
edge(6, 22, 30).
edge(14, 25, 6).
edge(71, 80, 14).
edge(41, 99, 4).
edge(155, 28, 18).
edge(164, 47, 18).
edge(104, 24, 17).
edge(26, 54, 1).
edge(97, 73, 31).
edge(158, 6, 11).
edge(2, 145, 13).
edge(145, 72, 26).
edge(162, 35, 29).
edge(159, 155, 9).
edge(129, 56, 32).
edge(134, 67, 12).
edge(30, 96, 21).
edge(7, 55, 29).
edge(62, 122, 18).
edge(140, 89, 33).
edge(37, 66, 7).
edge(10, 152, 15).
edge(147, 138, 10).
edge(145, 28, 29).
edge(91, 61, 34).
edge(154, 10, 30).
edge(14, 63, 9).
edge(157, 24, 36).
edge(130, 158, 7).
edge(68, 139, 22).
edge(63, 25, 28).
edge(49, 25, 29).
edge(15, 130, 3).
edge(52, 117, 7).
edge(165, 42, 28).
edge(7, 91, 20).
edge(38, 4, 17).
edge(118, 147, 27).
edge(55, 118, 12).
edge(161, 172, 22).
edge(79, 34, 23).
edge(170, 163, 27).
edge(160, 161, 20).
edge(47, 20, 37).
edge(98, 122, 9).
edge(18, 72, 2).
edge(96, 129, 1).
edge(83, 4, 1).
edge(167, 24, 5).
edge(124, 137, 15).
edge(114, 6, 24).
edge(82, 12, 24).
edge(61, 36, 34).
edge(56, 136, 13).
edge(47, 142, 11).
edge(77, 112, 10).
edge(131, 152, 33).
edge(119, 147, 18).
edge(149, 38, 12).
edge(28, 117, 1).
edge(169, 159, 17).
edge(83, 120, 2).
edge(175, 47, 1).
edge(126, 84, 16).
edge(172, 79, 9).
edge(27, 72, 18).
edge(12, 130, 35).
edge(55, 16, 17).
edge(48, 81, 1).
edge(74, 89, 5).
edge(145, 142, 9).
edge(83, 8, 26).
edge(133, 150, 32).
edge(100, 94, 16).
edge(68, 169, 3).
edge(146, 37, 24).
edge(50, 167, 3).
edge(45, 60, 38).
edge(14, 64, 27).
edge(77, 14, 37).
edge(68, 120, 20).
edge(64, 50, 35).
edge(51, 26, 19).
edge(25, 20, 23).
edge(144, 10, 9).
edge(25, 130, 34).
edge(23, 64, 32).
edge(132, 90, 26).
edge(82, 38, 35).
edge(23, 126, 39).
edge(60, 161, 30).
edge(2, 3, 26).
edge(162, 48, 37).
edge(123, 5, 14).
edge(82, 67, 19).
edge(97, 174, 30).
edge(30, 170, 3).
edge(144, 54, 39).
edge(11, 36, 18).
edge(100, 109, 35).
edge(152, 135, 20).
edge(138, 10, 22).
edge(6, 10, 33).
edge(89, 167, 20).
edge(173, 139, 29).
edge(161, 90, 23).
edge(29, 110, 3).
edge(58, 152, 1).
edge(4, 10, 1).
edge(101, 128, 31).
edge(19, 125, 5).
edge(176, 120, 30).
edge(146, 17, 21).
edge(103, 81, 34).
edge(110, 44, 26).
edge(129, 24, 9).
edge(36, 2, 17).
edge(39, 21, 36).
edge(54, 151, 15).
edge(74, 104, 30).
edge(175, 73, 37).
edge(130, 92, 13).
edge(67, 131, 4).
edge(20, 112, 29).
edge(4, 119, 6).
edge(37, 26, 23).
edge(31, 172, 23).
edge(104, 126, 16).
edge(9, 38, 29).
edge(172, 90, 13).
edge(50, 159, 2).
edge(28, 89, 18).
edge(145, 143, 26).
edge(129, 12, 3).
edge(29, 91, 23).
edge(102, 143, 24).
edge(88, 75, 20).
edge(173, 100, 14).
edge(130, 32, 8).
edge(158, 19, 16).
edge(30, 122, 19).
edge(122, 26, 24).
edge(152, 28, 7).
edge(94, 33, 22).
edge(124, 115, 3).
edge(60, 126, 16).
edge(72, 3, 12).
edge(66, 151, 2).
edge(23, 46, 17).
edge(74, 80, 11).
edge(130, 143, 8).
edge(165, 50, 27).
edge(69, 20, 17).
edge(22, 14, 2).
edge(88, 50, 28).
edge(44, 154, 2).
edge(146, 116, 37).
edge(1, 2, 1).
edge(69, 48, 31).
edge(44, 14, 20).
edge(136, 22, 7).
edge(100, 68, 29).
edge(78, 18, 22).
edge(16, 15, 30).
edge(95, 141, 24).
edge(4, 78, 23).
edge(172, 159, 38).
edge(74, 83, 39).
edge(116, 158, 34).
edge(80, 8, 23).
edge(23, 159, 10).
edge(64, 157, 11).
edge(95, 169, 28).
edge(139, 106, 6).
edge(129, 137, 30).
edge(3, 164, 14).
edge(169, 57, 10).
edge(87, 46, 35).
edge(63, 137, 17).
edge(89, 31, 22).
edge(173, 107, 39).
edge(136, 45, 5).
edge(111, 43, 23).
edge(50, 78, 27).
edge(90, 127, 14).
edge(112, 103, 33).
edge(5, 25, 24).
edge(55, 11, 39).
edge(90, 128, 31).
edge(26, 19, 3).
edge(120, 101, 22).
edge(176, 83, 5).
edge(130, 142, 35).
edge(10, 75, 1).
edge(39, 12, 39).
edge(30, 68, 13).
edge(144, 30, 4).
edge(69, 32, 28).
edge(137, 39, 29).
edge(160, 8, 27).
edge(122, 176, 35).
edge(63, 59, 13).
edge(62, 3, 38).
edge(33, 51, 19).
edge(173, 105, 5).
edge(166, 103, 30).
edge(73, 148, 34).
edge(65, 60, 14).
edge(75, 174, 30).
edge(88, 60, 8).
edge(61, 111, 5).
edge(110, 167, 24).
edge(94, 169, 2).
edge(127, 136, 1).
edge(132, 127, 5).
edge(80, 140, 7).
edge(152, 145, 32).
edge(148, 24, 8).
edge(131, 84, 1).
edge(122, 147, 3).
edge(99, 0, 12).
edge(44, 150, 16).
edge(9, 19, 8).
edge(111, 159, 8).
edge(86, 62, 20).
edge(174, 34, 12).
edge(93, 21, 39).
edge(57, 51, 24).
edge(83, 79, 22).
edge(93, 153, 38).
edge(138, 102, 26).
edge(166, 73, 30).
edge(52, 3, 27).
edge(106, 124, 17).
edge(124, 56, 35).
edge(66, 6, 19).
edge(116, 159, 2).
edge(40, 109, 15).
edge(110, 156, 13).
edge(141, 145, 2).
edge(125, 126, 30).
edge(97, 154, 37).
edge(128, 162, 2).
edge(110, 87, 39).
edge(164, 110, 27).
edge(82, 89, 37).
edge(48, 44, 18).
edge(61, 114, 34).
edge(59, 93, 21).
edge(13, 98, 16).
edge(0, 19, 16).
edge(46, 110, 35).
edge(0, 72, 37).
edge(101, 90, 35).
edge(27, 92, 6).
edge(8, 59, 24).
edge(34, 127, 3).
edge(157, 39, 34).
edge(31, 23, 13).
edge(122, 73, 27).
edge(126, 104, 39).
edge(21, 93, 35).
edge(4, 99, 27).
edge(134, 79, 4).
edge(107, 114, 23).
edge(62, 53, 9).
edge(172, 152, 11).
edge(15, 61, 24).
edge(72, 31, 28).
edge(133, 44, 10).
edge(30, 52, 34).
edge(116, 55, 39).
edge(130, 42, 5).
edge(85, 162, 26).
edge(63, 27, 37).
edge(148, 92, 8).
edge(121, 7, 30).
edge(24, 159, 28).
edge(62, 14, 5).
edge(40, 50, 35).
edge(115, 148, 39).
edge(31, 36, 27).
edge(8, 168, 26).
edge(33, 2, 23).
edge(54, 9, 9).
edge(21, 36, 39).
edge(5, 30, 37).
edge(43, 58, 38).
edge(46, 105, 32).
edge(127, 115, 4).
edge(101, 158, 14).
edge(56, 172, 15).
edge(39, 18, 7).
edge(12, 16, 30).
edge(149, 152, 25).
edge(130, 72, 15).
edge(104, 6, 24).
edge(49, 132, 37).
edge(117, 127, 15).
edge(158, 129, 20).
edge(84, 164, 23).
edge(85, 133, 1).
edge(57, 166, 37).
edge(115, 14, 37).
edge(125, 75, 19).
edge(82, 124, 7).
edge(35, 22, 39).
edge(40, 95, 4).
edge(160, 147, 7).
edge(25, 7, 26).
edge(67, 75, 6).
edge(18, 167, 32).
edge(175, 80, 18).
edge(59, 52, 6).
edge(172, 55, 14).
edge(42, 38, 12).
edge(44, 66, 7).
edge(83, 30, 31).
edge(100, 49, 26).
edge(153, 74, 23).
edge(117, 31, 15).
edge(58, 90, 36).
edge(117, 115, 28).
edge(126, 155, 2).
edge(37, 81, 7).
edge(16, 130, 21).
edge(163, 131, 25).
edge(87, 96, 18).
edge(24, 142, 15).
edge(85, 35, 16).
edge(136, 157, 30).
edge(19, 162, 8).
edge(117, 124, 1).
edge(169, 91, 35).
edge(89, 153, 34).
edge(30, 125, 20).
edge(9, 167, 21).
edge(22, 94, 37).
edge(126, 82, 4).
edge(149, 7, 20).
edge(67, 144, 34).
edge(61, 95, 36).
edge(48, 16, 28).
edge(170, 73, 38).
edge(9, 6, 36).
edge(35, 72, 30).
edge(35, 121, 20).
edge(109, 176, 22).
edge(48, 28, 18).
edge(57, 125, 22).
edge(100, 148, 12).
edge(69, 34, 12).
edge(90, 158, 36).
edge(84, 128, 4).
edge(144, 164, 39).
edge(67, 85, 24).
edge(121, 170, 33).
edge(29, 0, 17).
edge(21, 55, 20).
edge(71, 111, 31).
edge(52, 97, 18).
edge(27, 26, 23).
edge(77, 132, 13).
edge(148, 121, 3).
edge(162, 13, 13).
edge(115, 79, 33).
edge(1, 102, 1).
edge(84, 93, 11).
edge(44, 162, 37).
edge(39, 32, 17).
edge(109, 4, 7).
edge(170, 140, 5).
edge(174, 18, 37).
edge(46, 31, 33).
edge(9, 29, 26).
edge(140, 167, 39).
edge(24, 150, 35).
edge(105, 130, 26).
edge(11, 0, 19).
edge(97, 59, 7).
edge(24, 162, 2).
edge(136, 21, 38).
edge(104, 77, 38).
edge(174, 56, 13).
edge(40, 99, 6).
edge(117, 17, 7).
edge(34, 16, 37).
edge(139, 60, 33).
edge(52, 121, 20).
edge(11, 37, 38).
edge(147, 58, 5).
edge(111, 72, 19).
edge(81, 106, 32).
edge(89, 122, 6).
edge(175, 160, 11).
edge(84, 48, 26).
edge(130, 25, 27).
edge(174, 163, 21).
edge(78, 89, 19).
edge(127, 54, 7).
edge(48, 53, 22).
edge(38, 50, 13).
edge(1, 113, 37).
edge(29, 164, 9).
edge(120, 91, 22).
edge(156, 42, 26).
edge(158, 62, 22).
edge(141, 83, 35).
edge(19, 95, 35).
edge(22, 164, 3).
edge(164, 160, 36).
edge(101, 44, 8).
edge(148, 153, 8).
edge(32, 68, 4).
edge(125, 9, 22).
edge(11, 116, 13).
edge(83, 141, 9).
edge(32, 39, 3).
edge(92, 12, 10).
edge(22, 10, 32).
edge(101, 134, 23).
edge(109, 67, 22).
edge(79, 25, 15).
edge(166, 50, 3).
edge(141, 63, 16).
edge(171, 113, 2).
edge(87, 42, 25).
edge(95, 18, 10).
edge(100, 8, 2).
edge(3, 64, 29).
edge(171, 96, 28).
edge(23, 58, 9).
edge(9, 75, 35).
edge(51, 6, 3).
edge(109, 79, 19).
edge(156, 150, 2).
edge(38, 90, 22).
edge(86, 4, 1).
edge(60, 106, 7).
edge(105, 165, 23).
edge(120, 149, 34).
edge(91, 141, 17).
edge(65, 14, 15).
edge(10, 139, 22).
edge(156, 143, 38).
edge(27, 25, 14).
edge(97, 40, 2).
edge(5, 31, 34).
edge(89, 52, 13).
edge(13, 14, 4).
edge(8, 110, 15).
edge(176, 69, 39).
edge(33, 19, 25).
edge(21, 103, 35).
edge(76, 3, 26).
edge(75, 84, 9).
edge(52, 19, 34).
edge(19, 0, 35).
edge(68, 124, 21).
edge(127, 155, 34).
edge(75, 117, 3).
edge(144, 22, 8).
edge(148, 94, 32).
edge(135, 6, 24).
edge(49, 142, 31).
edge(71, 56, 15).
edge(26, 87, 5).
edge(5, 55, 18).
edge(69, 98, 25).
edge(32, 33, 9).
edge(132, 61, 9).
edge(118, 6, 19).
edge(46, 79, 38).
edge(59, 39, 14).
edge(26, 3, 25).
edge(162, 101, 10).
edge(19, 72, 16).
edge(90, 114, 4).
edge(71, 88, 39).
edge(66, 86, 20).
edge(133, 116, 26).
edge(7, 161, 35).
edge(73, 163, 9).
edge(28, 20, 6).
edge(161, 98, 13).
edge(54, 148, 15).
edge(29, 33, 13).
edge(169, 127, 7).
edge(81, 159, 5).
edge(146, 50, 8).
edge(101, 151, 5).
edge(40, 113, 2).
edge(13, 72, 37).
edge(114, 13, 1).
edge(2, 73, 10).
edge(47, 160, 8).
edge(67, 6, 33).
edge(150, 112, 10).
edge(99, 35, 18).
edge(10, 113, 37).
edge(1, 104, 35).
edge(102, 117, 29).
edge(146, 75, 6).
edge(68, 42, 13).
edge(136, 114, 35).
edge(92, 26, 36).
edge(33, 26, 7).
edge(168, 150, 8).
edge(38, 104, 27).
edge(44, 113, 34).
edge(158, 157, 37).
edge(88, 106, 25).
edge(111, 59, 25).
edge(148, 110, 6).
edge(58, 72, 17).
edge(164, 157, 15).
edge(147, 149, 32).
edge(72, 42, 27).
edge(80, 37, 6).
edge(118, 21, 16).
edge(31, 81, 19).
edge(55, 113, 30).
edge(123, 152, 16).
edge(163, 39, 4).
edge(64, 109, 7).
edge(57, 87, 3).
edge(41, 0, 15).
edge(112, 23, 9).
edge(42, 30, 22).
edge(162, 45, 19).
edge(104, 86, 9).
edge(3, 110, 2).
edge(158, 0, 2).
edge(82, 140, 31).
edge(103, 48, 36).
edge(163, 112, 4).
edge(125, 79, 32).
edge(89, 117, 37).
edge(125, 72, 35).
edge(141, 154, 31).
edge(73, 24, 11).
edge(94, 115, 24).
edge(49, 34, 31).
edge(155, 26, 3).
edge(117, 49, 26).
edge(125, 54, 34).
edge(24, 43, 9).
edge(113, 72, 2).
edge(154, 54, 23).
edge(108, 171, 25).
edge(3, 145, 15).
edge(162, 26, 35).
edge(17, 49, 11).
edge(68, 117, 31).
edge(155, 80, 25).
edge(20, 99, 33).
edge(118, 76, 16).
edge(60, 118, 19).
edge(41, 69, 35).
edge(89, 9, 19).
edge(154, 96, 35).
edge(83, 135, 27).
edge(166, 11, 32).
edge(142, 0, 2).
edge(89, 83, 22).
edge(132, 52, 29).
edge(4, 50, 5).
edge(151, 97, 15).
edge(163, 99, 1).
edge(23, 70, 27).
edge(119, 60, 15).
edge(104, 108, 24).
edge(175, 101, 36).
edge(33, 25, 13).
edge(90, 75, 39).
edge(119, 175, 3).
edge(107, 1, 8).
edge(76, 147, 3).
edge(0, 164, 37).
edge(2, 130, 9).
edge(20, 10, 12).
edge(129, 11, 28).
edge(124, 46, 26).
edge(140, 24, 34).
edge(88, 158, 17).
edge(104, 54, 37).
edge(7, 81, 1).
edge(10, 172, 2).
edge(23, 174, 27).
edge(18, 160, 2).
edge(119, 90, 5).
edge(87, 10, 24).
edge(126, 75, 1).
edge(79, 19, 30).
edge(90, 31, 36).
edge(25, 84, 14).
edge(62, 56, 15).
edge(10, 92, 16).
edge(95, 54, 9).
edge(137, 44, 6).
edge(74, 39, 11).
edge(25, 156, 19).
edge(56, 148, 4).
edge(27, 138, 13).
edge(4, 155, 37).
edge(122, 130, 16).
edge(56, 32, 7).
edge(96, 7, 8).
edge(68, 34, 18).
edge(106, 35, 33).
edge(81, 89, 3).
edge(146, 133, 9).
edge(60, 176, 16).
edge(128, 40, 17).
edge(30, 11, 33).
edge(130, 67, 1).
edge(49, 31, 9).
edge(15, 39, 20).
edge(137, 79, 5).
edge(74, 8, 23).
edge(23, 76, 8).
edge(171, 74, 28).
edge(27, 17, 10).
edge(81, 20, 14).
edge(55, 136, 21).
edge(137, 112, 2).
edge(40, 46, 12).
edge(80, 7, 27).
edge(24, 170, 7).
edge(161, 74, 35).
edge(130, 175, 1).
edge(167, 11, 3).
edge(102, 127, 6).
edge(34, 4, 4).
edge(80, 115, 8).
edge(100, 141, 14).
edge(170, 53, 19).
edge(124, 33, 38).
edge(96, 33, 11).
edge(156, 11, 1).
edge(89, 87, 2).
edge(59, 146, 18).
edge(43, 30, 39).
edge(146, 176, 30).
edge(101, 34, 35).
edge(157, 22, 23).
edge(150, 145, 21).
edge(149, 77, 17).
edge(16, 137, 6).
edge(81, 76, 33).
edge(101, 174, 25).
edge(64, 162, 27).
edge(137, 168, 27).
edge(31, 169, 35).
edge(69, 115, 13).
edge(112, 78, 3).
edge(95, 88, 22).
edge(101, 99, 17).
edge(111, 117, 18).
edge(2, 163, 2).
edge(46, 117, 32).
edge(84, 161, 24).
edge(98, 173, 8).
edge(117, 125, 34).
edge(138, 33, 31).
edge(38, 126, 31).
edge(93, 118, 25).
edge(1, 72, 33).
edge(126, 13, 6).
edge(58, 2, 12).
edge(164, 113, 27).
edge(77, 22, 11).
edge(150, 160, 13).
edge(172, 92, 25).
edge(38, 147, 6).
edge(137, 77, 37).
edge(126, 59, 26).
edge(142, 145, 2).
edge(80, 145, 24).
edge(154, 161, 25).
edge(23, 107, 30).
edge(22, 95, 29).
edge(171, 147, 5).
edge(26, 149, 30).
edge(110, 90, 11).
edge(144, 95, 31).
edge(37, 160, 25).
edge(26, 143, 33).
edge(41, 2, 27).
edge(130, 81, 25).
edge(124, 119, 4).
edge(160, 145, 18).
edge(98, 89, 29).
edge(32, 110, 15).
edge(25, 118, 7).
edge(36, 157, 22).
edge(105, 115, 3).
edge(81, 34, 4).
edge(7, 176, 23).
edge(39, 58, 2).
edge(49, 66, 15).
edge(19, 92, 16).
edge(51, 47, 29).
edge(77, 168, 27).
edge(110, 122, 21).
edge(89, 4, 33).
edge(3, 33, 37).
edge(26, 125, 15).
edge(161, 45, 36).
edge(153, 23, 1).
edge(26, 82, 6).
edge(112, 121, 1).
edge(19, 55, 14).
edge(49, 174, 14).
edge(73, 84, 23).
edge(43, 103, 1).
edge(148, 25, 37).
edge(159, 171, 13).
edge(59, 72, 36).
edge(68, 27, 2).
edge(97, 95, 22).
edge(135, 100, 19).
edge(1, 12, 21).
edge(150, 8, 13).
edge(128, 127, 9).
edge(176, 154, 15).
edge(79, 160, 24).
edge(171, 161, 2).
edge(71, 110, 34).
edge(3, 10, 18).
edge(171, 158, 34).
edge(97, 46, 2).
edge(91, 78, 36).
edge(38, 125, 27).
edge(31, 134, 35).
edge(4, 43, 18).
edge(149, 67, 7).
edge(77, 111, 17).
edge(102, 152, 14).
edge(44, 121, 26).
edge(63, 69, 5).
edge(106, 92, 33).
edge(49, 104, 39).
edge(63, 81, 15).
edge(22, 103, 32).
edge(171, 98, 30).
edge(56, 126, 37).
edge(24, 92, 28).
edge(96, 42, 4).
edge(104, 119, 9).
edge(30, 27, 38).
edge(172, 37, 9).
edge(17, 61, 7).
edge(18, 118, 29).
edge(42, 105, 20).
edge(96, 23, 36).
edge(6, 52, 24).
edge(20, 166, 2).
edge(103, 176, 1).
edge(78, 2, 23).
edge(110, 115, 6).
edge(26, 7, 33).
edge(117, 109, 23).
edge(42, 134, 15).
edge(152, 133, 37).
edge(94, 172, 6).
edge(124, 99, 15).
edge(164, 33, 37).
edge(61, 28, 11).
edge(116, 174, 31).
edge(156, 152, 36).
edge(86, 50, 3).
edge(19, 114, 26).
edge(28, 51, 2).
edge(153, 117, 29).
edge(77, 93, 3).
edge(35, 169, 9).
edge(75, 13, 27).
edge(115, 32, 22).
edge(77, 60, 22).
edge(105, 116, 37).
edge(34, 172, 35).
edge(18, 3, 7).
edge(58, 100, 20).
edge(113, 134, 27).
edge(48, 124, 34).
edge(106, 50, 16).
edge(158, 36, 20).
edge(46, 22, 16).
edge(167, 13, 3).
edge(77, 113, 36).
edge(167, 108, 26).
edge(25, 62, 39).
edge(160, 37, 35).
edge(84, 13, 39).
edge(4, 31, 12).
edge(146, 104, 29).
edge(75, 45, 1).
edge(31, 43, 12).
edge(27, 116, 20).
edge(127, 15, 37).
edge(65, 156, 21).
edge(93, 150, 2).
edge(128, 81, 17).
edge(131, 162, 22).
edge(89, 51, 23).
edge(20, 174, 30).
edge(2, 20, 19).
edge(111, 23, 35).
edge(115, 83, 26).
edge(101, 69, 9).
edge(171, 81, 37).
edge(0, 13, 16).
edge(22, 147, 17).
edge(39, 41, 32).
edge(144, 137, 18).
edge(92, 96, 10).
edge(160, 0, 26).
edge(19, 123, 20).
edge(40, 80, 21).
edge(165, 40, 23).
edge(38, 169, 24).
edge(96, 64, 24).
edge(27, 112, 9).
edge(165, 120, 21).
edge(155, 63, 16).
edge(150, 104, 37).
edge(164, 30, 39).
edge(37, 68, 16).
edge(31, 65, 24).
edge(104, 144, 22).
edge(24, 85, 28).
edge(12, 61, 7).
edge(93, 80, 13).
edge(150, 28, 5).
edge(104, 45, 27).
edge(142, 17, 17).
edge(73, 36, 39).
edge(56, 11, 21).
edge(158, 44, 4).
edge(73, 118, 37).
edge(86, 89, 22).
edge(149, 40, 28).
edge(58, 168, 8).
edge(172, 168, 34).
edge(1, 161, 28).
edge(9, 118, 6).
edge(119, 166, 22).
edge(176, 146, 2).
edge(61, 173, 20).
edge(173, 145, 10).
edge(30, 24, 2).
edge(153, 47, 7).
edge(54, 134, 36).
edge(128, 130, 30).
edge(104, 61, 13).
edge(94, 165, 22).
edge(43, 79, 31).
edge(160, 6, 12).
edge(140, 34, 20).
edge(170, 160, 38).
edge(81, 29, 23).
edge(105, 60, 22).
edge(85, 58, 37).
edge(132, 170, 15).
edge(176, 103, 39).
edge(138, 142, 4).
edge(53, 110, 22).
edge(29, 14, 5).
edge(99, 28, 1).
edge(63, 62, 2).
edge(31, 103, 29).
edge(58, 47, 38).
edge(129, 63, 12).
edge(167, 163, 35).
edge(57, 21, 29).
edge(70, 15, 9).
edge(143, 134, 26).
edge(128, 135, 8).
edge(100, 41, 2).
edge(67, 149, 36).
edge(23, 131, 14).
edge(161, 116, 21).
edge(21, 133, 22).
edge(162, 75, 24).
edge(16, 147, 19).
edge(101, 12, 16).
edge(138, 124, 4).
edge(107, 76, 34).
edge(171, 40, 8).
edge(62, 86, 33).
edge(147, 52, 3).
edge(36, 133, 25).
edge(139, 80, 2).
edge(141, 16, 31).
edge(73, 19, 18).
edge(28, 96, 9).
edge(26, 42, 22).
edge(143, 158, 31).
edge(57, 77, 15).
edge(130, 2, 38).
edge(27, 133, 14).
edge(132, 54, 36).
edge(156, 161, 11).
edge(83, 136, 18).
edge(148, 139, 9).
edge(156, 1, 30).
edge(150, 50, 31).
edge(99, 96, 36).
edge(155, 104, 19).
edge(1, 33, 27).
edge(166, 170, 3).
edge(150, 10, 17).
edge(67, 43, 4).
edge(72, 148, 1).
edge(126, 151, 20).
edge(15, 171, 11).
edge(113, 14, 4).
edge(130, 96, 34).
edge(90, 97, 15).
edge(86, 136, 29).
edge(88, 44, 11).
edge(82, 78, 19).
edge(91, 107, 39).
edge(71, 55, 31).
edge(156, 74, 19).
edge(137, 165, 28).
edge(27, 165, 30).
edge(37, 123, 4).
edge(145, 61, 14).
edge(116, 19, 13).
edge(76, 117, 24).
edge(23, 91, 5).
edge(112, 162, 1).
edge(25, 120, 6).
edge(28, 112, 30).
edge(93, 34, 33).
edge(17, 100, 37).
edge(82, 129, 13).
edge(81, 136, 11).
edge(61, 123, 33).
edge(1, 17, 7).
edge(145, 78, 17).
edge(158, 159, 9).
edge(68, 8, 25).
edge(57, 75, 35).
edge(84, 21, 35).
edge(122, 153, 36).
edge(128, 50, 31).
edge(47, 8, 12).
edge(96, 36, 25).
edge(119, 103, 10).
edge(83, 109, 20).
edge(121, 4, 30).
edge(37, 154, 15).
edge(148, 150, 5).
edge(54, 46, 4).
edge(68, 5, 10).
edge(155, 22, 8).
edge(166, 40, 36).
edge(8, 95, 5).
edge(97, 45, 12).
edge(101, 123, 17).
edge(110, 89, 20).
edge(32, 62, 22).
edge(136, 61, 14).
edge(162, 119, 12).
edge(127, 69, 18).
edge(73, 42, 19).
edge(164, 13, 10).
edge(123, 85, 34).
edge(172, 88, 24).
edge(157, 70, 3).
edge(155, 25, 21).
edge(170, 38, 38).
edge(53, 137, 33).
edge(92, 37, 1).
edge(138, 67, 34).
edge(72, 168, 3).
edge(21, 58, 26).
edge(110, 1, 20).
edge(130, 84, 23).
edge(145, 74, 1).
edge(23, 162, 23).
edge(19, 137, 10).
edge(147, 174, 11).
edge(64, 135, 17).
edge(98, 36, 2).
edge(99, 20, 36).
edge(23, 29, 15).
edge(31, 21, 37).
edge(164, 54, 21).
edge(143, 57, 23).
edge(174, 17, 27).
edge(15, 48, 33).
edge(43, 66, 4).
edge(146, 94, 35).
edge(139, 58, 13).
edge(19, 75, 11).
edge(57, 29, 7).
edge(79, 92, 1).
edge(108, 124, 8).
edge(150, 69, 14).
edge(100, 64, 22).
edge(19, 115, 38).
edge(46, 176, 35).
edge(63, 101, 39).
edge(11, 136, 1).
edge(6, 35, 32).
edge(116, 20, 5).
edge(143, 100, 1).
edge(55, 14, 2).
edge(96, 127, 11).
edge(120, 109, 23).
edge(59, 159, 38).
edge(66, 135, 3).
edge(20, 162, 9).
edge(45, 172, 30).
edge(98, 127, 15).
edge(72, 129, 15).
edge(31, 35, 18).
edge(1, 111, 33).
edge(157, 48, 25).
edge(145, 10, 34).
edge(169, 112, 18).
edge(74, 110, 9).
edge(58, 131, 5).
edge(109, 9, 9).
edge(57, 165, 29).
edge(92, 153, 35).
edge(166, 104, 9).
edge(84, 95, 26).
edge(137, 42, 3).
edge(94, 167, 8).
edge(130, 101, 24).
edge(34, 170, 16).
edge(70, 52, 5).
edge(64, 133, 6).
edge(53, 52, 29).
edge(95, 132, 19).
edge(142, 134, 10).
edge(105, 145, 2).
edge(62, 47, 29).
edge(10, 98, 2).
edge(71, 14, 31).
edge(56, 4, 25).
edge(76, 42, 15).
edge(116, 60, 38).
edge(41, 30, 23).
edge(18, 21, 9).
edge(85, 137, 9).
edge(29, 149, 38).
edge(80, 155, 39).
edge(39, 81, 23).
edge(38, 115, 34).
edge(32, 26, 33).
edge(66, 147, 27).
edge(100, 43, 7).
edge(51, 77, 38).
edge(17, 80, 10).
edge(118, 99, 16).
edge(44, 71, 38).
edge(140, 124, 19).
edge(85, 175, 3).
edge(61, 47, 24).
edge(144, 157, 11).
edge(171, 151, 28).
edge(142, 79, 35).
edge(27, 120, 25).
edge(93, 174, 26).
edge(94, 105, 18).
edge(171, 64, 36).
edge(1, 132, 33).
edge(87, 81, 36).
edge(163, 165, 8).
edge(142, 36, 36).
edge(128, 137, 18).
edge(139, 113, 29).
edge(157, 21, 3).
edge(94, 17, 37).
edge(149, 61, 4).
edge(86, 157, 9).
edge(7, 162, 10).
edge(175, 40, 31).
edge(63, 146, 6).
edge(79, 73, 3).
edge(57, 101, 13).
edge(72, 83, 36).
edge(28, 166, 30).
edge(19, 154, 3).
edge(9, 48, 11).
edge(145, 62, 27).
edge(52, 163, 35).
edge(88, 165, 9).
edge(37, 53, 6).
edge(42, 65, 15).
edge(8, 128, 23).
edge(34, 99, 7).
edge(163, 10, 30).
edge(135, 10, 3).
edge(54, 58, 18).
edge(103, 10, 21).
edge(132, 38, 36).
edge(83, 133, 38).
edge(105, 50, 19).
edge(148, 170, 12).
edge(37, 29, 7).
edge(111, 172, 34).
edge(70, 10, 28).
edge(80, 85, 20).
edge(144, 167, 12).
edge(158, 14, 18).
edge(134, 76, 34).
edge(135, 123, 30).
edge(16, 108, 27).
edge(47, 171, 34).
edge(11, 100, 30).
edge(148, 16, 17).
edge(152, 26, 35).
edge(158, 1, 29).
edge(150, 115, 35).
edge(131, 137, 29).
edge(35, 97, 6).
edge(64, 28, 21).
edge(105, 43, 5).
edge(61, 32, 1).
edge(30, 16, 38).
edge(63, 164, 20).
edge(124, 134, 36).
edge(102, 51, 25).
edge(28, 11, 3).
edge(33, 37, 36).
edge(136, 3, 12).
edge(62, 81, 38).
edge(13, 87, 21).
edge(1, 128, 39).
edge(75, 39, 21).
edge(16, 29, 14).
edge(153, 132, 7).
edge(50, 81, 6).
edge(45, 42, 3).
edge(41, 70, 15).
edge(32, 53, 33).
edge(174, 61, 8).
edge(46, 126, 18).
edge(127, 174, 19).
edge(146, 105, 13).
edge(170, 7, 39).
edge(122, 75, 14).
edge(41, 164, 24).
edge(164, 166, 8).
edge(168, 41, 26).
edge(91, 105, 2).
edge(81, 120, 21).
edge(46, 34, 35).
edge(77, 80, 1).
edge(42, 78, 39).
edge(49, 56, 30).
edge(117, 113, 34).
edge(9, 46, 26).
edge(51, 109, 1).
edge(43, 90, 22).
edge(53, 49, 6).
edge(134, 114, 15).
edge(48, 101, 39).
edge(146, 15, 13).
edge(17, 6, 25).
edge(30, 130, 7).
edge(53, 62, 12).
edge(143, 29, 39).
edge(128, 106, 30).
edge(51, 53, 20).
edge(68, 112, 10).
edge(128, 69, 21).
edge(143, 106, 15).
edge(114, 102, 39).
edge(69, 150, 10).
edge(155, 3, 6).
edge(4, 153, 25).
edge(124, 42, 10).
edge(96, 24, 23).
edge(54, 53, 21).
edge(145, 168, 25).
edge(21, 38, 13).
edge(77, 107, 39).
edge(88, 11, 22).
edge(100, 165, 24).
edge(139, 3, 19).
edge(105, 7, 20).
edge(156, 147, 4).
edge(171, 128, 8).
edge(65, 62, 27).
edge(98, 47, 9).
edge(38, 48, 4).
edge(52, 127, 36).
edge(163, 171, 14).
edge(165, 121, 3).
edge(144, 173, 32).
edge(27, 15, 20).
edge(143, 15, 3).
edge(100, 129, 30).
edge(88, 94, 14).
edge(28, 86, 23).
edge(72, 5, 13).
edge(107, 174, 24).
edge(161, 47, 22).
edge(161, 150, 23).
edge(53, 157, 25).
edge(6, 117, 1).
edge(72, 132, 6).
edge(37, 19, 36).
edge(113, 124, 27).
edge(154, 37, 34).
edge(152, 131, 31).
edge(74, 33, 15).
edge(9, 159, 36).
edge(20, 152, 12).
edge(171, 101, 15).
edge(12, 148, 36).
edge(122, 65, 14).
edge(36, 38, 30).
edge(147, 157, 33).
edge(16, 4, 6).
edge(67, 122, 4).
edge(24, 147, 14).
edge(13, 77, 22).
edge(29, 34, 27).
edge(170, 157, 16).
edge(3, 23, 20).
edge(148, 167, 31).
edge(89, 106, 28).
edge(22, 82, 36).
edge(105, 16, 5).
edge(39, 146, 32).
edge(152, 20, 27).
edge(18, 16, 8).
edge(166, 22, 26).
edge(10, 165, 6).
edge(53, 113, 5).
edge(95, 6, 20).
edge(41, 44, 34).
edge(37, 12, 7).
edge(48, 55, 27).
edge(170, 10, 2).
edge(9, 111, 12).
edge(2, 71, 7).
edge(33, 173, 28).
edge(105, 11, 10).
edge(170, 101, 34).
edge(37, 82, 4).
edge(29, 72, 14).
edge(109, 148, 5).
edge(109, 102, 20).
edge(14, 61, 8).
edge(31, 82, 1).
edge(82, 75, 39).
edge(91, 114, 31).
edge(11, 57, 14).
edge(148, 161, 33).
edge(40, 118, 35).
edge(6, 97, 29).
edge(47, 1, 22).
edge(70, 72, 11).
edge(77, 68, 31).
edge(121, 91, 15).
edge(34, 77, 5).
edge(38, 114, 20).
edge(5, 139, 26).
edge(14, 8, 6).
edge(174, 80, 10).
edge(156, 3, 11).
edge(155, 111, 18).
edge(88, 120, 12).
edge(43, 7, 2).
edge(90, 130, 32).
edge(87, 72, 37).
edge(156, 8, 19).
edge(42, 84, 34).
edge(100, 143, 4).
edge(25, 76, 33).
edge(76, 99, 34).
edge(127, 78, 14).
edge(12, 36, 22).
edge(20, 26, 23).
edge(75, 145, 39).
edge(87, 2, 30).
edge(1, 85, 18).
edge(121, 74, 30).
edge(142, 67, 27).
edge(30, 0, 5).
edge(114, 24, 20).
edge(145, 85, 19).
edge(62, 94, 3).
edge(11, 61, 14).
edge(153, 9, 35).
edge(124, 36, 30).
edge(78, 125, 20).
edge(147, 86, 2).
edge(21, 64, 33).
edge(33, 95, 39).
edge(109, 74, 1).
edge(162, 138, 4).
edge(140, 103, 19).
edge(119, 4, 19).
edge(154, 84, 20).
edge(87, 163, 2).
edge(78, 81, 13).
edge(12, 147, 8).
edge(85, 12, 11).
edge(101, 153, 34).
edge(41, 121, 2).
edge(139, 81, 27).
edge(8, 175, 34).
edge(72, 105, 22).
edge(168, 45, 7).
edge(34, 126, 3).
edge(147, 36, 16).
edge(65, 10, 39).
edge(18, 78, 20).
edge(98, 59, 19).
edge(114, 171, 34).
edge(148, 127, 26).
edge(161, 58, 6).
edge(86, 18, 31).
edge(59, 27, 14).
edge(95, 3, 2).
edge(6, 81, 27).
edge(36, 25, 17).
edge(36, 61, 11).
edge(52, 50, 14).
edge(46, 89, 6).
edge(108, 32, 21).
edge(153, 162, 29).
edge(81, 57, 35).
edge(31, 88, 14).
edge(20, 41, 21).
edge(128, 85, 29).
edge(26, 52, 31).
edge(90, 60, 8).
edge(55, 170, 6).
edge(59, 111, 6).
edge(170, 149, 23).
edge(72, 11, 34).
edge(106, 57, 38).
edge(88, 54, 37).
edge(108, 141, 22).
edge(176, 15, 8).
edge(2, 1, 38).
edge(53, 84, 24).
edge(125, 25, 34).
edge(69, 73, 31).
edge(64, 74, 8).
edge(148, 9, 10).
edge(125, 4, 39).
edge(55, 107, 2).
edge(24, 93, 36).
edge(43, 82, 3).
edge(30, 149, 19).
edge(176, 157, 31).
edge(94, 0, 1).
edge(4, 6, 39).
edge(3, 88, 25).
edge(86, 21, 1).
edge(173, 174, 12).
edge(21, 48, 20).
edge(162, 126, 20).
edge(1, 164, 28).
edge(142, 1, 2).
edge(63, 2, 32).
edge(39, 100, 25).
edge(5, 133, 8).
edge(8, 122, 18).
edge(161, 75, 32).
edge(103, 139, 24).
edge(28, 105, 10).
edge(28, 132, 24).
edge(162, 160, 12).
edge(123, 143, 19).
edge(29, 7, 32).
edge(118, 36, 20).
edge(148, 0, 5).
edge(68, 14, 34).
edge(71, 81, 30).
edge(133, 172, 22).
edge(112, 110, 38).
edge(3, 113, 10).
edge(145, 69, 9).
edge(108, 172, 38).
edge(15, 109, 27).
edge(13, 91, 34).
edge(147, 11, 24).
edge(127, 154, 37).
edge(152, 92, 16).
edge(36, 172, 33).
edge(51, 40, 24).
edge(155, 108, 2).
edge(34, 9, 16).
edge(116, 92, 33).
edge(157, 63, 21).
edge(122, 23, 39).
edge(132, 135, 12).
edge(88, 40, 6).
edge(129, 98, 14).
edge(125, 0, 29).
edge(57, 127, 32).
edge(76, 152, 15).
edge(173, 81, 18).
edge(0, 110, 9).
edge(126, 44, 8).
edge(44, 101, 1).
edge(176, 57, 25).
edge(97, 115, 26).
edge(99, 89, 3).
edge(109, 24, 1).
edge(54, 18, 11).
edge(95, 92, 1).
edge(153, 126, 3).
edge(109, 49, 17).
edge(29, 126, 10).
edge(149, 112, 36).
edge(85, 176, 38).
edge(108, 169, 4).
edge(82, 11, 2).
edge(46, 158, 5).
edge(91, 92, 25).
edge(43, 138, 34).
edge(74, 159, 14).
edge(60, 12, 31).
edge(25, 39, 2).
edge(66, 21, 16).
edge(68, 23, 36).
edge(83, 12, 38).
edge(46, 5, 5).
edge(154, 89, 23).
edge(42, 72, 35).
edge(162, 132, 19).
edge(77, 102, 3).
edge(54, 162, 9).
edge(162, 165, 4).
edge(19, 21, 31).
edge(1, 157, 27).
edge(170, 127, 35).
edge(143, 45, 3).
edge(130, 168, 19).
edge(157, 77, 10).
edge(29, 137, 7).
edge(80, 73, 17).
edge(23, 143, 39).
edge(2, 112, 23).
edge(92, 173, 25).
edge(56, 156, 20).
edge(40, 150, 7).
edge(86, 34, 9).
edge(110, 100, 7).
edge(121, 85, 35).
edge(106, 142, 27).
edge(125, 91, 2).
edge(18, 103, 8).
edge(170, 159, 6).
edge(129, 152, 22).
edge(9, 100, 29).
edge(136, 77, 19).
edge(87, 63, 11).
edge(64, 136, 17).
edge(170, 18, 35).
edge(124, 44, 5).
edge(137, 123, 12).
edge(3, 137, 2).
edge(146, 95, 9).
edge(52, 145, 19).
edge(176, 162, 28).
edge(67, 37, 36).
edge(97, 121, 15).
edge(27, 108, 28).
edge(137, 162, 15).
edge(20, 108, 29).
edge(32, 143, 39).
edge(94, 96, 26).
edge(108, 30, 31).
edge(96, 53, 5).
edge(21, 94, 15).
edge(117, 156, 29).
edge(151, 74, 25).
edge(7, 33, 21).
edge(132, 172, 17).
edge(44, 11, 15).
edge(57, 15, 27).
edge(95, 168, 29).
edge(30, 17, 23).
edge(143, 16, 6).
edge(88, 36, 39).
edge(66, 34, 21).
edge(173, 33, 13).
edge(100, 70, 36).
edge(19, 44, 26).
edge(14, 105, 27).
edge(134, 107, 14).
edge(148, 71, 20).
edge(81, 7, 16).
edge(156, 27, 1).
edge(112, 40, 27).
edge(132, 79, 5).
edge(81, 130, 16).
edge(117, 93, 36).
edge(175, 151, 9).
edge(112, 153, 16).
edge(170, 118, 38).
edge(37, 116, 8).
edge(72, 174, 31).
edge(21, 54, 2).
edge(6, 8, 7).
edge(174, 71, 25).
edge(113, 103, 24).
edge(8, 42, 35).
edge(3, 163, 5).
edge(59, 132, 2).
edge(78, 64, 6).
edge(140, 135, 12).
edge(57, 111, 24).
edge(85, 121, 38).
edge(142, 57, 13).
edge(150, 57, 2).
edge(55, 127, 36).
edge(151, 142, 34).
edge(60, 64, 27).
edge(5, 160, 35).
edge(145, 164, 2).
edge(146, 109, 17).
edge(126, 160, 12).
edge(23, 138, 14).
edge(101, 139, 9).
edge(14, 170, 11).
edge(171, 8, 16).
edge(169, 0, 18).
edge(138, 117, 15).
edge(160, 11, 23).
edge(93, 53, 17).
edge(45, 0, 34).
edge(155, 16, 3).
edge(44, 110, 12).
edge(69, 7, 36).
edge(23, 166, 27).
edge(165, 101, 14).
edge(11, 115, 14).
edge(117, 6, 6).
edge(14, 13, 19).
edge(69, 44, 29).
edge(15, 53, 3).
edge(27, 35, 29).
edge(9, 2, 9).
edge(27, 168, 30).
edge(1, 106, 10).
edge(57, 45, 8).
edge(89, 170, 28).
edge(5, 140, 10).
edge(75, 0, 8).
edge(110, 127, 32).
edge(59, 56, 18).
edge(143, 2, 17).
edge(39, 6, 39).
edge(11, 89, 20).
edge(72, 143, 7).
edge(80, 16, 30).
edge(79, 120, 2).
edge(140, 28, 32).
edge(145, 170, 20).
edge(25, 137, 12).
edge(95, 84, 39).
edge(40, 32, 23).
edge(125, 59, 24).
edge(49, 155, 27).
edge(128, 65, 37).
edge(50, 122, 36).
edge(83, 113, 16).
edge(102, 56, 13).
edge(42, 144, 7).
edge(98, 112, 4).
edge(39, 46, 14).
edge(73, 117, 25).
edge(126, 36, 28).
edge(74, 100, 14).
edge(59, 168, 8).
edge(2, 69, 32).
edge(120, 105, 14).
edge(11, 94, 38).
edge(155, 140, 18).
edge(16, 3, 29).
edge(163, 86, 18).
edge(18, 147, 31).
edge(101, 23, 20).
edge(43, 167, 36).
edge(14, 43, 24).
edge(3, 17, 16).
edge(23, 15, 24).
edge(60, 99, 10).
edge(78, 88, 8).
edge(58, 129, 21).
edge(13, 130, 14).
edge(58, 35, 5).
edge(128, 176, 7).
edge(67, 121, 11).
edge(50, 109, 31).
edge(11, 71, 34).
edge(42, 154, 39).
edge(73, 74, 20).
edge(75, 87, 15).
edge(142, 176, 19).
edge(172, 73, 7).
edge(21, 33, 6).
edge(7, 63, 13).
edge(32, 83, 5).
edge(81, 170, 38).
edge(126, 163, 14).
edge(100, 13, 30).
edge(120, 6, 37).
edge(117, 143, 34).
edge(146, 110, 26).
edge(59, 75, 9).
edge(73, 5, 4).
edge(32, 77, 32).
edge(136, 72, 7).
edge(113, 172, 38).
edge(152, 99, 37).
edge(32, 11, 30).
edge(70, 63, 15).
edge(10, 5, 36).
edge(47, 90, 4).
edge(153, 111, 7).
edge(172, 135, 12).
edge(68, 64, 29).
edge(19, 4, 12).
edge(57, 91, 26).
edge(113, 58, 17).
edge(67, 52, 25).
edge(123, 90, 6).
edge(115, 130, 19).
edge(22, 41, 11).
edge(23, 62, 15).
edge(11, 87, 9).
edge(96, 173, 21).
edge(26, 98, 36).
edge(150, 135, 13).
edge(49, 2, 18).
edge(138, 65, 23).
edge(28, 162, 3).
edge(43, 97, 26).
edge(147, 60, 35).
edge(67, 14, 37).
edge(49, 58, 16).
edge(98, 21, 23).
edge(53, 140, 3).
edge(115, 8, 25).
edge(102, 82, 21).
edge(49, 5, 38).
edge(51, 37, 11).
edge(29, 119, 12).
edge(145, 75, 23).
edge(12, 91, 25).
edge(138, 29, 19).
edge(96, 139, 21).
edge(15, 45, 9).
edge(175, 41, 6).
edge(26, 168, 27).
edge(18, 127, 11).
edge(167, 77, 36).
edge(15, 79, 25).
edge(102, 12, 4).
edge(41, 155, 10).
edge(74, 106, 12).
edge(102, 146, 8).
edge(169, 94, 26).
edge(150, 59, 20).
edge(173, 68, 7).
edge(106, 67, 1).
edge(44, 80, 37).
edge(91, 11, 33).
edge(33, 111, 20).
edge(9, 64, 17).
edge(142, 86, 26).
edge(146, 40, 3).
edge(85, 44, 26).
edge(118, 140, 33).
edge(124, 43, 5).
edge(103, 145, 22).
edge(97, 38, 35).
edge(97, 149, 5).
edge(148, 88, 23).
edge(136, 39, 10).
edge(160, 60, 17).
edge(117, 100, 34).
edge(136, 100, 3).
edge(5, 9, 34).
edge(137, 94, 38).
edge(175, 136, 15).
edge(137, 53, 15).
edge(79, 112, 35).
edge(156, 170, 7).
edge(59, 106, 24).
edge(142, 80, 36).
edge(85, 54, 34).
edge(87, 133, 30).
edge(60, 37, 2).
edge(159, 49, 37).
edge(109, 41, 19).
edge(159, 0, 36).
edge(115, 91, 26).
edge(131, 147, 23).
edge(112, 64, 39).
edge(36, 117, 19).
edge(153, 84, 34).
edge(21, 76, 22).
edge(82, 83, 11).
edge(21, 77, 7).
edge(169, 146, 6).
edge(134, 1, 35).
edge(48, 170, 13).
edge(159, 65, 36).
edge(129, 120, 35).
edge(70, 65, 27).
edge(6, 3, 8).
edge(71, 63, 20).
edge(86, 141, 25).
edge(114, 70, 32).
edge(29, 74, 36).
edge(133, 114, 25).
edge(7, 120, 2).
edge(99, 110, 31).
edge(89, 151, 29).
edge(93, 145, 8).
edge(16, 56, 33).
edge(4, 173, 24).
edge(117, 11, 20).
edge(91, 100, 17).
edge(24, 114, 6).
edge(39, 83, 24).
edge(49, 108, 32).
edge(80, 151, 37).
edge(24, 28, 4).
edge(152, 151, 6).
edge(93, 171, 30).
edge(138, 16, 24).
edge(120, 161, 27).
edge(169, 29, 36).
edge(172, 89, 39).
edge(89, 171, 6).
edge(72, 166, 15).
edge(76, 80, 19).
edge(153, 91, 12).
edge(84, 7, 35).
edge(32, 81, 36).
edge(17, 82, 7).
edge(73, 131, 30).
edge(83, 126, 18).
edge(41, 21, 7).
edge(111, 93, 29).
edge(29, 154, 5).
edge(148, 107, 16).
edge(38, 87, 26).
edge(123, 51, 35).
edge(11, 156, 36).
edge(135, 150, 21).
edge(138, 36, 36).
edge(125, 77, 30).
edge(40, 77, 4).
edge(64, 94, 11).
edge(174, 124, 7).
edge(126, 30, 9).
edge(176, 87, 36).
edge(126, 127, 30).
edge(83, 125, 22).
edge(82, 1, 26).
edge(6, 134, 24).
edge(154, 168, 23).
edge(118, 171, 18).
edge(115, 41, 19).
edge(14, 102, 16).
edge(61, 85, 39).
edge(89, 82, 26).
edge(169, 152, 25).
edge(81, 137, 15).
edge(108, 40, 9).
edge(123, 87, 17).
edge(47, 31, 38).
edge(112, 13, 4).
edge(136, 6, 13).
edge(75, 18, 2).
edge(68, 128, 20).
edge(81, 21, 30).
edge(57, 90, 14).
edge(20, 150, 25).
edge(150, 18, 34).
edge(3, 108, 36).
edge(0, 29, 21).
edge(4, 62, 35).
edge(121, 45, 17).
edge(109, 128, 6).
edge(78, 106, 39).
edge(107, 28, 31).
edge(52, 91, 34).
edge(71, 122, 37).
edge(22, 61, 24).
edge(122, 72, 13).
edge(156, 68, 18).
edge(52, 166, 20).
edge(146, 56, 33).
edge(51, 118, 17).
edge(148, 35, 11).
edge(12, 19, 37).
edge(130, 5, 16).
edge(96, 52, 19).
edge(67, 35, 10).
edge(142, 172, 5).
edge(51, 166, 16).
edge(135, 79, 33).
edge(35, 45, 9).
edge(92, 22, 34).
edge(127, 160, 20).
edge(138, 31, 1).
edge(176, 3, 12).
edge(80, 136, 6).
edge(26, 92, 19).
edge(130, 80, 23).
edge(11, 68, 36).
edge(42, 41, 13).
edge(127, 13, 36).
edge(52, 4, 8).
edge(122, 98, 34).
edge(166, 111, 16).
edge(55, 108, 15).
edge(49, 89, 26).
edge(149, 57, 23).
edge(98, 37, 18).
edge(81, 78, 2).
edge(65, 17, 6).
edge(115, 21, 2).
edge(87, 32, 26).
edge(17, 117, 33).
edge(71, 154, 29).
edge(139, 70, 21).
edge(151, 50, 21).
edge(44, 48, 27).
edge(84, 119, 14).
edge(139, 26, 5).
edge(21, 124, 23).
edge(153, 125, 34).
edge(42, 63, 15).
edge(17, 111, 29).
edge(126, 49, 35).
edge(115, 92, 29).
edge(48, 71, 1).
edge(113, 98, 25).
edge(35, 117, 28).
edge(2, 113, 1).
edge(142, 109, 10).
edge(66, 134, 38).
edge(136, 37, 19).
edge(160, 70, 26).
edge(7, 73, 22).
edge(50, 74, 30).
edge(175, 39, 32).
edge(143, 78, 6).
edge(22, 17, 12).
edge(59, 60, 2).
edge(149, 16, 17).
edge(0, 163, 17).
edge(97, 70, 5).
edge(149, 75, 7).
edge(95, 114, 28).
edge(29, 111, 34).
edge(90, 163, 6).
edge(143, 28, 39).
edge(155, 174, 25).
edge(142, 90, 24).
edge(51, 1, 3).
edge(171, 7, 23).
edge(106, 134, 26).
edge(130, 157, 38).
edge(39, 108, 31).
edge(39, 105, 4).
edge(109, 124, 23).
edge(143, 170, 6).
edge(109, 136, 6).
edge(146, 114, 11).
edge(165, 20, 21).
edge(168, 129, 36).
edge(62, 135, 29).
edge(36, 145, 13).
edge(138, 44, 24).
edge(147, 28, 19).
edge(84, 86, 30).
edge(125, 175, 16).
edge(102, 10, 36).
edge(111, 155, 2).
edge(8, 127, 2).
edge(150, 65, 23).
edge(42, 109, 6).
edge(131, 123, 14).
edge(30, 48, 30).
edge(54, 88, 36).
edge(160, 2, 23).
edge(64, 113, 26).
edge(137, 65, 33).
edge(167, 93, 1).
edge(0, 108, 15).
edge(112, 50, 9).
edge(23, 105, 19).
edge(50, 61, 33).
edge(24, 89, 35).
edge(28, 22, 33).
edge(34, 156, 15).
edge(39, 168, 8).
edge(133, 144, 14).
edge(175, 121, 34).
edge(11, 3, 31).
edge(89, 95, 11).
edge(158, 163, 28).
edge(162, 43, 35).
edge(155, 27, 18).
edge(98, 27, 22).
edge(114, 157, 24).
edge(29, 108, 19).
edge(67, 13, 21).
edge(146, 16, 16).
edge(63, 64, 3).
edge(74, 64, 38).
edge(77, 10, 7).
edge(78, 141, 20).
edge(65, 86, 3).
edge(2, 159, 15).
edge(136, 129, 18).
edge(81, 69, 30).
edge(112, 161, 13).
edge(148, 58, 33).
edge(79, 20, 14).
edge(170, 133, 26).
edge(42, 151, 36).
edge(115, 75, 29).
edge(73, 1, 20).
edge(169, 168, 29).
edge(143, 49, 31).
edge(54, 94, 27).
edge(101, 46, 36).
edge(51, 138, 6).
edge(49, 41, 4).
edge(165, 96, 4).
edge(31, 161, 30).
edge(27, 5, 39).
edge(154, 81, 19).
edge(62, 33, 38).
edge(42, 46, 4).
edge(44, 76, 20).
edge(103, 24, 39).
edge(1, 7, 37).
edge(60, 147, 39).
edge(161, 61, 1).
edge(104, 50, 32).
edge(16, 145, 11).
edge(122, 100, 2).
edge(175, 115, 5).
edge(168, 96, 5).
edge(64, 139, 20).
edge(147, 162, 30).
edge(11, 159, 18).
edge(154, 38, 22).
edge(1, 88, 17).
edge(102, 109, 12).
edge(4, 106, 31).
edge(88, 43, 1).
edge(37, 170, 29).
edge(117, 166, 34).
edge(90, 82, 29).
edge(40, 20, 28).
edge(57, 124, 23).
edge(149, 155, 13).
edge(147, 43, 25).
edge(99, 175, 32).
edge(73, 110, 10).
edge(145, 88, 32).
edge(92, 7, 12).
edge(153, 0, 15).
edge(61, 94, 26).
edge(91, 147, 37).
edge(123, 173, 28).
edge(113, 131, 21).
edge(79, 46, 2).
edge(176, 50, 7).
edge(143, 12, 20).
edge(5, 76, 36).
edge(99, 23, 7).
edge(155, 74, 14).
edge(31, 116, 1).
edge(84, 134, 9).
edge(165, 49, 39).
edge(102, 93, 1).
edge(82, 102, 15).
edge(19, 81, 31).
edge(91, 86, 21).
edge(94, 79, 22).
edge(75, 1, 11).
edge(35, 127, 29).
edge(62, 12, 20).
edge(170, 99, 4).
edge(20, 131, 19).
edge(46, 140, 34).
edge(171, 46, 38).
edge(131, 42, 4).
edge(77, 150, 9).
edge(43, 31, 6).
edge(16, 97, 13).
edge(171, 154, 15).
edge(101, 146, 25).
edge(96, 126, 11).
edge(122, 32, 14).
edge(16, 164, 8).
edge(71, 141, 13).
edge(167, 174, 19).
edge(140, 46, 39).
edge(161, 153, 3).
edge(161, 33, 25).
edge(136, 0, 31).
edge(99, 170, 37).
edge(30, 23, 3).
edge(43, 78, 14).
edge(30, 90, 2).
edge(120, 168, 36).
edge(134, 63, 15).
edge(174, 134, 29).
edge(153, 19, 17).
edge(64, 43, 2).
edge(165, 33, 22).
edge(151, 46, 16).
edge(13, 47, 25).
edge(112, 49, 32).
edge(111, 137, 33).
edge(23, 53, 27).
edge(130, 104, 6).
edge(79, 151, 28).
edge(128, 87, 15).
edge(42, 117, 31).
edge(8, 164, 2).
edge(24, 12, 9).
edge(44, 60, 38).
edge(122, 101, 2).
edge(8, 51, 28).
edge(105, 114, 25).
edge(107, 133, 9).
edge(147, 67, 31).
edge(126, 18, 16).
edge(3, 16, 11).
edge(56, 18, 15).
edge(153, 147, 39).
edge(19, 24, 9).
edge(30, 162, 39).
edge(50, 68, 1).
edge(142, 115, 11).
edge(26, 160, 11).
edge(108, 113, 15).
edge(135, 24, 27).
edge(36, 118, 39).
edge(16, 45, 14).
edge(99, 121, 28).
edge(13, 126, 25).
edge(52, 170, 36).
edge(131, 159, 29).
edge(55, 56, 9).
edge(50, 75, 11).
edge(148, 101, 33).
edge(3, 9, 25).
edge(59, 173, 7).
edge(37, 7, 22).
edge(118, 87, 15).
edge(26, 162, 11).
edge(171, 130, 32).
edge(142, 153, 29).
edge(85, 29, 9).
edge(162, 3, 18).
edge(112, 157, 22).
edge(144, 73, 18).
edge(77, 25, 7).
edge(111, 167, 33).
edge(102, 162, 31).
edge(118, 159, 19).
edge(112, 135, 35).
edge(101, 41, 34).
edge(155, 78, 35).
edge(47, 158, 12).
edge(67, 12, 4).
edge(123, 33, 31).
edge(128, 129, 11).
edge(62, 151, 13).
edge(129, 135, 18).
edge(134, 16, 13).
edge(55, 165, 23).
edge(42, 157, 10).
edge(91, 21, 11).
edge(41, 17, 39).
edge(55, 43, 39).
edge(44, 123, 27).
edge(68, 159, 9).
edge(99, 46, 20).
edge(64, 23, 17).
edge(120, 81, 2).
edge(140, 153, 6).
edge(46, 56, 16).
edge(55, 76, 33).
edge(163, 42, 34).
edge(11, 85, 18).
edge(29, 51, 24).
edge(135, 60, 13).
edge(134, 155, 3).
edge(151, 175, 6).
edge(171, 72, 25).
edge(61, 34, 25).
edge(170, 114, 38).
edge(117, 151, 10).
edge(78, 75, 21).
edge(86, 167, 19).
edge(133, 12, 37).
edge(81, 44, 12).
edge(2, 46, 21).
edge(165, 71, 31).
edge(15, 155, 27).
edge(152, 40, 5).
edge(12, 75, 5).
edge(163, 2, 32).
edge(112, 147, 29).
edge(30, 109, 31).
edge(105, 120, 15).
edge(94, 6, 35).
edge(11, 150, 26).
edge(103, 11, 8).
edge(10, 117, 24).
edge(69, 148, 2).
edge(49, 46, 22).
edge(137, 83, 1).
edge(72, 125, 24).
edge(81, 96, 32).
edge(127, 76, 10).
edge(168, 104, 28).
edge(30, 73, 32).
edge(89, 10, 17).
edge(173, 43, 19).
edge(162, 116, 35).
edge(13, 38, 19).
edge(85, 66, 11).
edge(80, 53, 11).
edge(102, 95, 2).
edge(76, 7, 21).
edge(38, 81, 6).
edge(82, 42, 32).
edge(96, 90, 2).
edge(97, 13, 2).
edge(136, 51, 9).
edge(103, 127, 38).
edge(35, 163, 19).
edge(70, 114, 20).
edge(130, 55, 11).
edge(160, 142, 14).
edge(168, 115, 11).
edge(131, 155, 20).
edge(65, 40, 36).
edge(28, 160, 23).
edge(109, 139, 31).
edge(87, 48, 15).
edge(93, 56, 37).
edge(20, 85, 35).
edge(134, 49, 25).
edge(26, 48, 10).
edge(146, 70, 20).
edge(91, 156, 34).
edge(172, 46, 26).
edge(130, 9, 10).
edge(139, 72, 8).
edge(88, 108, 19).
edge(13, 96, 2).
edge(31, 156, 8).
edge(13, 106, 28).
edge(149, 173, 38).
edge(120, 130, 11).
edge(159, 79, 16).
edge(107, 123, 27).
edge(99, 130, 23).
edge(91, 164, 34).
edge(9, 68, 22).
edge(104, 110, 11).
edge(123, 71, 32).
edge(65, 146, 18).
edge(145, 30, 13).
edge(46, 137, 26).
edge(139, 18, 31).
edge(141, 70, 20).
edge(45, 79, 39).
edge(4, 71, 10).
edge(95, 171, 4).
edge(100, 21, 33).
edge(8, 160, 4).
edge(0, 149, 10).
edge(10, 72, 23).
edge(75, 53, 2).
edge(101, 121, 5).
edge(127, 48, 28).
edge(8, 96, 36).
edge(85, 26, 16).
edge(82, 168, 33).
edge(22, 23, 1).
edge(104, 85, 21).
edge(106, 39, 25).
edge(88, 78, 34).
edge(5, 27, 27).
edge(26, 99, 4).
edge(173, 147, 2).
edge(83, 117, 18).
edge(95, 29, 31).
edge(160, 168, 2).
edge(14, 103, 5).
edge(113, 41, 32).
edge(138, 37, 11).
edge(50, 144, 32).
edge(77, 97, 23).
edge(85, 46, 4).
edge(43, 89, 28).
edge(108, 167, 8).
edge(83, 50, 36).
edge(2, 39, 1).
edge(17, 123, 19).
edge(6, 99, 15).
edge(14, 155, 15).
edge(104, 107, 27).
edge(114, 116, 5).
edge(1, 68, 8).
edge(163, 89, 27).
edge(88, 105, 17).
edge(29, 87, 38).
edge(36, 103, 30).
edge(151, 121, 13).
edge(124, 38, 37).
edge(54, 42, 37).
edge(37, 13, 22).
edge(42, 100, 15).
edge(36, 27, 22).
edge(148, 119, 28).
edge(126, 96, 21).
edge(66, 72, 28).
edge(98, 11, 3).
edge(118, 175, 1).
edge(125, 98, 11).
edge(16, 104, 37).
edge(109, 95, 24).
edge(151, 51, 4).
edge(11, 126, 23).
edge(171, 79, 5).
edge(21, 90, 29).
edge(73, 81, 1).
edge(51, 35, 10).
edge(161, 22, 27).
edge(157, 45, 12).
edge(135, 115, 21).
edge(126, 45, 34).
edge(81, 115, 39).
edge(125, 17, 17).
edge(2, 118, 24).
edge(115, 44, 27).
edge(144, 107, 6).
edge(171, 145, 19).
edge(145, 22, 38).
edge(134, 28, 10).
edge(4, 103, 36).
edge(40, 104, 6).
edge(138, 9, 26).
edge(20, 18, 31).
edge(30, 62, 11).
edge(141, 21, 5).
edge(123, 65, 33).
edge(38, 63, 10).
edge(98, 84, 12).
edge(156, 153, 34).
edge(140, 42, 5).
edge(169, 114, 20).
edge(64, 176, 22).
edge(70, 136, 19).
edge(135, 41, 22).
edge(118, 53, 31).
edge(3, 36, 30).
edge(136, 54, 2).
edge(94, 31, 2).
edge(81, 126, 5).
edge(137, 30, 26).
edge(103, 61, 17).
edge(139, 115, 37).
edge(129, 131, 2).
edge(148, 55, 36).
edge(54, 85, 11).
edge(66, 14, 23).
edge(91, 6, 13).
edge(144, 84, 38).
edge(41, 72, 35).
edge(152, 124, 36).
edge(166, 71, 2).
edge(120, 36, 39).
edge(112, 119, 1).
edge(82, 32, 39).
edge(17, 89, 38).
edge(126, 164, 24).
edge(98, 49, 32).
edge(162, 142, 5).
edge(103, 131, 15).
edge(138, 59, 20).
edge(52, 46, 8).
edge(28, 0, 4).
edge(42, 172, 23).
edge(45, 136, 23).
edge(101, 156, 4).
edge(172, 1, 30).
edge(29, 129, 13).
edge(86, 54, 3).
edge(124, 103, 17).
edge(78, 126, 4).
edge(172, 170, 25).
edge(106, 31, 15).
edge(50, 28, 37).
edge(146, 123, 13).
edge(29, 168, 28).
edge(13, 18, 37).
edge(70, 122, 24).
edge(150, 53, 5).
edge(47, 17, 1).
edge(90, 56, 16).
edge(93, 29, 11).
edge(0, 98, 30).
edge(10, 121, 36).
edge(107, 58, 2).
edge(68, 28, 36).
edge(8, 54, 27).
edge(28, 150, 2).
edge(48, 68, 30).
edge(94, 46, 27).
edge(121, 120, 35).
edge(3, 124, 34).
edge(25, 13, 6).
edge(136, 74, 30).
edge(28, 175, 13).
edge(111, 92, 37).
edge(102, 122, 37).
edge(136, 175, 10).
edge(106, 9, 8).
edge(27, 45, 25).
edge(80, 162, 18).
edge(25, 172, 22).
edge(136, 23, 39).
edge(57, 78, 39).
edge(95, 50, 24).
edge(111, 110, 36).
edge(114, 164, 18).
edge(131, 125, 15).
edge(33, 86, 2).
edge(93, 137, 4).
edge(174, 151, 30).
edge(83, 13, 39).
edge(165, 127, 35).
edge(23, 118, 29).
edge(45, 80, 23).
edge(93, 47, 3).
edge(57, 74, 24).
edge(35, 120, 38).
edge(73, 170, 26).
edge(50, 79, 28).
edge(57, 63, 34).
edge(157, 2, 29).
edge(32, 94, 2).
edge(35, 42, 6).
edge(164, 163, 17).
edge(59, 135, 13).
edge(136, 159, 4).
edge(105, 176, 18).
edge(33, 113, 24).
edge(33, 77, 34).
edge(40, 21, 3).
edge(96, 160, 15).
edge(58, 93, 25).
edge(121, 5, 12).
edge(136, 99, 33).
edge(124, 175, 1).
edge(153, 1, 6).
edge(155, 160, 14).
edge(82, 158, 7).
edge(19, 144, 32).
edge(80, 167, 20).
edge(153, 154, 39).
edge(12, 22, 21).
edge(126, 48, 21).
edge(147, 139, 29).
edge(67, 83, 31).
edge(46, 157, 27).
edge(19, 41, 34).
edge(83, 45, 33).
edge(132, 147, 13).
edge(7, 169, 16).
edge(170, 147, 21).
edge(32, 87, 14).
edge(62, 148, 6).
edge(120, 139, 37).
edge(71, 157, 37).
edge(32, 1, 3).
edge(4, 121, 21).
edge(148, 138, 36).
edge(95, 99, 8).
edge(34, 125, 21).
edge(162, 5, 24).
edge(22, 15, 6).
edge(71, 19, 30).
edge(126, 144, 32).
edge(30, 2, 9).
edge(24, 54, 39).
edge(153, 12, 7).
edge(176, 136, 8).
edge(75, 121, 20).
edge(64, 86, 1).
edge(148, 63, 18).
edge(56, 139, 27).
edge(176, 105, 11).
edge(28, 149, 31).
edge(30, 155, 29).
edge(48, 78, 16).
edge(50, 143, 27).
edge(155, 67, 24).
edge(3, 129, 14).
edge(44, 34, 17).
edge(75, 161, 6).
edge(114, 93, 38).
edge(130, 171, 6).
edge(96, 37, 27).
edge(122, 152, 25).
edge(145, 82, 10).
edge(115, 77, 14).
edge(61, 107, 18).
edge(46, 4, 9).
edge(113, 47, 21).
edge(81, 95, 35).
edge(122, 79, 14).
edge(106, 37, 34).
edge(83, 106, 34).
edge(136, 50, 13).
edge(109, 93, 26).
edge(43, 158, 19).
edge(144, 130, 36).
edge(71, 100, 34).
edge(106, 174, 1).
edge(162, 156, 29).
edge(42, 36, 12).
edge(63, 35, 39).
edge(74, 58, 34).
edge(137, 5, 16).
edge(60, 158, 27).
edge(43, 144, 18).
edge(148, 122, 13).
edge(30, 98, 5).
edge(84, 70, 15).
edge(107, 24, 14).
edge(101, 176, 35).
edge(121, 47, 2).
edge(30, 148, 25).
edge(59, 80, 18).
edge(172, 8, 4).
edge(121, 28, 20).
edge(86, 93, 12).
edge(37, 108, 10).
edge(63, 80, 10).
edge(93, 15, 32).
edge(116, 133, 35).
edge(123, 28, 23).
edge(56, 88, 5).
edge(59, 4, 24).
edge(68, 152, 29).
edge(34, 10, 22).
edge(44, 22, 16).
edge(39, 50, 2).
edge(151, 111, 31).
edge(113, 45, 5).
edge(53, 92, 33).
edge(66, 30, 29).
edge(128, 2, 19).
edge(156, 47, 23).
edge(88, 172, 28).
edge(23, 54, 23).
edge(135, 175, 23).
edge(171, 23, 17).
edge(129, 94, 7).
edge(132, 15, 10).
edge(176, 96, 22).
edge(74, 44, 2).
edge(28, 27, 38).
edge(170, 64, 33).
edge(121, 107, 25).
edge(41, 79, 4).
edge(150, 108, 15).
edge(116, 138, 14).
edge(76, 130, 30).
edge(110, 39, 1).
edge(138, 69, 37).
edge(107, 158, 18).
edge(139, 109, 35).
edge(40, 125, 33).
edge(103, 122, 8).
edge(85, 128, 35).
edge(35, 145, 11).
edge(109, 88, 7).
edge(101, 152, 39).
edge(39, 13, 16).
edge(138, 159, 18).
edge(125, 136, 38).
edge(109, 96, 1).
edge(63, 114, 3).
edge(68, 15, 27).
edge(127, 159, 38).
edge(49, 19, 24).
edge(14, 171, 37).
edge(89, 48, 20).
edge(33, 22, 18).
edge(36, 40, 19).
edge(23, 110, 10).
edge(132, 69, 18).
edge(167, 75, 22).
edge(0, 125, 36).
edge(57, 68, 35).
edge(101, 97, 21).
edge(3, 61, 9).
edge(122, 151, 7).
edge(7, 141, 16).
edge(65, 152, 20).
edge(0, 99, 30).
edge(144, 6, 15).
edge(162, 115, 31).
edge(49, 128, 31).
edge(44, 161, 12).
edge(150, 138, 38).
edge(83, 164, 12).
edge(94, 14, 38).
edge(22, 12, 24).
edge(121, 72, 21).
edge(88, 62, 11).
edge(127, 73, 9).
edge(70, 33, 8).
edge(88, 154, 18).
edge(129, 42, 36).
edge(55, 30, 38).
edge(141, 28, 5).
edge(38, 22, 35).
edge(79, 135, 34).
edge(128, 90, 27).
edge(8, 9, 8).
edge(129, 149, 21).
edge(161, 128, 13).
edge(37, 111, 29).
edge(152, 102, 19).
edge(111, 138, 31).
edge(114, 77, 23).
edge(46, 170, 6).
edge(14, 38, 8).
edge(120, 87, 36).
edge(134, 58, 11).
edge(10, 115, 3).
edge(39, 42, 32).
edge(54, 75, 32).
edge(95, 27, 33).
edge(67, 147, 8).
edge(162, 11, 33).
edge(2, 13, 17).
edge(45, 139, 16).
edge(170, 76, 28).
edge(87, 25, 24).
edge(87, 107, 39).
edge(66, 125, 24).
edge(169, 136, 10).
edge(107, 54, 32).
edge(3, 86, 16).
edge(164, 85, 38).
edge(138, 97, 12).
edge(120, 23, 7).
edge(57, 132, 24).
edge(105, 76, 38).
edge(126, 38, 30).
edge(47, 21, 18).
edge(133, 96, 17).
edge(102, 33, 36).
edge(19, 57, 31).
edge(83, 0, 32).
edge(84, 43, 38).
edge(41, 6, 39).
edge(141, 64, 23).
edge(175, 158, 9).
edge(99, 154, 1).
edge(163, 35, 4).
edge(167, 161, 14).
edge(174, 128, 38).
edge(170, 50, 24).
edge(144, 15, 1).
edge(3, 138, 32).
edge(167, 117, 28).
edge(40, 54, 19).
edge(132, 16, 7).
edge(46, 107, 18).
edge(21, 152, 29).
edge(90, 157, 1).
edge(62, 131, 19).
edge(85, 126, 12).
edge(13, 37, 23).
edge(82, 141, 28).
edge(51, 135, 25).
edge(108, 130, 29).
edge(79, 55, 36).
edge(158, 58, 27).
edge(63, 3, 1).
edge(115, 94, 37).
edge(25, 134, 23).
edge(95, 112, 10).
edge(168, 152, 9).
edge(52, 41, 16).
edge(68, 130, 29).
edge(44, 129, 33).
edge(158, 120, 2).
edge(117, 78, 35).
edge(113, 35, 19).
edge(176, 10, 33).
edge(66, 57, 27).
edge(123, 164, 33).
edge(43, 95, 5).
edge(165, 68, 25).
edge(37, 67, 23).
edge(110, 96, 26).
edge(122, 162, 6).
edge(138, 158, 29).
edge(85, 14, 11).
edge(96, 47, 17).
edge(160, 144, 10).
edge(17, 30, 21).
edge(89, 34, 6).
edge(10, 122, 35).
edge(94, 28, 15).
edge(112, 77, 30).
edge(35, 101, 10).
edge(163, 149, 38).
edge(116, 108, 4).
edge(25, 42, 28).
edge(50, 118, 29).
edge(79, 117, 9).
edge(161, 96, 10).
edge(135, 47, 13).
edge(94, 171, 18).
edge(24, 72, 23).
edge(153, 166, 28).
edge(167, 125, 29).
edge(125, 129, 6).
edge(94, 48, 13).
edge(0, 171, 4).
edge(50, 14, 2).
edge(134, 121, 11).
edge(49, 88, 27).
edge(75, 92, 10).
edge(9, 25, 2).
edge(159, 131, 22).
edge(158, 57, 39).
edge(87, 113, 38).
edge(110, 143, 18).
edge(146, 117, 32).
edge(17, 4, 13).
edge(35, 15, 4).
edge(5, 98, 28).
edge(80, 134, 14).
edge(11, 8, 8).
edge(149, 159, 7).
edge(48, 56, 20).
edge(102, 121, 22).
edge(41, 48, 2).
edge(97, 76, 9).
edge(36, 164, 9).
edge(20, 159, 8).
edge(150, 1, 39).
edge(89, 73, 12).
edge(72, 10, 33).
edge(4, 45, 6).
edge(159, 47, 3).
edge(62, 60, 12).
edge(129, 133, 22).
edge(149, 118, 28).
edge(37, 98, 30).
edge(115, 80, 21).
edge(129, 171, 30).
edge(18, 166, 8).
edge(45, 100, 4).
edge(86, 113, 7).
edge(163, 78, 24).
edge(20, 72, 28).
edge(176, 5, 38).
edge(91, 69, 15).
edge(32, 71, 28).
edge(76, 112, 15).
edge(156, 90, 38).
edge(5, 100, 27).
edge(87, 120, 1).
edge(28, 152, 26).
edge(49, 105, 16).
edge(159, 126, 33).
edge(88, 2, 13).
edge(13, 109, 22).
edge(143, 116, 19).
edge(105, 58, 36).
edge(168, 174, 35).
edge(14, 45, 39).
edge(10, 150, 17).
edge(153, 77, 30).
edge(47, 64, 28).
edge(153, 99, 36).
edge(49, 85, 22).
edge(145, 15, 30).
edge(109, 11, 37).
edge(12, 18, 23).
edge(62, 28, 25).
edge(14, 11, 1).
edge(107, 103, 11).
edge(136, 96, 32).
edge(168, 116, 23).
edge(10, 160, 25).
edge(136, 20, 9).
edge(93, 67, 18).
edge(156, 46, 4).
edge(68, 90, 15).
edge(12, 43, 24).
edge(158, 160, 11).
edge(84, 31, 8).
edge(123, 42, 33).
edge(98, 148, 20).
edge(61, 86, 12).
edge(172, 103, 28).
edge(119, 40, 26).
edge(10, 56, 4).
edge(121, 35, 7).
edge(108, 37, 1).
edge(33, 171, 28).
edge(8, 123, 10).
edge(39, 102, 11).
edge(33, 87, 16).
edge(175, 55, 16).
edge(129, 64, 35).
edge(82, 174, 13).
edge(1, 23, 9).
edge(18, 142, 30).
edge(137, 43, 5).
edge(57, 167, 2).
edge(71, 51, 14).
edge(160, 22, 24).
edge(26, 140, 28).
edge(8, 71, 39).
edge(131, 142, 20).
edge(101, 8, 13).
edge(68, 2, 32).
edge(136, 10, 25).
edge(60, 41, 24).
edge(66, 161, 25).
edge(41, 82, 35).
edge(154, 76, 17).
edge(111, 13, 14).
edge(53, 142, 24).
edge(32, 124, 38).
edge(31, 114, 18).
edge(54, 122, 20).
edge(32, 120, 11).
edge(115, 176, 21).
edge(43, 110, 3).
edge(83, 152, 36).
edge(51, 103, 36).
edge(98, 75, 13).
edge(25, 159, 13).
edge(48, 152, 12).
edge(101, 93, 32).
edge(42, 64, 31).
edge(50, 47, 20).
edge(68, 43, 19).
edge(162, 159, 5).
edge(78, 130, 18).
edge(7, 9, 16).
edge(101, 39, 25).
edge(71, 18, 20).
edge(47, 15, 28).
edge(5, 173, 4).
edge(38, 74, 27).
edge(30, 64, 34).
edge(99, 43, 30).
edge(66, 176, 6).
edge(2, 9, 27).
edge(4, 174, 2).
edge(31, 158, 5).
edge(77, 143, 4).
edge(38, 140, 20).
edge(50, 82, 8).
edge(56, 16, 26).
edge(25, 152, 24).
edge(89, 54, 3).
edge(90, 112, 20).
edge(143, 151, 19).
edge(139, 143, 38).
edge(1, 103, 17).
edge(170, 151, 19).
edge(116, 155, 24).
edge(101, 143, 23).
edge(29, 47, 11).
edge(11, 164, 37).
edge(96, 15, 17).
edge(8, 112, 16).
edge(47, 112, 15).
edge(154, 43, 3).
edge(123, 140, 25).
edge(173, 168, 18).
edge(125, 116, 10).
edge(59, 124, 28).
edge(127, 9, 15).
edge(132, 21, 15).
edge(60, 50, 39).
edge(41, 53, 38).
edge(145, 46, 22).
edge(28, 47, 30).
edge(93, 45, 18).
edge(139, 135, 8).
edge(6, 151, 34).
edge(59, 156, 7).
edge(124, 98, 22).
edge(21, 60, 24).
edge(156, 108, 31).
edge(7, 64, 33).
edge(17, 41, 24).
edge(73, 77, 9).
edge(47, 91, 39).
edge(83, 37, 33).
edge(4, 124, 26).
edge(99, 160, 5).
edge(138, 175, 21).
edge(138, 0, 32).
edge(168, 160, 15).
edge(101, 83, 23).
edge(110, 80, 9).
edge(131, 50, 28).
edge(8, 39, 6).
edge(47, 128, 22).
edge(53, 103, 19).
edge(92, 89, 20).
edge(93, 4, 18).
edge(75, 6, 23).
edge(75, 131, 28).
edge(50, 19, 16).
edge(121, 41, 16).
edge(85, 17, 14).
edge(31, 27, 6).
edge(140, 148, 5).
edge(81, 140, 28).
edge(45, 31, 38).
edge(45, 29, 20).
edge(95, 10, 26).
edge(93, 69, 27).
edge(137, 80, 31).
edge(47, 9, 8).
edge(168, 25, 2).
edge(168, 53, 4).
edge(53, 24, 11).
edge(46, 18, 12).
edge(158, 82, 36).
edge(99, 33, 19).
edge(100, 58, 6).
edge(62, 65, 15).
edge(60, 92, 31).
edge(90, 95, 21).
edge(60, 28, 24).
edge(39, 2, 28).
edge(127, 79, 16).
edge(30, 28, 11).
edge(25, 116, 17).
edge(85, 141, 24).
edge(53, 107, 11).
edge(6, 90, 37).
edge(158, 16, 9).
edge(79, 130, 22).
edge(91, 94, 24).
edge(10, 116, 4).
edge(167, 62, 29).
edge(86, 28, 6).
edge(121, 58, 5).
edge(141, 108, 36).
edge(168, 57, 17).
edge(118, 100, 35).
edge(172, 14, 27).
edge(65, 158, 3).
edge(37, 6, 29).
edge(41, 64, 32).
edge(128, 120, 9).
edge(137, 69, 16).
edge(127, 97, 30).
edge(48, 116, 5).
edge(78, 139, 34).
edge(135, 119, 36).
edge(22, 168, 8).
edge(147, 102, 15).
edge(61, 79, 13).
edge(21, 164, 26).
edge(155, 131, 2).
edge(140, 25, 26).
edge(100, 120, 14).
edge(10, 77, 3).
edge(40, 14, 18).
edge(110, 50, 5).
edge(127, 68, 18).
edge(111, 150, 12).
edge(68, 119, 12).
edge(69, 84, 16).
edge(97, 166, 39).
edge(131, 53, 32).
edge(129, 83, 9).
edge(166, 96, 31).
edge(151, 155, 7).
edge(55, 3, 34).
edge(0, 106, 17).
edge(76, 98, 20).
edge(14, 22, 26).
edge(62, 147, 27).
edge(141, 105, 39).
edge(111, 129, 12).
edge(22, 48, 26).
edge(157, 28, 32).
edge(0, 31, 21).
edge(46, 50, 32).
edge(141, 104, 31).
edge(69, 36, 23).
edge(30, 159, 14).
edge(34, 86, 18).
edge(111, 75, 25).
edge(42, 121, 21).
edge(44, 88, 31).
edge(106, 140, 35).
edge(9, 40, 30).
edge(67, 164, 21).
edge(9, 90, 24).
edge(159, 86, 38).
edge(146, 27, 30).
edge(147, 127, 5).
edge(113, 97, 4).
edge(18, 29, 16).
edge(113, 174, 16).
edge(55, 31, 37).
edge(20, 137, 32).
edge(33, 96, 7).
edge(159, 108, 18).
edge(158, 125, 27).
edge(80, 1, 11).
edge(144, 33, 19).
edge(137, 48, 31).
edge(110, 25, 18).
edge(146, 154, 30).
edge(154, 120, 30).
edge(109, 35, 31).
edge(24, 148, 37).
edge(89, 17, 29).
edge(144, 169, 39).
edge(57, 79, 13).
edge(84, 6, 19).
edge(42, 37, 30).
edge(49, 64, 6).
edge(159, 141, 13).
edge(7, 171, 27).
edge(71, 11, 38).
edge(113, 155, 21).
edge(93, 16, 26).
edge(53, 128, 15).
edge(64, 120, 13).
edge(34, 41, 28).
edge(36, 123, 19).
edge(159, 56, 1).
edge(128, 100, 24).
edge(162, 36, 5).
edge(103, 43, 35).
edge(88, 63, 12).
edge(47, 103, 39).
edge(168, 32, 35).
edge(96, 63, 20).
edge(88, 135, 31).
edge(84, 58, 23).
edge(5, 66, 15).
edge(151, 53, 34).
edge(39, 92, 7).
edge(157, 43, 19).
edge(22, 43, 12).
edge(19, 131, 27).
edge(133, 112, 5).
edge(153, 144, 12).
edge(37, 144, 39).
edge(121, 39, 10).
edge(61, 50, 16).
edge(74, 129, 28).
edge(58, 123, 37).
edge(56, 159, 8).
edge(50, 56, 23).
edge(148, 152, 11).
edge(28, 41, 9).
edge(70, 9, 32).
edge(144, 156, 20).
edge(132, 53, 5).
edge(53, 164, 9).
edge(95, 81, 18).
edge(116, 142, 28).
edge(94, 131, 3).
edge(89, 139, 14).
edge(69, 106, 36).
edge(45, 161, 24).
edge(146, 143, 6).
edge(67, 161, 22).
edge(159, 30, 9).
edge(130, 170, 29).
edge(109, 119, 2).
edge(67, 16, 24).
edge(7, 67, 37).
edge(29, 53, 32).
edge(98, 23, 26).
edge(94, 146, 25).
edge(110, 82, 14).
edge(167, 23, 35).
edge(43, 115, 22).
edge(87, 40, 8).
edge(23, 81, 16).
edge(41, 87, 29).
edge(0, 105, 36).
edge(65, 151, 37).
edge(115, 9, 14).
edge(157, 102, 18).
edge(45, 160, 10).
edge(50, 46, 17).
edge(38, 151, 14).
edge(102, 150, 1).
edge(151, 29, 29).
edge(0, 119, 22).
edge(87, 12, 21).
edge(54, 129, 4).
edge(4, 86, 31).
edge(132, 169, 5).
edge(39, 19, 28).
edge(85, 21, 18).
edge(116, 149, 14).
edge(57, 39, 18).
edge(18, 42, 33).
edge(51, 55, 23).
edge(174, 66, 25).
edge(84, 30, 33).
edge(130, 13, 38).
edge(121, 87, 35).
edge(51, 68, 21).
edge(2, 176, 13).
edge(77, 92, 6).
edge(34, 158, 33).
edge(67, 74, 14).
edge(173, 50, 23).
edge(13, 131, 18).
edge(148, 79, 30).
edge(58, 108, 38).
edge(4, 30, 20).
edge(125, 19, 6).
edge(2, 25, 28).
edge(163, 119, 5).
edge(148, 115, 16).
edge(117, 21, 12).
edge(152, 95, 29).
edge(107, 50, 32).
edge(30, 114, 18).
edge(59, 77, 27).
edge(100, 36, 37).
edge(40, 8, 38).
edge(92, 166, 3).
edge(90, 62, 1).
edge(112, 39, 32).
edge(44, 142, 19).
edge(11, 158, 8).
edge(77, 48, 28).
edge(50, 24, 14).
edge(149, 82, 6).
edge(123, 124, 25).
edge(103, 66, 4).
edge(137, 27, 21).
edge(45, 48, 28).
edge(115, 31, 12).
edge(169, 151, 5).
edge(0, 111, 2).
edge(95, 138, 19).
edge(102, 137, 35).
edge(156, 63, 24).
edge(53, 15, 36).
edge(10, 174, 9).
edge(93, 87, 21).
edge(50, 134, 16).
edge(84, 145, 23).
edge(57, 128, 9).
edge(59, 21, 32).
edge(141, 159, 21).
edge(64, 138, 18).
edge(101, 61, 27).
edge(66, 49, 18).
edge(66, 121, 32).
edge(113, 161, 39).
edge(86, 120, 5).
edge(67, 153, 19).
edge(59, 58, 38).
edge(19, 163, 24).
edge(12, 46, 27).
edge(68, 17, 5).
edge(18, 23, 19).
edge(171, 131, 2).
edge(30, 58, 7).
edge(42, 35, 16).
edge(71, 74, 34).
edge(118, 90, 30).
edge(66, 170, 28).
edge(145, 139, 25).
edge(77, 176, 3).
edge(122, 159, 23).
edge(126, 143, 16).
edge(126, 142, 22).
edge(146, 72, 4).
edge(22, 157, 13).
edge(16, 82, 33).
edge(83, 129, 13).
edge(146, 101, 7).
edge(51, 45, 38).
edge(161, 1, 10).
edge(64, 33, 2).
edge(119, 176, 33).
edge(18, 71, 17).
edge(127, 134, 12).
edge(81, 14, 32).
edge(42, 48, 20).
edge(15, 145, 10).
edge(19, 26, 35).
edge(122, 103, 38).
edge(12, 32, 6).
edge(152, 53, 24).
edge(28, 87, 14).
edge(148, 65, 6).
edge(115, 37, 2).
edge(87, 174, 8).
edge(5, 10, 14).
edge(157, 80, 11).
edge(90, 134, 8).
edge(73, 17, 14).
edge(128, 74, 10).
edge(58, 50, 31).
edge(152, 172, 4).
edge(3, 26, 36).
edge(3, 159, 14).
edge(56, 100, 32).
edge(127, 28, 13).
edge(138, 25, 39).
edge(28, 99, 28).
edge(176, 85, 32).
edge(108, 76, 29).
edge(171, 44, 19).
edge(68, 41, 24).
edge(53, 119, 21).
edge(30, 41, 39).
edge(96, 27, 36).
edge(68, 102, 33).
edge(150, 9, 22).
edge(131, 91, 1).
edge(96, 99, 22).
edge(69, 100, 22).
edge(10, 29, 7).
edge(52, 37, 7).
edge(128, 117, 38).
edge(38, 37, 30).
edge(51, 0, 23).
edge(54, 51, 30).
edge(116, 88, 35).
edge(50, 95, 8).
edge(47, 124, 9).
edge(58, 148, 1).
edge(68, 3, 2).
edge(145, 34, 34).
edge(121, 75, 31).
edge(87, 155, 26).
edge(136, 163, 3).
edge(111, 100, 9).
edge(155, 169, 24).
edge(145, 16, 22).
edge(43, 55, 16).
edge(141, 39, 24).
edge(108, 174, 17).
edge(123, 162, 24).
edge(71, 118, 20).
edge(168, 52, 8).
edge(155, 176, 24).
edge(20, 60, 37).
edge(52, 157, 23).
edge(174, 73, 27).
edge(62, 1, 11).
edge(68, 99, 36).
edge(25, 122, 12).
edge(128, 160, 15).
edge(27, 97, 2).
edge(161, 121, 37).
edge(78, 11, 27).
edge(57, 18, 31).
edge(10, 126, 21).
edge(151, 25, 39).
edge(64, 174, 31).
edge(51, 90, 34).
edge(97, 159, 8).
edge(110, 123, 14).
edge(152, 85, 5).
edge(157, 88, 20).
edge(101, 175, 37).
edge(98, 9, 7).
edge(89, 164, 28).
edge(2, 139, 38).
edge(174, 96, 20).
edge(71, 31, 33).
edge(52, 64, 27).
edge(130, 66, 22).
edge(85, 8, 26).
edge(45, 56, 37).
edge(156, 104, 32).
edge(6, 162, 21).
edge(37, 80, 7).
edge(92, 108, 32).
edge(124, 122, 17).
edge(116, 51, 29).
edge(78, 79, 35).
edge(32, 12, 37).
edge(143, 122, 5).
edge(112, 134, 2).
edge(137, 143, 22).
edge(104, 157, 33).
edge(134, 174, 35).
edge(160, 35, 12).
edge(134, 110, 27).
edge(10, 8, 23).
edge(2, 128, 36).
edge(97, 67, 31).
edge(112, 57, 39).
edge(15, 126, 7).
edge(124, 128, 23).
edge(98, 100, 18).
edge(94, 44, 22).
edge(48, 162, 5).
edge(57, 123, 37).
edge(113, 40, 24).
edge(100, 62, 13).
edge(63, 97, 3).
edge(57, 71, 12).
edge(81, 72, 13).
edge(155, 6, 32).
edge(131, 83, 7).
edge(61, 115, 15).
edge(154, 2, 28).
edge(74, 149, 27).
edge(9, 78, 20).
edge(32, 140, 16).
edge(142, 4, 8).
edge(119, 67, 31).
edge(125, 117, 22).
edge(176, 29, 26).
edge(85, 75, 23).
edge(87, 144, 35).
edge(17, 90, 15).
edge(65, 113, 16).
edge(3, 81, 1).
edge(165, 99, 19).
edge(112, 160, 23).
edge(99, 53, 13).
edge(20, 82, 14).
edge(33, 137, 24).
edge(141, 41, 15).
edge(105, 65, 29).
edge(142, 55, 5).
edge(96, 110, 39).
edge(99, 74, 7).
edge(27, 152, 38).
edge(64, 144, 29).
edge(58, 97, 10).
edge(144, 105, 38).
edge(39, 142, 2).
edge(100, 95, 32).
edge(101, 120, 26).
edge(66, 174, 16).
edge(52, 12, 16).
edge(114, 45, 11).
edge(51, 19, 11).
edge(5, 15, 36).
edge(75, 70, 16).
edge(12, 104, 26).
edge(163, 153, 20).
edge(139, 152, 12).
edge(97, 106, 20).
edge(21, 134, 16).
edge(145, 40, 9).
edge(10, 146, 16).
edge(56, 152, 22).
edge(115, 45, 14).
edge(134, 25, 35).
edge(151, 57, 27).
edge(86, 112, 2).
edge(47, 16, 6).
edge(144, 133, 39).
edge(122, 82, 37).
edge(94, 102, 28).
edge(121, 106, 16).
edge(7, 29, 23).
edge(88, 149, 18).
edge(141, 35, 28).
edge(168, 50, 25).
edge(0, 16, 32).
edge(174, 77, 38).
edge(104, 120, 39).
edge(58, 133, 15).
edge(53, 129, 11).
edge(94, 139, 8).
edge(82, 39, 24).
edge(91, 1, 17).
edge(24, 174, 30).
edge(16, 106, 2).
edge(96, 158, 15).
edge(20, 113, 38).
edge(159, 168, 9).
edge(121, 16, 5).
edge(39, 164, 37).
edge(81, 59, 12).
edge(46, 37, 20).
edge(58, 127, 27).
edge(56, 150, 32).
edge(145, 102, 2).
edge(91, 140, 10).
edge(157, 64, 35).
edge(21, 126, 21).
edge(90, 11, 19).
edge(86, 33, 31).
edge(36, 57, 13).
edge(103, 93, 37).
edge(64, 0, 32).
edge(164, 109, 26).
edge(85, 101, 4).
edge(45, 43, 38).
edge(128, 62, 34).
edge(20, 59, 16).
edge(176, 66, 2).
edge(76, 114, 38).
edge(92, 158, 32).
edge(43, 16, 1).
edge(17, 132, 8).
edge(77, 11, 9).
edge(138, 166, 25).
edge(118, 4, 10).
edge(53, 72, 31).
edge(16, 157, 24).
edge(17, 56, 30).
edge(96, 67, 31).
edge(60, 104, 2).
edge(107, 126, 6).
edge(17, 160, 21).
edge(87, 30, 37).
edge(106, 10, 18).
edge(135, 40, 4).
edge(139, 66, 33).
edge(111, 130, 37).
edge(17, 101, 36).
edge(32, 144, 34).
edge(140, 77, 27).
edge(46, 130, 32).
edge(111, 68, 12).
edge(27, 172, 8).
edge(17, 133, 6).
edge(18, 152, 5).
edge(156, 129, 33).
edge(176, 107, 16).
edge(51, 83, 35).
edge(55, 145, 3).
edge(138, 17, 3).
edge(140, 93, 18).
edge(140, 21, 13).
edge(116, 10, 5).
edge(162, 107, 25).
edge(99, 82, 21).
edge(111, 157, 16).
edge(114, 16, 26).
edge(68, 170, 20).
edge(142, 66, 14).
edge(12, 74, 37).
edge(104, 145, 17).
edge(49, 0, 17).
edge(25, 51, 34).
edge(158, 119, 27).
edge(86, 56, 35).
edge(86, 172, 28).
edge(132, 18, 30).
edge(153, 56, 35).
edge(14, 108, 34).
edge(162, 173, 15).
edge(98, 82, 24).
edge(102, 65, 27).
edge(27, 7, 31).
edge(158, 90, 16).
edge(16, 9, 20).
edge(167, 155, 7).
edge(116, 102, 11).
edge(166, 69, 20).
edge(112, 74, 34).
edge(140, 123, 14).
edge(155, 71, 28).
edge(46, 25, 5).
edge(76, 175, 31).
edge(56, 165, 8).
edge(123, 52, 2).
edge(133, 81, 26).
edge(23, 79, 11).
edge(149, 24, 1).
edge(64, 32, 29).
edge(131, 101, 21).
edge(102, 173, 3).
edge(29, 136, 18).
edge(101, 136, 31).
edge(61, 10, 17).
edge(100, 118, 32).
edge(71, 147, 22).
edge(44, 139, 11).
edge(158, 107, 7).
edge(59, 166, 13).
edge(129, 166, 12).
edge(158, 3, 9).
edge(33, 92, 7).
edge(104, 155, 11).
edge(68, 149, 34).
edge(74, 76, 35).
edge(67, 66, 16).
edge(27, 155, 2).
edge(152, 48, 36).
edge(88, 124, 31).
edge(167, 1, 19).
edge(153, 37, 38).
edge(73, 87, 8).
edge(141, 74, 2).
edge(170, 124, 6).
edge(59, 115, 27).
edge(36, 150, 17).
edge(80, 83, 19).
edge(13, 119, 36).
edge(48, 12, 16).
edge(122, 42, 3).
edge(152, 57, 38).
edge(39, 55, 7).
edge(152, 103, 29).
edge(59, 147, 32).
edge(79, 84, 38).
edge(109, 112, 11).
edge(121, 29, 8).
edge(56, 105, 11).
edge(61, 77, 23).
edge(158, 15, 7).
edge(65, 93, 9).
edge(126, 154, 24).
edge(80, 135, 36).
edge(7, 68, 5).
edge(153, 69, 35).
edge(126, 9, 26).
edge(102, 113, 1).
edge(49, 160, 25).
edge(63, 135, 22).
edge(119, 91, 10).
edge(103, 138, 4).
edge(151, 44, 33).
edge(82, 148, 33).
edge(76, 115, 23).
edge(136, 65, 30).
edge(62, 144, 36).
edge(129, 55, 2).
edge(39, 75, 5).
edge(165, 90, 4).
edge(21, 69, 36).
edge(95, 98, 28).
edge(163, 4, 22).
edge(10, 102, 38).
edge(50, 71, 29).
edge(89, 69, 32).
edge(9, 92, 22).
edge(135, 66, 13).
edge(157, 173, 39).
edge(30, 7, 17).
edge(122, 3, 31).
edge(65, 104, 34).
edge(134, 38, 39).
edge(142, 20, 31).
edge(34, 160, 24).
edge(131, 102, 35).
edge(8, 43, 19).
edge(156, 148, 32).
edge(128, 172, 4).
edge(96, 113, 12).
edge(80, 108, 3).
edge(100, 135, 32).
edge(139, 98, 3).
edge(43, 47, 39).
edge(73, 11, 4).
edge(116, 107, 9).
edge(60, 114, 26).
edge(66, 103, 7).
edge(172, 91, 37).
edge(128, 138, 12).
edge(23, 9, 2).
edge(174, 104, 20).
edge(144, 77, 30).
edge(141, 146, 31).
edge(18, 9, 33).
edge(101, 107, 27).
edge(36, 17, 5).
edge(110, 78, 25).
edge(26, 40, 23).
edge(76, 39, 23).
edge(174, 117, 1).
edge(10, 38, 9).
edge(30, 75, 2).
edge(141, 66, 36).
edge(91, 146, 8).
edge(71, 133, 3).
edge(10, 141, 23).
edge(49, 152, 10).
edge(86, 163, 16).
edge(56, 5, 37).
edge(60, 108, 6).
edge(92, 145, 38).
edge(64, 67, 7).
edge(75, 22, 16).
edge(42, 145, 6).
edge(8, 28, 9).
edge(2, 111, 15).
edge(124, 113, 11).
edge(60, 119, 23).
edge(102, 5, 33).
edge(108, 72, 3).
edge(122, 121, 30).
edge(78, 52, 22).
edge(165, 81, 9).
edge(31, 129, 9).
edge(65, 138, 12).
edge(76, 96, 30).
edge(59, 61, 9).
edge(42, 88, 10).
edge(133, 41, 23).
edge(89, 132, 37).
edge(25, 114, 33).
edge(122, 5, 10).
edge(24, 15, 12).
edge(118, 145, 17).
edge(95, 57, 27).
edge(49, 11, 17).
edge(57, 96, 20).
edge(71, 114, 19).
edge(104, 150, 28).
edge(82, 131, 31).
edge(149, 64, 38).
edge(121, 19, 27).
edge(104, 70, 29).
edge(169, 109, 1).
edge(107, 6, 16).
edge(11, 72, 31).
edge(11, 146, 24).
edge(132, 126, 11).
edge(161, 87, 16).
edge(84, 154, 37).
edge(43, 113, 28).
edge(68, 83, 36).
edge(12, 30, 22).
edge(113, 26, 39).
edge(146, 134, 1).
edge(127, 128, 9).
edge(62, 26, 10).
edge(82, 46, 25).
edge(0, 65, 1).
edge(135, 52, 32).
edge(36, 69, 24).
edge(95, 106, 13).
edge(35, 176, 17).
edge(17, 25, 1).
edge(106, 54, 22).
edge(119, 127, 17).
edge(68, 88, 26).
edge(127, 51, 14).
edge(157, 50, 13).
edge(173, 120, 39).
edge(139, 84, 10).
edge(42, 13, 14).
edge(139, 7, 24).
edge(70, 59, 19).
edge(33, 16, 39).
edge(73, 13, 22).
edge(142, 60, 32).
edge(54, 1, 23).
edge(127, 16, 14).
edge(32, 170, 9).
edge(49, 99, 16).
edge(156, 71, 10).
edge(102, 163, 38).
edge(121, 23, 2).
edge(126, 51, 1).
edge(66, 132, 38).
edge(106, 149, 39).
edge(134, 151, 25).
edge(136, 84, 20).
edge(139, 147, 32).
edge(152, 46, 19).
edge(98, 144, 19).
edge(97, 52, 13).
edge(50, 120, 14).
edge(134, 141, 29).
edge(40, 45, 21).
edge(139, 14, 12).
edge(116, 28, 29).
edge(32, 80, 17).
edge(57, 81, 33).
edge(148, 146, 23).
edge(124, 64, 18).
edge(73, 132, 26).
edge(72, 91, 18).
edge(138, 94, 4).
edge(171, 138, 2).
edge(23, 72, 2).
edge(133, 140, 15).
edge(79, 106, 15).
edge(111, 116, 7).
edge(96, 38, 31).
edge(168, 140, 21).
edge(52, 56, 24).
edge(18, 88, 33).
edge(111, 147, 5).
edge(117, 121, 35).
edge(169, 147, 23).
edge(46, 99, 22).
edge(150, 176, 26).
edge(41, 104, 28).
edge(48, 104, 12).
edge(45, 118, 12).
edge(109, 78, 27).
edge(77, 135, 18).
edge(152, 67, 20).
edge(57, 152, 21).
edge(107, 87, 27).
edge(77, 31, 24).
edge(91, 22, 30).
edge(70, 68, 37).
edge(35, 128, 2).
edge(161, 103, 8).
edge(24, 64, 14).
edge(151, 35, 10).
edge(69, 153, 35).
edge(66, 88, 27).
edge(15, 93, 33).
edge(80, 11, 1).
edge(165, 155, 31).
edge(28, 76, 39).
edge(170, 115, 33).
edge(30, 144, 9).
edge(66, 51, 31).
edge(44, 40, 21).
edge(42, 7, 22).
edge(31, 164, 14).
edge(56, 70, 37).
edge(168, 148, 37).
edge(29, 156, 27).
edge(125, 76, 25).
edge(52, 51, 32).
edge(54, 13, 14).
edge(34, 161, 1).
edge(50, 171, 12).
edge(86, 131, 8).
edge(89, 156, 1).
edge(66, 39, 16).
edge(40, 100, 15).
edge(154, 170, 33).
edge(151, 0, 1).
edge(83, 157, 1).
edge(5, 89, 22).
edge(80, 149, 34).
edge(84, 141, 10).
edge(36, 152, 1).
edge(105, 75, 1).
edge(149, 12, 32).
edge(137, 171, 1).
edge(90, 1, 31).
edge(61, 81, 15).
edge(124, 126, 17).
edge(129, 75, 18).
edge(107, 67, 5).
edge(113, 160, 36).
edge(87, 157, 28).
edge(5, 113, 33).
edge(1, 13, 36).
edge(98, 138, 27).
edge(154, 128, 37).
edge(36, 142, 14).
edge(148, 23, 16).
edge(136, 155, 15).
edge(111, 136, 10).
edge(67, 50, 11).
edge(165, 9, 35).
edge(105, 134, 21).
edge(125, 67, 26).
edge(70, 47, 35).
edge(120, 88, 8).
edge(88, 19, 34).
edge(94, 125, 2).
edge(81, 112, 14).
edge(109, 99, 31).
edge(79, 161, 27).
edge(43, 32, 28).
edge(132, 46, 23).
edge(46, 82, 25).
edge(154, 80, 15).
edge(58, 76, 22).
edge(129, 39, 35).
edge(99, 116, 4).
edge(149, 55, 27).
edge(95, 158, 12).
edge(57, 11, 10).
edge(109, 150, 9).
edge(106, 117, 19).
edge(147, 104, 27).
edge(146, 23, 18).
edge(13, 41, 30).
edge(163, 146, 12).
edge(100, 123, 12).
edge(29, 133, 5).
edge(14, 148, 2).
edge(88, 9, 17).
edge(18, 163, 30).
edge(49, 159, 34).
edge(129, 33, 14).
edge(168, 131, 6).
edge(103, 41, 26).
edge(38, 168, 34).
edge(27, 128, 22).
edge(147, 117, 16).
edge(62, 24, 4).
edge(64, 12, 9).
edge(114, 59, 6).
edge(83, 99, 18).
edge(120, 119, 4).
edge(83, 115, 26).
edge(173, 8, 23).
edge(40, 96, 33).
edge(154, 53, 39).
edge(60, 140, 7).
edge(96, 13, 18).
edge(74, 115, 15).
edge(112, 43, 34).
edge(13, 165, 3).
edge(2, 55, 11).
edge(76, 131, 5).
edge(129, 157, 26).
edge(32, 112, 23).
edge(24, 8, 6).
edge(123, 166, 27).
edge(34, 122, 34).
edge(151, 90, 14).
edge(55, 110, 9).
edge(129, 107, 36).
edge(153, 33, 1).
edge(109, 87, 38).
edge(30, 35, 6).
edge(141, 113, 17).
edge(110, 106, 23).
edge(110, 145, 6).
edge(128, 110, 36).
edge(12, 9, 22).
edge(91, 137, 30).
edge(46, 80, 3).
edge(166, 66, 33).
edge(44, 67, 8).
edge(7, 21, 34).
edge(95, 44, 27).
edge(109, 15, 15).
edge(72, 24, 33).
edge(157, 25, 4).
edge(144, 68, 35).
edge(114, 0, 2).
edge(91, 25, 9).
edge(43, 120, 5).
edge(92, 97, 16).
edge(119, 24, 1).
edge(15, 67, 6).
edge(13, 7, 32).
edge(138, 95, 35).
edge(159, 154, 12).
edge(173, 132, 38).
edge(45, 94, 9).
edge(128, 75, 39).
edge(170, 88, 31).
edge(26, 93, 17).
edge(171, 38, 15).
edge(52, 147, 19).
edge(170, 60, 36).
edge(119, 9, 38).
edge(22, 5, 38).
edge(92, 165, 21).
edge(44, 46, 31).
edge(76, 22, 10).
edge(59, 137, 33).
edge(151, 172, 33).
edge(60, 43, 13).
edge(24, 124, 17).
edge(151, 66, 35).
edge(59, 171, 26).
edge(12, 69, 10).
edge(92, 86, 12).
edge(25, 97, 11).
edge(172, 21, 2).
edge(4, 146, 3).
edge(47, 81, 38).
edge(163, 102, 31).
edge(8, 120, 4).
edge(104, 4, 17).
edge(152, 38, 23).
edge(125, 10, 11).
edge(141, 62, 4).
edge(118, 174, 23).
edge(7, 52, 11).
edge(107, 122, 19).
edge(5, 73, 14).
edge(165, 80, 33).
edge(11, 22, 23).
edge(42, 112, 20).
edge(42, 101, 34).
edge(91, 26, 3).
edge(138, 22, 25).
edge(7, 37, 1).
edge(168, 86, 15).
edge(50, 89, 5).
edge(119, 130, 39).
edge(64, 154, 35).
edge(120, 98, 11).
edge(48, 151, 39).
edge(172, 62, 37).
edge(146, 171, 2).
edge(80, 34, 9).
edge(86, 69, 18).
edge(23, 75, 2).
edge(63, 29, 17).
edge(39, 132, 35).
edge(63, 119, 23).
edge(26, 56, 10).
edge(128, 0, 18).
edge(123, 104, 4).
edge(147, 27, 35).
edge(68, 110, 34).
edge(109, 22, 13).
edge(24, 98, 30).
edge(176, 153, 7).
edge(2, 127, 3).
edge(53, 69, 6).
edge(166, 38, 6).
edge(59, 41, 36).
edge(81, 11, 36).
edge(43, 91, 31).
edge(164, 99, 7).
edge(75, 128, 34).
edge(17, 33, 33).
edge(170, 176, 26).
edge(79, 125, 12).
edge(145, 126, 7).
edge(64, 134, 35).
edge(17, 156, 22).
edge(51, 34, 21).
edge(3, 80, 3).
edge(12, 63, 29).
edge(41, 56, 38).
edge(88, 7, 37).
edge(165, 64, 29).
edge(123, 68, 21).
edge(104, 9, 15).
edge(124, 85, 19).
edge(170, 28, 24).
edge(57, 19, 21).
edge(78, 140, 31).
edge(40, 115, 30).
edge(52, 133, 4).
edge(87, 95, 39).
edge(112, 7, 21).
edge(22, 63, 2).
edge(28, 141, 16).
edge(65, 106, 11).
edge(154, 126, 32).
edge(8, 146, 11).
edge(45, 73, 31).
edge(82, 10, 9).
edge(115, 59, 8).
edge(70, 60, 23).
edge(8, 53, 1).
edge(46, 0, 8).
edge(32, 22, 2).
edge(48, 19, 21).
edge(163, 54, 23).
edge(115, 101, 29).
edge(4, 152, 21).
edge(138, 89, 14).
edge(133, 164, 35).
edge(118, 8, 38).
edge(92, 100, 28).
edge(35, 10, 2).
edge(85, 170, 9).
edge(8, 35, 37).
edge(110, 160, 10).
edge(55, 68, 17).
edge(46, 129, 17).
edge(111, 176, 33).
edge(35, 30, 2).
edge(12, 115, 29).
edge(137, 10, 33).
edge(117, 13, 33).
edge(69, 114, 8).
edge(57, 161, 39).
edge(124, 83, 23).
edge(9, 103, 16).
edge(33, 127, 8).
edge(52, 8, 2).
edge(39, 123, 21).
edge(153, 157, 12).
edge(51, 41, 22).
edge(156, 87, 5).
edge(165, 123, 2).
edge(54, 86, 29).
edge(170, 174, 10).
edge(147, 80, 10).
edge(104, 92, 6).
edge(166, 12, 15).
edge(166, 153, 23).
edge(47, 115, 34).
edge(70, 158, 33).
edge(35, 134, 5).
edge(47, 48, 11).
edge(62, 101, 28).
edge(5, 138, 5).
edge(148, 78, 4).
edge(157, 104, 16).
edge(7, 76, 2).
edge(17, 74, 20).
edge(41, 74, 36).
edge(81, 173, 18).
edge(67, 87, 1).
edge(3, 176, 1).
edge(110, 20, 6).
edge(80, 176, 21).
edge(34, 74, 31).
edge(79, 124, 9).
edge(15, 163, 33).
edge(158, 142, 39).
edge(161, 30, 4).
edge(137, 140, 6).
edge(167, 175, 32).
edge(71, 128, 14).
edge(50, 7, 30).
edge(126, 87, 5).
edge(146, 77, 26).
edge(14, 110, 2).
edge(13, 114, 2).
edge(4, 27, 32).
edge(70, 149, 12).
edge(93, 105, 31).
edge(35, 60, 33).
edge(138, 90, 38).
edge(122, 119, 19).
edge(133, 49, 20).
edge(122, 84, 17).
edge(24, 18, 38).
edge(154, 137, 15).
edge(139, 122, 10).
edge(170, 146, 30).
edge(84, 18, 27).
edge(100, 16, 25).
edge(121, 43, 8).
edge(155, 40, 29).
edge(159, 132, 22).
edge(157, 13, 14).
edge(78, 104, 23).
edge(166, 88, 29).
edge(168, 29, 25).
edge(175, 141, 24).
edge(36, 155, 28).
edge(152, 119, 38).
edge(128, 97, 14).
edge(154, 34, 8).
edge(11, 173, 24).
edge(105, 52, 35).
edge(71, 26, 38).
edge(72, 162, 39).
edge(77, 56, 18).
edge(176, 144, 33).
edge(155, 33, 37).
edge(19, 58, 21).
edge(115, 139, 22).
edge(44, 175, 27).
edge(86, 169, 21).
edge(83, 92, 11).
edge(53, 174, 28).
edge(159, 135, 16).
edge(144, 138, 30).
edge(89, 70, 37).
edge(2, 38, 33).
edge(20, 96, 9).
edge(127, 65, 34).
edge(114, 71, 26).
edge(151, 56, 25).
edge(134, 157, 33).
edge(71, 96, 17).
edge(120, 110, 28).
edge(169, 175, 19).
edge(18, 117, 19).
edge(29, 98, 21).
edge(49, 57, 29).
edge(12, 56, 25).
edge(94, 8, 16).
edge(30, 164, 39).
edge(141, 137, 2).
edge(160, 75, 8).
edge(68, 175, 9).
edge(29, 83, 26).
edge(7, 84, 3).
edge(41, 125, 20).
edge(110, 94, 34).
edge(156, 70, 36).
edge(39, 149, 25).
edge(108, 57, 12).
edge(84, 10, 6).
edge(70, 154, 19).
edge(127, 176, 32).
edge(108, 50, 32).
edge(157, 145, 22).
edge(8, 2, 32).
edge(123, 69, 23).
edge(38, 61, 2).
edge(160, 5, 27).
edge(175, 31, 14).
edge(11, 12, 10).
edge(161, 169, 21).
edge(17, 1, 3).
edge(38, 85, 17).
edge(45, 91, 34).
edge(163, 156, 3).
edge(143, 47, 14).
edge(171, 30, 36).
edge(168, 79, 8).
edge(8, 98, 6).
edge(17, 147, 19).
edge(92, 121, 23).
edge(63, 176, 22).
edge(138, 118, 37).
edge(21, 143, 11).
edge(155, 123, 6).
edge(54, 60, 2).
edge(138, 152, 11).
edge(148, 53, 19).
edge(25, 124, 13).
edge(11, 49, 7).
edge(30, 160, 39).
edge(16, 58, 36).
edge(23, 84, 7).
edge(126, 166, 11).
edge(144, 26, 36).
edge(1, 30, 20).
edge(31, 39, 28).
edge(31, 148, 17).
edge(166, 33, 5).
edge(65, 1, 3).
edge(16, 171, 22).
edge(73, 69, 19).
edge(141, 158, 35).
edge(170, 128, 39).
edge(94, 42, 2).
edge(135, 29, 19).
edge(146, 71, 33).
edge(74, 43, 28).
edge(95, 96, 22).
edge(132, 146, 17).
edge(96, 123, 20).
edge(151, 72, 37).
edge(147, 163, 4).
edge(170, 84, 14).
edge(166, 83, 38).
edge(100, 145, 36).
edge(13, 17, 25).
edge(127, 2, 23).
edge(30, 45, 15).
edge(14, 52, 31).
edge(71, 25, 5).
edge(117, 58, 19).
edge(172, 47, 39).
edge(161, 4, 19).
edge(150, 17, 38).
edge(101, 165, 12).
edge(91, 129, 2).
edge(117, 160, 2).
edge(145, 65, 5).
edge(105, 20, 22).
edge(146, 163, 38).
edge(40, 101, 28).
edge(77, 74, 25).
edge(14, 160, 4).
edge(74, 108, 19).
edge(140, 62, 37).
edge(171, 148, 21).
edge(3, 142, 21).
edge(76, 47, 3).
edge(42, 136, 22).
edge(135, 14, 2).
edge(168, 169, 13).
edge(57, 133, 33).
edge(117, 36, 5).
edge(39, 86, 10).
edge(15, 98, 21).
edge(20, 169, 28).
edge(105, 142, 1).
edge(5, 120, 7).
edge(40, 144, 17).
edge(160, 82, 3).
edge(153, 176, 33).
edge(71, 30, 13).
edge(17, 5, 30).
edge(173, 48, 1).
edge(80, 75, 1).
edge(8, 30, 27).
edge(83, 110, 36).
edge(48, 70, 4).
edge(58, 7, 36).
edge(68, 73, 7).
edge(5, 42, 19).
edge(3, 103, 28).
edge(111, 135, 20).
edge(70, 82, 1).
edge(175, 56, 35).
edge(10, 9, 31).
edge(160, 21, 16).
edge(84, 139, 8).
edge(56, 96, 29).
edge(93, 125, 35).
edge(2, 54, 5).
edge(151, 159, 18).
edge(141, 101, 6).
edge(35, 86, 29).
edge(145, 71, 22).
edge(102, 170, 14).
edge(109, 68, 16).
edge(98, 165, 19).
edge(11, 59, 30).
edge(169, 89, 4).
edge(25, 107, 21).
edge(49, 86, 29).
edge(161, 5, 28).
edge(144, 43, 34).
edge(60, 171, 34).
edge(93, 20, 37).
edge(83, 151, 37).
edge(135, 133, 21).
edge(97, 156, 12).
edge(56, 109, 4).
edge(86, 51, 19).
edge(95, 4, 26).
edge(166, 137, 38).
edge(53, 25, 29).
edge(49, 141, 8).
edge(71, 77, 12).
edge(142, 54, 2).
edge(123, 39, 6).
edge(9, 44, 3).
edge(35, 143, 11).
edge(89, 65, 36).
edge(170, 85, 35).
edge(68, 134, 35).
edge(70, 151, 22).
edge(170, 63, 26).
edge(154, 26, 21).
edge(53, 26, 16).
edge(83, 62, 11).
edge(64, 105, 3).
edge(175, 113, 21).
edge(36, 153, 16).
edge(63, 20, 29).
edge(54, 82, 11).
edge(50, 146, 13).
edge(85, 153, 3).
edge(121, 38, 7).
edge(153, 88, 1).
edge(158, 165, 27).
edge(116, 114, 13).
edge(103, 55, 6).
edge(122, 123, 22).
edge(55, 75, 4).
edge(13, 12, 29).
edge(21, 22, 21).
edge(20, 138, 31).
edge(79, 5, 24).
edge(15, 148, 13).
edge(142, 74, 23).
edge(82, 136, 12).
edge(0, 51, 24).
edge(36, 95, 20).
edge(76, 119, 36).
edge(155, 115, 24).
edge(133, 57, 33).
edge(78, 173, 12).
edge(143, 25, 21).
edge(25, 56, 9).
edge(91, 41, 14).
edge(25, 75, 35).
edge(107, 7, 1).
edge(142, 9, 23).
edge(37, 112, 13).
edge(167, 91, 3).
edge(123, 60, 25).
edge(109, 108, 16).
edge(130, 21, 1).
edge(78, 10, 30).
edge(140, 105, 25).
edge(49, 67, 31).
edge(119, 13, 16).
edge(18, 43, 10).
edge(76, 110, 18).
edge(46, 91, 5).
edge(143, 91, 15).
edge(88, 164, 9).
edge(11, 153, 36).
edge(77, 55, 31).
edge(149, 129, 30).
edge(38, 15, 39).
edge(62, 114, 27).
edge(91, 154, 39).
edge(107, 70, 19).
edge(168, 61, 18).
edge(11, 95, 37).
edge(54, 119, 32).
edge(118, 2, 16).
edge(101, 168, 38).
edge(152, 138, 23).
edge(22, 163, 14).
edge(154, 35, 28).
edge(76, 125, 28).
edge(45, 71, 35).
edge(27, 44, 28).
edge(176, 112, 37).
edge(89, 108, 20).
edge(21, 109, 23).
edge(124, 110, 26).
edge(6, 57, 13).
edge(69, 123, 22).
edge(79, 72, 15).
edge(39, 158, 33).
edge(75, 100, 31).
edge(136, 132, 19).
edge(100, 116, 35).
edge(62, 64, 6).
edge(163, 17, 18).
edge(122, 146, 35).
edge(153, 173, 38).
edge(149, 105, 11).
edge(120, 14, 23).
edge(96, 124, 27).
edge(22, 58, 12).
edge(21, 9, 23).
edge(16, 94, 7).
edge(169, 149, 26).
edge(46, 131, 5).
edge(16, 63, 32).
edge(65, 139, 24).
edge(158, 55, 31).
edge(58, 141, 19).
edge(131, 122, 34).
edge(36, 91, 12).
edge(20, 74, 10).
edge(111, 97, 38).
edge(49, 21, 35).
edge(173, 135, 26).
edge(100, 96, 39).
edge(50, 32, 5).
edge(116, 154, 29).
edge(109, 173, 31).
edge(164, 12, 3).
edge(170, 6, 25).
edge(51, 69, 9).
edge(145, 58, 11).
edge(64, 4, 21).
edge(71, 135, 38).
edge(173, 86, 19).
edge(58, 128, 4).
edge(103, 120, 37).
edge(42, 54, 5).
edge(145, 14, 20).
edge(173, 141, 5).
edge(150, 7, 36).
edge(166, 10, 5).
edge(6, 91, 20).
edge(72, 147, 34).
edge(130, 75, 15).
edge(10, 131, 11).
edge(162, 68, 29).
edge(131, 74, 30).
edge(3, 102, 2).
edge(61, 141, 7).
edge(171, 35, 38).
edge(42, 69, 18).
edge(107, 135, 12).
edge(129, 128, 14).
edge(162, 2, 27).
edge(108, 126, 9).
edge(139, 153, 14).
edge(25, 30, 32).
edge(122, 87, 4).
edge(135, 128, 6).
edge(122, 115, 10).
edge(141, 0, 31).
edge(40, 171, 12).
edge(35, 132, 18).
edge(142, 125, 13).
edge(125, 168, 16).
edge(100, 174, 7).
edge(35, 111, 39).
edge(100, 54, 6).
edge(111, 107, 2).
edge(137, 113, 3).
edge(39, 163, 36).
edge(66, 50, 32).
edge(27, 61, 22).
edge(115, 161, 38).
edge(166, 26, 16).
edge(176, 159, 31).
edge(117, 104, 19).
edge(125, 111, 18).
edge(162, 117, 27).
edge(70, 143, 8).
edge(150, 45, 6).
edge(130, 97, 32).
edge(163, 9, 3).
edge(59, 37, 5).
edge(39, 64, 31).
edge(83, 72, 23).
edge(18, 146, 6).
edge(122, 59, 25).
edge(6, 171, 15).
edge(124, 9, 39).
edge(146, 164, 22).
edge(138, 72, 17).
edge(109, 90, 21).
edge(4, 126, 21).
edge(6, 131, 10).
edge(115, 97, 33).
edge(82, 8, 9).
edge(3, 15, 9).
edge(6, 108, 31).
edge(146, 59, 28).
edge(136, 122, 37).
edge(102, 86, 12).
edge(167, 128, 39).
edge(96, 74, 35).
edge(165, 59, 17).
edge(3, 58, 21).
edge(108, 166, 35).
edge(45, 134, 25).
edge(31, 118, 26).
edge(90, 72, 2).
edge(176, 141, 27).
edge(171, 159, 15).
edge(78, 172, 9).
edge(139, 142, 23).
edge(148, 135, 19).
edge(133, 111, 30).
edge(136, 128, 39).
edge(142, 89, 11).
edge(148, 158, 12).
edge(12, 1, 2).
edge(128, 103, 39).
edge(63, 123, 16).
edge(56, 97, 30).
edge(132, 55, 38).
edge(98, 116, 31).
edge(106, 49, 4).
edge(35, 50, 33).
edge(79, 111, 3).
edge(173, 52, 20).
edge(30, 128, 5).
edge(36, 29, 32).
edge(73, 102, 29).
edge(152, 27, 34).
edge(10, 68, 26).
edge(140, 129, 27).
edge(119, 111, 37).
edge(91, 96, 22).
edge(140, 83, 17).
edge(25, 55, 26).
edge(18, 151, 39).
edge(136, 46, 34).
edge(44, 9, 38).
edge(116, 27, 12).
edge(159, 147, 13).
edge(65, 48, 36).
edge(69, 122, 13).
edge(169, 19, 35).
edge(71, 8, 11).
edge(54, 105, 7).
edge(45, 6, 13).
edge(170, 166, 4).
edge(54, 84, 19).
edge(112, 149, 28).
edge(125, 176, 2).
edge(173, 69, 8).
edge(74, 168, 39).
edge(144, 35, 12).
edge(155, 161, 14).
edge(126, 131, 23).
edge(100, 102, 32).
edge(46, 38, 20).
edge(74, 123, 38).
edge(73, 124, 12).
edge(67, 99, 34).
edge(149, 125, 14).
edge(99, 117, 6).
edge(91, 138, 12).
edge(78, 143, 30).
edge(114, 36, 36).
edge(26, 24, 22).
edge(129, 136, 11).
edge(31, 29, 26).
edge(19, 132, 11).
edge(121, 73, 21).
edge(173, 59, 39).
edge(118, 109, 35).
edge(22, 137, 32).
edge(131, 66, 23).
edge(42, 56, 2).
edge(81, 99, 16).
edge(17, 36, 34).
edge(117, 41, 16).
edge(167, 30, 31).
edge(81, 22, 13).
edge(17, 159, 3).
edge(147, 168, 5).
edge(135, 131, 2).
edge(128, 17, 1).
edge(41, 52, 7).
edge(84, 50, 24).
edge(112, 72, 19).
edge(147, 115, 15).
edge(103, 57, 1).
edge(49, 79, 28).
edge(10, 104, 11).
edge(87, 128, 15).
edge(47, 109, 8).
edge(72, 59, 25).
edge(99, 71, 8).
edge(31, 89, 36).
edge(158, 78, 24).
edge(88, 161, 15).
edge(71, 48, 22).
edge(98, 69, 16).
edge(36, 167, 36).
edge(111, 36, 20).
edge(50, 130, 6).
edge(121, 147, 8).
edge(95, 172, 39).
edge(62, 84, 22).
edge(118, 10, 2).
edge(52, 29, 28).
edge(101, 130, 1).
edge(82, 34, 9).
edge(32, 98, 15).
edge(11, 14, 38).
edge(142, 114, 7).
edge(166, 2, 20).
edge(175, 42, 8).
edge(126, 16, 9).
edge(49, 135, 5).
edge(4, 19, 23).
edge(75, 107, 8).
edge(173, 0, 22).
edge(106, 30, 27).
edge(45, 150, 27).
edge(50, 85, 27).
edge(42, 60, 2).
edge(5, 86, 32).
edge(1, 39, 1).
edge(116, 127, 24).
edge(174, 120, 4).
edge(52, 94, 7).
edge(143, 35, 16).
edge(4, 83, 23).
edge(18, 77, 29).
edge(132, 150, 17).
edge(155, 98, 15).
edge(43, 147, 33).
edge(90, 116, 25).
edge(69, 87, 38).
edge(159, 138, 27).
edge(20, 107, 13).
edge(17, 108, 35).
edge(149, 25, 25).
edge(54, 98, 14).
edge(134, 104, 26).
edge(119, 5, 26).
edge(100, 89, 29).
edge(13, 45, 31).
edge(149, 122, 11).
edge(135, 107, 3).
edge(119, 143, 19).
edge(115, 2, 24).
edge(62, 17, 13).
edge(151, 14, 21).
edge(19, 69, 39).
edge(131, 40, 35).
edge(133, 79, 16).
edge(175, 149, 38).
edge(51, 7, 30).
edge(57, 30, 19).
edge(7, 86, 20).
edge(23, 28, 35).
edge(171, 36, 28).
edge(121, 42, 12).
edge(93, 146, 18).
edge(126, 69, 4).
edge(10, 70, 1).
edge(133, 109, 7).
edge(71, 159, 38).
edge(70, 16, 12).
edge(121, 88, 38).
edge(81, 39, 39).
edge(50, 31, 23).
edge(43, 148, 14).
edge(165, 129, 13).
edge(10, 50, 10).
edge(100, 161, 24).
edge(29, 78, 26).
edge(164, 48, 23).
edge(72, 84, 19).
edge(155, 109, 13).
edge(165, 173, 6).
edge(4, 157, 19).
edge(156, 84, 11).
edge(71, 170, 9).
edge(158, 132, 3).
edge(86, 11, 14).
edge(79, 78, 28).
edge(131, 133, 9).
edge(86, 44, 26).
edge(159, 66, 30).
edge(59, 22, 16).
edge(111, 86, 37).
edge(81, 93, 10).
edge(103, 68, 8).
edge(161, 109, 21).
edge(148, 51, 17).
edge(7, 32, 8).
edge(31, 100, 10).
edge(27, 151, 13).
edge(44, 84, 32).
edge(111, 56, 13).
edge(171, 65, 6).
edge(160, 31, 29).
edge(91, 85, 25).
edge(110, 165, 11).
edge(12, 155, 31).
edge(81, 79, 4).
edge(174, 39, 9).
edge(97, 68, 16).
edge(112, 58, 14).
edge(87, 33, 2).
edge(117, 79, 34).
edge(96, 136, 35).
edge(154, 160, 38).
edge(31, 63, 6).
edge(120, 90, 12).
edge(11, 19, 21).
edge(111, 170, 35).
edge(109, 81, 29).
edge(28, 78, 21).
edge(163, 114, 1).
edge(117, 29, 24).
edge(66, 70, 22).
edge(45, 35, 13).
edge(89, 46, 19).
edge(43, 172, 7).
edge(164, 76, 39).
edge(105, 53, 15).
edge(87, 62, 35).
edge(43, 136, 34).
edge(76, 30, 30).
edge(42, 118, 11).
edge(157, 49, 28).
edge(160, 114, 29).
edge(59, 81, 1).
edge(26, 132, 24).
edge(147, 63, 32).
edge(160, 18, 12).
edge(149, 146, 11).
edge(121, 103, 23).
edge(147, 129, 29).
edge(158, 68, 33).
edge(143, 149, 1).
edge(47, 139, 25).
edge(136, 43, 30).
edge(87, 55, 23).
edge(97, 58, 1).
edge(176, 28, 11).
edge(11, 25, 5).
edge(9, 45, 24).
edge(97, 34, 23).
edge(31, 90, 29).
edge(103, 16, 33).
edge(103, 40, 14).
edge(158, 17, 13).
edge(88, 97, 1).
edge(26, 94, 19).
edge(45, 142, 7).
edge(8, 77, 8).
edge(59, 165, 4).
edge(4, 96, 30).
edge(164, 39, 4).
edge(36, 154, 38).
edge(130, 129, 29).
edge(131, 43, 14).
edge(60, 166, 39).
edge(10, 173, 18).
edge(20, 39, 6).
edge(18, 148, 19).
edge(69, 38, 11).
edge(137, 66, 38).
edge(41, 159, 23).
edge(11, 143, 26).
edge(10, 14, 5).
edge(34, 66, 18).
edge(130, 153, 9).
edge(18, 22, 35).
edge(137, 147, 18).
edge(78, 131, 11).
edge(154, 113, 9).
edge(133, 121, 10).
edge(57, 34, 1).
edge(150, 74, 4).
edge(127, 91, 14).
edge(99, 119, 17).
edge(47, 100, 25).
edge(71, 109, 10).
edge(49, 37, 28).
edge(101, 70, 3).
edge(159, 88, 11).
edge(155, 65, 36).
edge(116, 99, 24).
edge(123, 21, 22).
edge(36, 161, 7).
edge(139, 134, 25).
edge(157, 55, 23).
edge(44, 38, 22).
edge(164, 29, 26).
edge(146, 100, 32).
edge(68, 172, 35).
edge(48, 176, 5).
edge(100, 104, 30).
edge(123, 176, 15).
edge(72, 103, 13).
edge(33, 40, 34).
edge(100, 150, 36).
edge(4, 168, 14).
edge(138, 87, 14).
edge(122, 148, 2).
edge(146, 76, 31).
edge(135, 39, 5).
edge(21, 28, 11).
edge(120, 151, 21).
edge(62, 22, 34).
edge(173, 83, 13).
edge(18, 74, 23).
edge(0, 131, 39).
edge(0, 87, 17).
edge(27, 32, 36).
edge(129, 27, 20).
edge(42, 104, 3).
edge(45, 115, 27).
edge(110, 35, 23).
edge(138, 173, 9).
edge(15, 25, 13).
edge(47, 93, 19).
edge(143, 97, 33).
edge(145, 77, 37).
edge(73, 108, 36).
edge(81, 151, 12).
edge(119, 80, 21).
edge(58, 54, 38).
edge(121, 111, 20).
edge(34, 146, 24).
edge(161, 37, 23).
edge(100, 124, 7).
edge(106, 4, 16).
edge(102, 47, 13).
edge(114, 42, 28).
edge(32, 55, 13).
edge(117, 133, 23).
edge(24, 20, 38).
edge(94, 104, 37).
edge(142, 25, 24).
edge(73, 126, 12).
edge(5, 91, 7).
edge(167, 140, 38).
edge(170, 154, 18).
edge(148, 157, 31).
edge(152, 116, 20).
edge(65, 76, 25).
edge(102, 111, 37).
edge(149, 6, 2).
edge(42, 113, 13).
edge(110, 64, 20).
edge(66, 111, 10).
edge(51, 16, 27).
edge(5, 156, 11).
edge(32, 4, 13).
edge(32, 135, 30).
edge(167, 6, 38).
edge(4, 98, 9).
edge(103, 161, 32).
edge(82, 126, 7).
edge(116, 71, 4).
edge(30, 69, 16).
edge(43, 133, 25).
edge(24, 0, 36).
edge(136, 83, 6).
edge(107, 39, 20).
edge(10, 27, 4).
edge(116, 140, 33).
edge(20, 163, 4).
edge(27, 107, 36).
edge(107, 117, 39).
edge(114, 145, 21).
edge(112, 76, 29).
edge(145, 172, 18).
edge(63, 107, 29).
edge(145, 59, 28).
edge(167, 34, 27).
edge(8, 63, 25).
edge(147, 14, 34).
edge(172, 64, 37).
edge(150, 43, 19).
edge(44, 39, 25).
edge(131, 168, 3).
edge(56, 153, 20).
edge(49, 176, 17).
edge(56, 121, 33).
edge(37, 18, 32).
edge(44, 95, 38).
edge(99, 85, 11).
edge(0, 136, 22).
edge(133, 135, 27).
edge(90, 23, 26).
edge(79, 30, 39).
edge(83, 172, 27).
edge(138, 84, 3).
edge(147, 156, 12).
edge(93, 110, 27).
edge(13, 129, 23).
edge(95, 8, 11).
edge(165, 167, 24).
edge(127, 117, 19).
edge(14, 123, 35).
edge(135, 143, 2).
edge(159, 174, 30).
edge(142, 41, 18).
edge(96, 77, 27).
edge(110, 97, 13).
edge(87, 170, 24).
edge(66, 172, 10).
edge(134, 167, 31).
edge(72, 113, 19).
edge(7, 127, 10).
edge(0, 162, 21).
edge(33, 143, 2).
edge(134, 150, 11).
edge(154, 172, 30).
edge(108, 52, 19).
edge(174, 111, 11).
edge(91, 16, 28).
edge(38, 10, 27).
edge(81, 91, 36).
edge(143, 80, 2).
edge(34, 8, 1).
edge(125, 137, 35).
edge(112, 38, 36).
edge(168, 65, 39).
edge(141, 77, 8).
edge(58, 75, 21).
edge(65, 39, 21).
edge(73, 129, 25).
edge(123, 139, 39).
edge(9, 94, 29).
edge(32, 99, 1).
edge(156, 119, 1).
edge(86, 174, 5).
edge(34, 173, 18).
edge(68, 127, 2).
edge(47, 105, 5).
edge(159, 90, 39).
edge(141, 161, 27).
edge(15, 54, 9).
edge(166, 20, 22).
edge(140, 165, 2).
edge(55, 168, 36).
edge(24, 39, 30).
edge(157, 133, 18).
edge(30, 20, 38).
edge(129, 69, 31).
edge(80, 78, 8).
edge(62, 16, 27).
edge(132, 11, 3).
edge(60, 101, 25).
edge(78, 155, 13).
edge(121, 22, 31).
edge(68, 4, 8).
edge(48, 108, 34).
edge(91, 150, 33).
edge(138, 150, 3).
edge(23, 13, 15).
edge(66, 148, 7).
edge(174, 108, 32).
edge(174, 67, 5).
edge(29, 175, 17).
edge(60, 46, 21).
edge(119, 105, 14).
edge(74, 53, 8).
edge(147, 3, 17).
edge(33, 174, 4).
edge(3, 167, 9).
edge(109, 155, 21).
edge(57, 170, 17).
edge(37, 102, 35).
edge(53, 104, 2).
edge(126, 125, 39).
edge(156, 61, 23).
edge(53, 63, 12).
edge(70, 1, 11).
edge(108, 104, 37).
edge(80, 38, 28).
edge(129, 2, 12).
edge(65, 52, 8).
edge(55, 151, 4).
edge(132, 81, 5).
edge(39, 173, 35).
edge(134, 15, 1).
edge(118, 46, 6).
edge(7, 110, 16).
edge(131, 32, 35).
edge(67, 17, 33).
edge(19, 31, 26).
edge(139, 145, 30).
edge(69, 90, 9).
edge(42, 40, 22).
edge(76, 0, 32).
edge(44, 6, 27).
edge(92, 167, 1).
edge(176, 68, 16).
edge(170, 44, 30).
edge(22, 1, 5).
edge(16, 125, 22).
edge(119, 81, 27).
edge(87, 8, 4).
edge(108, 92, 23).
edge(41, 37, 36).
edge(115, 43, 5).
edge(171, 62, 33).
edge(64, 100, 13).
edge(90, 36, 18).
edge(113, 150, 39).
edge(30, 77, 22).
edge(166, 80, 6).
edge(64, 9, 26).
edge(91, 117, 10).
edge(22, 68, 37).
edge(34, 14, 18).
edge(60, 109, 17).
edge(141, 123, 36).
edge(30, 3, 12).
edge(5, 127, 14).
edge(107, 160, 11).
edge(75, 91, 38).
edge(38, 51, 25).
edge(37, 47, 9).
edge(71, 33, 27).
edge(167, 170, 19).
edge(134, 162, 20).
edge(119, 71, 17).
edge(0, 71, 17).
edge(93, 170, 9).
edge(160, 122, 3).
edge(144, 112, 3).
edge(33, 34, 33).
edge(64, 7, 5).
edge(50, 137, 10).
edge(82, 47, 16).
edge(113, 112, 11).
edge(170, 113, 30).
edge(66, 12, 6).
edge(171, 71, 29).
edge(85, 131, 22).
edge(47, 55, 3).
edge(170, 55, 38).
edge(49, 98, 27).
edge(128, 35, 5).
edge(27, 41, 37).
edge(160, 130, 8).
edge(146, 166, 14).
edge(170, 15, 38).
edge(38, 82, 12).
edge(45, 17, 2).
edge(25, 18, 2).
edge(52, 33, 3).
edge(72, 9, 16).
edge(18, 139, 14).
edge(134, 158, 15).
edge(161, 162, 10).
edge(116, 68, 36).
edge(124, 91, 14).
edge(98, 15, 36).
edge(153, 54, 36).
edge(158, 130, 4).
edge(106, 87, 39).
edge(46, 27, 31).
edge(74, 35, 37).
edge(126, 29, 9).
edge(52, 135, 7).
edge(169, 85, 38).
edge(153, 112, 28).
edge(159, 12, 12).
edge(126, 157, 19).
edge(134, 103, 29).
edge(49, 130, 8).
edge(77, 94, 3).
edge(144, 1, 20).
edge(165, 24, 7).
edge(44, 17, 22).
edge(62, 54, 14).
edge(154, 117, 9).
edge(144, 75, 33).
edge(42, 67, 21).
edge(32, 130, 15).
edge(91, 110, 2).
edge(46, 127, 3).
edge(68, 106, 4).
edge(70, 120, 9).
edge(6, 45, 5).
edge(157, 53, 16).
edge(23, 160, 23).
edge(35, 135, 4).
edge(19, 143, 37).
edge(148, 164, 1).
edge(112, 140, 26).
edge(34, 83, 18).
edge(151, 162, 27).
edge(81, 101, 9).
edge(21, 156, 34).
edge(65, 36, 34).
edge(63, 169, 11).
edge(66, 156, 23).
edge(109, 7, 39).
edge(40, 92, 35).
edge(21, 155, 30).
edge(58, 150, 7).
edge(63, 30, 9).
edge(19, 77, 38).
edge(168, 122, 6).
edge(28, 110, 23).
edge(148, 82, 25).
edge(110, 92, 7).
edge(65, 71, 25).
edge(170, 165, 9).
edge(169, 47, 5).
edge(23, 92, 2).
edge(11, 17, 33).
edge(0, 80, 10).
edge(41, 26, 13).
edge(76, 15, 21).
edge(137, 157, 33).
edge(93, 39, 17).
edge(166, 25, 8).
edge(61, 121, 20).
edge(153, 87, 32).
edge(1, 52, 2).
edge(3, 148, 28).
edge(116, 130, 8).
edge(71, 121, 6).
edge(175, 88, 9).
edge(106, 157, 37).
edge(176, 125, 4).
edge(83, 15, 16).
edge(103, 113, 15).
edge(145, 55, 9).
edge(141, 55, 15).
edge(154, 72, 24).
edge(37, 113, 39).
edge(42, 25, 15).
edge(13, 138, 23).
edge(32, 79, 22).
edge(16, 52, 9).
edge(123, 0, 16).
edge(165, 169, 33).
edge(74, 113, 18).
edge(101, 38, 18).
edge(87, 60, 11).
edge(135, 28, 24).
edge(49, 144, 24).
edge(49, 52, 16).
edge(17, 21, 38).
edge(84, 65, 9).
edge(99, 2, 34).
edge(91, 31, 24).
edge(152, 86, 6).
edge(82, 165, 3).
edge(152, 117, 17).
edge(2, 18, 3).
edge(36, 22, 15).
edge(70, 165, 29).
edge(49, 94, 18).
edge(96, 137, 34).
edge(11, 96, 30).
edge(3, 171, 16).
edge(23, 120, 11).
edge(81, 118, 13).
edge(30, 84, 11).
edge(70, 8, 12).
edge(47, 159, 14).
edge(77, 19, 11).
edge(173, 164, 6).
edge(12, 15, 2).
edge(167, 21, 21).
edge(88, 23, 14).
edge(169, 50, 13).
edge(46, 155, 11).
edge(120, 166, 9).
edge(92, 83, 15).
edge(21, 107, 32).
edge(66, 87, 8).
edge(47, 110, 25).
edge(147, 106, 12).
edge(43, 168, 26).
edge(173, 72, 28).
edge(150, 30, 16).
edge(119, 93, 12).
edge(88, 125, 26).
edge(119, 131, 33).
edge(89, 148, 33).
edge(105, 42, 19).
edge(150, 92, 36).
edge(6, 132, 35).
edge(22, 127, 17).
edge(84, 71, 29).
edge(175, 53, 2).
edge(118, 85, 22).
edge(48, 156, 32).
edge(120, 8, 22).
edge(141, 142, 16).
edge(23, 175, 39).
edge(36, 151, 32).
edge(123, 58, 20).
edge(59, 48, 23).
edge(62, 116, 24).
edge(4, 94, 39).
edge(77, 50, 21).
edge(3, 92, 35).
edge(25, 103, 13).
edge(89, 68, 23).
edge(107, 82, 5).
edge(63, 8, 36).
edge(150, 49, 19).
edge(41, 148, 5).
edge(14, 35, 7).
edge(4, 0, 25).
edge(135, 12, 14).
edge(161, 17, 22).
edge(80, 158, 32).
edge(19, 109, 30).
edge(19, 74, 33).
edge(33, 134, 32).
edge(173, 149, 37).
edge(23, 68, 5).
edge(74, 52, 6).
edge(103, 154, 9).
edge(165, 18, 32).
edge(100, 33, 32).
edge(68, 19, 5).
edge(7, 44, 17).
edge(76, 48, 9).
edge(115, 70, 24).
edge(81, 18, 17).
edge(173, 160, 34).
edge(28, 93, 37).
edge(15, 146, 1).
edge(76, 91, 32).
edge(80, 6, 7).
edge(24, 95, 29).
edge(74, 173, 4).
edge(93, 63, 22).
edge(74, 126, 33).
edge(174, 110, 33).
edge(57, 130, 26).
edge(10, 31, 21).
edge(22, 96, 8).
edge(161, 6, 26).
edge(2, 105, 37).
edge(125, 68, 32).
edge(100, 29, 14).
edge(158, 80, 38).
edge(122, 76, 13).
edge(47, 102, 18).
edge(99, 81, 2).
edge(50, 48, 10).
edge(0, 91, 16).
edge(43, 149, 35).
edge(84, 0, 13).
edge(84, 125, 32).
edge(47, 11, 16).
edge(87, 70, 9).
edge(56, 162, 36).
edge(51, 15, 23).
edge(145, 42, 32).
edge(103, 114, 30).
edge(102, 11, 19).
edge(27, 40, 32).
edge(36, 32, 31).
edge(68, 46, 22).
edge(94, 137, 27).
edge(112, 81, 31).
edge(153, 86, 19).
edge(39, 4, 37).
edge(69, 116, 17).
edge(147, 97, 12).
edge(163, 154, 14).
edge(133, 59, 34).
edge(49, 100, 25).
edge(21, 42, 32).
edge(176, 44, 37).
edge(135, 106, 10).
edge(139, 5, 25).
edge(132, 27, 29).
edge(4, 82, 30).
edge(68, 122, 34).
edge(22, 49, 2).
edge(92, 34, 32).
edge(15, 94, 39).
edge(42, 94, 18).
edge(88, 18, 14).
edge(87, 168, 20).
edge(34, 153, 25).
edge(155, 134, 12).
edge(120, 174, 12).
edge(72, 124, 24).
edge(63, 125, 19).
edge(125, 81, 1).
edge(156, 67, 17).
edge(79, 173, 35).
edge(73, 121, 33).
edge(56, 155, 25).
edge(63, 106, 17).
edge(36, 88, 28).
edge(2, 167, 20).
edge(157, 135, 2).
edge(20, 68, 37).
edge(12, 6, 7).
edge(91, 23, 11).
edge(116, 43, 39).
edge(32, 141, 16).
edge(6, 138, 36).
edge(11, 30, 38).
edge(62, 159, 24).
edge(166, 116, 21).
edge(91, 38, 21).
edge(65, 91, 35).
edge(71, 10, 6).
edge(135, 81, 18).
edge(2, 33, 39).
edge(75, 33, 39).
edge(160, 126, 15).
edge(132, 43, 19).
edge(59, 54, 29).
edge(132, 121, 22).
edge(68, 85, 27).
edge(4, 91, 19).
edge(65, 77, 36).
edge(162, 29, 21).
edge(70, 107, 9).
edge(68, 166, 5).
edge(82, 159, 28).
edge(80, 104, 5).
edge(26, 158, 15).
edge(22, 153, 2).
edge(123, 127, 31).
edge(17, 42, 8).
edge(101, 50, 5).
edge(167, 59, 26).
edge(52, 63, 9).
edge(105, 108, 16).
edge(65, 150, 24).
edge(58, 98, 26).
edge(170, 48, 24).
edge(27, 80, 10).
edge(152, 118, 5).
edge(170, 5, 5).
edge(22, 148, 8).
edge(149, 62, 13).
edge(137, 146, 18).
edge(21, 153, 11).
edge(83, 73, 11).
edge(108, 84, 24).
edge(148, 140, 6).
edge(55, 157, 30).
edge(122, 145, 23).
edge(18, 162, 14).
edge(134, 48, 4).
edge(75, 99, 29).
edge(35, 142, 25).
edge(15, 97, 11).
edge(173, 109, 15).
edge(140, 97, 28).
edge(120, 106, 24).
edge(163, 113, 7).
edge(95, 80, 12).
edge(21, 148, 37).
edge(170, 131, 6).
edge(158, 117, 31).
edge(16, 18, 32).
edge(73, 64, 29).
edge(70, 64, 12).
edge(138, 42, 20).
edge(134, 62, 2).
edge(50, 22, 32).
edge(8, 150, 37).
edge(8, 27, 6).
edge(123, 118, 32).
edge(94, 117, 11).
edge(149, 79, 17).
edge(34, 120, 2).
edge(58, 77, 21).
edge(161, 42, 31).
edge(25, 2, 8).
edge(161, 168, 39).
edge(151, 167, 5).
edge(55, 60, 1).
edge(104, 161, 17).
edge(96, 102, 5).
edge(108, 25, 4).
edge(165, 54, 29).
edge(47, 168, 29).
edge(76, 143, 2).
edge(127, 173, 21).
edge(61, 174, 19).
edge(24, 87, 23).
edge(106, 74, 19).
edge(11, 60, 29).
edge(147, 164, 22).
edge(2, 154, 25).
edge(46, 14, 5).
edge(159, 107, 28).
edge(28, 77, 27).
edge(6, 146, 38).
edge(42, 55, 2).
edge(110, 126, 30).
edge(138, 109, 6).
edge(136, 4, 26).
edge(10, 42, 2).
edge(23, 90, 25).
edge(70, 77, 35).
edge(140, 155, 32).
edge(135, 0, 24).
edge(131, 16, 20).
edge(3, 91, 26).
edge(75, 48, 25).
edge(6, 28, 33).
edge(6, 172, 38).
edge(136, 92, 30).
edge(46, 88, 21).
edge(169, 61, 28).
edge(150, 13, 14).
edge(155, 91, 25).
edge(121, 51, 18).
edge(78, 124, 14).
edge(82, 98, 11).
edge(151, 126, 14).
edge(171, 110, 6).
edge(145, 90, 34).
edge(23, 170, 33).
edge(1, 124, 38).
edge(141, 29, 19).
edge(143, 99, 16).
edge(69, 28, 32).
edge(4, 137, 13).
edge(3, 49, 29).
edge(49, 148, 4).
edge(93, 130, 2).
edge(78, 76, 30).
edge(87, 78, 3).
edge(132, 12, 24).
edge(62, 115, 17).
edge(53, 40, 20).
edge(117, 68, 2).
edge(125, 92, 29).
edge(38, 161, 27).
edge(107, 78, 37).
edge(19, 70, 17).
edge(133, 89, 30).
edge(157, 8, 8).
edge(48, 165, 25).
edge(44, 97, 10).
edge(32, 5, 9).
edge(34, 18, 34).
edge(174, 33, 16).
edge(75, 134, 24).
edge(83, 44, 22).
edge(18, 158, 29).
edge(104, 141, 38).
edge(63, 52, 34).
edge(67, 141, 11).
edge(62, 88, 36).
edge(81, 171, 15).
edge(101, 65, 14).
edge(63, 72, 33).
edge(164, 112, 21).
edge(131, 171, 14).
edge(7, 39, 25).
edge(127, 137, 6).
edge(82, 77, 22).
edge(17, 164, 30).
edge(171, 153, 30).
edge(157, 147, 28).
edge(90, 119, 35).
edge(66, 133, 19).
edge(97, 31, 19).
edge(162, 44, 39).
edge(15, 136, 17).
edge(39, 101, 19).
edge(94, 15, 3).
edge(111, 5, 24).
edge(56, 12, 14).
edge(157, 11, 30).
edge(132, 99, 35).
edge(46, 70, 24).
edge(148, 60, 16).
edge(2, 134, 15).
edge(40, 124, 25).
edge(32, 146, 1).
edge(65, 129, 20).
edge(166, 99, 9).
edge(75, 68, 14).
edge(153, 61, 28).
edge(173, 96, 27).
edge(50, 112, 19).
edge(101, 84, 7).
edge(157, 36, 7).
edge(19, 141, 18).
edge(45, 121, 13).
edge(21, 111, 12).
edge(118, 126, 26).
edge(56, 55, 10).
edge(45, 176, 34).
edge(110, 76, 8).
edge(154, 75, 17).
edge(142, 95, 32).
edge(83, 173, 37).
edge(15, 4, 22).
edge(64, 130, 39).
edge(131, 166, 35).
edge(163, 137, 5).
edge(15, 75, 13).
edge(145, 146, 25).
edge(43, 42, 4).
edge(136, 40, 3).
edge(113, 74, 14).
edge(59, 40, 23).
edge(108, 149, 26).
edge(127, 42, 23).
edge(3, 175, 2).
edge(166, 159, 18).
edge(102, 42, 5).
edge(139, 97, 6).
edge(70, 164, 17).
edge(127, 29, 18).
edge(137, 104, 7).
edge(163, 53, 20).
edge(30, 95, 29).
edge(90, 27, 3).
edge(174, 92, 15).
edge(63, 22, 26).
edge(98, 150, 21).
edge(44, 135, 6).
edge(110, 114, 33).
edge(114, 134, 32).
edge(10, 15, 25).
edge(165, 164, 36).
edge(19, 138, 13).
edge(174, 40, 39).
edge(57, 173, 8).
edge(165, 27, 27).
edge(71, 49, 37).
edge(63, 129, 19).
edge(69, 64, 38).
edge(122, 133, 12).
edge(16, 31, 9).
edge(10, 142, 20).
edge(158, 115, 22).
edge(147, 166, 29).
edge(171, 94, 35).
edge(99, 158, 25).
edge(116, 168, 15).
edge(93, 26, 14).
edge(3, 52, 15).
edge(69, 51, 28).
edge(8, 142, 3).
edge(173, 167, 6).
edge(140, 118, 33).
edge(97, 29, 16).
edge(80, 10, 7).
edge(68, 40, 28).
edge(123, 158, 19).
edge(104, 87, 18).
edge(26, 32, 36).
edge(130, 118, 21).
edge(15, 27, 3).
edge(30, 141, 25).
edge(69, 103, 34).
edge(133, 71, 20).
edge(149, 89, 36).
edge(134, 13, 5).
edge(157, 86, 32).
edge(44, 26, 9).
edge(82, 116, 17).
edge(21, 56, 4).
edge(143, 3, 37).
edge(20, 81, 37).
edge(50, 94, 30).
edge(47, 61, 8).
edge(5, 64, 14).
edge(107, 77, 2).
edge(37, 45, 26).
edge(49, 96, 30).
edge(75, 101, 29).
edge(112, 0, 39).
edge(81, 38, 37).
edge(134, 45, 31).
edge(160, 83, 5).
edge(81, 125, 6).
edge(123, 17, 22).
edge(65, 28, 3).
edge(30, 158, 28).
edge(24, 173, 32).
edge(56, 65, 32).
edge(1, 153, 10).
edge(93, 40, 35).
edge(134, 83, 12).
edge(59, 29, 2).
edge(107, 44, 36).
edge(158, 111, 34).
edge(67, 120, 36).
edge(136, 124, 34).
edge(96, 86, 6).
edge(65, 84, 25).
edge(109, 85, 20).
edge(123, 16, 17).
edge(29, 58, 5).
edge(78, 98, 4).
edge(103, 89, 20).
edge(147, 54, 6).
edge(64, 41, 37).
edge(12, 87, 26).
edge(73, 86, 32).
edge(13, 22, 26).
edge(135, 65, 1).
edge(110, 22, 12).
edge(176, 84, 1).
edge(74, 21, 29).
edge(17, 46, 10).
edge(124, 51, 24).
edge(159, 76, 37).
edge(55, 89, 21).
edge(157, 15, 21).
edge(10, 100, 15).
edge(79, 133, 31).
edge(109, 92, 4).
edge(99, 171, 11).
edge(79, 95, 28).
edge(74, 28, 5).
edge(96, 147, 15).
edge(45, 88, 22).
edge(130, 100, 16).
edge(67, 101, 39).
edge(29, 45, 28).
edge(139, 168, 39).
edge(36, 21, 36).
edge(173, 142, 35).
edge(158, 20, 13).
edge(164, 40, 1).
edge(28, 18, 14).
edge(103, 112, 6).
edge(137, 55, 1).
edge(86, 160, 6).
edge(168, 58, 11).
edge(44, 90, 4).
edge(0, 10, 10).
edge(163, 147, 24).
edge(60, 61, 39).
edge(47, 36, 6).
edge(34, 147, 25).
edge(122, 58, 22).
edge(111, 35, 5).
edge(141, 120, 28).
edge(121, 65, 21).
edge(143, 84, 4).
edge(113, 34, 11).
edge(82, 21, 17).
edge(115, 135, 13).
edge(155, 145, 33).
edge(146, 170, 18).
edge(140, 162, 37).
edge(162, 30, 2).
edge(130, 33, 2).
edge(144, 42, 5).
edge(19, 14, 2).
edge(150, 71, 3).
edge(66, 40, 37).
edge(152, 43, 6).
edge(126, 81, 1).
edge(37, 59, 8).
edge(125, 156, 37).
edge(6, 41, 1).
edge(5, 104, 9).
edge(97, 147, 5).
edge(98, 41, 32).
edge(12, 24, 22).
edge(107, 121, 20).
edge(168, 68, 27).
edge(138, 96, 32).
edge(17, 35, 10).
edge(108, 60, 12).
edge(160, 139, 27).
edge(132, 136, 5).
edge(67, 160, 6).
edge(45, 70, 34).
edge(82, 31, 19).
edge(87, 117, 35).
edge(80, 79, 18).
edge(63, 33, 12).
edge(83, 104, 32).
edge(4, 53, 29).
edge(68, 38, 5).
edge(118, 13, 2).
edge(84, 116, 21).
edge(120, 28, 19).
edge(109, 50, 10).
edge(67, 162, 12).
edge(98, 77, 10).
edge(24, 110, 19).
edge(176, 119, 25).
edge(147, 79, 39).
edge(134, 53, 39).
edge(94, 138, 32).
edge(50, 116, 30).
edge(38, 80, 21).
edge(99, 39, 18).
edge(174, 23, 27).
edge(115, 169, 18).
edge(146, 67, 17).
edge(118, 61, 2).
edge(30, 134, 34).
edge(169, 77, 14).
edge(96, 34, 38).
edge(82, 169, 27).
edge(118, 40, 16).
edge(5, 60, 1).
edge(114, 88, 7).
edge(132, 114, 11).
edge(69, 14, 1).
edge(49, 47, 23).
edge(51, 33, 2).
edge(136, 7, 35).
edge(55, 10, 17).
edge(1, 101, 30).
edge(82, 130, 20).
edge(150, 157, 16).
edge(21, 130, 12).
edge(57, 8, 31).
edge(10, 137, 16).
edge(84, 149, 18).
edge(151, 58, 2).
edge(152, 66, 17).
edge(38, 21, 29).
edge(60, 11, 27).
edge(169, 78, 31).
edge(75, 165, 1).
edge(176, 111, 8).
edge(101, 30, 38).
edge(101, 43, 10).
edge(145, 3, 4).
edge(160, 93, 23).
edge(45, 16, 17).
edge(99, 95, 39).
edge(13, 136, 38).
edge(64, 91, 20).
edge(76, 101, 32).
edge(16, 161, 24).
edge(67, 107, 22).
edge(105, 90, 16).
edge(133, 33, 16).
edge(84, 143, 16).
edge(101, 132, 16).
edge(0, 127, 17).
edge(12, 141, 27).
edge(84, 123, 16).
edge(61, 165, 26).
edge(166, 132, 34).
edge(113, 49, 30).
edge(65, 51, 30).
edge(27, 47, 3).
edge(148, 83, 19).
edge(147, 87, 35).
edge(164, 43, 9).
edge(32, 173, 11).
edge(7, 19, 27).
edge(68, 176, 1).
edge(96, 174, 35).
edge(150, 44, 18).
edge(31, 108, 9).
edge(115, 93, 6).
edge(21, 91, 32).
edge(51, 136, 3).
edge(118, 104, 24).
edge(82, 2, 19).
edge(7, 10, 4).
edge(154, 103, 18).
edge(100, 144, 22).
edge(2, 103, 4).
edge(62, 18, 16).
edge(90, 160, 3).
edge(120, 156, 27).
edge(26, 72, 14).
edge(57, 131, 31).
edge(65, 33, 18).
edge(160, 53, 14).
edge(91, 155, 37).
edge(108, 116, 30).
edge(85, 95, 18).
edge(143, 133, 36).
edge(100, 130, 36).
edge(71, 102, 4).
edge(40, 42, 24).
edge(30, 51, 15).
edge(64, 112, 3).
edge(99, 98, 21).
edge(10, 93, 3).
edge(67, 140, 14).
edge(20, 120, 36).
edge(0, 35, 16).
edge(61, 46, 24).
edge(115, 64, 24).
edge(93, 120, 39).
edge(131, 85, 19).
edge(96, 144, 23).
edge(1, 87, 2).
edge(64, 151, 25).
edge(81, 119, 20).
edge(33, 91, 32).
edge(52, 90, 28).
edge(34, 109, 22).
edge(73, 176, 18).
edge(149, 29, 16).
edge(133, 91, 5).
edge(59, 84, 21).
edge(8, 1, 19).
edge(52, 16, 7).
edge(10, 89, 14).
edge(142, 40, 11).
edge(167, 121, 15).
edge(72, 15, 15).
edge(126, 118, 25).
edge(138, 122, 7).
edge(57, 104, 34).
edge(36, 168, 10).
edge(69, 27, 22).
edge(141, 8, 29).
edge(33, 122, 4).
edge(123, 150, 25).
edge(176, 142, 9).
edge(128, 3, 34).
edge(21, 24, 22).
edge(23, 164, 26).
edge(73, 160, 8).
edge(15, 158, 32).
edge(18, 137, 6).
edge(152, 156, 18).
edge(11, 64, 24).
edge(52, 114, 32).
edge(30, 132, 12).
edge(165, 95, 2).
edge(24, 41, 24).
edge(146, 36, 35).
edge(151, 65, 14).
edge(39, 93, 26).
edge(44, 63, 17).
edge(15, 84, 18).
edge(5, 43, 8).
edge(81, 87, 6).
edge(146, 19, 34).
edge(64, 141, 7).
edge(17, 104, 19).
edge(72, 76, 16).
edge(117, 101, 4).
edge(102, 169, 10).
edge(60, 22, 21).
edge(5, 92, 4).
edge(89, 154, 39).
edge(8, 14, 34).
edge(50, 153, 29).
edge(176, 131, 22).
edge(159, 52, 11).
edge(130, 152, 38).
edge(25, 60, 33).
edge(122, 50, 1).
edge(31, 34, 25).
edge(63, 67, 22).
edge(20, 34, 36).
edge(40, 103, 3).
edge(173, 153, 37).
edge(16, 174, 10).
edge(130, 133, 39).
edge(102, 8, 28).
edge(46, 17, 26).
edge(12, 21, 9).
edge(140, 175, 24).
edge(108, 47, 22).
edge(39, 111, 32).
edge(97, 158, 33).
edge(17, 59, 37).
edge(167, 171, 30).
edge(60, 117, 4).
edge(33, 138, 1).
edge(138, 4, 3).
edge(62, 43, 37).
edge(38, 108, 4).
edge(91, 126, 12).
edge(77, 47, 27).
edge(119, 59, 8).
edge(144, 37, 8).
edge(83, 98, 2).
edge(110, 124, 24).
edge(161, 13, 14).
edge(55, 39, 26).
edge(3, 97, 24).
edge(145, 1, 1).
edge(171, 13, 6).
edge(77, 73, 14).
edge(86, 13, 13).
edge(173, 112, 14).
edge(4, 46, 7).
edge(120, 93, 13).
edge(138, 21, 7).
edge(55, 74, 37).
edge(28, 111, 34).
edge(1, 10, 20).
edge(132, 39, 26).
edge(7, 58, 24).
edge(143, 94, 24).
edge(106, 110, 9).
edge(154, 40, 7).
edge(14, 132, 32).
edge(15, 129, 35).
edge(81, 17, 21).
edge(114, 65, 26).
edge(111, 44, 13).
edge(158, 50, 39).
edge(149, 101, 39).
edge(3, 155, 35).
edge(50, 41, 36).
edge(101, 171, 9).
edge(141, 126, 5).
edge(42, 174, 35).
edge(6, 100, 27).
edge(66, 28, 12).
edge(130, 144, 33).
edge(73, 61, 31).
edge(16, 25, 20).
edge(42, 3, 32).
edge(79, 24, 26).
edge(43, 20, 20).
edge(33, 84, 6).
edge(149, 156, 34).
edge(141, 37, 5).
edge(52, 48, 17).
edge(139, 28, 17).
edge(123, 109, 6).
edge(154, 144, 11).
edge(155, 19, 32).
edge(113, 119, 5).
edge(84, 38, 15).
edge(20, 21, 38).
edge(153, 31, 7).
edge(66, 117, 25).
edge(136, 120, 17).
edge(87, 141, 9).
edge(164, 161, 39).
edge(110, 52, 24).
edge(169, 113, 35).
edge(32, 123, 31).
edge(36, 30, 24).
edge(19, 124, 2).
edge(119, 148, 39).
edge(49, 3, 11).
edge(16, 27, 25).
edge(106, 80, 5).
edge(19, 20, 6).
edge(92, 76, 11).
edge(3, 90, 7).
edge(157, 174, 36).
edge(114, 15, 39).
edge(142, 160, 20).
edge(4, 42, 36).
edge(59, 53, 23).
edge(71, 171, 2).
edge(52, 125, 17).
edge(131, 3, 21).
edge(119, 22, 14).
edge(124, 162, 18).
edge(14, 161, 28).
edge(49, 10, 37).
edge(109, 116, 6).
edge(74, 45, 14).
edge(1, 60, 36).
edge(112, 151, 37).
edge(157, 6, 9).
edge(102, 17, 36).
edge(109, 143, 7).
edge(172, 169, 8).
edge(33, 129, 39).
edge(92, 48, 1).
edge(41, 75, 3).
edge(167, 137, 9).
edge(163, 110, 27).
edge(156, 64, 29).
edge(66, 29, 12).
edge(62, 176, 5).
edge(8, 87, 23).
edge(92, 107, 2).
edge(100, 154, 15).
edge(65, 69, 17).
edge(153, 168, 24).
edge(117, 53, 29).
edge(146, 5, 33).
edge(127, 167, 3).
edge(171, 34, 6).
edge(51, 82, 30).
edge(21, 169, 37).
edge(69, 52, 13).
edge(152, 54, 12).
edge(28, 95, 20).
edge(48, 89, 19).
edge(153, 105, 6).
edge(94, 103, 16).
edge(25, 169, 36).
edge(138, 50, 20).
edge(22, 83, 37).
edge(2, 90, 15).
edge(37, 44, 27).
edge(133, 22, 1).
edge(42, 50, 25).
edge(176, 148, 16).
edge(131, 55, 20).
edge(58, 38, 32).
edge(101, 85, 34).
edge(49, 60, 23).
edge(27, 21, 8).
edge(102, 84, 9).
edge(123, 27, 39).
edge(55, 111, 15).
edge(63, 87, 20).
edge(64, 90, 31).
edge(74, 73, 26).
edge(168, 22, 17).
edge(159, 167, 12).
edge(175, 82, 11).
edge(117, 50, 15).
edge(57, 41, 17).
edge(86, 80, 8).
edge(164, 118, 29).
edge(160, 25, 33).
edge(86, 126, 8).
edge(120, 100, 19).
edge(145, 53, 4).
edge(39, 15, 35).
edge(119, 70, 29).
edge(168, 56, 4).
edge(130, 163, 8).
edge(171, 67, 21).
edge(133, 120, 36).
edge(16, 84, 3).
edge(73, 65, 32).
edge(119, 120, 38).
edge(171, 84, 36).
edge(93, 70, 36).
edge(35, 164, 36).
edge(143, 117, 30).
edge(176, 140, 19).
edge(85, 48, 27).
edge(99, 162, 38).
edge(169, 110, 18).
edge(143, 150, 9).
edge(166, 112, 35).
edge(120, 53, 34).
edge(103, 85, 1).
edge(57, 61, 6).
edge(136, 97, 28).
edge(126, 25, 36).
edge(132, 73, 30).
edge(24, 90, 4).
edge(110, 154, 15).
edge(30, 105, 2).
edge(16, 85, 7).
edge(148, 85, 3).
edge(129, 173, 2).
edge(73, 15, 28).
edge(64, 54, 21).
edge(125, 34, 8).
edge(72, 68, 20).
edge(20, 117, 18).
edge(112, 90, 22).
edge(52, 98, 39).
edge(77, 167, 15).
edge(13, 171, 15).
edge(147, 155, 6).
edge(160, 135, 24).
edge(125, 86, 5).
edge(34, 57, 36).
edge(77, 27, 18).
edge(78, 82, 8).
edge(39, 104, 35).
edge(163, 169, 15).
edge(111, 140, 14).
edge(106, 129, 19).
edge(119, 48, 3).
edge(138, 91, 28).
edge(18, 58, 25).
edge(94, 51, 31).
edge(29, 66, 17).
edge(9, 13, 5).
edge(68, 89, 13).
edge(165, 111, 32).
edge(7, 23, 36).
edge(165, 11, 30).
edge(3, 94, 1).
edge(145, 84, 1).
edge(98, 13, 28).
edge(159, 16, 6).
edge(47, 137, 14).
edge(129, 119, 8).
edge(171, 93, 6).
edge(30, 25, 2).
edge(157, 35, 15).
edge(62, 44, 37).
edge(102, 114, 7).
edge(31, 9, 11).
edge(33, 70, 19).
edge(75, 141, 36).
edge(56, 163, 22).
edge(21, 31, 39).
edge(114, 140, 13).
edge(129, 170, 37).
edge(72, 20, 6).
edge(6, 166, 39).
edge(23, 140, 9).
edge(49, 51, 12).
edge(149, 0, 9).
edge(79, 105, 14).
edge(166, 81, 31).
edge(47, 6, 26).
edge(176, 73, 38).
edge(24, 134, 37).
edge(80, 48, 8).
edge(172, 148, 24).
edge(31, 46, 28).
edge(31, 109, 28).
edge(68, 131, 10).
edge(146, 169, 22).
edge(93, 35, 39).
edge(168, 98, 5).
edge(47, 165, 3).
edge(116, 85, 9).
edge(171, 50, 36).
edge(29, 117, 33).
edge(172, 19, 4).
edge(77, 158, 36).
edge(144, 59, 3).
edge(37, 121, 31).
edge(174, 41, 27).
edge(92, 53, 7).
edge(84, 166, 26).
edge(33, 13, 28).
edge(13, 115, 12).
edge(15, 2, 20).
edge(131, 21, 4).
edge(19, 73, 34).
edge(102, 59, 14).
edge(172, 23, 39).
edge(135, 85, 34).
edge(85, 138, 23).
edge(174, 97, 39).
edge(89, 119, 6).
edge(107, 116, 7).
edge(70, 55, 15).
edge(27, 71, 32).
edge(57, 1, 26).
edge(106, 150, 26).
edge(161, 18, 10).
edge(97, 163, 27).
edge(23, 129, 19).
edge(21, 82, 1).
edge(142, 15, 6).
edge(122, 132, 10).
edge(80, 110, 30).
edge(24, 77, 37).
edge(93, 52, 8).
edge(45, 141, 19).
edge(131, 69, 32).
edge(92, 149, 10).
edge(120, 60, 13).
edge(117, 152, 25).
edge(64, 92, 34).
edge(146, 147, 17).
edge(28, 65, 17).
edge(118, 143, 35).
edge(12, 88, 10).
edge(94, 70, 37).
edge(11, 7, 22).
edge(82, 122, 39).
edge(160, 159, 1).
edge(173, 80, 5).
edge(7, 117, 39).
edge(57, 31, 27).
edge(156, 120, 35).
edge(114, 172, 11).
edge(118, 155, 28).
edge(154, 101, 6).
edge(124, 60, 9).
edge(35, 158, 25).
edge(90, 144, 1).
edge(63, 158, 21).
edge(53, 161, 19).
edge(49, 172, 39).
edge(105, 131, 13).
edge(0, 75, 20).
edge(47, 114, 24).
edge(30, 15, 7).
edge(154, 171, 6).
edge(61, 18, 14).
edge(164, 97, 36).
edge(6, 139, 4).
edge(144, 141, 29).
edge(128, 52, 8).
edge(5, 52, 11).
edge(50, 67, 7).
edge(113, 88, 37).
edge(78, 86, 23).
edge(172, 160, 3).
edge(72, 49, 24).
edge(156, 78, 36).
edge(38, 23, 35).
edge(83, 76, 27).
edge(75, 79, 14).
edge(10, 55, 17).
edge(167, 136, 28).
edge(55, 134, 8).
edge(95, 89, 27).
edge(108, 100, 6).
edge(138, 53, 30).
edge(115, 120, 22).
edge(104, 127, 16).
edge(43, 142, 4).
edge(26, 150, 18).
edge(72, 28, 18).
edge(39, 90, 30).
edge(171, 15, 29).
edge(25, 57, 34).
edge(166, 172, 31).
edge(59, 69, 27).
edge(94, 67, 14).
edge(147, 90, 14).
edge(161, 68, 21).
edge(176, 19, 23).
edge(51, 20, 30).
edge(162, 167, 31).
edge(55, 135, 20).
edge(132, 29, 20).
edge(128, 136, 10).
edge(2, 138, 18).
edge(66, 143, 15).
edge(119, 32, 12).
edge(7, 49, 36).
edge(75, 57, 7).
edge(46, 19, 9).
edge(12, 123, 27).
edge(32, 78, 17).
edge(41, 124, 16).
edge(88, 83, 17).
edge(101, 147, 36).
edge(173, 74, 17).
edge(163, 128, 22).
edge(70, 3, 6).
edge(34, 24, 28).
edge(170, 173, 30).
edge(114, 152, 26).
edge(138, 57, 33).
edge(132, 110, 10).
edge(7, 4, 11).
edge(56, 73, 31).
edge(35, 3, 23).
edge(114, 31, 10).
edge(126, 171, 10).
edge(175, 30, 14).
edge(102, 145, 7).
edge(164, 19, 18).
edge(98, 20, 39).
edge(88, 109, 11).
edge(125, 87, 18).
edge(128, 20, 28).
edge(59, 175, 34).
edge(85, 124, 11).
edge(28, 97, 2).
edge(14, 140, 27).
edge(84, 156, 30).
edge(29, 73, 27).
edge(132, 35, 30).
edge(14, 28, 12).
edge(111, 142, 28).
edge(38, 59, 25).
edge(47, 138, 10).
edge(50, 13, 1).
edge(153, 141, 24).
edge(165, 138, 18).
edge(56, 6, 14).
edge(53, 167, 17).
edge(169, 55, 30).
edge(160, 95, 11).
edge(105, 140, 11).
edge(88, 79, 18).
edge(1, 15, 21).
edge(170, 47, 30).
edge(37, 161, 11).
edge(143, 169, 19).
edge(75, 63, 4).
edge(43, 88, 14).
edge(8, 106, 19).
edge(18, 61, 23).
edge(90, 149, 8).
edge(94, 107, 15).
edge(105, 56, 10).
edge(84, 169, 27).
edge(19, 25, 23).
edge(140, 176, 4).
edge(144, 86, 3).
edge(120, 176, 7).
edge(40, 164, 30).
edge(128, 140, 37).
edge(148, 40, 8).
edge(167, 115, 23).
edge(174, 171, 7).
edge(176, 108, 21).
edge(56, 82, 20).
edge(61, 26, 30).
edge(13, 134, 7).
edge(37, 61, 10).
edge(13, 133, 17).
edge(127, 90, 1).
edge(152, 52, 25).
edge(154, 63, 34).
edge(115, 62, 12).
edge(24, 137, 8).
edge(18, 156, 27).
edge(108, 81, 9).
edge(53, 169, 28).
edge(62, 5, 20).
edge(128, 155, 28).
edge(20, 5, 34).
edge(89, 85, 4).
edge(27, 156, 6).
edge(29, 167, 33).
edge(89, 76, 38).
edge(31, 76, 7).
edge(106, 41, 29).
edge(9, 3, 19).
edge(133, 90, 14).
edge(85, 160, 34).
edge(103, 7, 37).
edge(83, 96, 31).
edge(37, 97, 20).
edge(45, 147, 39).
edge(13, 152, 2).
edge(62, 59, 12).
edge(24, 113, 26).
edge(156, 169, 36).
edge(68, 86, 31).
edge(126, 61, 14).
edge(123, 48, 26).
edge(66, 144, 18).
edge(170, 112, 29).
edge(127, 20, 2).
edge(74, 147, 28).
edge(99, 124, 36).
edge(122, 33, 2).
edge(160, 64, 35).
edge(60, 53, 17).
edge(127, 31, 8).
edge(25, 147, 39).
edge(125, 124, 28).
edge(83, 18, 4).
edge(48, 103, 38).
edge(150, 39, 36).
edge(136, 125, 14).
edge(108, 24, 13).
edge(124, 157, 23).
edge(49, 70, 18).
edge(98, 102, 19).
edge(41, 134, 34).
edge(104, 143, 26).
edge(164, 132, 4).
edge(171, 0, 30).
edge(154, 132, 28).
edge(114, 29, 19).
edge(127, 139, 37).
edge(175, 5, 14).
edge(81, 31, 1).
edge(60, 134, 3).
edge(146, 30, 10).
edge(50, 93, 35).
edge(91, 152, 17).
edge(119, 144, 2).
edge(114, 69, 26).
edge(19, 122, 27).
edge(65, 176, 19).
edge(142, 24, 27).
edge(122, 68, 11).
edge(14, 130, 24).
edge(62, 29, 4).
edge(160, 80, 2).
edge(3, 54, 20).
edge(49, 90, 32).
edge(7, 48, 39).
edge(108, 22, 22).
edge(41, 101, 39).
edge(76, 165, 15).
edge(140, 121, 1).
edge(66, 169, 1).
edge(41, 14, 38).
edge(175, 103, 24).
edge(112, 150, 9).
edge(63, 104, 33).
edge(156, 130, 18).
edge(42, 159, 25).
edge(173, 122, 5).
edge(172, 38, 38).
edge(62, 36, 8).
edge(34, 62, 31).
edge(108, 46, 14).
edge(12, 129, 32).
edge(1, 62, 7).
edge(129, 9, 9).
edge(70, 91, 38).
edge(115, 116, 28).
edge(23, 145, 22).
edge(145, 147, 25).
edge(126, 76, 7).
edge(6, 156, 11).
edge(64, 45, 15).
edge(14, 2, 11).
edge(0, 23, 7).
edge(86, 16, 32).
edge(165, 14, 1).
edge(65, 19, 21).
edge(121, 143, 36).
edge(76, 154, 32).
edge(36, 162, 6).
edge(18, 119, 14).
edge(160, 41, 12).
edge(157, 52, 27).
edge(147, 72, 22).
edge(77, 78, 19).
edge(149, 70, 26).
edge(28, 23, 39).
edge(108, 125, 25).
edge(136, 56, 10).
edge(136, 76, 10).
edge(12, 7, 11).
edge(89, 27, 20).
edge(47, 23, 27).
edge(15, 71, 24).
edge(124, 61, 17).
edge(43, 117, 35).
edge(147, 124, 39).
edge(4, 144, 22).
edge(77, 64, 34).
edge(101, 33, 3).
edge(119, 31, 26).
edge(46, 73, 4).
edge(33, 46, 2).
edge(23, 69, 14).
edge(129, 20, 14).
edge(22, 102, 37).
edge(131, 170, 12).
edge(70, 50, 39).
edge(3, 11, 23).
edge(131, 105, 25).
edge(44, 73, 15).
edge(118, 69, 24).
edge(150, 75, 38).
edge(82, 167, 11).
edge(61, 93, 15).
edge(99, 144, 3).
edge(87, 151, 17).
edge(98, 166, 27).
edge(72, 55, 28).
edge(53, 148, 9).
edge(110, 32, 18).
edge(176, 172, 12).
edge(33, 10, 18).
edge(123, 134, 9).
edge(167, 142, 17).
edge(121, 76, 34).
edge(0, 153, 37).
edge(18, 144, 7).
edge(56, 147, 17).
edge(31, 160, 33).
edge(45, 49, 33).
edge(121, 155, 20).
edge(23, 14, 18).
edge(119, 65, 14).
edge(118, 26, 10).
edge(95, 39, 35).
edge(138, 168, 3).
edge(126, 156, 33).
edge(107, 147, 13).
edge(71, 53, 25).
edge(35, 84, 8).
edge(120, 72, 13).
edge(41, 156, 14).
edge(91, 108, 37).
edge(118, 34, 32).
edge(65, 126, 29).
edge(107, 149, 13).
edge(138, 19, 25).
edge(87, 20, 22).
edge(124, 106, 1).
edge(91, 171, 9).
edge(73, 14, 35).
edge(130, 49, 28).
edge(111, 153, 5).
edge(162, 140, 2).
edge(150, 33, 27).
edge(66, 52, 19).
edge(10, 105, 34).
edge(169, 48, 37).
edge(96, 85, 19).
edge(38, 163, 31).
edge(69, 119, 4).
edge(76, 127, 31).
edge(103, 13, 14).
edge(33, 83, 29).
edge(5, 161, 20).
edge(84, 17, 12).
edge(71, 35, 17).
edge(170, 155, 28).
edge(134, 40, 39).
edge(103, 163, 23).
edge(11, 134, 26).
edge(17, 45, 14).
edge(149, 48, 7).
edge(3, 22, 8).
edge(93, 74, 12).
edge(72, 44, 2).
edge(22, 111, 9).
edge(21, 45, 10).
edge(149, 128, 21).
edge(125, 73, 29).
edge(103, 126, 22).
edge(134, 22, 33).
edge(125, 171, 7).
edge(69, 68, 22).
edge(21, 123, 11).
edge(0, 49, 38).
edge(90, 66, 15).
edge(131, 103, 3).
edge(25, 87, 23).
edge(132, 94, 38).
edge(144, 147, 4).
edge(67, 19, 21).
edge(121, 151, 27).
edge(103, 60, 22).
edge(118, 7, 19).
edge(151, 102, 27).
edge(131, 80, 23).
edge(128, 12, 22).
edge(155, 77, 36).
edge(75, 138, 6).
edge(77, 163, 28).
edge(35, 108, 13).
edge(26, 65, 9).
edge(77, 12, 5).
edge(59, 91, 12).
edge(138, 92, 13).
edge(40, 26, 32).
edge(140, 53, 11).
edge(97, 82, 30).
edge(85, 47, 12).
edge(170, 37, 38).
edge(162, 10, 34).
edge(172, 98, 17).
edge(140, 107, 13).
edge(39, 112, 1).
edge(12, 158, 4).
edge(23, 99, 37).
edge(42, 162, 13).
edge(44, 137, 30).
edge(52, 144, 4).
edge(127, 26, 8).
edge(48, 6, 9).
edge(64, 101, 22).
edge(92, 160, 15).
edge(176, 118, 14).
edge(113, 110, 31).
edge(102, 76, 27).
edge(143, 166, 14).
edge(31, 127, 34).
edge(69, 42, 29).
edge(16, 30, 6).
edge(66, 124, 4).
edge(79, 10, 18).
edge(155, 138, 19).
edge(80, 74, 18).
edge(128, 118, 1).
edge(53, 163, 25).
edge(7, 125, 31).
edge(90, 49, 10).
edge(145, 165, 32).
edge(62, 150, 28).
edge(29, 171, 20).
edge(95, 176, 38).
edge(88, 69, 35).
edge(92, 44, 8).
edge(5, 149, 21).
edge(74, 137, 14).
edge(17, 140, 9).
edge(108, 90, 35).
edge(163, 92, 17).
edge(165, 160, 9).
edge(30, 171, 38).
edge(135, 98, 14).
edge(156, 123, 23).
edge(150, 27, 27).
edge(132, 28, 12).
edge(111, 171, 22).
edge(28, 9, 1).
edge(102, 73, 18).
edge(13, 139, 29).
edge(148, 156, 25).
edge(11, 151, 10).
edge(42, 166, 15).
edge(93, 46, 10).
edge(131, 37, 31).
edge(117, 150, 10).
edge(112, 66, 13).
edge(29, 35, 35).
edge(54, 27, 29).
edge(102, 50, 4).
edge(149, 71, 11).
edge(72, 14, 9).
edge(35, 151, 3).
edge(120, 1, 20).
edge(77, 6, 14).
edge(88, 131, 5).
edge(166, 86, 3).
edge(49, 84, 8).
edge(0, 81, 8).
edge(152, 81, 31).
edge(31, 40, 34).
edge(34, 79, 16).
edge(43, 54, 23).
edge(59, 35, 2).
edge(26, 176, 29).
edge(98, 71, 4).
edge(168, 124, 15).
edge(58, 85, 16).
edge(36, 104, 31).
edge(104, 99, 17).
edge(158, 61, 32).
edge(48, 130, 21).
edge(125, 13, 26).
edge(58, 53, 27).
edge(87, 31, 5).
edge(84, 97, 5).
edge(67, 22, 29).
edge(134, 139, 16).
edge(131, 19, 31).
edge(92, 49, 12).
edge(33, 93, 11).
edge(158, 75, 35).
edge(20, 97, 6).
edge(137, 11, 3).
edge(116, 39, 22).
edge(8, 34, 3).
edge(85, 146, 33).
edge(13, 23, 29).
edge(56, 89, 23).
edge(43, 33, 21).
edge(35, 2, 10).
edge(116, 66, 10).
edge(151, 8, 32).
edge(88, 10, 11).
edge(144, 7, 15).
edge(176, 79, 25).
edge(148, 95, 31).
edge(128, 7, 19).
edge(104, 43, 11).
edge(13, 107, 5).
edge(132, 98, 31).
edge(166, 78, 2).
edge(14, 67, 29).
edge(44, 114, 26).
edge(17, 93, 4).
edge(50, 107, 26).
edge(82, 138, 36).
edge(154, 17, 26).
edge(143, 53, 37).
edge(161, 80, 29).
edge(11, 130, 10).
edge(82, 7, 18).
edge(119, 155, 8).
edge(70, 125, 13).
edge(40, 84, 10).
edge(15, 68, 29).
edge(8, 131, 31).
edge(122, 109, 3).
edge(88, 114, 22).
edge(144, 21, 26).
edge(128, 48, 12).
edge(43, 119, 2).
edge(149, 34, 32).
edge(157, 18, 1).
edge(7, 168, 5).
edge(50, 140, 14).
edge(112, 89, 7).
edge(27, 6, 37).
edge(107, 95, 15).
edge(8, 23, 6).
edge(6, 37, 25).
edge(117, 64, 32).
edge(4, 55, 29).
edge(60, 143, 38).
edge(63, 37, 7).
edge(79, 32, 22).
edge(144, 92, 8).
edge(36, 26, 2).
edge(99, 164, 4).
edge(24, 11, 2).
edge(142, 117, 27).
edge(69, 0, 3).
edge(132, 107, 7).
edge(122, 62, 15).
edge(175, 142, 3).
edge(42, 22, 16).
edge(109, 55, 30).
edge(15, 64, 7).
edge(88, 33, 30).
edge(138, 137, 38).
edge(14, 176, 4).
edge(50, 108, 19).
edge(145, 93, 29).
edge(156, 41, 7).
edge(13, 135, 26).
edge(69, 25, 13).
edge(59, 116, 26).
edge(2, 15, 3).
edge(127, 95, 24).
edge(168, 87, 31).
edge(130, 57, 15).
edge(36, 76, 17).
edge(22, 37, 13).
edge(164, 144, 9).
edge(29, 153, 15).
edge(8, 132, 5).
edge(135, 118, 39).
edge(146, 31, 13).
edge(38, 64, 5).
edge(102, 96, 34).
edge(175, 89, 13).
edge(53, 122, 27).
edge(35, 124, 10).
edge(156, 19, 16).
edge(30, 47, 33).
edge(163, 38, 18).
edge(122, 43, 38).
edge(154, 167, 36).
edge(167, 132, 37).
edge(131, 169, 4).
edge(111, 57, 4).
edge(72, 155, 12).
edge(169, 122, 32).
edge(62, 112, 15).
edge(157, 74, 16).
edge(6, 174, 8).
edge(123, 24, 23).
edge(84, 157, 26).
edge(125, 7, 34).
edge(65, 168, 17).
edge(111, 88, 19).
edge(158, 26, 11).
edge(176, 2, 32).
edge(46, 11, 1).
edge(51, 73, 7).
edge(141, 47, 21).
edge(135, 5, 25).
edge(24, 160, 11).
edge(27, 82, 2).
edge(173, 5, 24).
edge(85, 96, 32).
edge(10, 20, 28).
edge(173, 49, 32).
edge(118, 141, 3).
edge(95, 87, 32).
edge(60, 65, 25).
edge(77, 89, 37).
edge(123, 22, 18).
edge(103, 14, 22).
edge(41, 169, 27).
edge(86, 65, 25).
edge(21, 100, 12).
edge(2, 49, 11).
edge(104, 67, 35).
edge(92, 71, 30).
edge(165, 109, 19).
edge(96, 92, 27).
edge(118, 123, 13).
edge(6, 103, 2).
edge(156, 72, 17).
edge(131, 160, 5).
edge(66, 100, 14).
edge(38, 110, 2).
edge(153, 159, 37).
edge(157, 149, 2).
edge(27, 100, 31).
edge(104, 5, 15).
edge(162, 40, 12).
edge(100, 115, 21).
edge(45, 119, 5).
edge(79, 154, 15).
edge(52, 84, 36).
edge(56, 7, 26).
edge(38, 152, 4).
edge(155, 72, 30).
edge(33, 73, 1).
edge(11, 10, 15).
edge(100, 61, 36).
edge(104, 128, 10).
edge(130, 162, 15).
edge(116, 56, 22).
edge(154, 82, 17).
edge(80, 22, 1).
edge(175, 50, 21).
edge(130, 26, 35).
edge(49, 77, 38).
edge(172, 142, 10).
edge(108, 11, 7).
edge(90, 84, 19).
edge(66, 126, 10).
edge(56, 168, 6).
edge(106, 122, 22).
edge(10, 34, 33).
edge(68, 76, 11).
edge(67, 26, 5).
edge(163, 67, 32).
edge(124, 41, 28).
edge(141, 173, 34).
edge(142, 7, 34).
edge(41, 18, 2).
edge(160, 164, 35).
edge(147, 39, 27).
edge(75, 2, 39).
edge(90, 74, 5).
edge(34, 60, 23).
edge(114, 39, 7).
edge(161, 171, 38).
edge(155, 23, 38).
edge(31, 176, 25).
edge(120, 12, 33).
edge(28, 81, 30).
edge(86, 84, 25).
edge(102, 172, 32).
edge(91, 132, 24).
edge(12, 79, 9).
edge(167, 44, 18).
edge(118, 71, 24).
edge(58, 79, 18).
edge(145, 137, 35).
edge(155, 55, 25).
edge(82, 134, 4).
edge(20, 168, 16).
edge(105, 111, 14).
edge(86, 105, 24).
edge(109, 114, 19).
edge(98, 158, 7).
edge(101, 58, 24).
edge(93, 50, 18).
edge(108, 142, 12).
edge(126, 43, 32).
edge(161, 20, 36).
edge(109, 100, 18).
edge(155, 84, 28).
edge(45, 66, 32).
edge(172, 4, 9).
edge(123, 38, 7).
edge(54, 159, 21).
edge(141, 115, 15).
edge(133, 126, 25).
edge(166, 6, 14).
edge(6, 76, 4).
edge(30, 121, 19).
edge(64, 80, 14).
edge(169, 34, 2).
edge(168, 39, 4).
edge(128, 115, 21).
edge(71, 64, 11).
edge(13, 128, 17).
edge(95, 28, 22).
edge(170, 77, 13).
edge(53, 153, 2).
edge(57, 129, 8).
edge(176, 64, 27).
edge(116, 166, 27).
edge(36, 140, 8).
edge(3, 35, 37).
edge(148, 134, 38).
edge(80, 102, 38).
edge(118, 108, 7).
edge(69, 126, 33).
edge(1, 175, 23).
edge(106, 143, 5).
edge(75, 149, 16).
edge(167, 153, 35).
edge(151, 17, 15).
edge(174, 112, 37).
edge(57, 150, 18).
edge(106, 16, 11).
edge(93, 58, 21).
edge(85, 65, 20).
edge(47, 71, 12).
edge(86, 19, 30).
edge(19, 140, 12).
edge(163, 138, 18).
edge(90, 122, 24).
edge(49, 133, 39).
edge(165, 145, 30).
edge(105, 27, 2).
edge(36, 58, 35).
edge(81, 154, 6).
edge(62, 141, 33).
edge(95, 152, 26).
edge(172, 111, 35).
edge(20, 88, 25).
edge(90, 38, 18).
edge(91, 28, 14).
edge(112, 87, 6).
edge(18, 36, 10).
edge(117, 70, 21).
edge(136, 1, 3).
edge(48, 86, 23).
edge(59, 139, 12).
edge(39, 125, 31).
edge(27, 79, 31).
edge(141, 42, 29).
edge(45, 131, 21).
edge(148, 151, 28).
edge(173, 119, 3).
edge(96, 68, 31).
edge(0, 176, 18).
edge(69, 162, 17).
edge(28, 14, 5).
edge(145, 52, 3).
edge(27, 76, 24).
edge(135, 44, 32).
edge(82, 153, 17).
edge(110, 152, 36).
edge(164, 74, 27).
edge(17, 60, 33).
edge(149, 52, 26).
edge(109, 117, 17).
edge(124, 116, 28).
edge(114, 28, 16).
edge(110, 56, 26).
edge(90, 19, 2).
edge(146, 53, 6).
edge(149, 93, 29).
edge(100, 147, 14).
edge(14, 111, 37).
edge(82, 128, 34).
edge(19, 65, 28).
edge(147, 165, 20).
edge(91, 165, 10).
edge(90, 104, 5).
edge(145, 68, 7).
edge(105, 9, 23).
edge(89, 137, 20).
edge(59, 114, 8).
edge(111, 113, 30).
edge(131, 158, 35).
edge(160, 118, 30).
edge(86, 125, 16).
edge(162, 14, 25).
edge(166, 164, 17).
edge(34, 152, 26).
edge(24, 40, 2).
edge(62, 39, 22).
edge(130, 41, 9).
edge(63, 40, 35).
edge(17, 29, 17).
edge(163, 63, 28).
edge(73, 106, 10).
edge(112, 71, 1).
edge(108, 154, 37).
edge(101, 105, 38).
edge(26, 62, 36).
edge(54, 110, 11).
edge(123, 160, 15).
edge(164, 173, 36).
edge(75, 7, 15).
edge(20, 71, 6).
edge(155, 168, 30).
edge(91, 66, 20).
edge(100, 12, 1).
edge(149, 171, 38).
edge(108, 110, 31).
edge(51, 140, 36).
edge(175, 26, 33).
edge(92, 117, 32).
edge(12, 90, 37).
edge(145, 101, 4).
edge(143, 138, 27).
edge(86, 161, 3).
edge(121, 25, 7).
edge(40, 33, 8).
edge(32, 160, 37).
edge(127, 24, 4).
edge(37, 120, 8).
edge(68, 53, 16).
edge(18, 64, 24).
edge(167, 46, 27).
edge(64, 164, 12).
edge(43, 65, 16).
edge(4, 72, 38).
edge(84, 78, 1).
edge(21, 116, 4).
edge(18, 100, 28).
edge(150, 63, 23).
edge(141, 168, 17).
edge(53, 21, 38).
edge(57, 83, 10).
edge(18, 157, 30).
edge(112, 56, 39).
edge(9, 77, 1).
edge(59, 32, 10).
edge(173, 17, 2).
edge(84, 63, 22).
edge(139, 176, 36).
edge(37, 105, 7).
edge(16, 7, 29).
edge(143, 43, 31).
edge(133, 154, 19).
edge(89, 97, 22).
edge(156, 29, 6).
edge(171, 73, 18).
edge(95, 91, 39).
edge(129, 103, 38).
edge(106, 46, 9).
edge(29, 37, 23).
edge(53, 81, 36).
edge(91, 120, 13).
edge(117, 38, 5).
edge(172, 93, 34).
edge(145, 31, 36).
edge(141, 71, 8).
edge(7, 143, 3).
edge(156, 43, 8).
edge(27, 54, 12).
edge(175, 11, 18).
edge(8, 16, 32).
edge(80, 94, 38).
edge(154, 156, 11).
edge(101, 24, 18).
edge(121, 142, 15).
edge(69, 151, 4).
edge(0, 21, 2).
edge(9, 128, 18).
edge(80, 27, 12).
edge(13, 24, 35).
edge(40, 82, 12).
edge(111, 83, 1).
edge(12, 73, 30).
edge(59, 113, 14).
edge(23, 5, 36).
edge(38, 160, 20).
edge(137, 45, 7).
edge(82, 6, 22).
edge(158, 105, 4).
edge(76, 34, 27).
edge(102, 70, 5).
edge(93, 82, 37).
edge(34, 52, 11).
edge(117, 130, 3).
edge(82, 149, 37).
edge(106, 40, 38).
edge(170, 23, 10).
edge(127, 98, 36).
edge(123, 19, 30).
edge(101, 79, 8).
edge(101, 131, 26).
edge(135, 83, 21).
edge(25, 115, 28).
edge(50, 175, 4).
edge(175, 21, 9).
edge(110, 33, 1).
edge(140, 14, 22).
edge(106, 162, 35).
edge(29, 157, 35).
edge(109, 142, 30).
edge(79, 69, 30).
edge(45, 162, 3).
edge(35, 94, 1).
edge(123, 82, 15).
edge(124, 47, 39).
edge(6, 61, 7).
edge(129, 82, 28).
edge(9, 33, 1).
edge(45, 72, 14).
edge(146, 65, 20).
edge(56, 171, 7).
edge(9, 132, 11).
edge(119, 160, 28).
edge(38, 25, 38).
edge(83, 40, 37).
edge(82, 160, 12).
edge(48, 3, 5).
edge(96, 101, 16).
edge(86, 150, 33).
edge(61, 71, 11).
edge(156, 121, 1).
edge(161, 51, 19).
edge(13, 101, 31).
edge(171, 103, 3).
edge(58, 67, 5).
edge(28, 79, 38).
edge(146, 149, 27).
edge(49, 43, 7).
edge(160, 40, 30).
edge(15, 26, 15).
edge(56, 34, 1).
edge(64, 168, 9).
edge(39, 9, 16).
edge(61, 129, 16).
edge(13, 166, 3).
edge(133, 66, 4).
edge(157, 124, 17).
edge(54, 44, 39).
edge(92, 105, 26).
edge(75, 30, 38).
edge(101, 0, 11).
edge(77, 67, 25).
edge(84, 51, 3).
edge(115, 33, 28).
edge(98, 85, 16).
edge(132, 141, 33).
edge(100, 55, 31).
edge(16, 78, 24).
edge(72, 176, 1).
edge(55, 57, 20).
edge(134, 159, 22).
edge(39, 106, 14).
edge(73, 62, 10).
edge(52, 32, 14).
edge(160, 59, 34).
edge(83, 59, 22).
edge(44, 55, 10).
edge(55, 164, 5).
edge(74, 116, 5).
edge(140, 163, 4).
edge(114, 23, 1).
edge(23, 171, 8).
edge(137, 129, 19).
edge(128, 89, 12).
edge(129, 21, 28).
edge(95, 161, 35).
edge(152, 16, 2).
edge(32, 48, 14).
edge(168, 11, 35).
edge(128, 161, 23).
edge(56, 44, 23).
edge(155, 59, 26).
edge(158, 60, 27).
edge(39, 69, 8).
edge(78, 144, 12).
edge(94, 95, 24).
edge(107, 5, 11).
edge(133, 125, 11).
edge(93, 144, 4).
edge(154, 83, 31).
edge(146, 138, 39).
edge(11, 54, 19).
edge(109, 134, 6).
edge(98, 73, 8).
edge(27, 161, 9).
edge(118, 157, 37).
edge(71, 6, 16).
edge(167, 166, 14).
edge(26, 126, 33).
edge(133, 2, 5).
edge(161, 25, 11).
edge(145, 23, 38).
edge(130, 65, 34).
edge(127, 22, 20).
edge(42, 74, 23).
edge(99, 168, 3).
edge(172, 31, 2).
edge(115, 57, 36).
edge(128, 16, 2).
edge(175, 144, 34).
edge(13, 141, 4).
edge(125, 102, 33).
edge(38, 136, 14).
edge(99, 165, 34).
edge(114, 56, 11).
edge(46, 54, 20).
edge(24, 106, 9).
edge(96, 120, 15).
edge(121, 11, 5).
edge(93, 64, 2).
edge(10, 95, 11).
edge(74, 55, 2).
edge(146, 87, 12).
edge(125, 53, 33).
edge(30, 163, 3).
edge(29, 18, 6).
edge(105, 157, 11).
edge(55, 129, 3).
edge(25, 123, 22).
edge(116, 0, 21).
edge(151, 127, 13).
edge(98, 46, 10).
edge(84, 103, 6).
edge(171, 41, 9).
edge(31, 3, 2).
edge(15, 107, 13).
edge(164, 130, 37).
edge(16, 141, 24).
edge(166, 94, 14).
edge(110, 38, 39).
edge(82, 162, 33).
edge(149, 144, 33).
edge(79, 13, 39).
edge(30, 154, 5).
edge(107, 102, 13).
edge(86, 165, 24).
edge(39, 80, 35).
edge(159, 25, 18).
edge(89, 62, 35).
edge(59, 129, 30).
edge(135, 19, 27).
edge(134, 21, 27).
edge(8, 116, 29).
edge(15, 59, 38).
edge(105, 123, 7).
edge(73, 161, 15).
edge(72, 7, 5).
edge(69, 142, 4).
edge(58, 158, 38).
edge(166, 24, 2).
edge(133, 100, 23).
edge(145, 45, 21).
edge(156, 23, 27).
edge(101, 166, 3).
edge(113, 109, 12).
edge(56, 99, 29).
edge(107, 85, 4).
edge(9, 169, 28).
edge(130, 128, 8).
edge(8, 109, 12).
edge(124, 135, 21).
edge(18, 124, 34).
edge(103, 97, 26).
edge(147, 143, 17).
edge(146, 121, 4).
edge(9, 72, 33).
edge(104, 156, 6).
edge(97, 69, 6).
edge(12, 67, 22).
edge(31, 67, 32).
edge(42, 108, 32).
edge(71, 78, 23).
edge(137, 12, 23).
edge(102, 71, 1).
edge(29, 71, 24).
edge(0, 48, 9).
edge(106, 147, 19).
edge(166, 161, 32).
edge(125, 163, 38).
edge(161, 113, 39).
edge(19, 102, 19).
edge(31, 167, 15).
edge(22, 20, 10).
edge(70, 11, 12).
edge(153, 109, 30).
edge(97, 101, 6).
edge(143, 61, 7).
edge(97, 4, 4).
edge(148, 43, 13).
edge(50, 136, 18).
edge(14, 162, 12).
edge(117, 87, 39).
edge(21, 99, 28).
edge(98, 93, 2).
edge(148, 22, 31).
edge(71, 40, 30).
edge(34, 26, 37).
edge(57, 26, 18).
edge(163, 166, 13).
edge(126, 148, 16).
edge(9, 155, 24).
edge(176, 151, 21).
edge(24, 139, 4).
edge(137, 164, 24).
edge(27, 37, 11).
edge(62, 96, 36).
edge(64, 83, 4).
edge(152, 127, 21).
edge(149, 74, 3).
edge(107, 148, 33).
edge(150, 79, 17).
edge(40, 35, 37).
edge(69, 54, 31).
edge(90, 33, 35).
edge(170, 78, 30).
edge(111, 11, 27).
edge(66, 18, 5).
edge(104, 39, 27).
edge(138, 39, 20).
edge(12, 125, 27).
edge(61, 13, 29).
edge(87, 4, 12).
edge(99, 40, 11).
edge(101, 56, 36).
edge(58, 84, 14).
edge(53, 22, 24).
edge(116, 35, 16).
edge(122, 88, 25).
edge(12, 117, 30).
edge(94, 65, 9).
edge(149, 158, 27).
edge(170, 104, 20).
edge(115, 55, 5).
edge(137, 174, 21).
edge(158, 144, 31).
edge(59, 110, 6).
edge(91, 169, 32).
edge(13, 132, 33).
edge(116, 145, 7).
edge(13, 65, 36).
edge(135, 117, 15).
edge(125, 143, 18).
edge(123, 20, 19).
edge(174, 36, 21).
edge(51, 97, 9).
edge(125, 144, 11).
edge(174, 44, 16).
edge(106, 108, 11).
edge(91, 124, 17).
edge(132, 92, 34).
edge(48, 145, 14).
edge(112, 156, 17).
edge(86, 164, 26).
edge(20, 15, 19).
edge(115, 42, 9).
edge(20, 95, 1).
edge(123, 72, 35).
edge(68, 136, 20).
edge(136, 142, 34).
edge(50, 124, 27).
edge(63, 143, 39).
edge(86, 29, 27).
edge(5, 174, 17).
edge(161, 124, 1).
edge(87, 65, 7).
edge(133, 77, 16).
edge(142, 13, 24).
edge(80, 173, 11).
edge(122, 30, 22).
edge(166, 167, 1).
edge(25, 164, 10).
edge(110, 86, 16).
edge(12, 168, 28).
edge(63, 167, 36).
edge(6, 78, 5).
edge(104, 162, 18).
edge(114, 18, 12).
edge(105, 97, 8).
edge(174, 52, 21).
edge(17, 169, 37).
edge(0, 86, 15).
edge(27, 24, 10).
edge(175, 95, 37).
edge(139, 13, 38).
edge(175, 38, 5).
edge(10, 112, 3).
edge(134, 30, 21).
edge(109, 23, 12).
edge(133, 107, 31).
edge(45, 69, 17).
edge(141, 13, 32).
edge(61, 163, 17).
edge(7, 136, 12).
edge(176, 173, 28).
edge(133, 18, 7).
edge(110, 11, 35).
edge(18, 45, 35).
edge(13, 116, 27).
edge(140, 100, 29).
edge(71, 93, 5).
edge(122, 51, 7).
edge(93, 115, 16).
edge(151, 28, 12).
edge(51, 52, 32).
edge(166, 149, 28).
edge(90, 168, 38).
edge(40, 73, 2).
edge(94, 4, 28).
edge(38, 33, 22).
edge(32, 37, 35).
edge(25, 72, 34).
edge(56, 102, 13).
edge(38, 60, 17).
edge(43, 156, 16).
edge(4, 22, 1).
edge(84, 39, 37).
edge(31, 96, 3).
edge(92, 103, 14).
edge(167, 53, 25).
edge(149, 39, 19).
edge(145, 144, 13).
edge(167, 10, 7).
edge(31, 58, 32).
edge(88, 4, 11).
edge(71, 162, 5).
edge(56, 33, 18).
edge(97, 84, 20).
edge(107, 73, 6).
edge(168, 47, 19).
edge(161, 59, 27).
edge(61, 158, 17).
edge(166, 139, 3).
edge(51, 46, 38).
edge(85, 154, 31).
edge(145, 122, 10).
edge(171, 37, 24).
edge(50, 166, 38).
edge(108, 150, 4).
edge(158, 138, 7).
edge(131, 51, 12).
edge(136, 2, 17).
edge(16, 110, 19).
edge(41, 76, 16).
edge(59, 19, 21).
edge(76, 33, 22).
edge(99, 149, 10).
edge(164, 17, 23).
edge(1, 143, 28).
edge(13, 150, 27).
edge(132, 160, 38).
edge(130, 94, 2).
edge(27, 38, 25).
edge(25, 83, 17).
edge(111, 94, 27).
edge(9, 172, 12).
edge(109, 161, 38).
edge(147, 18, 27).
edge(160, 71, 32).
edge(105, 47, 9).
edge(124, 140, 27).
edge(72, 34, 32).
edge(138, 171, 26).
edge(83, 175, 25).
edge(90, 50, 24).
edge(24, 17, 38).
edge(153, 150, 20).
edge(106, 68, 39).
edge(10, 53, 2).
edge(119, 77, 25).
edge(106, 71, 4).
edge(94, 69, 21).
edge(35, 103, 25).
edge(141, 174, 2).
edge(118, 112, 22).
edge(79, 28, 29).
edge(125, 83, 26).
edge(172, 130, 8).
edge(131, 44, 29).
edge(13, 2, 24).
edge(7, 103, 15).
edge(97, 131, 14).
edge(128, 5, 19).
edge(115, 154, 16).
edge(89, 29, 9).
edge(147, 55, 23).
edge(34, 78, 21).
edge(105, 143, 10).
edge(31, 83, 11).
edge(46, 51, 4).
edge(98, 17, 37).
edge(95, 118, 12).
edge(113, 61, 16).
edge(74, 95, 33).
edge(5, 118, 4).
edge(52, 49, 11).
edge(152, 142, 34).
edge(136, 79, 16).
edge(151, 20, 20).
edge(131, 100, 38).
edge(5, 57, 20).
edge(14, 90, 3).
edge(118, 78, 26).
edge(173, 44, 8).
edge(45, 78, 26).
edge(97, 123, 29).
edge(41, 78, 30).
edge(4, 97, 10).
edge(73, 122, 33).
edge(78, 26, 27).
edge(119, 69, 37).
edge(157, 108, 19).
edge(16, 175, 20).
edge(164, 154, 21).
edge(72, 78, 20).
edge(67, 109, 19).
edge(41, 34, 22).
edge(158, 171, 34).
edge(153, 4, 21).
edge(26, 80, 30).
edge(117, 24, 1).
edge(30, 150, 32).
edge(29, 116, 26).
edge(107, 57, 33).
edge(157, 82, 29).
edge(163, 80, 26).
edge(14, 81, 5).
edge(52, 85, 8).
edge(148, 176, 9).
edge(48, 107, 10).
edge(53, 66, 9).
edge(105, 40, 1).
edge(6, 109, 39).
edge(0, 151, 14).
edge(29, 104, 21).
edge(105, 6, 4).
edge(90, 39, 4).
edge(14, 146, 7).
edge(123, 94, 19).
edge(95, 130, 35).
edge(34, 105, 26).
edge(0, 140, 23).
edge(50, 21, 39).
edge(27, 106, 18).
edge(134, 89, 3).
edge(15, 40, 14).
edge(64, 6, 34).
edge(163, 133, 37).
edge(88, 122, 14).
edge(20, 45, 19).
edge(66, 19, 4).
edge(130, 19, 16).
edge(157, 85, 21).
edge(11, 176, 11).
edge(98, 94, 7).
edge(55, 17, 37).
edge(108, 97, 6).
edge(65, 154, 36).
edge(143, 31, 32).
edge(88, 80, 34).
edge(42, 96, 20).
edge(45, 62, 25).
edge(37, 46, 28).
edge(126, 108, 3).
edge(12, 77, 21).
edge(155, 5, 17).
edge(135, 58, 14).
edge(135, 32, 19).
edge(7, 20, 22).
edge(127, 41, 17).
edge(149, 116, 37).
edge(132, 24, 29).
edge(146, 80, 36).
edge(72, 12, 14).
edge(71, 148, 24).
edge(129, 47, 13).
edge(138, 136, 13).
edge(161, 108, 36).
edge(0, 96, 24).
edge(102, 31, 20).
edge(100, 171, 37).
edge(26, 120, 23).
edge(46, 98, 27).
edge(70, 116, 15).
edge(171, 87, 5).
edge(44, 4, 28).
edge(125, 22, 24).
edge(74, 27, 17).
edge(101, 95, 4).
edge(170, 27, 1).
edge(139, 170, 26).
edge(176, 34, 10).
edge(144, 102, 38).
edge(44, 131, 16).
edge(25, 155, 20).
edge(4, 9, 29).
edge(132, 139, 37).
edge(173, 113, 12).
edge(70, 126, 11).
edge(124, 55, 1).
edge(122, 86, 29).
edge(58, 4, 24).
edge(70, 166, 32).
edge(77, 155, 15).
edge(120, 126, 16).
edge(107, 42, 2).
edge(138, 157, 1).
edge(176, 9, 27).
edge(28, 64, 21).
edge(66, 173, 20).
edge(108, 15, 10).
edge(128, 131, 26).
edge(152, 132, 18).
edge(160, 132, 20).
edge(164, 65, 2).
edge(84, 55, 9).
edge(154, 100, 24).
edge(121, 130, 38).
edge(25, 31, 36).
edge(110, 171, 33).
edge(129, 150, 12).
edge(139, 43, 22).
edge(172, 48, 18).
edge(86, 5, 12).
edge(105, 46, 35).
edge(37, 56, 6).
edge(6, 33, 25).
edge(64, 52, 19).
edge(18, 92, 1).
edge(144, 101, 15).
edge(12, 50, 36).
edge(90, 47, 11).
edge(151, 62, 14).
edge(129, 121, 8).
edge(58, 40, 12).
edge(145, 154, 17).
edge(99, 137, 37).
edge(120, 24, 37).
edge(35, 136, 10).
edge(98, 115, 38).
edge(88, 117, 17).
edge(16, 168, 6).
edge(27, 115, 33).
edge(98, 113, 36).
edge(155, 100, 31).
edge(31, 142, 20).
edge(139, 68, 7).
edge(130, 93, 5).
edge(79, 165, 11).
edge(168, 126, 15).
edge(83, 75, 15).
edge(58, 61, 28).
edge(76, 60, 8).
edge(61, 138, 15).
edge(158, 29, 13).
edge(58, 153, 9).
edge(36, 62, 6).
edge(46, 125, 27).
edge(170, 74, 38).
edge(82, 135, 18).
edge(87, 166, 33).
edge(157, 130, 32).
edge(18, 154, 28).
edge(1, 121, 2).
edge(164, 41, 36).
edge(66, 15, 38).
edge(21, 83, 11).
edge(87, 59, 38).
edge(89, 131, 32).
edge(122, 99, 9).
edge(102, 74, 12).
edge(58, 175, 11).
edge(80, 160, 14).
edge(13, 143, 3).
edge(52, 47, 4).
edge(115, 29, 31).
edge(45, 148, 37).
edge(13, 174, 6).
edge(164, 143, 36).
edge(154, 55, 6).
edge(38, 54, 36).
edge(135, 64, 14).
edge(171, 152, 22).
edge(73, 120, 11).
edge(166, 148, 16).
edge(41, 127, 18).
edge(41, 61, 1).
edge(43, 166, 11).
edge(151, 132, 1).
edge(81, 66, 30).
edge(53, 105, 6).
edge(51, 147, 34).
edge(39, 95, 12).
edge(130, 164, 18).
edge(131, 46, 31).
edge(10, 24, 6).
edge(31, 163, 6).
edge(93, 166, 33).
edge(100, 125, 22).
edge(91, 2, 6).
edge(95, 102, 17).
edge(141, 80, 9).
edge(28, 116, 24).
edge(118, 165, 13).
edge(24, 33, 17).
edge(110, 18, 38).
edge(118, 105, 1).
edge(29, 102, 22).
edge(170, 52, 10).
edge(115, 10, 9).
edge(62, 98, 5).
edge(107, 26, 11).
edge(101, 21, 18).
edge(136, 153, 13).
edge(27, 33, 22).
edge(82, 23, 27).
edge(53, 46, 37).
edge(103, 2, 14).
edge(19, 60, 34).
edge(37, 157, 34).
edge(100, 73, 21).
edge(38, 137, 12).
edge(105, 35, 36).
edge(38, 3, 18).
edge(151, 54, 24).
edge(165, 55, 14).
edge(75, 127, 33).
edge(151, 19, 1).
edge(7, 116, 29).
edge(101, 18, 27).
edge(147, 45, 1).
edge(30, 106, 28).
edge(162, 151, 4).
edge(138, 145, 11).
edge(68, 25, 35).
edge(84, 127, 18).
edge(14, 164, 4).
edge(63, 116, 8).
edge(1, 160, 1).
edge(176, 98, 10).
edge(78, 175, 31).
edge(37, 57, 27).
edge(154, 90, 21).
edge(106, 109, 16).
edge(9, 130, 20).
edge(91, 151, 8).
edge(140, 29, 13).
edge(87, 145, 28).
edge(130, 106, 20).
edge(29, 80, 25).
edge(94, 1, 32).
edge(10, 86, 14).
edge(175, 107, 24).
edge(53, 93, 10).
edge(154, 42, 21).
edge(111, 158, 28).
edge(2, 157, 6).
edge(47, 0, 7).
edge(37, 128, 5).
edge(14, 55, 29).
edge(91, 30, 21).
edge(3, 5, 10).
edge(173, 41, 3).
edge(99, 139, 25).
edge(57, 33, 21).
edge(122, 169, 33).
edge(156, 65, 10).
edge(87, 34, 9).
edge(16, 89, 24).
edge(156, 100, 31).
edge(165, 63, 39).
edge(140, 90, 22).
edge(56, 161, 10).
edge(25, 64, 1).
edge(22, 90, 36).
edge(41, 165, 14).
edge(43, 85, 34).
edge(27, 126, 15).
edge(107, 157, 37).
edge(113, 168, 22).
edge(13, 173, 27).
edge(87, 122, 32).
edge(24, 49, 26).
edge(13, 68, 21).
edge(28, 147, 9).
edge(12, 120, 21).
edge(143, 103, 22).
edge(62, 30, 17).
edge(27, 23, 34).
edge(24, 109, 16).
edge(171, 2, 31).
edge(160, 10, 36).
edge(103, 108, 12).
edge(117, 116, 4).
edge(169, 66, 7).
edge(173, 128, 38).
edge(114, 85, 17).
edge(79, 131, 21).
edge(73, 168, 9).
edge(79, 59, 25).
edge(166, 42, 19).
edge(80, 17, 2).
edge(136, 169, 23).
edge(114, 103, 35).
edge(93, 49, 34).
edge(74, 5, 22).
edge(35, 44, 33).
edge(109, 101, 35).
edge(115, 81, 5).
edge(153, 15, 6).
edge(15, 32, 23).
edge(124, 165, 16).
edge(79, 26, 4).
edge(148, 80, 31).
edge(76, 37, 12).
edge(66, 96, 17).
edge(135, 49, 36).
edge(94, 91, 8).
edge(149, 53, 27).
edge(58, 23, 11).
edge(111, 40, 36).
edge(95, 170, 8).
edge(74, 124, 37).
edge(5, 1, 29).
edge(118, 148, 31).
edge(131, 173, 20).
edge(92, 78, 26).
edge(112, 98, 19).
edge(9, 127, 38).
edge(58, 102, 16).
edge(67, 62, 16).
edge(126, 133, 34).
edge(147, 167, 7).
edge(130, 141, 14).
edge(16, 153, 12).
edge(54, 117, 11).
edge(115, 117, 32).
edge(78, 114, 13).
edge(141, 30, 7).
edge(44, 120, 5).
edge(64, 88, 30).
edge(43, 176, 24).
edge(94, 19, 7).
edge(169, 73, 10).
edge(32, 35, 4).
edge(52, 77, 20).
edge(99, 70, 24).
edge(152, 36, 24).
edge(139, 162, 33).
edge(3, 132, 22).
edge(70, 129, 25).
edge(132, 173, 27).
edge(93, 157, 8).
edge(104, 151, 33).
edge(54, 92, 13).
edge(15, 90, 24).
edge(150, 130, 14).
edge(23, 100, 24).
edge(111, 73, 4).
edge(105, 119, 21).
edge(110, 51, 2).
edge(3, 69, 27).
edge(48, 22, 25).
edge(53, 29, 17).
edge(63, 153, 2).
edge(160, 26, 23).
edge(22, 141, 2).
edge(109, 83, 17).
edge(23, 38, 19).
edge(30, 156, 13).
edge(160, 49, 33).
edge(70, 147, 28).
edge(68, 11, 24).
edge(154, 15, 10).
edge(28, 80, 33).
edge(66, 59, 34).
edge(112, 42, 39).
edge(156, 44, 29).
edge(175, 129, 34).
edge(89, 81, 1).
edge(47, 75, 35).
edge(64, 123, 30).
edge(42, 139, 38).
edge(100, 173, 16).
edge(171, 19, 19).
edge(121, 46, 2).
edge(110, 12, 18).
edge(130, 43, 11).
edge(116, 54, 23).
edge(44, 43, 14).
edge(159, 74, 10).
edge(131, 145, 12).
edge(73, 164, 7).
edge(20, 93, 28).
edge(141, 10, 2).
edge(28, 107, 22).
edge(117, 57, 22).
edge(122, 136, 22).
edge(37, 30, 37).
edge(159, 145, 27).
edge(65, 171, 4).
edge(148, 124, 5).
edge(142, 34, 25).
edge(15, 138, 33).
edge(54, 133, 1).
edge(136, 27, 33).
edge(22, 89, 5).
edge(155, 10, 29).
edge(34, 144, 34).
edge(143, 118, 30).
edge(164, 105, 14).
edge(167, 83, 7).
edge(140, 72, 6).
edge(147, 95, 16).
edge(45, 63, 6).
edge(76, 2, 7).
edge(149, 13, 39).
edge(108, 137, 3).
edge(173, 159, 3).
edge(84, 12, 20).
edge(104, 137, 30).
edge(127, 67, 1).
edge(132, 78, 26).
edge(5, 84, 1).
edge(137, 142, 33).
edge(5, 14, 1).
edge(6, 95, 4).
edge(113, 127, 28).
edge(133, 138, 2).
edge(76, 145, 3).
edge(141, 140, 10).
edge(16, 158, 38).
edge(42, 82, 31).
edge(112, 96, 1).
edge(114, 154, 34).
edge(31, 14, 37).
edge(62, 124, 11).
edge(162, 39, 26).
edge(139, 39, 8).
edge(147, 93, 30).
edge(2, 126, 14).
edge(81, 67, 12).
edge(69, 134, 33).
edge(14, 141, 28).
edge(91, 47, 31).
edge(9, 138, 38).
edge(174, 142, 18).
edge(37, 101, 8).
edge(156, 165, 29).
edge(51, 13, 4).
edge(53, 77, 19).
edge(126, 88, 5).
edge(10, 120, 21).
edge(85, 67, 1).
edge(64, 97, 12).
edge(61, 106, 13).
edge(13, 140, 28).
edge(140, 65, 3).
edge(13, 102, 38).
edge(35, 53, 13).
edge(156, 94, 2).
edge(160, 153, 24).
edge(161, 139, 14).
edge(104, 76, 5).
edge(23, 149, 26).
edge(29, 93, 36).
edge(110, 49, 37).
edge(87, 111, 5).
edge(126, 78, 15).
edge(42, 33, 14).
edge(124, 10, 32).
edge(81, 46, 4).
edge(65, 115, 11).
edge(166, 160, 22).
edge(18, 55, 6).
edge(158, 5, 6).
edge(17, 136, 27).
edge(105, 167, 1).
edge(142, 43, 6).
edge(56, 129, 9).
edge(12, 68, 16).
edge(92, 74, 7).
edge(130, 150, 1).
edge(92, 27, 25).
edge(8, 48, 27).
edge(38, 83, 11).
edge(165, 6, 7).
edge(148, 33, 21).
edge(152, 13, 13).
edge(168, 72, 21).
edge(57, 54, 28).
edge(111, 168, 39).
edge(81, 165, 25).
edge(175, 173, 17).
edge(176, 55, 34).
edge(10, 18, 26).
edge(124, 95, 13).
edge(47, 152, 14).
edge(94, 152, 31).
edge(96, 114, 35).
edge(86, 116, 35).
edge(31, 133, 31).
edge(50, 59, 19).
edge(87, 0, 5).
edge(85, 38, 39).
edge(106, 125, 24).
edge(101, 53, 34).
edge(36, 44, 17).
edge(13, 34, 27).
edge(42, 138, 38).
edge(153, 143, 12).
edge(37, 34, 23).
edge(89, 150, 35).
edge(14, 30, 22).
edge(171, 10, 17).
edge(157, 33, 28).
edge(42, 49, 15).
edge(70, 146, 34).
edge(168, 15, 5).
edge(32, 157, 37).
edge(21, 101, 21).
edge(16, 107, 32).
edge(133, 40, 28).
edge(10, 123, 19).
edge(159, 68, 31).
edge(63, 60, 13).
edge(139, 164, 34).
edge(103, 42, 22).
edge(169, 157, 32).
edge(151, 87, 5).
edge(38, 71, 25).
edge(61, 76, 1).
edge(167, 146, 11).
edge(169, 18, 31).
edge(3, 106, 33).
edge(141, 31, 7).
edge(63, 152, 4).
edge(25, 73, 10).
edge(5, 40, 34).
edge(44, 3, 14).
edge(113, 43, 27).
edge(167, 139, 2).
edge(136, 174, 13).
edge(146, 150, 7).
edge(110, 57, 24).
edge(54, 173, 38).
edge(162, 149, 39).
edge(170, 95, 27).
edge(84, 14, 29).
edge(75, 29, 19).
edge(83, 64, 27).
edge(63, 56, 3).
edge(111, 145, 24).
edge(137, 2, 39).
edge(96, 58, 30).
edge(94, 87, 5).
edge(124, 150, 29).
edge(150, 97, 34).
edge(77, 16, 12).
edge(164, 123, 32).
edge(21, 154, 12).
edge(110, 42, 34).
edge(0, 4, 19).
edge(24, 108, 34).
edge(59, 107, 2).
edge(174, 119, 36).
edge(64, 44, 26).
edge(87, 41, 11).
edge(170, 145, 22).
edge(108, 133, 9).
edge(61, 90, 26).
edge(20, 28, 21).
edge(156, 125, 37).
edge(37, 109, 31).
edge(27, 43, 24).
edge(4, 48, 1).
edge(46, 164, 12).
edge(99, 77, 7).
edge(46, 33, 17).
edge(11, 123, 12).
edge(67, 176, 39).
edge(141, 172, 3).
edge(54, 71, 29).
edge(72, 100, 2).
edge(89, 143, 6).
edge(63, 38, 8).
edge(159, 4, 7).
edge(96, 153, 25).
edge(109, 10, 6).
edge(97, 90, 25).
edge(140, 37, 8).
edge(150, 156, 12).
edge(142, 45, 38).
edge(108, 138, 22).
edge(81, 40, 12).
edge(122, 14, 33).
edge(112, 63, 35).
edge(28, 31, 15).
edge(119, 172, 16).
edge(137, 34, 24).
edge(92, 25, 16).
edge(27, 55, 5).
edge(5, 99, 37).
edge(166, 77, 29).
edge(78, 5, 28).
edge(131, 18, 25).
edge(175, 176, 1).
edge(44, 172, 12).
edge(79, 116, 8).
edge(141, 67, 15).
edge(108, 123, 39).
edge(135, 95, 19).
edge(52, 134, 8).
edge(87, 103, 37).
edge(35, 113, 18).
edge(131, 76, 16).
edge(95, 16, 20).
edge(111, 124, 7).
edge(18, 121, 9).
edge(140, 147, 31).
edge(11, 128, 20).
edge(136, 170, 26).
edge(132, 51, 28).
edge(31, 20, 37).
edge(143, 109, 2).
edge(172, 40, 8).
edge(71, 175, 2).
edge(140, 54, 11).
edge(110, 21, 3).
edge(15, 63, 2).
edge(104, 37, 34).
edge(149, 153, 11).
edge(141, 87, 25).
edge(168, 13, 7).
edge(166, 19, 21).
edge(27, 81, 25).
edge(152, 33, 32).
edge(140, 154, 33).
edge(149, 143, 28).
edge(47, 80, 1).
edge(142, 138, 16).
edge(71, 32, 32).
edge(66, 68, 14).
edge(145, 87, 30).
edge(168, 127, 16).
edge(30, 32, 3).
edge(38, 62, 18).
edge(132, 62, 17).
edge(97, 92, 7).
edge(36, 137, 17).
edge(29, 143, 6).
edge(33, 130, 3).
edge(66, 94, 34).
edge(29, 114, 11).
edge(1, 130, 37).
edge(98, 111, 23).
edge(123, 155, 13).
edge(150, 147, 3).
edge(171, 53, 20).
edge(108, 6, 17).
edge(146, 28, 14).
edge(125, 119, 12).
edge(69, 101, 26).
edge(118, 166, 7).
edge(167, 168, 37).
edge(51, 5, 14).
edge(88, 71, 19).
edge(38, 105, 38).
edge(84, 172, 38).
edge(48, 72, 33).
edge(35, 41, 30).
edge(99, 93, 30).
edge(88, 86, 8).
edge(47, 134, 39).
edge(150, 154, 15).
edge(137, 121, 23).
edge(16, 66, 14).
edge(70, 85, 29).
edge(152, 47, 16).
edge(168, 51, 30).
edge(10, 1, 6).
edge(8, 99, 35).
edge(91, 101, 28).
edge(72, 53, 24).
edge(46, 93, 36).
edge(82, 170, 33).
edge(36, 176, 29).
edge(118, 124, 21).
edge(70, 132, 19).
edge(58, 32, 35).
edge(104, 8, 36).
edge(99, 123, 22).
edge(69, 82, 12).
edge(93, 75, 35).
edge(12, 164, 13).
edge(119, 52, 6).
edge(114, 155, 5).
edge(117, 32, 10).
edge(35, 68, 26).
edge(158, 86, 30).
edge(0, 46, 37).
edge(111, 127, 25).
edge(46, 136, 15).
edge(170, 25, 16).
edge(119, 95, 16).
edge(157, 10, 34).
edge(44, 108, 33).
edge(173, 10, 16).
edge(148, 128, 19).
edge(88, 129, 3).
edge(47, 28, 33).
edge(123, 45, 32).
edge(69, 55, 9).
edge(121, 69, 31).
edge(113, 68, 23).
edge(65, 108, 7).
edge(12, 51, 30).
edge(76, 70, 14).
edge(59, 117, 38).
edge(30, 138, 36).
edge(131, 139, 36).
edge(38, 42, 18).
edge(174, 16, 21).
edge(110, 112, 14).
edge(40, 72, 29).
edge(94, 92, 16).
edge(152, 65, 25).
edge(109, 6, 1).
edge(148, 14, 39).
edge(85, 152, 18).
edge(113, 7, 4).
edge(158, 11, 8).
edge(144, 97, 1).
edge(101, 150, 24).
edge(105, 64, 28).
edge(142, 92, 32).
edge(71, 91, 34).
edge(23, 108, 29).
edge(27, 84, 39).
edge(139, 29, 19).
edge(117, 67, 7).
edge(113, 33, 16).
edge(37, 72, 33).
edge(43, 150, 25).
edge(55, 86, 7).
edge(143, 75, 31).
edge(157, 38, 15).
edge(72, 92, 33).
edge(175, 7, 22).
edge(37, 125, 27).
edge(74, 0, 13).
edge(31, 24, 33).
edge(83, 39, 28).
edge(106, 145, 27).
edge(164, 58, 6).
edge(120, 3, 25).
edge(76, 120, 24).
edge(71, 134, 33).
edge(88, 27, 9).
edge(116, 23, 7).
edge(143, 114, 7).
edge(115, 151, 34).
edge(156, 116, 18).
edge(154, 0, 34).
edge(134, 32, 24).
edge(32, 61, 32).
edge(48, 163, 20).
edge(150, 46, 33).
edge(45, 122, 11).
edge(54, 69, 34).
edge(78, 67, 6).
edge(150, 148, 36).
edge(40, 88, 5).
edge(103, 121, 20).
edge(143, 70, 21).
edge(110, 109, 39).
edge(31, 55, 10).
edge(120, 70, 31).
edge(109, 113, 8).
edge(174, 144, 31).
edge(111, 101, 36).
edge(135, 62, 14).
edge(12, 31, 14).
edge(98, 31, 22).
edge(53, 3, 5).
edge(9, 18, 33).
edge(93, 143, 37).
edge(147, 65, 18).
edge(84, 110, 6).
edge(59, 88, 1).
edge(52, 137, 16).
edge(83, 34, 9).
edge(104, 78, 35).
edge(79, 4, 33).
edge(80, 3, 13).
edge(7, 45, 34).
edge(151, 118, 32).
edge(141, 36, 15).
edge(34, 175, 24).
edge(131, 77, 30).
edge(81, 139, 20).
edge(76, 51, 20).
edge(168, 163, 7).
edge(143, 175, 34).
edge(85, 159, 23).
edge(84, 77, 25).
edge(138, 128, 2).
edge(30, 137, 10).
edge(134, 84, 31).
edge(93, 173, 7).
edge(131, 148, 17).
edge(60, 35, 16).
edge(41, 80, 28).
edge(32, 101, 11).
edge(77, 45, 18).
edge(64, 99, 21).
edge(34, 169, 34).
edge(140, 106, 27).
edge(167, 43, 16).
edge(124, 32, 32).
edge(156, 21, 4).
edge(155, 12, 36).
edge(13, 83, 35).
edge(54, 175, 17).
edge(107, 23, 27).
edge(2, 22, 9).
edge(129, 153, 18).
edge(36, 13, 33).
edge(98, 70, 11).
edge(136, 26, 17).
edge(49, 158, 26).
edge(53, 124, 12).
edge(75, 158, 7).
edge(22, 44, 33).
edge(75, 89, 38).
edge(118, 75, 18).
edge(71, 39, 33).
edge(61, 162, 23).
edge(77, 53, 39).
edge(137, 54, 12).
edge(123, 159, 3).
edge(127, 145, 33).
edge(103, 86, 3).
edge(5, 136, 11).
edge(119, 125, 38).
edge(150, 76, 15).
edge(3, 56, 27).
edge(166, 44, 39).
edge(144, 23, 16).
edge(128, 61, 22).
edge(69, 139, 25).
edge(27, 10, 29).
edge(171, 114, 3).
edge(35, 87, 20).
edge(47, 65, 17).
edge(162, 94, 39).
edge(129, 144, 9).
edge(49, 119, 37).
edge(125, 120, 11).
edge(76, 24, 33).
edge(133, 48, 33).
edge(169, 119, 33).
edge(120, 65, 27).
edge(6, 20, 28).
edge(117, 172, 4).
edge(161, 112, 2).
edge(75, 96, 33).
edge(2, 155, 26).
edge(161, 175, 7).
edge(72, 152, 16).
edge(104, 63, 12).
edge(43, 14, 14).
edge(24, 120, 20).
edge(164, 158, 4).
edge(126, 34, 34).
edge(47, 2, 24).
edge(136, 68, 21).
edge(100, 27, 36).
edge(95, 71, 10).
edge(76, 14, 25).
edge(8, 0, 5).
edge(134, 161, 34).
edge(31, 121, 2).
edge(132, 31, 15).
edge(47, 97, 29).
edge(66, 163, 37).
edge(73, 16, 32).
edge(95, 167, 17).
edge(170, 36, 14).
edge(17, 24, 6).
edge(21, 59, 29).
edge(71, 3, 29).
edge(70, 43, 20).
edge(115, 132, 10).
edge(140, 19, 34).
edge(104, 48, 24).
edge(111, 169, 28).
edge(141, 170, 17).
edge(154, 73, 6).
edge(9, 174, 5).
edge(16, 86, 1).
edge(82, 37, 20).
edge(158, 43, 27).
edge(106, 52, 32).
edge(145, 26, 29).
edge(69, 61, 26).
edge(37, 176, 3).
edge(29, 150, 38).
edge(51, 121, 28).
edge(87, 143, 8).
edge(52, 73, 1).
edge(96, 131, 19).
edge(103, 30, 6).
edge(102, 100, 22).
edge(49, 27, 25).
edge(134, 12, 29).
edge(58, 137, 36).
edge(20, 66, 16).
edge(56, 1, 8).
edge(72, 35, 18).
edge(37, 25, 18).
edge(162, 49, 33).
edge(15, 24, 14).
edge(46, 7, 19).
edge(156, 124, 12).
edge(30, 101, 8).
edge(148, 1, 5).
edge(174, 27, 30).
edge(99, 32, 17).
edge(105, 21, 30).
edge(164, 90, 28).
edge(0, 100, 8).
edge(151, 55, 38).
edge(117, 170, 1).
edge(33, 5, 30).
edge(56, 128, 9).
edge(78, 29, 11).
edge(0, 167, 23).
edge(53, 87, 2).
edge(152, 114, 23).
edge(107, 83, 29).
edge(74, 42, 21).
edge(98, 123, 14).
edge(94, 59, 35).
edge(67, 32, 37).
edge(173, 116, 39).
edge(49, 22, 33).
edge(9, 67, 6).
edge(59, 145, 38).
edge(14, 99, 5).
edge(17, 137, 3).
edge(159, 78, 37).
edge(94, 132, 4).
edge(115, 51, 26).
edge(16, 28, 39).
edge(52, 140, 32).
edge(13, 79, 19).
edge(27, 169, 38).
edge(145, 67, 1).
edge(153, 5, 22).
edge(171, 21, 2).
edge(9, 149, 27).
edge(87, 165, 30).
edge(120, 27, 24).
edge(49, 63, 15).
edge(34, 69, 25).
edge(72, 54, 21).
edge(86, 87, 15).
edge(128, 63, 6).
edge(157, 95, 31).
edge(7, 18, 8).
edge(70, 18, 15).
edge(57, 97, 1).
edge(102, 68, 14).
edge(52, 72, 17).
edge(35, 65, 13).
edge(126, 37, 9).
edge(108, 158, 20).
edge(15, 142, 27).
edge(172, 137, 23).
edge(117, 16, 7).
edge(111, 34, 7).
edge(62, 103, 9).
edge(157, 127, 14).
edge(40, 63, 39).
edge(142, 111, 35).
edge(155, 118, 21).
edge(96, 132, 27).
edge(49, 127, 27).
edge(160, 47, 4).
edge(26, 128, 26).
edge(160, 4, 25).
edge(20, 100, 35).
edge(116, 98, 9).
edge(6, 92, 1).
edge(17, 119, 9).
edge(164, 136, 11).
edge(70, 95, 36).
edge(11, 91, 4).
edge(142, 31, 21).
edge(65, 124, 32).
edge(171, 80, 23).
edge(163, 32, 26).
edge(114, 163, 2).
edge(94, 3, 33).
edge(73, 50, 18).
edge(152, 68, 35).
edge(131, 109, 33).
edge(165, 2, 7).
edge(23, 119, 29).
edge(168, 102, 29).
edge(85, 165, 13).
edge(4, 17, 32).
edge(122, 21, 9).
edge(33, 149, 4).
edge(38, 148, 8).
edge(25, 34, 25).
edge(122, 172, 22).
edge(34, 42, 12).
edge(32, 114, 23).
edge(10, 148, 36).
edge(145, 50, 24).
edge(24, 70, 10).
edge(61, 164, 20).
edge(29, 10, 3).
edge(5, 88, 5).
edge(10, 63, 24).
edge(90, 78, 31).
edge(33, 155, 29).
edge(41, 160, 31).
edge(10, 140, 11).
edge(145, 44, 21).
edge(52, 143, 37).
edge(9, 110, 38).
edge(4, 70, 24).
edge(135, 136, 30).
edge(49, 123, 26).
edge(147, 99, 29).
edge(8, 76, 7).
edge(123, 15, 20).
edge(55, 173, 23).
edge(140, 78, 30).
edge(86, 99, 18).
edge(133, 166, 28).
edge(64, 160, 3).
edge(128, 43, 8).
edge(106, 170, 5).
edge(78, 31, 31).
edge(113, 36, 19).
edge(17, 173, 30).
edge(22, 47, 34).
edge(53, 85, 14).
edge(133, 50, 27).
edge(148, 5, 31).
edge(165, 67, 18).
edge(49, 136, 2).
edge(8, 113, 29).
edge(1, 34, 2).
edge(52, 88, 2).
edge(151, 92, 33).
edge(131, 104, 2).
edge(147, 33, 3).
edge(100, 6, 37).
edge(32, 41, 19).
edge(67, 137, 37).
edge(82, 73, 34).
edge(142, 124, 27).
edge(51, 75, 30).
edge(172, 18, 5).
edge(126, 173, 28).
edge(83, 2, 33).
edge(165, 171, 6).
edge(140, 59, 21).
edge(26, 142, 6).
edge(128, 109, 11).
edge(175, 78, 34).
edge(169, 86, 38).
edge(125, 16, 35).
edge(26, 85, 36).
edge(115, 47, 36).
edge(139, 75, 31).
edge(103, 160, 9).
edge(69, 81, 2).
edge(31, 137, 30).
edge(28, 123, 21).
edge(145, 113, 3).
edge(14, 70, 38).
edge(6, 130, 38).
edge(155, 48, 28).
edge(97, 118, 18).
edge(98, 153, 37).
edge(136, 172, 13).
edge(4, 138, 13).
edge(0, 54, 23).
edge(152, 112, 4).
edge(36, 119, 27).
edge(151, 60, 38).
edge(104, 80, 31).
edge(164, 45, 3).
edge(16, 54, 1).
edge(166, 128, 21).
edge(7, 105, 36).
edge(7, 155, 25).
edge(113, 163, 13).
edge(72, 138, 36).
edge(153, 25, 37).
edge(162, 136, 32).
edge(117, 138, 11).
edge(78, 44, 30).
edge(126, 1, 29).
edge(30, 102, 38).
edge(74, 154, 33).
edge(141, 127, 27).
edge(12, 169, 5).
edge(5, 69, 7).
edge(120, 135, 35).
edge(70, 48, 32).
edge(87, 173, 13).
edge(115, 164, 22).
edge(8, 107, 16).
edge(157, 42, 1).
edge(66, 79, 38).
edge(97, 107, 15).
edge(119, 171, 27).
edge(60, 125, 11).
edge(51, 172, 25).
edge(145, 131, 8).
edge(95, 48, 15).
edge(156, 140, 15).
edge(39, 118, 18).
edge(58, 1, 8).
edge(115, 137, 7).
edge(9, 91, 39).
edge(113, 94, 29).
edge(123, 100, 25).
edge(152, 157, 36).
edge(81, 131, 11).
edge(23, 12, 21).
edge(26, 20, 17).
edge(119, 78, 18).
edge(85, 122, 1).
edge(60, 1, 2).
edge(137, 19, 18).
edge(152, 170, 37).
edge(146, 119, 33).
edge(98, 86, 22).
edge(13, 117, 11).
edge(104, 21, 18).
edge(82, 70, 4).
edge(67, 117, 21).
edge(36, 175, 4).
edge(7, 156, 25).
edge(171, 95, 36).
edge(147, 133, 22).
edge(16, 109, 34).
edge(135, 112, 5).
edge(27, 57, 9).
edge(111, 6, 5).
edge(88, 82, 39).
edge(149, 163, 2).
edge(87, 161, 4).
edge(136, 162, 20).
edge(102, 7, 11).
edge(119, 168, 38).
edge(70, 66, 8).
edge(0, 56, 33).
edge(146, 45, 15).
edge(39, 148, 38).
edge(117, 76, 39).
edge(61, 144, 24).
edge(168, 157, 27).
edge(127, 152, 2).
edge(37, 117, 19).
edge(148, 28, 28).
edge(57, 47, 36).
edge(91, 59, 34).
edge(174, 72, 23).
edge(108, 144, 38).
edge(49, 7, 32).
edge(92, 5, 4).
edge(3, 166, 17).
edge(98, 34, 7).
edge(16, 42, 18).
edge(39, 30, 26).
edge(35, 147, 23).
edge(158, 65, 15).
edge(61, 170, 20).
edge(29, 36, 31).
edge(174, 154, 39).
edge(62, 132, 1).
edge(92, 40, 1).
edge(14, 18, 26).
edge(152, 83, 35).
edge(102, 69, 27).
edge(58, 83, 19).
edge(124, 18, 5).
edge(11, 58, 15).
edge(174, 143, 29).
edge(143, 87, 22).
edge(1, 174, 27).
edge(110, 166, 27).
edge(77, 41, 39).
edge(75, 135, 21).
edge(130, 146, 6).
edge(147, 137, 36).
edge(165, 79, 12).
edge(135, 155, 34).
edge(24, 132, 14).
edge(137, 139, 37).
edge(159, 10, 32).
edge(176, 174, 19).
edge(85, 55, 28).
edge(128, 96, 33).
edge(121, 83, 39).
edge(159, 140, 4).
edge(56, 59, 29).
edge(29, 55, 15).
edge(64, 127, 29).
edge(6, 12, 29).
edge(68, 13, 37).
edge(41, 151, 36).
edge(114, 94, 9).
edge(119, 87, 12).
edge(78, 34, 13).
edge(77, 141, 9).
edge(111, 156, 30).
edge(52, 35, 5).
edge(88, 90, 14).
edge(122, 47, 32).
edge(14, 92, 11).
edge(59, 83, 29).
edge(57, 142, 35).
edge(154, 67, 21).
edge(171, 49, 18).
edge(43, 76, 19).
edge(16, 172, 25).
edge(31, 132, 6).
edge(68, 49, 18).
edge(111, 112, 12).
edge(133, 85, 20).
edge(76, 163, 24).
edge(70, 31, 13).
edge(89, 50, 24).
edge(133, 106, 39).
edge(130, 121, 31).
edge(29, 11, 17).
edge(105, 98, 39).
edge(82, 154, 37).
edge(160, 28, 15).
edge(152, 94, 10).
edge(75, 167, 1).
edge(138, 143, 29).
edge(81, 85, 9).
edge(165, 147, 1).
edge(99, 54, 15).
edge(113, 115, 5).
edge(100, 108, 23).
edge(4, 13, 14).
edge(21, 142, 28).
edge(161, 54, 36).
edge(175, 66, 4).
edge(32, 16, 35).
edge(109, 12, 10).
edge(1, 48, 24).
edge(110, 19, 36).
edge(145, 124, 26).
edge(141, 169, 9).
edge(139, 173, 27).
edge(134, 37, 10).
edge(52, 162, 10).
edge(52, 122, 24).
edge(50, 90, 38).
edge(49, 48, 16).
edge(121, 123, 15).
edge(63, 145, 27).
edge(39, 60, 11).
edge(143, 51, 22).
edge(60, 175, 28).
edge(77, 152, 23).
edge(14, 54, 10).
edge(69, 53, 9).
edge(66, 98, 29).
edge(95, 66, 1).
edge(79, 1, 26).
edge(150, 100, 27).
edge(33, 75, 3).
edge(133, 5, 30).
edge(124, 17, 12).
edge(25, 141, 4).
edge(139, 110, 39).
edge(22, 4, 18).
edge(13, 169, 13).
edge(5, 102, 34).
edge(98, 130, 18).
edge(84, 62, 22).
edge(97, 164, 38).
edge(7, 35, 23).
edge(141, 79, 25).
edge(51, 142, 14).
edge(174, 85, 38).
edge(26, 107, 20).
edge(102, 154, 37).
edge(10, 111, 1).
edge(99, 141, 37).
edge(130, 78, 9).
edge(165, 133, 29).
edge(118, 24, 10).
edge(81, 97, 16).
edge(36, 14, 23).
edge(155, 133, 39).
edge(61, 148, 9).
edge(123, 54, 7).
edge(45, 175, 3).
edge(53, 172, 13).
edge(62, 157, 15).
edge(17, 79, 16).
edge(17, 55, 34).
edge(90, 6, 16).
edge(163, 13, 37).
edge(36, 160, 26).
edge(161, 40, 20).
edge(165, 154, 18).
edge(49, 8, 31).
edge(67, 150, 18).
edge(93, 32, 21).
edge(142, 29, 13).
edge(133, 98, 4).
edge(29, 138, 7).
edge(144, 113, 32).
edge(106, 5, 7).
edge(73, 93, 8).
edge(72, 107, 12).
edge(99, 16, 9).
edge(41, 13, 5).
edge(135, 55, 26).
edge(161, 48, 19).
edge(135, 56, 32).
edge(109, 84, 35).
edge(49, 114, 5).
edge(175, 131, 26).
edge(15, 124, 28).
edge(25, 101, 20).
edge(132, 134, 5).
edge(168, 85, 6).
edge(45, 98, 13).
edge(53, 117, 28).
edge(114, 113, 34).
edge(154, 77, 26).
edge(34, 171, 39).
edge(78, 21, 15).
edge(86, 36, 4).
edge(139, 171, 19).
edge(26, 100, 12).
edge(160, 124, 15).
edge(159, 37, 16).
edge(110, 47, 33).
edge(63, 26, 14).
edge(132, 10, 22).
edge(69, 156, 24).
edge(154, 127, 7).
edge(135, 126, 3).
edge(143, 107, 16).
edge(62, 20, 25).
edge(44, 0, 2).
edge(70, 39, 35).
edge(37, 33, 2).
edge(69, 144, 23).
edge(80, 68, 35).
edge(173, 35, 10).
edge(116, 169, 35).
edge(35, 56, 22).
edge(23, 122, 22).
edge(164, 62, 26).
edge(89, 66, 14).
edge(79, 74, 2).
edge(108, 89, 17).
edge(120, 30, 28).
edge(67, 170, 8).
edge(108, 140, 34).
edge(153, 10, 23).
edge(2, 125, 36).
edge(64, 3, 20).
edge(141, 78, 3).
edge(124, 80, 26).
edge(78, 151, 33).
edge(128, 82, 4).
edge(119, 26, 3).
edge(162, 66, 32).
edge(62, 169, 14).
edge(151, 99, 20).
edge(44, 16, 1).
edge(160, 72, 6).
edge(9, 24, 32).
edge(16, 17, 27).
edge(25, 45, 4).
edge(173, 24, 13).
edge(58, 96, 7).
edge(139, 104, 8).
edge(35, 95, 23).
edge(1, 98, 20).
edge(81, 129, 20).
edge(49, 154, 28).
edge(55, 2, 7).
edge(11, 63, 32).
edge(151, 12, 32).
edge(6, 105, 17).
edge(107, 162, 9).
edge(34, 30, 5).
edge(67, 171, 35).
edge(174, 137, 38).
edge(56, 80, 31).
edge(10, 134, 12).
edge(100, 111, 20).
edge(37, 14, 38).
edge(115, 124, 4).
edge(97, 100, 9).
edge(11, 27, 31).
edge(124, 78, 12).
edge(148, 47, 37).
edge(80, 172, 11).
edge(65, 112, 17).
edge(58, 19, 3).
edge(94, 18, 29).
edge(60, 82, 32).
edge(80, 57, 35).
edge(25, 96, 3).
edge(90, 138, 30).
edge(95, 26, 25).
edge(130, 0, 1).
edge(105, 95, 25).
edge(46, 12, 6).
edge(13, 32, 35).
edge(29, 127, 23).
edge(160, 146, 18).
edge(132, 123, 10).
edge(91, 67, 23).
edge(167, 95, 11).
edge(42, 62, 4).
edge(76, 100, 9).
edge(31, 107, 19).
edge(56, 43, 7).
edge(163, 52, 39).
edge(145, 8, 10).
edge(170, 21, 33).
edge(90, 54, 38).
edge(97, 135, 8).
edge(10, 54, 27).
edge(152, 23, 36).
edge(96, 83, 19).
edge(55, 125, 2).
edge(160, 87, 24).
edge(161, 134, 4).
edge(119, 170, 21).
edge(161, 132, 21).
edge(169, 131, 39).
edge(72, 18, 22).
edge(64, 62, 11).
edge(11, 161, 7).
edge(63, 103, 1).
edge(128, 122, 6).
edge(171, 31, 7).
edge(124, 114, 24).
edge(63, 102, 7).
edge(21, 68, 25).
edge(44, 124, 16).
edge(103, 96, 4).
edge(2, 172, 8).
edge(106, 167, 29).
edge(86, 41, 2).
edge(0, 142, 10).
edge(129, 10, 34).
edge(153, 73, 23).
edge(94, 61, 16).
edge(114, 7, 16).
edge(46, 2, 19).
edge(51, 94, 8).
edge(100, 32, 38).
edge(6, 62, 2).
edge(122, 40, 7).
edge(59, 127, 8).
edge(63, 110, 8).
edge(104, 10, 18).
edge(26, 60, 1).
edge(7, 26, 24).
edge(161, 156, 17).
edge(33, 80, 1).
edge(31, 18, 6).
edge(81, 23, 29).
edge(114, 135, 1).
edge(17, 34, 9).
edge(58, 109, 17).
edge(169, 11, 23).
edge(123, 171, 37).
edge(106, 114, 24).
edge(143, 115, 35).
edge(34, 141, 1).
edge(62, 145, 27).
edge(143, 132, 12).
edge(21, 81, 20).
edge(144, 79, 39).
edge(67, 142, 3).
edge(157, 34, 17).
edge(31, 112, 36).
edge(14, 73, 37).
edge(72, 8, 2).
edge(39, 26, 29).
edge(34, 31, 34).
edge(105, 17, 22).
edge(14, 106, 29).
edge(57, 40, 21).
edge(161, 146, 10).
edge(176, 27, 1).
edge(120, 107, 38).
edge(158, 137, 38).
edge(3, 46, 13).
edge(107, 41, 3).
edge(75, 115, 3).
edge(33, 49, 34).
edge(66, 164, 9).
edge(159, 8, 31).
edge(79, 118, 22).
edge(140, 67, 17).
edge(121, 59, 16).
edge(23, 49, 38).
edge(121, 67, 6).
edge(117, 27, 8).
edge(31, 52, 9).
edge(60, 152, 8).
edge(67, 30, 15).
edge(54, 81, 38).
edge(0, 92, 18).
edge(64, 39, 4).
edge(126, 3, 2).
edge(176, 56, 13).
edge(5, 168, 35).
edge(37, 127, 35).
edge(97, 30, 16).
edge(156, 14, 21).
edge(29, 12, 22).
edge(40, 74, 16).
edge(87, 130, 33).
edge(20, 92, 29).
edge(133, 95, 17).
edge(68, 107, 1).
edge(167, 40, 16).
edge(8, 104, 12).
edge(78, 74, 1).
edge(4, 111, 35).
edge(150, 153, 24).
edge(118, 42, 10).
edge(130, 155, 17).
edge(106, 26, 35).
edge(124, 21, 4).
edge(28, 92, 11).
edge(173, 166, 39).
edge(102, 90, 26).
edge(9, 139, 39).
edge(19, 107, 28).
edge(157, 4, 1).
edge(57, 44, 18).
edge(175, 2, 36).
edge(22, 98, 32).
edge(72, 26, 14).
edge(111, 9, 5).
edge(110, 77, 22).
edge(126, 57, 13).
edge(1, 21, 13).
edge(74, 81, 4).
edge(146, 84, 8).
edge(112, 138, 18).
edge(143, 22, 24).
edge(5, 72, 5).
edge(90, 162, 5).
edge(135, 63, 21).
edge(129, 88, 22).
edge(45, 169, 10).
edge(175, 23, 28).
edge(39, 22, 2).
edge(46, 103, 30).
edge(114, 162, 13).
edge(115, 17, 34).
edge(67, 157, 36).
edge(8, 157, 5).
edge(89, 18, 13).
edge(81, 117, 36).
edge(29, 8, 39).
edge(29, 92, 6).
edge(148, 172, 4).
edge(4, 49, 21).
edge(97, 15, 28).
edge(76, 135, 34).
edge(5, 11, 25).
edge(164, 100, 30).
edge(112, 17, 35).
edge(48, 65, 31).
edge(176, 76, 12).
edge(69, 131, 19).
edge(111, 85, 29).
edge(15, 58, 20).
edge(64, 58, 29).
edge(35, 76, 30).
edge(62, 61, 39).
edge(21, 160, 4).
edge(166, 30, 25).
edge(66, 115, 20).
edge(50, 135, 26).
edge(112, 165, 14).
edge(65, 174, 6).
edge(106, 91, 5).
edge(103, 27, 13).
edge(38, 162, 16).
edge(128, 1, 9).
edge(126, 26, 15).
edge(64, 166, 7).
edge(146, 99, 18).
edge(152, 144, 14).
edge(92, 38, 22).
edge(11, 62, 2).
edge(71, 79, 24).
edge(70, 54, 1).
edge(71, 20, 12).
edge(48, 157, 19).
edge(79, 100, 34).
edge(48, 141, 10).
edge(37, 73, 27).
edge(90, 106, 30).
edge(120, 21, 26).
edge(159, 80, 16).
edge(37, 133, 15).
edge(37, 103, 26).
edge(63, 86, 10).
edge(34, 3, 17).
edge(32, 115, 6).
edge(90, 45, 23).
edge(139, 21, 16).
edge(95, 59, 8).
edge(36, 146, 36).
edge(127, 71, 17).
edge(5, 61, 5).
edge(46, 61, 16).
edge(86, 72, 16).
edge(85, 148, 22).
edge(1, 117, 23).
edge(126, 113, 19).
edge(82, 100, 15).
edge(69, 112, 9).
edge(147, 128, 33).
edge(86, 149, 35).
edge(50, 117, 34).
edge(138, 86, 37).
edge(99, 10, 31).
edge(144, 119, 9).
edge(83, 81, 31).
edge(34, 129, 18).
edge(38, 146, 36).
edge(33, 54, 21).
edge(56, 122, 27).
edge(144, 114, 29).
edge(164, 89, 21).
edge(103, 54, 1).
edge(44, 104, 14).
edge(156, 17, 7).
edge(54, 33, 5).
edge(27, 134, 6).
edge(104, 98, 36).
edge(28, 100, 28).
edge(67, 54, 29).
edge(46, 120, 7).
edge(132, 174, 37).
edge(142, 106, 3).
edge(76, 146, 13).
edge(76, 27, 14).
edge(64, 93, 23).
edge(107, 56, 24).
edge(102, 63, 21).
edge(160, 86, 36).
edge(138, 28, 34).
edge(153, 39, 13).
edge(92, 67, 15).
edge(69, 59, 6).
edge(41, 119, 19).
edge(146, 54, 11).
edge(119, 53, 17).
edge(99, 90, 5).
edge(12, 139, 39).
edge(121, 77, 27).
edge(24, 128, 14).
edge(143, 159, 3).
edge(32, 153, 9).
edge(92, 0, 12).
edge(99, 106, 36).
edge(101, 118, 10).
edge(18, 20, 18).
edge(171, 85, 15).
edge(164, 135, 36).
edge(108, 79, 4).
edge(138, 154, 3).
edge(165, 36, 21).
edge(150, 77, 39).
edge(4, 89, 12).
edge(163, 0, 7).
edge(49, 91, 27).
edge(105, 41, 26).
edge(157, 164, 20).
edge(164, 56, 2).
edge(38, 172, 35).
edge(160, 85, 33).
edge(39, 103, 30).
edge(121, 114, 16).
edge(86, 101, 10).
edge(163, 168, 27).
edge(136, 146, 14).
edge(152, 44, 5).
edge(123, 110, 32).
edge(27, 85, 7).
edge(113, 2, 34).
edge(104, 96, 1).
edge(61, 88, 30).
edge(92, 137, 25).
edge(103, 106, 29).
edge(47, 22, 30).
edge(85, 73, 9).
edge(51, 4, 8).
edge(138, 75, 35).
edge(36, 87, 33).
edge(160, 138, 24).
edge(123, 53, 25).
edge(40, 13, 13).
edge(36, 126, 17).
edge(160, 27, 5).
edge(64, 171, 36).
edge(16, 74, 31).
edge(88, 13, 28).
edge(65, 4, 4).
edge(127, 83, 33).
edge(166, 127, 6).
edge(77, 173, 3).
edge(74, 20, 9).
edge(83, 159, 14).
edge(155, 54, 11).
edge(90, 17, 36).
edge(73, 158, 1).
edge(48, 43, 25).
edge(104, 88, 16).
edge(14, 91, 36).
edge(114, 128, 12).
edge(95, 13, 34).
edge(45, 9, 33).
edge(151, 63, 19).
edge(119, 84, 6).
edge(74, 26, 20).
edge(129, 41, 13).
edge(48, 113, 38).
edge(20, 64, 7).
edge(99, 42, 31).
edge(96, 29, 38).
edge(68, 24, 39).
edge(150, 21, 8).
edge(111, 50, 32).
edge(101, 173, 1).
edge(15, 83, 18).
edge(22, 18, 13).
edge(37, 75, 20).
edge(59, 65, 28).
edge(11, 170, 22).
edge(49, 168, 20).
edge(55, 102, 6).
edge(69, 104, 20).
edge(163, 34, 27).
edge(94, 88, 29).
edge(118, 120, 7).
edge(98, 18, 4).
edge(151, 64, 38).
edge(172, 24, 35).
edge(148, 166, 32).
edge(70, 83, 26).
edge(11, 80, 32).
edge(144, 14, 19).
edge(48, 97, 24).
edge(72, 118, 38).
edge(169, 70, 10).
edge(78, 167, 23).
edge(170, 81, 31).
edge(54, 131, 21).
edge(20, 157, 27).
edge(57, 171, 26).
edge(54, 169, 13).
edge(163, 97, 20).
edge(0, 59, 34).
edge(147, 75, 17).
edge(55, 156, 16).
edge(32, 109, 6).
edge(27, 62, 20).
edge(63, 117, 33).
edge(90, 152, 6).
edge(63, 95, 4).
edge(110, 93, 37).
edge(162, 150, 3).
edge(126, 85, 31).
edge(15, 112, 5).
edge(123, 144, 28).
edge(115, 143, 36).
edge(138, 135, 39).
edge(117, 44, 30).
edge(122, 170, 30).
edge(96, 43, 11).
edge(129, 90, 6).
edge(48, 164, 12).
edge(12, 138, 35).
edge(166, 82, 39).
edge(125, 145, 10).
edge(60, 93, 10).
edge(137, 166, 9).
edge(176, 74, 10).
edge(56, 46, 21).
edge(34, 75, 3).
edge(111, 160, 17).
edge(152, 6, 24).
edge(87, 99, 16).
edge(143, 27, 6).
edge(97, 80, 9).
edge(116, 100, 2).
edge(153, 135, 15).
edge(1, 41, 19).
edge(36, 125, 11).
edge(107, 165, 10).
edge(147, 171, 17).
edge(146, 158, 34).
edge(20, 61, 28).
edge(133, 149, 31).
edge(24, 10, 17).
edge(156, 137, 28).
edge(84, 138, 28).
edge(131, 116, 18).
edge(104, 30, 16).
edge(21, 135, 35).
edge(33, 135, 14).
edge(22, 59, 12).
edge(70, 169, 34).
edge(21, 172, 38).
edge(22, 170, 23).
edge(14, 129, 30).
edge(9, 137, 24).
edge(17, 149, 11).
edge(34, 135, 33).
edge(69, 121, 3).
edge(6, 66, 11).
edge(176, 124, 10).
edge(53, 144, 34).
edge(47, 167, 19).
edge(152, 51, 9).
edge(71, 70, 30).
edge(15, 110, 36).
edge(78, 116, 24).
edge(10, 57, 31).
edge(66, 102, 36).
edge(42, 107, 37).
edge(115, 89, 2).
edge(105, 14, 3).
edge(157, 20, 8).
edge(151, 82, 39).
edge(11, 125, 13).
edge(149, 4, 24).
edge(21, 27, 8).
edge(71, 46, 5).
edge(37, 0, 7).
edge(125, 24, 33).
edge(5, 22, 39).
edge(71, 129, 39).
edge(86, 46, 5).
edge(155, 172, 11).
edge(176, 43, 15).
edge(175, 154, 5).
edge(14, 100, 20).
edge(78, 146, 3).
edge(163, 90, 23).
edge(129, 118, 18).
edge(58, 104, 36).
edge(3, 67, 38).
edge(85, 7, 12).
edge(112, 155, 26).
edge(159, 23, 25).
edge(17, 19, 36).
edge(67, 10, 33).
edge(139, 138, 37).
edge(163, 77, 5).
edge(16, 43, 6).
edge(87, 164, 31).
edge(144, 19, 23).
edge(117, 77, 3).
edge(89, 101, 16).
edge(8, 83, 2).
edge(61, 53, 4).
edge(133, 143, 26).
edge(66, 90, 35).
edge(167, 51, 38).
edge(1, 93, 35).
edge(138, 98, 22).
edge(134, 165, 2).
edge(31, 141, 32).
edge(64, 68, 39).
edge(73, 156, 25).
edge(107, 45, 22).
edge(124, 104, 31).
edge(74, 24, 18).
edge(0, 146, 35).
edge(157, 105, 5).
edge(78, 93, 31).
edge(158, 42, 21).
edge(7, 153, 25).
edge(49, 87, 25).
edge(142, 113, 15).
edge(52, 132, 33).
edge(77, 59, 30).
edge(28, 70, 4).
edge(55, 161, 7).
edge(74, 160, 32).
edge(124, 3, 18).
edge(144, 71, 8).
edge(158, 51, 26).
edge(164, 133, 14).
edge(86, 91, 27).
edge(54, 136, 12).
edge(70, 159, 24).
edge(71, 47, 7).
edge(86, 23, 14).
edge(39, 121, 1).
edge(142, 101, 5).
edge(77, 144, 25).
edge(83, 156, 8).
edge(15, 91, 5).
edge(19, 86, 25).
edge(133, 24, 1).
edge(173, 97, 27).
edge(23, 10, 33).
edge(110, 138, 13).
edge(99, 112, 10).
edge(45, 11, 26).
edge(104, 123, 21).
edge(117, 168, 37).
edge(27, 68, 35).
edge(121, 96, 28).
edge(81, 121, 11).
edge(50, 152, 13).
edge(42, 79, 8).
edge(75, 10, 4).
edge(127, 138, 33).
edge(158, 153, 24).
edge(78, 53, 17).
edge(146, 20, 37).
edge(135, 111, 15).
edge(49, 170, 37).
edge(168, 101, 29).
edge(90, 21, 33).
edge(168, 112, 7).
edge(160, 91, 19).
edge(121, 37, 3).
edge(107, 128, 2).
edge(88, 176, 35).
edge(124, 74, 11).
edge(126, 97, 1).
edge(83, 119, 36).
edge(136, 34, 2).
edge(143, 155, 20).
edge(121, 168, 8).
edge(128, 15, 20).
edge(90, 35, 13).
edge(119, 15, 37).
edge(107, 53, 20).
edge(144, 48, 34).
edge(5, 159, 39).
edge(75, 37, 28).
edge(141, 151, 33).
edge(78, 19, 28).
edge(105, 30, 20).
edge(90, 161, 31).
edge(166, 72, 3).
edge(101, 112, 34).
edge(129, 50, 4).
edge(174, 99, 2).
edge(114, 143, 25).
edge(100, 84, 13).
edge(52, 130, 25).
edge(127, 135, 8).
edge(114, 122, 7).
edge(30, 67, 8).
edge(25, 176, 31).
edge(1, 24, 20).
edge(157, 158, 27).
edge(157, 37, 38).
edge(46, 148, 7).
edge(137, 161, 9).
edge(142, 98, 18).
edge(109, 153, 11).
edge(154, 134, 7).
edge(17, 98, 25).
edge(40, 121, 22).
edge(63, 68, 3).
edge(83, 93, 12).
edge(35, 77, 28).
edge(167, 68, 39).
edge(127, 119, 27).
edge(133, 15, 2).
edge(36, 56, 35).
edge(167, 131, 29).
edge(107, 10, 9).
edge(61, 37, 33).
edge(113, 59, 34).
edge(7, 113, 37).
edge(135, 142, 38).
edge(57, 25, 18).
edge(86, 64, 3).
edge(124, 40, 23).
edge(24, 6, 26).
edge(11, 92, 26).
edge(58, 164, 32).
edge(174, 167, 38).
edge(56, 141, 22).
edge(173, 102, 15).
edge(33, 102, 20).
edge(111, 161, 23).
edge(73, 115, 21).
edge(94, 50, 22).
edge(77, 75, 12).
edge(11, 127, 22).
edge(167, 165, 4).
edge(35, 26, 26).
edge(14, 44, 19).
edge(7, 131, 2).
edge(46, 135, 33).
edge(146, 57, 28).
edge(174, 139, 17).
edge(119, 135, 3).
edge(111, 42, 27).
edge(176, 171, 4).
edge(122, 137, 26).
edge(170, 46, 8).
edge(10, 153, 2).
edge(27, 34, 9).
edge(68, 75, 24).
edge(61, 145, 16).
edge(2, 89, 3).
edge(128, 92, 3).
edge(68, 145, 8).
edge(41, 1, 34).
edge(21, 137, 19).
edge(69, 4, 29).
edge(126, 170, 16).
edge(143, 24, 5).
edge(17, 96, 25).
edge(2, 116, 37).
edge(115, 152, 22).
edge(115, 49, 8).
edge(147, 159, 7).
edge(157, 143, 21).
edge(160, 65, 22).
edge(72, 158, 2).
edge(142, 139, 22).
edge(150, 41, 16).
edge(102, 126, 39).
edge(93, 72, 32).
edge(121, 105, 6).
edge(72, 39, 17).
edge(119, 11, 21).
edge(164, 31, 11).
edge(174, 62, 1).
edge(113, 11, 25).
edge(157, 123, 35).
edge(156, 75, 6).
edge(107, 131, 13).
edge(16, 131, 23).
edge(71, 72, 26).
edge(11, 106, 30).
edge(8, 114, 36).
edge(77, 175, 36).
edge(99, 143, 23).
edge(88, 51, 27).
edge(99, 75, 28).
edge(143, 124, 15).
edge(123, 23, 38).
edge(36, 9, 11).
edge(87, 51, 7).
edge(29, 28, 16).
edge(16, 20, 34).
edge(60, 148, 13).
edge(143, 105, 16).
edge(144, 2, 27).
edge(34, 50, 31).
edge(157, 0, 25).
edge(89, 128, 18).
edge(86, 0, 9).
edge(35, 83, 13).
edge(26, 73, 32).
edge(138, 40, 20).
edge(160, 68, 10).
edge(56, 67, 21).
edge(161, 164, 37).
edge(31, 95, 39).
edge(171, 56, 38).
edge(25, 174, 17).
edge(50, 6, 37).
edge(161, 57, 13).
edge(2, 85, 12).
edge(33, 64, 35).
edge(172, 67, 16).
edge(45, 44, 3).
edge(149, 73, 9).
edge(13, 155, 4).
edge(33, 159, 13).
edge(28, 170, 11).
edge(3, 0, 3).
edge(39, 57, 32).
edge(67, 64, 12).
edge(55, 99, 10).
edge(20, 151, 6).
edge(121, 165, 7).
edge(168, 171, 36).
edge(1, 61, 31).
edge(49, 109, 32).
edge(18, 30, 29).
edge(147, 56, 15).
edge(164, 4, 17).
edge(170, 171, 13).
edge(29, 61, 15).
edge(133, 80, 16).
edge(122, 118, 23).
edge(18, 2, 2).
edge(123, 34, 9).
edge(23, 6, 16).
edge(44, 109, 39).
edge(169, 171, 21).
edge(3, 99, 22).
edge(22, 87, 9).
edge(32, 106, 10).
edge(123, 170, 29).
edge(73, 10, 27).
edge(119, 34, 5).
edge(172, 49, 35).
edge(133, 88, 31).
edge(31, 144, 18).
edge(36, 98, 18).
edge(11, 171, 6).
edge(86, 154, 26).
edge(163, 28, 17).
edge(13, 78, 16).
edge(25, 89, 29).
edge(13, 82, 21).
edge(117, 71, 37).
edge(119, 66, 8).
edge(109, 86, 22).
edge(7, 15, 11).
edge(125, 133, 19).
edge(159, 121, 27).
edge(147, 47, 35).
edge(68, 69, 27).
edge(54, 121, 38).
edge(64, 56, 31).
edge(113, 135, 32).
edge(25, 6, 7).
edge(106, 97, 30).
edge(117, 47, 37).
edge(159, 7, 28).
edge(64, 104, 31).
edge(163, 129, 38).
edge(72, 56, 12).
edge(104, 176, 19).
edge(18, 134, 14).
edge(90, 165, 19).
edge(102, 9, 1).
edge(145, 12, 18).
edge(34, 71, 29).
edge(79, 8, 24).
edge(70, 38, 39).
edge(23, 39, 11).
edge(26, 44, 15).
edge(172, 113, 27).
edge(19, 78, 19).
edge(113, 114, 32).
edge(33, 104, 26).
edge(73, 49, 16).
edge(25, 132, 9).
edge(63, 99, 34).
edge(62, 118, 30).
edge(143, 69, 2).
edge(137, 99, 23).
edge(128, 30, 9).
edge(166, 141, 28).
edge(162, 163, 29).
edge(96, 121, 18).
edge(156, 57, 21).
edge(70, 28, 15).
edge(42, 17, 16).
edge(152, 158, 24).
edge(2, 50, 28).
edge(42, 131, 14).
edge(81, 149, 13).
edge(13, 31, 6).
edge(63, 171, 30).
edge(5, 110, 22).
edge(15, 103, 4).
edge(113, 52, 33).
edge(46, 132, 32).
edge(103, 78, 8).
edge(6, 32, 29).
edge(34, 176, 9).
edge(159, 99, 17).
edge(52, 39, 33).
edge(34, 96, 36).
edge(158, 73, 37).
edge(49, 134, 6).
edge(130, 28, 2).
edge(84, 64, 4).
edge(61, 171, 28).
edge(60, 70, 32).
edge(73, 78, 8).
edge(4, 37, 24).
edge(122, 129, 21).
edge(148, 42, 35).
edge(79, 50, 32).
edge(89, 2, 35).
edge(14, 29, 12).
edge(70, 84, 33).
edge(87, 152, 28).
edge(74, 12, 17).
edge(126, 50, 6).
edge(140, 58, 11).
edge(118, 44, 2).
edge(71, 50, 10).
edge(37, 148, 9).
edge(73, 100, 38).
edge(101, 9, 35).
edge(95, 55, 10).
edge(12, 93, 33).
edge(40, 41, 24).
edge(34, 102, 5).
edge(56, 51, 37).
edge(120, 141, 1).
edge(103, 53, 37).
edge(73, 140, 9).
edge(18, 70, 26).
edge(56, 3, 4).
edge(161, 11, 26).
edge(127, 144, 12).
edge(21, 145, 12).
edge(129, 52, 11).
edge(114, 63, 38).
edge(101, 20, 39).
edge(60, 153, 34).
edge(139, 158, 24).
edge(155, 164, 4).
edge(78, 72, 29).
edge(46, 160, 26).
edge(41, 175, 10).
edge(88, 45, 12).
edge(38, 72, 17).
edge(171, 169, 6).
edge(71, 136, 17).
edge(103, 22, 23).
edge(39, 120, 24).
edge(158, 112, 15).
edge(70, 141, 19).
edge(69, 17, 36).
edge(122, 106, 21).
edge(160, 20, 35).
edge(176, 147, 14).
edge(37, 122, 38).
edge(42, 122, 38).
edge(72, 116, 16).
edge(136, 15, 21).
edge(112, 102, 35).
edge(24, 175, 12).
edge(55, 149, 19).
edge(60, 45, 3).
edge(82, 120, 28).
edge(2, 88, 11).
edge(57, 22, 2).
edge(82, 104, 35).
edge(29, 86, 3).
edge(120, 74, 39).
edge(84, 72, 7).
edge(148, 141, 17).
edge(109, 131, 18).
edge(43, 169, 6).
edge(163, 41, 12).
edge(137, 59, 37).
edge(58, 159, 2).
edge(83, 111, 13).
edge(19, 64, 37).
edge(157, 131, 2).
edge(80, 86, 22).
edge(158, 98, 36).
edge(36, 134, 6).
edge(11, 66, 2).
edge(37, 130, 30).
edge(103, 71, 12).
edge(126, 33, 31).
edge(108, 95, 2).
edge(40, 58, 1).
edge(53, 114, 10).
edge(29, 161, 1).
edge(73, 82, 24).
edge(106, 1, 19).
edge(142, 30, 23).
edge(167, 69, 11).
edge(26, 33, 23).
edge(105, 126, 39).
edge(148, 15, 21).
edge(36, 60, 22).
edge(150, 87, 27).
edge(145, 110, 33).
edge(124, 84, 11).
edge(70, 67, 10).
edge(0, 152, 17).
edge(50, 151, 10).
edge(162, 53, 25).
edge(96, 88, 13).
edge(107, 8, 1).
edge(140, 11, 6).
edge(118, 49, 9).
edge(165, 163, 11).
edge(88, 93, 13).
edge(112, 175, 36).
edge(173, 54, 6).
edge(11, 107, 13).
edge(143, 39, 32).
edge(83, 146, 20).
edge(136, 78, 32).
edge(44, 171, 4).
edge(127, 63, 8).
edge(22, 6, 9).
edge(113, 164, 8).
edge(127, 47, 9).
edge(103, 129, 34).
edge(13, 4, 20).
edge(92, 33, 13).
edge(57, 147, 13).
edge(17, 122, 36).
edge(0, 115, 15).
edge(136, 80, 14).
edge(163, 68, 1).
edge(45, 107, 2).
edge(81, 73, 29).
edge(148, 149, 32).
edge(51, 67, 35).
edge(18, 170, 20).
edge(92, 122, 34).
edge(109, 168, 28).
edge(84, 41, 21).
edge(34, 87, 21).
edge(22, 119, 38).
edge(61, 58, 37).
edge(0, 129, 8).
edge(54, 97, 2).
edge(58, 165, 24).
edge(169, 173, 16).
edge(94, 7, 3).
edge(148, 31, 19).
edge(104, 81, 21).
edge(20, 27, 35).
edge(81, 146, 37).
edge(53, 120, 27).
edge(110, 101, 15).
edge(41, 170, 8).
edge(24, 1, 34).
edge(113, 67, 26).
edge(9, 50, 15).
edge(13, 75, 32).
edge(57, 98, 28).
edge(57, 149, 26).
edge(121, 157, 17).
edge(171, 92, 38).
edge(133, 152, 6).
edge(115, 158, 12).
edge(75, 102, 12).
edge(97, 47, 7).
edge(70, 56, 31).
edge(36, 37, 28).
edge(28, 129, 15).
edge(25, 175, 17).
edge(173, 152, 17).
edge(32, 175, 39).
edge(111, 166, 38).
edge(165, 51, 19).
edge(55, 29, 27).
edge(93, 156, 32).
edge(35, 17, 23).
edge(26, 104, 22).
edge(134, 112, 5).
edge(140, 22, 29).
edge(166, 107, 11).
edge(151, 86, 10).
edge(154, 111, 30).
edge(17, 65, 28).
edge(169, 167, 6).
edge(39, 124, 2).
edge(0, 124, 25).
edge(17, 155, 23).
edge(66, 168, 38).
edge(67, 84, 39).
edge(160, 14, 6).
edge(90, 102, 13).
edge(154, 87, 7).
edge(50, 156, 26).
edge(51, 89, 2).
edge(102, 160, 4).
edge(12, 80, 7).
edge(31, 68, 5).
edge(70, 75, 4).
edge(98, 3, 39).
edge(167, 48, 6).
edge(35, 11, 6).
edge(40, 76, 14).
edge(106, 77, 15).
edge(115, 121, 25).
edge(59, 105, 29).
edge(72, 51, 5).
edge(18, 44, 2).
edge(0, 172, 20).
edge(115, 166, 20).
edge(155, 150, 2).
edge(125, 94, 5).
edge(36, 116, 2).
edge(30, 63, 18).
edge(174, 1, 27).
edge(60, 95, 36).
edge(3, 140, 36).
edge(53, 159, 26).
edge(8, 22, 13).
edge(119, 167, 14).
edge(11, 145, 39).
edge(170, 66, 28).
edge(28, 2, 29).
edge(126, 122, 25).
edge(132, 108, 33).
edge(3, 119, 3).
edge(66, 22, 34).
edge(118, 52, 3).
edge(121, 20, 26).
edge(168, 121, 38).
edge(136, 98, 19).
edge(34, 132, 14).
edge(41, 173, 14).
edge(75, 156, 17).
edge(93, 164, 21).
edge(56, 22, 20).
edge(34, 28, 23).
edge(68, 165, 27).
edge(170, 24, 23).
edge(35, 16, 19).
edge(115, 96, 33).
edge(28, 57, 25).
edge(124, 93, 10).
edge(9, 135, 31).
edge(143, 40, 5).
edge(73, 48, 15).
edge(113, 82, 32).
edge(13, 161, 37).
edge(63, 77, 22).
edge(11, 110, 29).
edge(4, 18, 20).
edge(141, 91, 23).
edge(105, 152, 33).
edge(4, 77, 3).
edge(71, 137, 39).
edge(70, 128, 30).
edge(61, 147, 35).
edge(25, 100, 11).
edge(102, 161, 27).
edge(66, 58, 9).
edge(173, 110, 20).
edge(148, 105, 1).
edge(13, 66, 21).
edge(23, 114, 3).
edge(141, 7, 19).
edge(13, 94, 21).
edge(89, 112, 34).
edge(88, 84, 2).
edge(67, 38, 3).
edge(5, 24, 9).
edge(120, 173, 13).
edge(48, 140, 8).
edge(42, 102, 29).
edge(146, 162, 35).
edge(154, 165, 6).
edge(83, 10, 21).
edge(139, 118, 34).
edge(43, 37, 34).
edge(120, 11, 35).
edge(21, 174, 37).
edge(17, 107, 20).
edge(176, 160, 7).
edge(144, 83, 16).
edge(54, 64, 19).
edge(12, 110, 6).
edge(105, 92, 13).
edge(168, 138, 24).
edge(85, 100, 26).
edge(85, 78, 16).
edge(55, 37, 25).
edge(83, 21, 7).
edge(161, 8, 30).
edge(129, 162, 3).
edge(147, 49, 29).
edge(7, 175, 32).
edge(81, 113, 27).
edge(6, 84, 30).
edge(173, 12, 14).
edge(163, 31, 12).
edge(138, 71, 28).
edge(85, 10, 29).
edge(79, 33, 4).
edge(29, 96, 7).
edge(59, 10, 39).
edge(34, 145, 28).
edge(45, 27, 32).
edge(102, 141, 9).
edge(11, 132, 13).
edge(82, 43, 19).
edge(147, 24, 37).
edge(7, 96, 4).
edge(112, 145, 26).
edge(6, 21, 3).
edge(28, 102, 14).
edge(154, 61, 8).
edge(48, 126, 19).
edge(57, 9, 38).
edge(64, 11, 25).
edge(81, 50, 4).
edge(128, 80, 6).
edge(64, 115, 6).
edge(70, 138, 28).
edge(153, 152, 30).
edge(61, 112, 4).
edge(47, 133, 26).
edge(141, 46, 7).
edge(34, 121, 30).
edge(157, 60, 13).
edge(123, 84, 14).
edge(144, 49, 36).
edge(37, 23, 32).
edge(4, 143, 2).
edge(144, 51, 21).
edge(108, 120, 32).
edge(101, 3, 30).
edge(137, 67, 2).
edge(169, 56, 1).
edge(31, 111, 27).
edge(33, 82, 13).
edge(50, 87, 33).
edge(86, 110, 23).
edge(11, 33, 1).
edge(114, 130, 14).
edge(28, 69, 16).
edge(172, 42, 14).
edge(174, 30, 21).
edge(48, 95, 16).
edge(173, 134, 17).
edge(163, 49, 24).
edge(90, 81, 18).
edge(161, 10, 38).
edge(130, 44, 38).
edge(97, 27, 37).
edge(172, 144, 17).
edge(139, 63, 21).
edge(78, 107, 37).
edge(172, 70, 11).
edge(118, 142, 8).
edge(101, 51, 33).
edge(91, 60, 30).
edge(70, 37, 6).
edge(27, 158, 39).
edge(20, 32, 1).
edge(41, 95, 22).
edge(120, 77, 3).
edge(99, 146, 31).
edge(149, 136, 23).
edge(27, 16, 25).
edge(51, 139, 26).
edge(40, 172, 29).
edge(165, 114, 4).
edge(107, 163, 39).
edge(17, 20, 30).
edge(170, 109, 5).
edge(79, 68, 20).
edge(144, 91, 7).
edge(77, 147, 39).
edge(130, 124, 11).
edge(83, 55, 29).
edge(133, 160, 36).
edge(88, 133, 22).
edge(160, 101, 21).
edge(130, 145, 6).
edge(52, 62, 17).
edge(100, 136, 31).
edge(94, 122, 26).
edge(116, 94, 32).
edge(2, 43, 26).
edge(27, 14, 13).
edge(133, 1, 18).
edge(119, 129, 30).
edge(18, 150, 27).
edge(53, 99, 14).
edge(86, 123, 9).
edge(7, 126, 9).
edge(125, 95, 13).
edge(67, 29, 16).
edge(60, 88, 28).
edge(38, 155, 7).
edge(94, 153, 17).
edge(100, 81, 27).
edge(1, 28, 9).
edge(143, 73, 3).
edge(93, 95, 37).
edge(28, 5, 23).
edge(95, 72, 2).
edge(107, 15, 19).
edge(21, 89, 8).
edge(171, 3, 6).
edge(67, 4, 12).
edge(95, 24, 5).
edge(140, 64, 26).
edge(151, 73, 20).
edge(119, 121, 5).
edge(33, 42, 27).
edge(67, 152, 12).
edge(40, 119, 35).
edge(96, 176, 37).
edge(50, 72, 29).
edge(2, 66, 30).
edge(11, 74, 16).
edge(69, 143, 38).
edge(94, 55, 22).
edge(0, 45, 38).
edge(156, 118, 4).
edge(154, 64, 15).
edge(147, 78, 29).
edge(24, 143, 26).
edge(43, 140, 23).
edge(42, 27, 16).
edge(52, 55, 36).
edge(51, 28, 10).
edge(107, 86, 13).
edge(39, 10, 25).
edge(1, 123, 37).
edge(17, 85, 19).
edge(50, 165, 2).
edge(72, 1, 5).
edge(31, 19, 17).
edge(39, 36, 12).
edge(82, 121, 35).
edge(11, 154, 34).
edge(85, 19, 37).
edge(155, 24, 27).
edge(167, 85, 10).
edge(159, 70, 27).
edge(101, 45, 23).
edge(10, 0, 15).
edge(42, 76, 14).
edge(66, 129, 25).
edge(165, 43, 28).
edge(72, 172, 8).
edge(26, 111, 7).
edge(85, 9, 16).
edge(10, 13, 11).
edge(97, 157, 38).
edge(143, 7, 7).
edge(24, 47, 7).
edge(43, 143, 2).
edge(158, 113, 28).
edge(51, 168, 21).
edge(159, 105, 4).
edge(152, 101, 35).
edge(107, 12, 1).
edge(21, 136, 13).
edge(137, 81, 34).
edge(166, 102, 24).
edge(136, 90, 17).
edge(33, 1, 12).
edge(129, 51, 13).
edge(94, 56, 15).
edge(36, 35, 19).
edge(4, 73, 9).
edge(134, 147, 33).
edge(57, 10, 35).
edge(33, 116, 24).
edge(130, 74, 25).
edge(58, 139, 28).
edge(10, 128, 5).
edge(94, 173, 14).
edge(19, 171, 39).
edge(97, 94, 32).
edge(105, 51, 32).
edge(2, 63, 30).
edge(40, 133, 37).
edge(29, 160, 17).
edge(140, 86, 29).
edge(25, 36, 22).
edge(35, 67, 19).
edge(1, 58, 24).
edge(70, 89, 24).
edge(83, 60, 4).
edge(169, 51, 20).
edge(85, 18, 25).
edge(152, 21, 14).
edge(114, 25, 12).
edge(67, 145, 8).
edge(65, 85, 4).
edge(25, 67, 4).
edge(145, 123, 13).
edge(46, 66, 34).
edge(10, 84, 31).
edge(59, 102, 34).
edge(1, 84, 19).
edge(128, 25, 20).
edge(63, 91, 21).
edge(74, 6, 1).
edge(21, 87, 8).
edge(19, 150, 9).
edge(90, 55, 33).
edge(20, 30, 24).
edge(54, 48, 38).
edge(152, 3, 28).
edge(83, 127, 23).
edge(42, 163, 19).
edge(102, 112, 32).
edge(58, 160, 21).
edge(78, 14, 32).
edge(44, 112, 19).
edge(112, 5, 11).
edge(55, 130, 36).
edge(101, 148, 18).
edge(103, 100, 34).
edge(166, 134, 5).
edge(175, 65, 35).
edge(99, 19, 31).
edge(142, 103, 3).
edge(102, 88, 12).
edge(107, 79, 33).
edge(164, 44, 5).
edge(123, 37, 33).
edge(80, 169, 32).
edge(121, 169, 2).
edge(12, 71, 4).
edge(74, 103, 16).
edge(149, 83, 16).
edge(78, 176, 31).
edge(58, 59, 21).
edge(116, 40, 23).
edge(149, 60, 3).
edge(141, 57, 17).
edge(29, 49, 30).
edge(101, 86, 32).
edge(163, 75, 31).
edge(128, 169, 23).
edge(19, 68, 32).
edge(112, 2, 35).
edge(55, 13, 31).
edge(115, 67, 10).
edge(31, 175, 12).
edge(0, 121, 37).
edge(11, 32, 29).
edge(72, 98, 6).
edge(166, 118, 33).
edge(111, 96, 6).
edge(115, 127, 1).
edge(85, 166, 13).
edge(165, 26, 14).
edge(10, 124, 34).
edge(176, 175, 15).
edge(5, 75, 13).
edge(174, 25, 19).
edge(18, 172, 9).
edge(47, 141, 33).
edge(96, 41, 22).
edge(68, 144, 20).
edge(114, 27, 17).
edge(90, 25, 2).
edge(15, 85, 13).
edge(86, 81, 39).
edge(54, 29, 17).
edge(0, 57, 19).
edge(37, 87, 22).
edge(124, 102, 17).
edge(5, 44, 1).
edge(3, 79, 1).
edge(78, 55, 27).
edge(63, 155, 1).
edge(82, 164, 21).
edge(88, 59, 21).
edge(135, 172, 15).
edge(153, 22, 25).
edge(134, 102, 4).
edge(33, 148, 30).
edge(170, 107, 10).
edge(174, 19, 38).
edge(71, 155, 38).
edge(63, 168, 14).
edge(68, 52, 34).
edge(41, 32, 24).
edge(107, 130, 6).
edge(40, 51, 35).
edge(136, 144, 21).
edge(109, 25, 13).
edge(138, 107, 12).
edge(143, 119, 30).
edge(158, 124, 33).
edge(136, 64, 31).
edge(77, 124, 22).
edge(59, 120, 28).
edge(41, 91, 23).
edge(15, 139, 17).
edge(138, 54, 18).
edge(167, 5, 24).
edge(79, 52, 39).
edge(76, 65, 17).
edge(96, 55, 32).
edge(26, 12, 25).
edge(92, 75, 20).
edge(120, 116, 4).
edge(65, 11, 10).
edge(9, 148, 28).
edge(163, 172, 37).
edge(71, 2, 5).
edge(33, 169, 1).
edge(18, 0, 32).
edge(125, 118, 20).
edge(141, 109, 26).
edge(65, 119, 25).
edge(118, 54, 30).
edge(123, 77, 14).
edge(155, 87, 24).
edge(93, 59, 16).
edge(150, 24, 6).
edge(18, 153, 39).
edge(3, 6, 9).
edge(1, 141, 37).
edge(123, 119, 14).
edge(77, 121, 27).
edge(3, 101, 14).
edge(75, 108, 21).
edge(94, 63, 17).
edge(49, 73, 11).
edge(153, 170, 19).
edge(29, 40, 30).
edge(34, 101, 33).
edge(113, 50, 29).
edge(15, 37, 31).
edge(127, 163, 12).
edge(23, 135, 39).
edge(60, 25, 17).
edge(86, 48, 25).
edge(98, 96, 29).
edge(119, 124, 32).
edge(126, 175, 12).
edge(93, 119, 16).
edge(154, 48, 12).
edge(85, 135, 37).
edge(133, 19, 6).
edge(159, 81, 9).
edge(34, 59, 38).
edge(44, 74, 15).
edge(45, 117, 3).
edge(127, 84, 14).
edge(96, 69, 7).
edge(45, 22, 18).
edge(11, 9, 8).
edge(133, 92, 32).
edge(33, 94, 7).
edge(34, 115, 16).
edge(14, 36, 22).
edge(79, 96, 12).
edge(58, 0, 10).
edge(160, 38, 2).
edge(47, 130, 20).
edge(6, 72, 11).
edge(106, 69, 18).
edge(32, 126, 23).
edge(162, 72, 17).
edge(41, 163, 15).
edge(155, 97, 12).
edge(120, 122, 31).
edge(127, 37, 11).
edge(119, 23, 34).
edge(104, 159, 30).
edge(39, 154, 3).
edge(147, 173, 5).
edge(49, 20, 37).
edge(110, 67, 17).
edge(41, 162, 18).
edge(91, 62, 14).
edge(37, 94, 25).
edge(62, 130, 33).
edge(104, 166, 15).
edge(58, 33, 36).
edge(121, 159, 17).
edge(77, 172, 34).
edge(49, 93, 15).
edge(64, 63, 8).
edge(24, 74, 7).
edge(20, 143, 8).
edge(163, 124, 25).
edge(152, 164, 21).
edge(73, 25, 11).
edge(171, 105, 29).
edge(98, 25, 17).
edge(144, 176, 29).
edge(92, 146, 16).
edge(168, 125, 22).
edge(76, 87, 13).
edge(101, 5, 11).
edge(91, 106, 14).
edge(47, 18, 33).
edge(5, 129, 13).
edge(11, 6, 3).
edge(122, 166, 22).
edge(174, 132, 38).
edge(18, 65, 25).
edge(72, 133, 15).
edge(82, 109, 10).
edge(17, 131, 7).
edge(140, 15, 21).
edge(45, 152, 12).
edge(60, 13, 19).
edge(59, 152, 6).
edge(152, 161, 9).
edge(61, 151, 1).
edge(14, 145, 11).
edge(128, 141, 9).
edge(139, 19, 10).
edge(130, 147, 35).
edge(140, 133, 37).
edge(1, 133, 6).
edge(49, 13, 38).
edge(110, 53, 29).
edge(51, 48, 8).
edge(108, 17, 28).
edge(26, 79, 17).
edge(137, 51, 12).
edge(160, 79, 17).
edge(68, 153, 10).
edge(27, 86, 15).
edge(23, 167, 9).
edge(153, 27, 36).
edge(82, 48, 22).
edge(85, 13, 11).
edge(51, 99, 6).
edge(138, 106, 5).
edge(95, 79, 33).
edge(160, 45, 20).
edge(3, 121, 11).
edge(109, 45, 13).
edge(90, 125, 8).
edge(31, 41, 36).
edge(80, 32, 12).
edge(2, 132, 38).
edge(20, 109, 32).
edge(91, 56, 23).
edge(20, 167, 31).
edge(37, 95, 22).
edge(141, 40, 15).
edge(46, 159, 17).
edge(34, 174, 6).
edge(163, 176, 34).
edge(52, 6, 17).
edge(147, 38, 15).
edge(152, 55, 28).
edge(17, 114, 16).
edge(82, 76, 36).
edge(13, 35, 30).
edge(109, 8, 36).
edge(31, 59, 6).
edge(136, 140, 18).
edge(116, 47, 9).
edge(100, 139, 5).
edge(54, 8, 35).
edge(45, 46, 36).
edge(119, 118, 33).
edge(73, 139, 35).
edge(174, 105, 14).
edge(62, 32, 1).
edge(65, 127, 4).
edge(77, 131, 12).
edge(147, 35, 38).
edge(87, 171, 15).
edge(126, 120, 30).
edge(127, 151, 31).
edge(129, 142, 36).
edge(62, 38, 37).
edge(69, 127, 36).
edge(169, 153, 18).
edge(121, 79, 3).
edge(14, 12, 2).
edge(59, 131, 6).
edge(96, 134, 30).
edge(144, 63, 19).
edge(110, 9, 17).
edge(174, 121, 10).
edge(75, 65, 17).
edge(173, 129, 37).
edge(87, 44, 17).
edge(44, 12, 31).
edge(153, 156, 37).
edge(147, 114, 31).
edge(55, 42, 1).
edge(97, 155, 10).
edge(47, 27, 38).
edge(163, 59, 25).
edge(108, 160, 38).
edge(60, 69, 15).
edge(93, 141, 9).
edge(163, 118, 18).
edge(63, 147, 28).
edge(127, 93, 12).
edge(131, 20, 14).
edge(129, 25, 9).
edge(155, 0, 2).
edge(96, 81, 34).
edge(53, 58, 10).
edge(96, 162, 30).
edge(43, 56, 3).
edge(0, 157, 20).
edge(60, 67, 11).
edge(92, 147, 17).
edge(162, 106, 24).
edge(3, 74, 18).
edge(3, 66, 16).
edge(166, 27, 33).
edge(116, 72, 6).
edge(120, 17, 10).
edge(110, 147, 23).
edge(124, 12, 36).
edge(135, 15, 22).
edge(76, 86, 21).
edge(16, 8, 13).
edge(100, 105, 35).
edge(116, 29, 32).
edge(110, 0, 35).
edge(0, 173, 34).
edge(74, 79, 1).
edge(36, 74, 20).
edge(69, 92, 18).
edge(167, 27, 28).
edge(92, 17, 4).
edge(142, 56, 29).
edge(80, 69, 13).
edge(117, 146, 21).
edge(68, 54, 36).
edge(58, 15, 33).
edge(33, 6, 5).
edge(112, 152, 16).
edge(78, 13, 34).
edge(75, 94, 6).
edge(123, 40, 11).
edge(163, 125, 22).
edge(140, 164, 14).
edge(151, 122, 6).
edge(164, 174, 30).
edge(45, 14, 5).
edge(50, 149, 26).
edge(49, 76, 36).
edge(130, 111, 37).
edge(29, 151, 33).
edge(0, 116, 23).
edge(61, 9, 22).
edge(133, 83, 38).
edge(142, 10, 4).
edge(108, 35, 27).
edge(44, 151, 29).
edge(159, 116, 15).
edge(118, 32, 30).
edge(21, 102, 16).
edge(100, 11, 20).
edge(118, 31, 30).
edge(160, 125, 16).
edge(28, 140, 17).
edge(33, 32, 9).
edge(85, 82, 5).
edge(31, 2, 35).
edge(176, 93, 25).
edge(127, 161, 16).
edge(5, 153, 37).
edge(125, 21, 21).
edge(79, 71, 20).
edge(146, 43, 38).
edge(35, 28, 24).
edge(49, 62, 28).
edge(93, 8, 11).
edge(77, 20, 31).
edge(9, 96, 8).
edge(161, 142, 16).
edge(172, 61, 20).
edge(22, 169, 21).
edge(157, 170, 29).
edge(15, 154, 15).
edge(136, 87, 6).
edge(131, 27, 21).
edge(131, 89, 31).
edge(98, 62, 39).
edge(137, 72, 37).
edge(5, 0, 10).
edge(99, 1, 25).
edge(139, 128, 19).
edge(52, 14, 26).
edge(78, 49, 17).
edge(133, 73, 35).
edge(159, 71, 21).
edge(73, 56, 12).
edge(158, 149, 33).
edge(74, 67, 33).
edge(176, 82, 5).
edge(66, 153, 38).
edge(96, 54, 38).
edge(169, 65, 18).
edge(120, 49, 29).
edge(33, 69, 2).
edge(9, 47, 29).
edge(74, 105, 9).
edge(90, 94, 5).
edge(151, 152, 29).
edge(54, 112, 14).
edge(6, 1, 11).
edge(83, 167, 3).
edge(150, 37, 27).
edge(141, 82, 16).
edge(88, 12, 34).
edge(151, 71, 29).
edge(51, 49, 29).
edge(45, 102, 22).
edge(75, 132, 3).
edge(25, 48, 19).
edge(122, 102, 30).
edge(162, 135, 37).
edge(65, 83, 12).
edge(19, 12, 12).
edge(173, 13, 11).
edge(53, 132, 22).
edge(76, 38, 29).
edge(57, 154, 13).
edge(136, 101, 15).
edge(98, 24, 21).
edge(128, 150, 20).
edge(6, 147, 39).
edge(161, 149, 35).
edge(49, 175, 36).
edge(20, 133, 23).
edge(84, 114, 16).
edge(101, 142, 7).
edge(88, 14, 26).
edge(95, 30, 2).
edge(99, 136, 26).
edge(120, 148, 12).
edge(168, 30, 38).
edge(142, 53, 16).
edge(132, 6, 35).
edge(6, 111, 11).
edge(90, 61, 11).
edge(98, 164, 6).
edge(134, 96, 12).
edge(31, 25, 18).
edge(90, 159, 22).
edge(95, 33, 17).
edge(175, 120, 20).
edge(71, 38, 6).
edge(122, 0, 17).
edge(8, 169, 32).
edge(24, 130, 31).
edge(89, 79, 17).
edge(124, 53, 17).
edge(160, 54, 38).
edge(155, 126, 38).
edge(167, 169, 11).
edge(2, 26, 27).
edge(77, 26, 26).
edge(64, 84, 7).
edge(78, 50, 33).
edge(70, 100, 21).
edge(138, 52, 28).
edge(174, 123, 12).
edge(115, 112, 20).
edge(90, 64, 30).
edge(109, 126, 32).
edge(31, 11, 21).
edge(173, 115, 30).
edge(86, 115, 11).
edge(142, 136, 23).
edge(19, 165, 32).
edge(64, 124, 5).
edge(63, 105, 22).
edge(87, 82, 24).
edge(43, 151, 31).
edge(147, 120, 10).
edge(95, 116, 32).
edge(43, 23, 9).
edge(128, 166, 3).
edge(119, 158, 14).
edge(125, 148, 34).
edge(130, 160, 5).
edge(67, 41, 6).
edge(88, 100, 22).
edge(159, 161, 37).
edge(97, 36, 23).
edge(160, 162, 5).
edge(19, 139, 14).
edge(120, 80, 28).
edge(107, 105, 34).
edge(87, 90, 23).
edge(39, 82, 12).
edge(30, 107, 25).
edge(6, 58, 37).
edge(132, 59, 38).
edge(172, 116, 10).
edge(13, 149, 19).
edge(103, 20, 35).
edge(159, 29, 27).
edge(29, 23, 12).
edge(156, 98, 31).
edge(56, 114, 21).
edge(73, 125, 12).
edge(85, 71, 19).
edge(32, 102, 27).
edge(140, 127, 5).
edge(48, 21, 15).
edge(152, 5, 15).
edge(7, 87, 35).
edge(26, 27, 14).
edge(57, 137, 4).
edge(24, 69, 7).
edge(75, 67, 18).
edge(130, 35, 20).
edge(125, 142, 9).
edge(77, 35, 27).
edge(155, 35, 31).
edge(118, 50, 22).
edge(73, 94, 18).
edge(169, 22, 36).
edge(34, 11, 2).
edge(164, 117, 25).
edge(103, 51, 12).
edge(40, 85, 26).
edge(95, 2, 10).
edge(127, 21, 38).
edge(23, 57, 7).
edge(95, 151, 11).
edge(18, 59, 2).
edge(124, 132, 38).
edge(43, 21, 36).
edge(38, 157, 9).
edge(42, 168, 16).
edge(94, 72, 6).
edge(169, 166, 14).
edge(0, 7, 28).
edge(118, 47, 9).
edge(100, 146, 12).
edge(71, 12, 20).
edge(45, 133, 18).
edge(22, 128, 38).
edge(11, 129, 27).
edge(57, 172, 12).
edge(55, 117, 30).
edge(44, 160, 8).
edge(144, 57, 10).
edge(121, 175, 11).
edge(166, 56, 29).
edge(171, 88, 28).
edge(40, 155, 33).
edge(74, 127, 37).
edge(32, 43, 2).
edge(73, 47, 27).
edge(85, 97, 31).
edge(73, 116, 6).
edge(25, 88, 8).
edge(73, 155, 8).
edge(153, 30, 2).
edge(135, 23, 32).
edge(176, 72, 19).
edge(100, 153, 18).
edge(64, 30, 23).
edge(56, 111, 32).
edge(72, 128, 23).
edge(127, 50, 24).
edge(13, 157, 22).
edge(87, 146, 17).
edge(93, 175, 3).
edge(42, 150, 8).
edge(134, 29, 23).
edge(76, 134, 27).
edge(110, 142, 27).
edge(98, 104, 15).
edge(149, 150, 6).
edge(12, 13, 19).
edge(14, 48, 34).
edge(58, 55, 27).
edge(89, 30, 18).
edge(75, 43, 29).
edge(138, 104, 12).
edge(124, 68, 10).
edge(113, 80, 2).
edge(136, 109, 18).
edge(172, 132, 20).
edge(139, 16, 20).
edge(6, 67, 31).
edge(173, 151, 32).
edge(141, 44, 24).
edge(162, 97, 27).
edge(101, 133, 17).
edge(132, 45, 33).
edge(122, 142, 28).
edge(47, 108, 2).
edge(29, 65, 32).
edge(69, 113, 5).
edge(46, 146, 16).
edge(120, 44, 10).
edge(137, 144, 11).
edge(83, 70, 32).
edge(154, 12, 20).
edge(68, 22, 12).
edge(81, 37, 11).
edge(146, 96, 1).
edge(161, 145, 33).
edge(119, 157, 16).
edge(106, 111, 38).
edge(166, 74, 17).
edge(51, 141, 4).
edge(105, 158, 21).
edge(26, 159, 33).
edge(47, 144, 39).
edge(59, 151, 16).
edge(132, 125, 29).
edge(141, 116, 3).
edge(157, 17, 15).
edge(34, 164, 21).
edge(48, 98, 37).
edge(13, 46, 27).
edge(8, 154, 18).
edge(91, 143, 8).
edge(128, 23, 1).
edge(24, 16, 10).
edge(162, 175, 26).
edge(45, 28, 3).
edge(9, 116, 32).
edge(9, 27, 8).
edge(106, 98, 1).
edge(160, 109, 29).
edge(3, 107, 23).
edge(67, 123, 7).
edge(69, 154, 38).
edge(82, 119, 3).
edge(64, 21, 23).
edge(97, 42, 8).
edge(164, 131, 31).
edge(63, 172, 24).
edge(147, 135, 10).
edge(15, 20, 15).
edge(170, 80, 33).
edge(134, 145, 32).
edge(116, 163, 19).
edge(107, 63, 29).
edge(71, 86, 18).
edge(54, 31, 20).
edge(44, 94, 7).
edge(158, 167, 15).
edge(45, 8, 18).
edge(118, 58, 31).
edge(73, 147, 2).
edge(27, 175, 28).
edge(85, 130, 36).
edge(169, 2, 15).
edge(85, 92, 20).
edge(8, 155, 1).
edge(19, 112, 6).
edge(44, 87, 14).
edge(145, 163, 33).
edge(19, 51, 13).
edge(156, 38, 34).
edge(55, 109, 32).
edge(23, 125, 16).
edge(47, 25, 5).
edge(124, 66, 33).
edge(42, 20, 14).
edge(107, 164, 14).
edge(78, 150, 27).
edge(88, 98, 8).
edge(56, 160, 14).
edge(119, 2, 20).
edge(157, 155, 6).
edge(14, 40, 11).
edge(27, 163, 8).
edge(163, 95, 25).
edge(88, 38, 3).
edge(167, 164, 23).
edge(176, 1, 11).
edge(167, 38, 31).
edge(105, 13, 19).
edge(89, 140, 20).
edge(166, 171, 24).
edge(61, 157, 5).
edge(60, 94, 2).
edge(112, 46, 24).
edge(44, 32, 14).
edge(83, 14, 19).
edge(156, 144, 10).
edge(76, 79, 6).
edge(112, 99, 6).
edge(170, 51, 39).
edge(112, 75, 29).
edge(23, 80, 21).
edge(131, 48, 22).
edge(73, 2, 29).
edge(161, 160, 30).
edge(36, 43, 9).
edge(5, 157, 27).
edge(146, 127, 26).
edge(145, 112, 17).
edge(109, 106, 36).
edge(19, 159, 16).
edge(76, 31, 4).
edge(68, 95, 20).
edge(148, 111, 32).
edge(134, 5, 24).
edge(42, 106, 27).
edge(83, 108, 28).
edge(15, 56, 17).
edge(86, 121, 30).
edge(138, 27, 26).
edge(168, 105, 35).
edge(13, 99, 13).
edge(160, 108, 30).
edge(134, 95, 16).
edge(170, 35, 26).
edge(167, 39, 1).
edge(78, 61, 1).
edge(128, 157, 30).
edge(44, 15, 15).
edge(91, 130, 7).
edge(159, 9, 4).
edge(88, 150, 3).
edge(136, 75, 31).
edge(137, 90, 13).
edge(25, 68, 27).
edge(127, 133, 31).
edge(168, 149, 6).
edge(119, 14, 6).
edge(107, 168, 38).
edge(44, 106, 37).
edge(110, 69, 1).
edge(146, 68, 1).
edge(105, 18, 35).
edge(38, 117, 30).
edge(25, 22, 12).
edge(120, 76, 9).
edge(62, 158, 35).
edge(89, 116, 12).
edge(114, 44, 17).
edge(36, 48, 8).
edge(156, 45, 24).
edge(126, 105, 11).
edge(26, 77, 18).
edge(77, 44, 22).
edge(150, 167, 7).
edge(130, 8, 38).
edge(0, 25, 7).
edge(13, 103, 25).
edge(157, 116, 9).
edge(79, 129, 16).
edge(42, 127, 36).
edge(136, 102, 22).
edge(78, 156, 38).
edge(147, 76, 22).
edge(96, 1, 4).
edge(158, 40, 25).
edge(130, 105, 34).
edge(138, 147, 3).
edge(53, 54, 11).
edge(117, 112, 23).
edge(42, 114, 39).
edge(134, 93, 3).
edge(114, 151, 27).
edge(169, 74, 11).
edge(119, 7, 33).
edge(58, 74, 38).
edge(40, 138, 4).
edge(149, 132, 13).
edge(66, 64, 2).
edge(137, 128, 35).
edge(20, 132, 3).
edge(160, 123, 35).
edge(140, 47, 21).
edge(81, 75, 14).
edge(93, 132, 35).
edge(121, 109, 2).
edge(35, 165, 6).
edge(58, 78, 28).
edge(117, 73, 12).
edge(83, 85, 37).
edge(73, 4, 16).
edge(162, 22, 26).
edge(111, 47, 32).
edge(35, 27, 33).
edge(54, 11, 23).
edge(14, 94, 5).
edge(86, 76, 24).
edge(77, 170, 23).
edge(65, 68, 4).
edge(166, 92, 16).
edge(171, 25, 38).
edge(5, 152, 36).
edge(50, 0, 28).
edge(3, 25, 5).
edge(50, 114, 10).
edge(11, 120, 23).
edge(72, 141, 3).
edge(61, 1, 25).
edge(31, 92, 4).
edge(151, 40, 10).
edge(176, 133, 19).
edge(175, 45, 18).
edge(174, 42, 1).
edge(64, 46, 38).
edge(4, 76, 8).
edge(125, 62, 39).
edge(17, 110, 7).
edge(152, 137, 20).
edge(30, 146, 19).
edge(175, 148, 17).
edge(115, 69, 9).
edge(70, 34, 25).
edge(96, 104, 25).
edge(43, 171, 13).
edge(47, 62, 24).
edge(15, 114, 3).
edge(77, 76, 3).
edge(86, 32, 39).
edge(131, 174, 38).
edge(163, 121, 26).
edge(143, 13, 30).
edge(4, 176, 14).
edge(167, 29, 32).
edge(66, 35, 13).
edge(69, 138, 27).
edge(8, 119, 39).
edge(86, 85, 22).
edge(143, 110, 25).
edge(28, 155, 30).
edge(12, 48, 8).
edge(101, 73, 4).
edge(125, 15, 35).
edge(156, 112, 9).
edge(118, 73, 37).
edge(12, 102, 27).
edge(13, 11, 6).
edge(9, 142, 28).
edge(34, 130, 19).
edge(155, 96, 31).
edge(168, 48, 3).
edge(116, 22, 37).
edge(86, 43, 36).
edge(149, 88, 5).
edge(175, 155, 22).
edge(171, 167, 1).
edge(152, 22, 35).
edge(113, 120, 36).
edge(123, 132, 33).
edge(165, 74, 16).
edge(105, 146, 34).
edge(98, 30, 11).
edge(61, 60, 17).
edge(128, 26, 2).
edge(126, 119, 38).
edge(22, 175, 35).
edge(166, 157, 1).
edge(123, 76, 5).
edge(132, 130, 13).
edge(88, 34, 12).
edge(86, 139, 21).
edge(152, 96, 24).
edge(49, 81, 20).
edge(24, 156, 36).
edge(26, 103, 37).
edge(103, 69, 18).
edge(3, 160, 1).
edge(32, 23, 1).
edge(107, 31, 10).
edge(120, 111, 20).
edge(123, 81, 36).
edge(168, 167, 4).
edge(14, 5, 36).
edge(161, 155, 16).
edge(173, 27, 34).
edge(147, 91, 16).
edge(103, 28, 23).
edge(147, 66, 1).
edge(85, 115, 35).
edge(75, 116, 13).
edge(88, 55, 13).
edge(47, 172, 7).
edge(78, 161, 33).
edge(102, 79, 4).
edge(23, 19, 5).
edge(62, 15, 33).
edge(84, 132, 31).
edge(79, 121, 36).
edge(10, 76, 10).
edge(10, 132, 12).
edge(18, 48, 13).
edge(176, 114, 1).
edge(107, 119, 8).
edge(14, 152, 36).
edge(31, 16, 7).
edge(109, 97, 28).
edge(102, 81, 3).
edge(13, 8, 12).
edge(85, 123, 2).
edge(157, 113, 18).
edge(104, 100, 37).
edge(53, 48, 22).
edge(102, 35, 28).
edge(43, 77, 13).
edge(31, 105, 36).
edge(99, 151, 25).
edge(20, 22, 14).
edge(9, 141, 15).
edge(115, 39, 33).
edge(99, 83, 34).
edge(80, 25, 10).
edge(85, 15, 39).
edge(57, 95, 16).
edge(155, 125, 2).
edge(107, 155, 13).
edge(55, 100, 13).
edge(1, 81, 9).
edge(123, 153, 30).
edge(60, 173, 11).
edge(26, 123, 6).
edge(95, 134, 30).
edge(174, 54, 1).
edge(100, 99, 6).
edge(71, 149, 38).
edge(7, 80, 29).
edge(108, 12, 3).
edge(110, 65, 39).
edge(103, 72, 1).
edge(84, 49, 20).
edge(130, 123, 39).
edge(13, 25, 30).
edge(75, 98, 2).
edge(119, 106, 29).
edge(26, 151, 1).
edge(145, 160, 24).
edge(97, 109, 21).
edge(41, 57, 24).
edge(40, 163, 23).
edge(120, 82, 39).
edge(37, 11, 14).
edge(79, 56, 5).
edge(130, 174, 30).
edge(44, 155, 4).
edge(84, 121, 4).
edge(93, 127, 36).
edge(33, 23, 7).
edge(32, 56, 32).
edge(152, 89, 26).
edge(135, 134, 27).
edge(12, 42, 20).
edge(130, 69, 39).
edge(45, 18, 24).
edge(25, 49, 22).
edge(102, 107, 1).
edge(21, 79, 1).
edge(105, 121, 15).
edge(170, 68, 32).
edge(135, 7, 8).
edge(133, 38, 20).
edge(92, 90, 37).
edge(40, 93, 14).
edge(123, 32, 32).
edge(56, 93, 11).
edge(14, 86, 29).
edge(81, 157, 4).
edge(105, 155, 6).
edge(29, 27, 29).
edge(55, 143, 25).
edge(126, 90, 37).
edge(106, 6, 16).
edge(62, 136, 39).
edge(117, 98, 25).
edge(15, 52, 37).
edge(111, 154, 7).
edge(84, 66, 8).
edge(5, 41, 5).
edge(169, 101, 6).
edge(86, 53, 27).
edge(129, 6, 36).
edge(84, 111, 30).
edge(119, 39, 16).
edge(163, 175, 26).
edge(15, 11, 28).
edge(154, 88, 27).
edge(176, 26, 38).
edge(93, 44, 21).
edge(83, 134, 34).
edge(131, 99, 12).
edge(65, 82, 39).
edge(77, 17, 1).
edge(18, 136, 29).
edge(146, 38, 13).
edge(48, 112, 9).
edge(70, 40, 30).
edge(161, 44, 14).
edge(108, 173, 12).
edge(160, 117, 12).
edge(39, 56, 10).
edge(137, 61, 13).
edge(19, 156, 12).
edge(31, 91, 19).
edge(166, 60, 3).
edge(127, 56, 9).
edge(167, 98, 19).
edge(98, 125, 24).
edge(34, 150, 32).
edge(82, 137, 7).
edge(0, 93, 27).
edge(153, 68, 21).
edge(70, 153, 39).
edge(32, 172, 9).
edge(144, 9, 33).
edge(134, 18, 4).
edge(34, 61, 38).
edge(132, 47, 27).
edge(23, 51, 39).
edge(63, 113, 27).
edge(126, 6, 38).
edge(132, 48, 17).
edge(111, 146, 27).
edge(10, 168, 32).
edge(128, 51, 10).
edge(27, 122, 4).
edge(54, 138, 33).
edge(132, 106, 21).
edge(104, 129, 23).
edge(78, 38, 29).
edge(97, 7, 9).
edge(97, 103, 37).
edge(11, 55, 8).
edge(57, 88, 34).
edge(64, 15, 12).
edge(86, 147, 36).
edge(68, 60, 12).
edge(117, 141, 37).
edge(146, 21, 7).
edge(122, 28, 14).
edge(21, 70, 8).
edge(10, 74, 26).
edge(29, 90, 34).
edge(155, 21, 12).
edge(78, 105, 30).
edge(132, 17, 10).
edge(133, 29, 38).
edge(56, 132, 10).
edge(115, 78, 39).
edge(165, 88, 20).
edge(58, 21, 30).
edge(114, 146, 4).
edge(125, 48, 28).
edge(66, 10, 19).
edge(69, 11, 3).
edge(16, 163, 11).
edge(127, 148, 30).
edge(18, 53, 17).
edge(32, 148, 23).
edge(52, 81, 30).
edge(5, 154, 39).
edge(90, 98, 28).
edge(9, 88, 8).
edge(114, 124, 18).
edge(147, 121, 11).
edge(9, 112, 6).
edge(102, 62, 38).
edge(5, 80, 4).
edge(168, 42, 39).
edge(77, 105, 13).
edge(7, 71, 28).
edge(166, 147, 22).
edge(44, 89, 32).
edge(83, 1, 9).
edge(156, 0, 38).
edge(134, 14, 17).
edge(146, 6, 28).
edge(138, 47, 23).
edge(87, 156, 24).
edge(61, 116, 10).
edge(46, 24, 24).
edge(94, 86, 17).
edge(86, 45, 21).
edge(66, 37, 23).
edge(23, 25, 14).
edge(173, 55, 5).
edge(88, 0, 33).
edge(133, 86, 16).
edge(62, 149, 22).
edge(96, 155, 33).
edge(139, 121, 3).
edge(144, 154, 30).
edge(124, 1, 11).
edge(129, 114, 3).
edge(140, 134, 16).
edge(15, 132, 17).
edge(38, 166, 15).
edge(164, 34, 15).
edge(36, 7, 6).
edge(24, 164, 21).
edge(47, 56, 37).
edge(101, 64, 31).
edge(110, 91, 6).
edge(40, 75, 34).
edge(16, 10, 7).
edge(34, 107, 23).
edge(80, 52, 38).
edge(138, 133, 15).
edge(23, 139, 35).
edge(30, 157, 8).
edge(83, 38, 17).
edge(32, 139, 27).
edge(12, 175, 14).
edge(104, 112, 19).
edge(48, 0, 5).
edge(67, 28, 34).
edge(122, 174, 33).
edge(51, 130, 27).
edge(60, 6, 23).
edge(127, 108, 30).
edge(15, 106, 18).
edge(163, 143, 21).
edge(54, 96, 32).
edge(103, 125, 13).
edge(110, 148, 9).
edge(167, 35, 13).
edge(69, 117, 7).
edge(173, 89, 21).
edge(62, 129, 34).
edge(47, 60, 28).
edge(29, 81, 11).
edge(146, 44, 39).
edge(117, 157, 9).
edge(148, 57, 8).
edge(68, 67, 5).
edge(101, 4, 23).
edge(61, 44, 27).
edge(3, 62, 24).
edge(22, 129, 27).
edge(117, 119, 28).
edge(101, 31, 3).
edge(1, 126, 15).
edge(40, 132, 31).
edge(163, 1, 11).
edge(136, 156, 22).
edge(131, 112, 9).
edge(35, 25, 29).
edge(124, 52, 22).
edge(86, 74, 24).
edge(149, 115, 2).
edge(56, 14, 36).
edge(158, 77, 23).
edge(84, 158, 1).
edge(24, 80, 12).
edge(116, 89, 25).
edge(138, 79, 17).
edge(27, 91, 29).
edge(118, 23, 23).
edge(20, 101, 33).
edge(5, 58, 33).
edge(145, 94, 14).
edge(62, 71, 26).
edge(95, 109, 13).
edge(37, 137, 15).
edge(114, 52, 33).
edge(4, 100, 2).
edge(92, 102, 31).
edge(77, 28, 21).
edge(100, 157, 6).
edge(18, 68, 19).
edge(57, 121, 36).
edge(28, 83, 6).
edge(126, 136, 6).
edge(11, 122, 26).
edge(38, 131, 31).
edge(70, 171, 39).
edge(129, 156, 25).
edge(49, 54, 33).
edge(112, 4, 15).
edge(162, 154, 35).
edge(89, 136, 26).
edge(8, 148, 23).
edge(62, 111, 33).
edge(153, 123, 35).
edge(45, 151, 36).
edge(111, 62, 4).
edge(55, 148, 22).
edge(80, 88, 24).
edge(94, 47, 20).
edge(34, 124, 1).
edge(88, 104, 6).
edge(45, 163, 8).
edge(14, 20, 14).
edge(150, 83, 35).
edge(174, 81, 21).
edge(47, 54, 22).
edge(111, 122, 15).
edge(41, 55, 22).
edge(107, 52, 5).
edge(9, 108, 16).
edge(15, 149, 29).
edge(45, 67, 13).
edge(134, 149, 6).
edge(129, 49, 39).
edge(165, 113, 23).
edge(162, 118, 13).
edge(135, 1, 29).
edge(137, 89, 23).
edge(89, 67, 14).
edge(140, 114, 39).
edge(4, 136, 12).
edge(27, 83, 13).
edge(19, 153, 37).
edge(153, 35, 17).
edge(30, 116, 8).
edge(6, 44, 4).
edge(9, 104, 18).
edge(167, 119, 37).
edge(36, 106, 36).
edge(83, 139, 15).
edge(19, 121, 7).
edge(30, 129, 22).
edge(35, 7, 25).
edge(2, 81, 11).
edge(174, 64, 18).
edge(64, 156, 12).
edge(10, 66, 13).
edge(93, 3, 26).
edge(137, 97, 1).
edge(154, 51, 5).
edge(172, 157, 17).
edge(32, 86, 2).
edge(55, 1, 21).
edge(65, 144, 18).
edge(1, 107, 1).
edge(139, 67, 20).
edge(128, 37, 37).
edge(84, 16, 16).
edge(50, 83, 7).
edge(54, 143, 37).
edge(62, 10, 7).
edge(13, 164, 26).
edge(119, 104, 12).
edge(23, 45, 20).
edge(22, 60, 38).
edge(59, 71, 17).
edge(48, 59, 8).
edge(77, 145, 36).
edge(2, 106, 29).
edge(122, 2, 19).
edge(137, 160, 20).
edge(66, 67, 3).
edge(29, 1, 28).
edge(53, 32, 22).
edge(161, 21, 18).
edge(89, 47, 7).
edge(56, 95, 17).
edge(55, 47, 21).
edge(153, 175, 37).
edge(95, 110, 10).
edge(95, 137, 35).
edge(162, 153, 26).
edge(170, 97, 32).
edge(176, 168, 6).
edge(74, 48, 7).
edge(102, 165, 21).
edge(123, 103, 37).
edge(59, 1, 8).
edge(79, 80, 8).
edge(61, 14, 34).
edge(88, 160, 8).
edge(45, 34, 10).
edge(71, 68, 1).
edge(126, 27, 18).
edge(150, 80, 26).
edge(143, 60, 34).
edge(58, 25, 28).
edge(125, 140, 27).
edge(97, 152, 9).
edge(112, 170, 14).
edge(1, 108, 16).
edge(111, 98, 36).
edge(69, 102, 29).
edge(57, 59, 13).
edge(11, 47, 16).
edge(176, 145, 34).
edge(168, 158, 35).
edge(41, 136, 39).
edge(76, 138, 8).
edge(28, 161, 1).
edge(74, 62, 2).
edge(1, 64, 17).
edge(155, 69, 21).
edge(145, 109, 18).
edge(87, 77, 11).
edge(156, 146, 7).
edge(5, 121, 10).
edge(170, 45, 29).
edge(160, 105, 21).
edge(118, 72, 36).
edge(79, 94, 21).
edge(91, 58, 4).
edge(175, 43, 21).
edge(124, 130, 25).
edge(61, 139, 16).
edge(94, 163, 13).
edge(22, 3, 27).
edge(88, 16, 37).
edge(20, 160, 27).
edge(19, 59, 24).
edge(141, 124, 35).
edge(101, 25, 9).
edge(152, 168, 11).
edge(88, 107, 38).
edge(135, 9, 9).
edge(151, 137, 17).
edge(110, 83, 11).
edge(102, 116, 12).
edge(79, 101, 36).
edge(52, 168, 29).
edge(65, 0, 1).
edge(7, 56, 22).
edge(37, 85, 38).
edge(127, 141, 17).
edge(2, 78, 12).
edge(101, 106, 2).
edge(60, 58, 39).
edge(168, 110, 35).
edge(101, 77, 22).
edge(131, 136, 11).
edge(82, 35, 34).
edge(103, 170, 32).
edge(95, 43, 32).
edge(41, 31, 10).
edge(112, 73, 34).
edge(137, 24, 20).
edge(24, 133, 23).
edge(148, 154, 7).
edge(1, 134, 16).
edge(100, 137, 19).
edge(20, 170, 24).
edge(115, 162, 24).
edge(58, 41, 11).
edge(38, 130, 9).
edge(40, 156, 2).
edge(6, 46, 22).
edge(86, 42, 35).
edge(79, 63, 18).
edge(91, 115, 21).
edge(143, 11, 3).
edge(85, 110, 14).
edge(134, 160, 15).
edge(66, 69, 15).
edge(117, 65, 20).
edge(106, 171, 2).
edge(72, 171, 36).
edge(160, 76, 8).
edge(7, 85, 18).
edge(123, 8, 4).
edge(46, 92, 4).
edge(101, 10, 23).
edge(79, 109, 16).
edge(24, 104, 31).
edge(90, 46, 19).
edge(18, 165, 30).
edge(114, 87, 19).
edge(53, 23, 14).
edge(132, 158, 18).
edge(3, 4, 32).
edge(132, 175, 15).
edge(78, 136, 11).
edge(118, 65, 18).
edge(83, 19, 12).
edge(176, 54, 22).
edge(8, 103, 30).
edge(43, 69, 35).
edge(112, 164, 6).
edge(156, 86, 25).
edge(99, 135, 21).
edge(86, 111, 38).
edge(113, 30, 2).
edge(108, 112, 27).
edge(63, 51, 8).
edge(99, 58, 18).
edge(164, 171, 15).
edge(137, 169, 15).
edge(1, 43, 11).
edge(130, 161, 12).
edge(17, 13, 13).
edge(58, 31, 22).
edge(112, 16, 17).
edge(89, 11, 3).
edge(140, 168, 4).
edge(52, 75, 26).
edge(78, 90, 28).
edge(136, 127, 31).
edge(50, 2, 9).
edge(1, 118, 3).
edge(175, 48, 19).
edge(78, 12, 21).
edge(36, 11, 15).
edge(95, 37, 16).
edge(134, 142, 15).
edge(89, 141, 37).
edge(14, 151, 38).
edge(94, 89, 14).
edge(68, 135, 7).
edge(95, 150, 2).
edge(1, 116, 1).
edge(99, 15, 10).
edge(159, 166, 35).
edge(113, 116, 14).
edge(103, 137, 17).
edge(152, 98, 25).
edge(80, 15, 16).
edge(164, 2, 16).
edge(30, 40, 35).
edge(82, 147, 20).
edge(43, 145, 28).
edge(66, 9, 16).
edge(175, 25, 13).
edge(128, 66, 2).
edge(173, 156, 16).
edge(158, 147, 17).
edge(17, 109, 6).
edge(11, 34, 25).
edge(32, 174, 1).
edge(29, 16, 17).
edge(61, 168, 4).
edge(119, 123, 6).
edge(126, 147, 33).
edge(10, 45, 29).
edge(52, 0, 30).
edge(71, 169, 26).
edge(28, 43, 17).
edge(105, 70, 14).
edge(166, 87, 20).
edge(36, 77, 10).
edge(169, 80, 21).
edge(63, 159, 4).
edge(91, 68, 20).
edge(112, 24, 32).
edge(1, 66, 17).
edge(107, 108, 31).
edge(17, 172, 20).
edge(47, 3, 23).
edge(110, 170, 19).
edge(138, 156, 25).
edge(149, 109, 38).
edge(5, 7, 18).
edge(52, 138, 39).
edge(1, 22, 27).
edge(102, 38, 17).
edge(87, 28, 31).
edge(29, 165, 10).
edge(144, 143, 9).
edge(166, 65, 21).
edge(83, 7, 3).
edge(130, 24, 22).
edge(43, 44, 14).
edge(46, 67, 4).
edge(41, 66, 34).
edge(61, 135, 19).
edge(52, 59, 37).
edge(70, 157, 31).
edge(101, 117, 11).
edge(54, 161, 25).
edge(38, 119, 22).
edge(128, 102, 39).
edge(171, 104, 39).
edge(80, 76, 7).
edge(153, 26, 7).
edge(29, 48, 20).
edge(97, 25, 1).
edge(9, 124, 26).
edge(19, 127, 36).
edge(106, 84, 4).
edge(81, 142, 9).
edge(172, 60, 35).
edge(11, 175, 28).
edge(166, 55, 39).
edge(154, 23, 38).
edge(123, 96, 28).
edge(13, 162, 37).
edge(148, 37, 38).
edge(157, 98, 27).
edge(156, 139, 28).
edge(172, 22, 12).
edge(19, 158, 21).
edge(143, 68, 18).
edge(11, 79, 25).
edge(101, 82, 19).
edge(26, 64, 10).
edge(165, 108, 38).
edge(86, 153, 25).
edge(24, 79, 16).
edge(78, 54, 8).
edge(0, 26, 25).
edge(34, 139, 14).
edge(166, 76, 12).
edge(139, 111, 29).
edge(29, 176, 29).
edge(128, 144, 12).
edge(57, 24, 3).
edge(117, 33, 39).
edge(57, 116, 27).
edge(108, 114, 35).
edge(59, 96, 31).
edge(116, 79, 27).
edge(37, 136, 1).
edge(63, 13, 8).
edge(172, 0, 33).
edge(69, 173, 27).
edge(4, 23, 12).
edge(99, 79, 33).
edge(53, 2, 11).
edge(51, 145, 22).
edge(125, 138, 31).
edge(60, 76, 27).
edge(174, 91, 30).
edge(169, 111, 38).
edge(55, 94, 10).
edge(59, 57, 19).
edge(104, 51, 9).
edge(112, 26, 37).
edge(72, 63, 13).
edge(65, 167, 29).
edge(115, 126, 33).
edge(6, 73, 16).
edge(55, 4, 20).
edge(103, 171, 1).
edge(112, 117, 34).
edge(4, 21, 25).
edge(95, 0, 8).
edge(47, 164, 38).
edge(148, 20, 21).
edge(100, 10, 5).
edge(143, 101, 17).
edge(27, 103, 18).
edge(159, 113, 6).
edge(58, 89, 32).
edge(40, 89, 38).
edge(10, 127, 18).
edge(75, 153, 1).
edge(121, 26, 5).
edge(128, 57, 1).
edge(129, 163, 6).
edge(27, 94, 19).
edge(176, 39, 11).
edge(118, 150, 37).
edge(109, 104, 7).
edge(140, 99, 19).
edge(89, 40, 1).
edge(77, 87, 15).
edge(173, 111, 20).
edge(173, 85, 7).
edge(9, 0, 24).
edge(61, 49, 24).
edge(24, 168, 22).
edge(175, 174, 18).
edge(62, 77, 15).
edge(34, 106, 21).
edge(16, 156, 11).
edge(149, 51, 37).
edge(51, 3, 14).
edge(138, 55, 2).
edge(55, 138, 37).
edge(106, 131, 8).
edge(21, 39, 6).
edge(84, 3, 10).
edge(159, 77, 13).
edge(21, 47, 14).
edge(100, 101, 31).
edge(131, 30, 14).
edge(137, 118, 2).
edge(24, 29, 11).
edge(111, 163, 23).
edge(18, 54, 7).
edge(20, 35, 7).
edge(54, 106, 9).
edge(88, 74, 10).
edge(89, 175, 6).
edge(17, 106, 3).
edge(63, 118, 28).
edge(28, 10, 6).
edge(56, 164, 35).
edge(37, 79, 23).
edge(12, 17, 19).
edge(22, 39, 9).
edge(5, 67, 15).
edge(43, 129, 29).
edge(68, 97, 26).
edge(34, 73, 23).
edge(159, 97, 12).
edge(23, 97, 9).
edge(172, 141, 14).
edge(18, 1, 29).
edge(117, 83, 34).
edge(72, 47, 34).
edge(85, 91, 9).
edge(34, 148, 6).
edge(134, 78, 27).
edge(116, 84, 10).
edge(122, 53, 30).
edge(126, 15, 23).
edge(6, 128, 28).
edge(11, 101, 23).
edge(153, 149, 31).
edge(47, 95, 7).
edge(97, 173, 20).
edge(111, 27, 18).
edge(169, 154, 38).
edge(157, 27, 31).
edge(25, 125, 3).
edge(152, 134, 25).
edge(24, 138, 16).
edge(107, 62, 35).
edge(106, 81, 35).
edge(156, 141, 6).
edge(136, 48, 23).
edge(37, 165, 12).
edge(25, 149, 20).
edge(109, 141, 30).
edge(90, 40, 13).
edge(85, 98, 14).
edge(5, 170, 30).
edge(101, 7, 8).
edge(125, 56, 34).
edge(154, 140, 17).
edge(135, 151, 35).
edge(48, 80, 33).
edge(137, 70, 7).
edge(54, 59, 33).
edge(172, 153, 32).
edge(174, 165, 25).
edge(3, 146, 35).
edge(76, 102, 2).
edge(33, 28, 5).
edge(24, 52, 27).
edge(105, 87, 22).
edge(43, 71, 29).
edge(36, 169, 5).
edge(135, 38, 24).
edge(67, 86, 6).
edge(78, 7, 26).
edge(164, 159, 19).
edge(173, 163, 12).
edge(24, 125, 29).
edge(24, 32, 34).
edge(88, 167, 18).
edge(102, 157, 35).
edge(6, 5, 4).
edge(46, 153, 27).
edge(29, 115, 6).
edge(76, 97, 21).
edge(140, 52, 17).
edge(163, 134, 36).
edge(159, 96, 10).
edge(32, 100, 24).
edge(96, 97, 3).
edge(93, 23, 6).
edge(54, 10, 19).
edge(53, 70, 26).
edge(115, 171, 31).
edge(7, 79, 17).
edge(149, 47, 27).
edge(129, 73, 33).
edge(124, 127, 16).
edge(172, 65, 32).
edge(115, 63, 4).
edge(60, 34, 5).
edge(103, 111, 13).
edge(145, 6, 18).
edge(47, 101, 6).
edge(16, 122, 18).
edge(34, 54, 10).
edge(176, 138, 1).
edge(19, 145, 31).
edge(110, 137, 20).
edge(133, 0, 21).
edge(84, 80, 11).
edge(41, 89, 34).
edge(170, 83, 16).
edge(163, 105, 36).
edge(151, 147, 17).
edge(100, 126, 6).
edge(90, 15, 29).
edge(123, 122, 37).
edge(160, 9, 1).
edge(0, 130, 22).
edge(111, 103, 7).
edge(167, 103, 20).
edge(81, 48, 10).
edge(151, 77, 37).
edge(31, 168, 18).
edge(0, 73, 31).
edge(78, 30, 23).
edge(135, 69, 2).
edge(59, 3, 30).
edge(155, 45, 12).
edge(158, 54, 36).
edge(145, 24, 7).
edge(94, 151, 26).
edge(45, 110, 34).
edge(85, 52, 12).
edge(88, 39, 37).
edge(119, 156, 5).
edge(41, 81, 32).
edge(93, 114, 28).
edge(99, 30, 13).
edge(135, 86, 18).
edge(141, 19, 22).
edge(2, 80, 20).
edge(140, 137, 24).
edge(100, 156, 11).
edge(110, 29, 8).
edge(63, 32, 26).
edge(144, 64, 36).
edge(159, 136, 35).
edge(143, 71, 9).
edge(149, 166, 36).
edge(3, 82, 3).
edge(28, 121, 39).
edge(141, 45, 29).
edge(95, 73, 17).
edge(116, 77, 10).
edge(59, 12, 22).
edge(102, 44, 39).
edge(153, 41, 13).
edge(146, 132, 35).
edge(27, 69, 14).
edge(74, 25, 6).
edge(126, 20, 32).
edge(102, 147, 37).
edge(176, 23, 34).
edge(9, 164, 16).
edge(43, 118, 26).
edge(21, 95, 4).
edge(20, 155, 21).
edge(68, 103, 26).
edge(128, 111, 27).
edge(88, 170, 20).
edge(158, 2, 32).
edge(137, 85, 23).
edge(141, 157, 3).
edge(164, 80, 23).
edge(51, 124, 7).
edge(155, 139, 17).
edge(90, 68, 16).
edge(46, 144, 30).
edge(101, 28, 15).
edge(16, 114, 29).
edge(35, 89, 2).
edge(33, 31, 27).
edge(126, 12, 10).
edge(127, 121, 34).
edge(161, 60, 10).
edge(7, 132, 20).
edge(99, 6, 25).
edge(133, 75, 5).
edge(81, 109, 4).
edge(124, 107, 14).
edge(14, 75, 12).
edge(139, 48, 32).
edge(51, 88, 19).
edge(72, 40, 38).
edge(15, 133, 11).
edge(1, 8, 17).
edge(125, 89, 4).
edge(68, 87, 24).
edge(165, 150, 17).
edge(156, 77, 34).
edge(144, 29, 1).
edge(78, 111, 38).
edge(152, 35, 11).
edge(3, 70, 32).
edge(28, 61, 11).
edge(160, 94, 1).
edge(49, 138, 33).
edge(166, 115, 30).
edge(139, 127, 3).
edge(69, 128, 39).
edge(130, 6, 26).
edge(22, 124, 9).
edge(76, 167, 3).
edge(149, 8, 15).
edge(62, 48, 27).
edge(159, 40, 20).
edge(167, 149, 2).
edge(49, 33, 25).
edge(174, 140, 2).
edge(127, 19, 17).
edge(34, 23, 9).
edge(42, 176, 4).
edge(69, 172, 15).
edge(0, 39, 23).
edge(123, 56, 32).
edge(170, 82, 36).
edge(41, 63, 9).
edge(77, 117, 5).
edge(54, 55, 11).
edge(92, 9, 11).
edge(99, 76, 33).
edge(125, 93, 37).
edge(10, 58, 36).
edge(98, 8, 27).
edge(41, 60, 30).
edge(118, 139, 23).
edge(38, 93, 16).
edge(75, 50, 14).
edge(155, 47, 38).
edge(36, 79, 4).
edge(78, 109, 3).
edge(159, 172, 14).
edge(138, 160, 5).
edge(120, 62, 9).
edge(68, 163, 18).
edge(59, 130, 29).
edge(21, 113, 4).
edge(93, 43, 16).
edge(126, 7, 6).
edge(68, 161, 2).
edge(67, 135, 26).
edge(120, 50, 38).
edge(164, 79, 2).
edge(35, 48, 27).
edge(146, 167, 38).
edge(43, 80, 17).
edge(118, 14, 10).
edge(7, 151, 25).
edge(80, 19, 31).
edge(64, 129, 35).
edge(49, 161, 36).
edge(45, 24, 31).
edge(132, 37, 28).
edge(157, 58, 14).
edge(80, 121, 27).
edge(115, 105, 34).
edge(75, 11, 8).
edge(53, 76, 1).
edge(113, 69, 5).
edge(12, 27, 1).
edge(151, 83, 11).
edge(67, 56, 8).
edge(153, 164, 16).
edge(37, 174, 8).
edge(6, 164, 37).
edge(15, 161, 20).
edge(16, 35, 20).
edge(115, 60, 4).
edge(71, 28, 33).
edge(26, 130, 29).
edge(1, 173, 18).
edge(71, 57, 32).
edge(41, 129, 1).
edge(95, 166, 25).
edge(61, 119, 18).
edge(53, 171, 28).
edge(19, 83, 13).
edge(44, 19, 4).
edge(144, 81, 29).
edge(155, 93, 5).
edge(24, 88, 18).
edge(16, 121, 16).
edge(134, 56, 16).
edge(81, 55, 38).
edge(57, 38, 19).
edge(131, 65, 5).
edge(106, 90, 13).
edge(83, 67, 36).
edge(50, 8, 6).
edge(84, 101, 16).
edge(145, 13, 9).
edge(132, 105, 39).
edge(174, 127, 28).
edge(28, 158, 22).
edge(18, 52, 30).
edge(162, 62, 32).
edge(117, 137, 34).
edge(36, 64, 23).
edge(70, 155, 24).
edge(147, 30, 39).
edge(60, 132, 15).
edge(46, 16, 15).
edge(135, 148, 6).
edge(150, 110, 16).
edge(40, 106, 31).
edge(113, 8, 20).
edge(48, 147, 36).
edge(175, 72, 27).
edge(37, 42, 39).
edge(134, 118, 26).
edge(41, 35, 3).
edge(154, 3, 34).
edge(91, 83, 10).
edge(5, 59, 33).
edge(86, 14, 32).
edge(116, 37, 39).
edge(20, 158, 19).
edge(162, 64, 15).
edge(19, 151, 10).
edge(38, 174, 32).
edge(108, 101, 2).
edge(25, 0, 21).
edge(157, 156, 20).
edge(147, 21, 4).
edge(126, 58, 22).
edge(20, 130, 28).
edge(169, 9, 33).
edge(157, 151, 38).
edge(117, 26, 14).
edge(32, 84, 26).
edge(54, 6, 2).
edge(79, 123, 6).
edge(65, 87, 26).
edge(15, 175, 13).
edge(58, 106, 20).
edge(8, 145, 2).
edge(31, 62, 3).
edge(35, 55, 36).
edge(6, 125, 3).
edge(73, 136, 34).
edge(145, 156, 20).
edge(88, 58, 23).
edge(114, 123, 18).
edge(49, 40, 33).
edge(66, 85, 7).
edge(145, 148, 24).
edge(28, 25, 33).
edge(170, 161, 35).
edge(61, 65, 23).
edge(164, 129, 3).
edge(31, 12, 14).
edge(13, 0, 21).
edge(148, 27, 7).
edge(129, 71, 27).
edge(155, 137, 18).
edge(94, 85, 31).
edge(17, 18, 7).
edge(147, 130, 38).
edge(125, 37, 33).
edge(122, 80, 39).
edge(70, 26, 34).
edge(116, 165, 12).
edge(174, 53, 23).
edge(161, 131, 18).
edge(166, 14, 11).
edge(169, 7, 2).
edge(120, 71, 28).
edge(8, 25, 20).
edge(39, 1, 8).
edge(75, 88, 37).
edge(124, 19, 25).
edge(28, 32, 8).
edge(109, 170, 39).
edge(104, 140, 16).
edge(122, 110, 35).
edge(5, 21, 7).
edge(103, 29, 7).
edge(142, 122, 32).
edge(117, 164, 24).
edge(143, 79, 2).
edge(81, 122, 37).
edge(137, 131, 39).
edge(153, 115, 17).
edge(45, 165, 3).
edge(22, 149, 7).
edge(122, 157, 28).
edge(116, 139, 34).
edge(131, 86, 17).
edge(129, 95, 10).
edge(60, 75, 15).
edge(27, 19, 15).
edge(102, 139, 22).
edge(139, 112, 27).
edge(8, 162, 2).
edge(60, 160, 39).
edge(109, 166, 30).
edge(48, 8, 8).
edge(2, 41, 9).
edge(53, 50, 5).
edge(137, 109, 27).
edge(176, 152, 32).
edge(80, 96, 28).
edge(75, 83, 8).
edge(32, 60, 25).
edge(22, 62, 36).
edge(28, 24, 1).
edge(169, 128, 1).
edge(84, 57, 14).
edge(42, 71, 16).
edge(113, 170, 29).
edge(89, 133, 3).
edge(69, 15, 18).
edge(98, 147, 22).
edge(31, 157, 20).
edge(69, 176, 13).
edge(168, 109, 12).
edge(43, 124, 34).
edge(20, 148, 22).
edge(86, 156, 23).
edge(139, 117, 14).
edge(101, 6, 6).
edge(52, 101, 26).
edge(54, 19, 19).
edge(42, 26, 31).
edge(123, 98, 31).
edge(135, 104, 16).
edge(156, 131, 15).
edge(128, 68, 7).
edge(130, 99, 26).
edge(68, 45, 9).
edge(74, 171, 31).
edge(166, 1, 4).
edge(58, 132, 25).
edge(21, 118, 5).
edge(48, 7, 9).
edge(147, 37, 33).
edge(154, 125, 24).
edge(113, 117, 20).
edge(128, 72, 18).
edge(12, 44, 18).
edge(26, 153, 20).
edge(136, 147, 22).
edge(15, 51, 16).
edge(172, 35, 2).
edge(22, 66, 4).
edge(151, 139, 33).
edge(17, 38, 39).
edge(168, 165, 6).
edge(87, 64, 2).
edge(166, 138, 30).
edge(67, 88, 13).
edge(45, 99, 37).
edge(49, 156, 19).
edge(54, 126, 28).
edge(115, 104, 19).
edge(41, 122, 24).
edge(139, 24, 37).
edge(151, 143, 12).
edge(94, 10, 16).
edge(71, 82, 2).
edge(78, 20, 33).
edge(22, 76, 21).
edge(84, 175, 35).
edge(121, 49, 18).
edge(22, 79, 30).
edge(42, 45, 18).
edge(84, 25, 38).
edge(164, 138, 29).
edge(145, 128, 15).
edge(89, 113, 3).
edge(94, 22, 30).
edge(88, 127, 38).
edge(121, 53, 10).
edge(40, 97, 25).
edge(62, 46, 15).
edge(19, 108, 31).
edge(30, 34, 10).
edge(89, 88, 15).
edge(157, 126, 8).
edge(102, 149, 16).
edge(80, 89, 32).
edge(26, 139, 14).
edge(165, 132, 14).
edge(152, 24, 24).
edge(69, 5, 25).
edge(98, 161, 15).
edge(49, 95, 34).
edge(49, 78, 1).
edge(45, 106, 20).
edge(108, 10, 5).
edge(13, 49, 39).
edge(69, 62, 8).
edge(78, 1, 28).
edge(102, 20, 25).
edge(67, 127, 15).
edge(55, 59, 26).
edge(171, 59, 7).
edge(57, 156, 39).
edge(104, 53, 5).
edge(93, 66, 36).
edge(93, 92, 6).
edge(172, 125, 25).
edge(3, 112, 22).
edge(95, 90, 6).
edge(67, 139, 32).
edge(27, 1, 8).
edge(98, 151, 17).
edge(102, 125, 25).
edge(123, 49, 21).
edge(138, 82, 29).
edge(101, 127, 29).
edge(84, 162, 34).
edge(42, 19, 17).
edge(67, 110, 14).
edge(128, 58, 7).
edge(156, 105, 24).
edge(146, 152, 18).
edge(38, 24, 25).
edge(15, 44, 20).
edge(78, 142, 13).
edge(124, 31, 29).
edge(125, 57, 21).
edge(47, 146, 17).
edge(86, 107, 15).
edge(35, 105, 38).
edge(161, 144, 17).
edge(150, 61, 30).
edge(27, 117, 25).
edge(7, 47, 36).
edge(49, 30, 30).
edge(83, 91, 35).
edge(5, 131, 25).
edge(118, 89, 14).
edge(136, 119, 11).
edge(70, 46, 12).
edge(76, 104, 15).
edge(60, 56, 11).
edge(17, 129, 8).
edge(166, 34, 20).
edge(60, 103, 15).
edge(127, 132, 17).
edge(91, 48, 21).
edge(82, 17, 12).
edge(157, 84, 8).
edge(50, 119, 8).
edge(35, 154, 11).
edge(11, 109, 27).
edge(166, 53, 19).
edge(152, 154, 7).
edge(98, 118, 16).
edge(130, 138, 7).
edge(88, 87, 26).
edge(38, 53, 1).
edge(21, 71, 33).
edge(167, 96, 18).
edge(55, 72, 5).
edge(72, 69, 17).
edge(150, 54, 2).
edge(60, 139, 36).
edge(6, 7, 18).
edge(173, 114, 15).
edge(153, 163, 34).
edge(105, 59, 16).
edge(155, 1, 30).
edge(15, 100, 16).
edge(103, 77, 38).
edge(52, 71, 3).
edge(45, 47, 7).
edge(120, 84, 14).
edge(33, 14, 31).
edge(170, 8, 3).
edge(44, 29, 19).
edge(115, 109, 12).
edge(174, 145, 31).
edge(9, 55, 25).
edge(112, 22, 22).
edge(168, 134, 31).
edge(160, 13, 6).
edge(49, 92, 7).
edge(105, 74, 7).
edge(99, 17, 37).
edge(112, 68, 19).
edge(22, 78, 15).
edge(116, 52, 36).
edge(117, 72, 33).
edge(101, 162, 39).
edge(30, 176, 3).
edge(145, 0, 18).
edge(4, 117, 17).
edge(163, 29, 34).
edge(154, 56, 31).
edge(152, 126, 8).
edge(124, 109, 20).
edge(158, 99, 16).
edge(24, 21, 32).
edge(146, 63, 4).
edge(87, 79, 21).
edge(150, 146, 30).
edge(43, 123, 34).
edge(125, 103, 31).
edge(175, 134, 29).
edge(16, 34, 14).
edge(48, 2, 28).
edge(85, 16, 8).
edge(32, 47, 10).
edge(65, 98, 11).
edge(88, 68, 28).
edge(166, 3, 39).
edge(67, 90, 37).
edge(107, 74, 25).
edge(32, 162, 34).
edge(117, 52, 35).
edge(100, 74, 3).
edge(126, 5, 12).
edge(45, 104, 35).
edge(2, 97, 19).
edge(165, 141, 20).
edge(100, 127, 31).
edge(25, 157, 12).
edge(14, 112, 28).
edge(156, 88, 13).
edge(132, 87, 1).
edge(99, 78, 2).
edge(101, 172, 3).
edge(90, 70, 37).
edge(2, 96, 15).
edge(31, 153, 38).
edge(155, 11, 35).
edge(68, 126, 23).
edge(171, 32, 17).
edge(29, 140, 33).
edge(169, 142, 4).
edge(65, 5, 7).
edge(145, 120, 3).
edge(157, 109, 33).
edge(113, 84, 20).
edge(112, 94, 14).
edge(134, 65, 30).
edge(145, 171, 28).
edge(109, 48, 29).
edge(105, 153, 19).
edge(143, 172, 12).
edge(101, 47, 33).
edge(99, 156, 39).
edge(126, 19, 24).
edge(93, 158, 2).
edge(107, 112, 2).
edge(93, 162, 14).
edge(83, 105, 24).
edge(89, 42, 20).
edge(30, 136, 15).
edge(159, 115, 38).
edge(15, 125, 20).
edge(154, 71, 12).
edge(102, 54, 14).
edge(48, 129, 10).
edge(75, 82, 2).
edge(34, 116, 22).
edge(110, 113, 14).
edge(149, 86, 16).
edge(19, 174, 5).
edge(35, 18, 31).
edge(13, 123, 25).
edge(38, 173, 27).
edge(94, 40, 23).
edge(120, 94, 29).
edge(48, 42, 7).
edge(96, 146, 28).
edge(93, 161, 1).
edge(174, 55, 14).
edge(165, 128, 27).
edge(65, 29, 3).
edge(137, 68, 1).
edge(11, 38, 33).
edge(141, 48, 27).
edge(87, 132, 1).
edge(156, 171, 19).
edge(128, 8, 37).
edge(111, 33, 15).
edge(19, 90, 36).
edge(101, 100, 17).
edge(36, 20, 29).
edge(141, 114, 3).
edge(96, 14, 5).
edge(80, 106, 38).
edge(48, 49, 31).
edge(91, 14, 10).
edge(72, 175, 25).
edge(134, 39, 8).
edge(167, 42, 21).
edge(109, 151, 31).
edge(3, 32, 7).
edge(41, 29, 33).
edge(44, 42, 27).
edge(160, 166, 6).
edge(140, 41, 33).
edge(113, 91, 30).
edge(17, 31, 5).
edge(43, 26, 8).
edge(70, 25, 5).
edge(14, 85, 8).
edge(113, 146, 35).
edge(165, 144, 35).
edge(15, 101, 14).
edge(159, 164, 30).
edge(93, 102, 27).
edge(66, 77, 21).
edge(35, 168, 14).
edge(151, 95, 11).
edge(72, 123, 31).
edge(115, 66, 29).
edge(5, 36, 1).
edge(169, 46, 12).
edge(163, 117, 4).
edge(131, 31, 33).
edge(158, 88, 26).
edge(58, 111, 38).
edge(41, 88, 26).
edge(23, 3, 29).
edge(119, 117, 8).
edge(125, 88, 35).
edge(77, 61, 30).
edge(75, 147, 32).
edge(121, 63, 10).
edge(151, 157, 34).
edge(127, 33, 19).
edge(127, 6, 17).
edge(81, 53, 26).
edge(3, 7, 23).
edge(98, 63, 11).
edge(113, 149, 12).
edge(80, 70, 17).
edge(139, 85, 9).
edge(74, 94, 3).
edge(108, 134, 36).
edge(18, 140, 32).
edge(73, 33, 15).
edge(146, 160, 25).
edge(123, 125, 22).
edge(117, 163, 34).
edge(10, 99, 1).
edge(79, 150, 14).
edge(85, 167, 23).
edge(67, 7, 5).
edge(75, 61, 27).
edge(74, 150, 6).
edge(16, 75, 23).
edge(20, 47, 14).
edge(151, 27, 37).
edge(43, 173, 21).
edge(176, 135, 36).
edge(138, 131, 12).
edge(45, 32, 35).
edge(5, 166, 26).
edge(163, 47, 9).
edge(118, 117, 4).
edge(55, 84, 33).
edge(50, 150, 6).
edge(149, 85, 15).
edge(122, 44, 8).
edge(67, 9, 32).
edge(111, 162, 14).
edge(43, 125, 27).
edge(36, 131, 14).
edge(18, 126, 38).
edge(100, 44, 16).
edge(110, 46, 31).
edge(20, 134, 30).
edge(153, 101, 34).
edge(37, 27, 18).
edge(26, 110, 33).
edge(82, 125, 18).
edge(38, 39, 7).
edge(0, 170, 35).
edge(71, 83, 11).
edge(98, 145, 2).
edge(84, 167, 37).
edge(53, 16, 25).
edge(13, 54, 9).
edge(56, 127, 19).
edge(133, 136, 21).
edge(112, 171, 13).
edge(75, 25, 27).
edge(32, 24, 14).
edge(156, 172, 32).
edge(92, 101, 1).
edge(112, 95, 21).
edge(0, 113, 21).
edge(49, 14, 15).
edge(145, 107, 13).
edge(24, 84, 36).
edge(86, 142, 16).
edge(19, 157, 26).
edge(14, 49, 24).
edge(71, 124, 5).
edge(61, 75, 7).
edge(64, 72, 25).
edge(157, 19, 5).
edge(137, 56, 38).
edge(88, 111, 34).
edge(58, 124, 16).
edge(146, 7, 11).
edge(76, 103, 9).
edge(50, 18, 35).
edge(58, 44, 25).
edge(132, 97, 24).
edge(101, 157, 35).
edge(90, 26, 28).
edge(40, 165, 11).
edge(125, 152, 2).
edge(148, 113, 8).
edge(34, 35, 11).
edge(172, 102, 21).
edge(151, 16, 39).
edge(71, 43, 24).
edge(20, 164, 36).
edge(25, 65, 7).
edge(149, 103, 28).
edge(54, 99, 2).
edge(119, 47, 14).
edge(78, 174, 25).
edge(22, 125, 39).
edge(69, 23, 37).
edge(52, 116, 30).
edge(13, 80, 17).
edge(162, 123, 22).
edge(175, 168, 15).
edge(142, 156, 9).
edge(48, 39, 3).
edge(142, 44, 5).
edge(38, 31, 20).
edge(66, 110, 8).
edge(74, 151, 24).
edge(99, 176, 29).
edge(73, 22, 25).
edge(63, 41, 31).
edge(114, 104, 10).
edge(165, 94, 22).
edge(168, 133, 29).
edge(4, 69, 16).
edge(30, 104, 12).
edge(26, 8, 23).
edge(96, 108, 35).
edge(76, 106, 8).
edge(88, 173, 19).
edge(127, 61, 35).
edge(143, 67, 23).
edge(31, 174, 14).
edge(99, 140, 31).
edge(7, 147, 10).
edge(92, 6, 24).
edge(75, 44, 18).
edge(66, 55, 35).
edge(107, 3, 15).
edge(87, 101, 37).
edge(174, 122, 24).
edge(129, 161, 22).
edge(112, 97, 25).
edge(34, 44, 22).
edge(14, 47, 14).
edge(108, 43, 11).
edge(143, 153, 23).
edge(110, 131, 33).
edge(109, 152, 28).
edge(6, 145, 38).
edge(163, 123, 24).
edge(84, 79, 21).
edge(97, 23, 22).
edge(161, 76, 8).
edge(54, 155, 7).
edge(176, 8, 24).
edge(167, 3, 4).
edge(168, 31, 28).
edge(4, 3, 35).
edge(108, 73, 25).
edge(83, 162, 22).
edge(39, 20, 39).
edge(142, 58, 12).
edge(116, 96, 13).
edge(23, 61, 35).
edge(124, 23, 2).
edge(3, 65, 27).
edge(94, 106, 22).
edge(161, 123, 37).
edge(26, 146, 33).
edge(3, 152, 20).
edge(35, 112, 39).
edge(92, 111, 37).
edge(38, 34, 1).
edge(114, 119, 16).
edge(170, 17, 34).
edge(134, 81, 20).
edge(28, 17, 22).
edge(83, 128, 4).
edge(175, 138, 2).
edge(27, 118, 27).
edge(8, 29, 2).
edge(102, 83, 30).
edge(40, 78, 36).
edge(129, 80, 23).
edge(168, 59, 21).
edge(141, 139, 9).
edge(76, 123, 10).
edge(83, 142, 34).
edge(55, 90, 19).
edge(82, 99, 2).
edge(116, 74, 25).
edge(143, 14, 29).
edge(167, 14, 35).
edge(5, 123, 35).
edge(34, 110, 19).
edge(82, 92, 5).
edge(54, 170, 38).
edge(80, 9, 30).
edge(5, 97, 19).
edge(132, 163, 22).
edge(87, 71, 28).
edge(80, 84, 23).
edge(67, 79, 23).
edge(59, 30, 24).
edge(163, 55, 32).
edge(119, 29, 12).
edge(172, 110, 10).
edge(165, 13, 36).
edge(115, 119, 16).
edge(123, 112, 37).
edge(162, 34, 38).
edge(156, 157, 13).
edge(25, 126, 15).
edge(1, 167, 32).
edge(104, 72, 33).
edge(172, 173, 21).
edge(65, 125, 32).
edge(150, 159, 35).
edge(9, 140, 37).
edge(92, 168, 30).
edge(26, 144, 23).
edge(83, 78, 11).
edge(28, 167, 33).
edge(86, 66, 13).
edge(80, 64, 8).
edge(98, 44, 36).
edge(69, 18, 20).
edge(22, 104, 20).
edge(71, 166, 32).
edge(13, 105, 6).
edge(2, 5, 32).
edge(55, 21, 10).
edge(145, 125, 3).
edge(90, 5, 12).
edge(9, 105, 15).
edge(83, 116, 19).
edge(14, 4, 24).
edge(113, 70, 9).
edge(41, 20, 39).
edge(143, 121, 30).
edge(23, 151, 4).
edge(2, 173, 13).
edge(48, 142, 5).
edge(165, 172, 13).
edge(130, 18, 8).
edge(100, 117, 19).
edge(48, 29, 3).
edge(148, 125, 14).
edge(94, 150, 26).
edge(118, 114, 8).
edge(164, 50, 35).
edge(59, 34, 27).
edge(55, 121, 26).
edge(49, 167, 18).
edge(34, 2, 17).
edge(175, 83, 10).
edge(83, 51, 18).
edge(118, 121, 19).
edge(47, 99, 15).
edge(121, 94, 10).
edge(113, 102, 24).
edge(65, 166, 28).
edge(152, 72, 4).
edge(16, 12, 10).
edge(62, 155, 4).
edge(77, 116, 37).
edge(122, 134, 38).
edge(90, 76, 3).
edge(171, 155, 18).
edge(21, 72, 14).
edge(51, 24, 19).
edge(103, 102, 18).
edge(174, 2, 38).
edge(36, 4, 39).
edge(93, 116, 17).
edge(92, 32, 26).
edge(20, 175, 20).
edge(143, 30, 18).
edge(77, 119, 36).
edge(59, 78, 39).
edge(84, 99, 33).
edge(50, 162, 7).
edge(45, 153, 34).
edge(58, 70, 25).
edge(107, 71, 14).
edge(126, 110, 26).
edge(8, 68, 35).
edge(55, 20, 11).
edge(110, 144, 32).
edge(109, 47, 7).
edge(65, 31, 27).
edge(118, 132, 31).
edge(87, 102, 5).
edge(111, 31, 36).
edge(105, 110, 21).
edge(7, 92, 9).
edge(35, 69, 1).
edge(134, 143, 21).
edge(29, 159, 30).
edge(84, 155, 18).
edge(32, 89, 36).
edge(41, 112, 6).
edge(39, 70, 25).
edge(165, 62, 32).
edge(155, 101, 7).
edge(109, 60, 27).
edge(96, 80, 7).
edge(37, 84, 27).
edge(175, 122, 38).
edge(91, 55, 10).
edge(139, 133, 36).
edge(117, 175, 28).
edge(45, 157, 13).
edge(136, 135, 1).
edge(117, 74, 23).
edge(82, 90, 34).
edge(18, 125, 23).
edge(61, 55, 17).
edge(117, 126, 17).
edge(111, 0, 39).
edge(45, 164, 9).
edge(79, 110, 27).
edge(77, 15, 34).
edge(97, 60, 6).
edge(135, 20, 39).
edge(52, 142, 16).
edge(170, 94, 16).
edge(4, 139, 8).
edge(42, 23, 27).
edge(29, 166, 21).
edge(126, 128, 7).
edge(173, 84, 30).
edge(108, 143, 9).
edge(111, 84, 35).
edge(64, 146, 29).
edge(134, 72, 28).
edge(143, 161, 27).
edge(66, 31, 15).
edge(176, 139, 9).
edge(81, 43, 3).
edge(18, 129, 24).
edge(29, 82, 20).
edge(92, 24, 23).
edge(133, 51, 26).
edge(31, 146, 17).
edge(175, 70, 33).
edge(127, 45, 3).
edge(20, 79, 2).
edge(30, 4, 7).
edge(95, 127, 35).
edge(74, 136, 38).
edge(60, 122, 10).
edge(8, 86, 6).
edge(2, 171, 10).
edge(35, 110, 5).
edge(122, 16, 25).
edge(31, 152, 32).
edge(1, 171, 7).
edge(170, 117, 20).
edge(140, 96, 29).
edge(150, 139, 12).
edge(69, 1, 7).
edge(73, 166, 15).
edge(60, 120, 16).
edge(132, 49, 34).
edge(77, 82, 8).
edge(94, 148, 18).
edge(110, 17, 1).
edge(142, 165, 13).
edge(124, 57, 28).
edge(172, 6, 25).
edge(3, 111, 7).
edge(148, 137, 27).
edge(121, 152, 12).
edge(94, 149, 19).
edge(104, 165, 14).
edge(72, 38, 21).
edge(29, 135, 23).
edge(73, 171, 31).
edge(121, 93, 7).
edge(117, 147, 18).
edge(147, 140, 22).
edge(97, 117, 12).
edge(115, 99, 3).
edge(104, 172, 27).
edge(0, 37, 22).
edge(144, 104, 34).
edge(140, 51, 39).
edge(136, 13, 37).
edge(144, 134, 31).
edge(56, 116, 25).
edge(49, 140, 9).
edge(174, 155, 35).
edge(159, 139, 27).
edge(22, 26, 36).
edge(32, 21, 7).
edge(127, 27, 5).
edge(78, 127, 18).
edge(137, 153, 5).
edge(24, 154, 8).
edge(114, 51, 25).
edge(161, 173, 24).
edge(6, 127, 35).
edge(18, 35, 4).
edge(45, 158, 11).
edge(44, 69, 25).
edge(25, 90, 33).
edge(9, 21, 25).
edge(76, 73, 27).
edge(147, 94, 17).
edge(114, 98, 21).
edge(3, 98, 15).
edge(47, 76, 6).
edge(2, 82, 20).
edge(130, 77, 27).
edge(143, 59, 5).
edge(132, 164, 17).
edge(15, 119, 1).
edge(86, 9, 19).
edge(84, 150, 18).
edge(109, 59, 22).
edge(99, 148, 38).
edge(131, 175, 16).
edge(41, 116, 7).
edge(26, 95, 37).
edge(71, 101, 19).
edge(82, 114, 33).
edge(10, 161, 32).
edge(143, 162, 24).
edge(39, 84, 39).
edge(128, 133, 28).
edge(27, 51, 17).
edge(59, 144, 9).
edge(112, 166, 38).
edge(118, 107, 29).
edge(82, 4, 21).
edge(36, 110, 26).
edge(29, 67, 17).
edge(52, 126, 17).
edge(120, 38, 1).
edge(42, 161, 4).
edge(52, 53, 11).
edge(55, 71, 3).
edge(106, 22, 17).
edge(38, 17, 24).
edge(172, 39, 19).
edge(45, 138, 21).
edge(30, 59, 10).
edge(123, 10, 27).
edge(71, 13, 23).
edge(112, 25, 4).
edge(12, 83, 4).
edge(131, 126, 27).
edge(175, 18, 18).
edge(119, 19, 21).
edge(73, 162, 33).
edge(8, 62, 5).
edge(155, 4, 21).
edge(135, 101, 10).
edge(162, 88, 38).
edge(5, 142, 11).
edge(80, 107, 32).
edge(33, 41, 32).
edge(27, 3, 1).
edge(171, 164, 9).
edge(142, 149, 13).
edge(80, 4, 21).
edge(81, 77, 8).
edge(36, 165, 38).
edge(84, 137, 14).
edge(96, 141, 26).
edge(24, 115, 26).
edge(26, 1, 15).
edge(48, 94, 20).
edge(4, 75, 29).
edge(55, 88, 14).
edge(7, 112, 20).
edge(98, 132, 2).
edge(81, 167, 24).
edge(39, 53, 27).
edge(11, 41, 25).
edge(27, 140, 24).
edge(103, 141, 39).
edge(129, 54, 38).
edge(51, 70, 29).
edge(69, 66, 23).
edge(70, 118, 26).
edge(124, 149, 25).
edge(132, 111, 33).
edge(16, 68, 23).
edge(88, 26, 32).
edge(14, 133, 10).
edge(33, 12, 8).
edge(49, 125, 37).
edge(108, 122, 16).
edge(126, 22, 22).
edge(141, 107, 36).
edge(70, 112, 38).
edge(28, 26, 6).
edge(39, 72, 33).
edge(44, 99, 14).
edge(45, 20, 4).
edge(46, 134, 26).
edge(143, 108, 22).
edge(8, 101, 33).
edge(84, 142, 32).
edge(107, 38, 21).
edge(103, 90, 13).
edge(16, 59, 13).
edge(2, 36, 18).
edge(165, 66, 28).
edge(165, 34, 20).
edge(64, 103, 31).
edge(40, 28, 26).
edge(17, 157, 7).
edge(142, 64, 28).
edge(77, 161, 34).
edge(115, 160, 3).
edge(161, 2, 38).
edge(158, 161, 32).
edge(115, 56, 19).
edge(172, 121, 18).
edge(77, 88, 18).
edge(117, 30, 11).
edge(132, 112, 34).
edge(87, 126, 35).
edge(155, 135, 5).
edge(111, 115, 17).
edge(129, 45, 36).
edge(3, 122, 38).
edge(114, 142, 21).
edge(56, 61, 21).
edge(176, 122, 8).
edge(72, 86, 5).
edge(168, 2, 10).
edge(96, 50, 7).
edge(175, 35, 29).
edge(42, 125, 11).
edge(51, 25, 20).
edge(114, 50, 26).
edge(111, 2, 30).
edge(89, 127, 32).
edge(3, 105, 1).
edge(107, 18, 22).
edge(91, 144, 30).
edge(105, 136, 24).
edge(61, 19, 11).
edge(62, 174, 18).
edge(32, 152, 26).
edge(108, 45, 14).
edge(65, 147, 8).
edge(148, 100, 30).
edge(29, 20, 7).
edge(173, 131, 3).
edge(127, 164, 18).
edge(26, 105, 12).
edge(61, 87, 36).
edge(91, 167, 12).
edge(113, 28, 19).
edge(21, 30, 21).
edge(116, 147, 17).
edge(128, 56, 26).
edge(24, 144, 27).
edge(119, 164, 15).
edge(157, 110, 24).
edge(167, 102, 36).
edge(20, 121, 37).
edge(19, 85, 27).
edge(87, 86, 9).
edge(35, 5, 14).
edge(106, 156, 31).
edge(97, 128, 19).
edge(60, 63, 6).
edge(51, 153, 23).
edge(116, 69, 4).
edge(58, 135, 17).
edge(26, 101, 12).
edge(73, 145, 10).
edge(38, 135, 29).
edge(32, 95, 16).
edge(168, 12, 30).
edge(125, 162, 36).
edge(65, 116, 22).
edge(143, 32, 34).
edge(153, 66, 11).
edge(50, 36, 2).
edge(28, 16, 6).
edge(78, 73, 7).
edge(135, 57, 8).
edge(108, 107, 23).
edge(94, 13, 4).
edge(133, 171, 12).
edge(61, 137, 37).
edge(100, 5, 20).
edge(134, 108, 12).
edge(69, 30, 3).
edge(92, 141, 23).
edge(153, 49, 32).
edge(133, 30, 17).
edge(119, 88, 33).
edge(83, 41, 20).
edge(29, 79, 36).
edge(75, 15, 37).

1 { order(V,P) : pos(P) } 1 :- node(V).
1 { order(V,P) : node(V) } 1 :- pos(P).
back(U,V) :- edge(U,V,_), order(U,P1), order(V,P2), P1 > P2.
:~ back(U,V), edge(U,V,W). [W@1,U,V]
