node(0..155).
edge(34, 102).
edge(23, 146).
edge(55, 80).
edge(10, 92).
edge(127, 139).
edge(143, 153).
edge(124, 148).
edge(24, 71).
edge(120, 124).
edge(130, 136).
edge(79, 84).
edge(17, 123).
edge(20, 68).
edge(65, 98).
edge(54, 131).
edge(53, 138).
edge(16, 36).
edge(35, 142).
edge(107, 155).
edge(14, 155).
edge(25, 34).
edge(30, 51).
edge(13, 148).
edge(122, 139).
edge(80, 122).
edge(5, 121).
edge(8, 136).
edge(41, 59).
edge(149, 150).
edge(0, 130).
edge(24, 51).
edge(85, 94).
edge(44, 107).
edge(0, 59).
edge(92, 137).
edge(37, 102).
edge(29, 138).
edge(104, 111).
edge(61, 104).
edge(94, 155).
edge(63, 112).
edge(51, 141).
edge(135, 147).
edge(93, 136).
edge(136, 146).
edge(63, 101).
edge(39, 131).
edge(54, 77).
edge(120, 123).
edge(14, 146).
edge(128, 130).
edge(116, 154).
edge(46, 82).
edge(9, 82).
edge(97, 148).
edge(18, 53).
edge(64, 80).
edge(29, 38).
edge(2, 10).
edge(73, 112).
edge(34, 45).
edge(96, 155).
edge(6, 73).
edge(118, 125).
edge(66, 129).
edge(78, 133).
edge(17, 76).
edge(6, 100).
edge(18, 25).
edge(30, 38).
edge(12, 65).
edge(4, 33).
edge(62, 114).
edge(50, 62).
edge(80, 141).
edge(52, 78).
edge(0, 33).
edge(24, 32).
edge(40, 136).
edge(34, 52).
edge(103, 152).
edge(21, 61).
edge(36, 137).
edge(12, 53).
edge(99, 137).
edge(110, 147).
edge(102, 131).
edge(47, 129).
edge(3, 145).
edge(6, 42).
edge(50, 133).
edge(88, 110).
edge(14, 151).
edge(74, 142).
edge(68, 110).
edge(35, 134).
edge(56, 92).
edge(0, 39).
edge(99, 117).
edge(2, 148).
edge(103, 137).
edge(18, 28).
edge(11, 73).
edge(83, 129).
edge(23, 153).
edge(48, 68).
edge(74, 130).
edge(39, 107).
edge(16, 126).
edge(38, 140).
edge(93, 106).
edge(6, 52).
edge(54, 145).
edge(92, 95).
edge(46, 129).
edge(42, 109).
edge(104, 118).
edge(60, 100).
edge(3, 87).
edge(7, 17).
edge(137, 152).
edge(26, 125).
edge(117, 118).
edge(61, 144).
edge(16, 103).
edge(62, 136).
edge(113, 125).
edge(35, 53).
edge(39, 87).
edge(29, 109).
edge(38, 146).
edge(92, 119).
edge(40, 121).
edge(6, 105).
edge(87, 125).
edge(58, 130).
edge(70, 148).
edge(3, 126).
edge(105, 107).
edge(121, 141).
edge(51, 57).
edge(80, 138).
edge(84, 121).
edge(28, 39).
edge(57, 145).
edge(89, 126).
edge(0, 144).
edge(19, 140).
edge(55, 88).
edge(18, 82).
edge(45, 97).
edge(75, 99).
edge(84, 122).
edge(24, 65).
edge(31, 126).
edge(23, 130).
edge(17, 154).
edge(24, 116).
edge(60, 74).
edge(31, 90).
edge(105, 128).
edge(84, 129).
edge(129, 145).
edge(81, 110).
edge(17, 97).
edge(6, 58).
edge(22, 128).
edge(38, 147).
edge(33, 70).
edge(36, 111).
edge(113, 134).
edge(31, 115).
edge(113, 138).
edge(34, 134).
edge(60, 134).
edge(71, 95).
edge(97, 139).
edge(14, 112).
edge(68, 69).
edge(81, 142).
edge(2, 123).
edge(22, 71).
edge(62, 82).
edge(0, 103).
edge(0, 16).
edge(83, 126).
edge(105, 142).
edge(13, 116).
edge(80, 149).
edge(130, 134).
edge(121, 127).
edge(24, 122).
edge(75, 101).
edge(96, 98).
edge(32, 144).
edge(8, 83).
edge(71, 112).
edge(69, 81).
edge(96, 152).
edge(37, 53).
edge(38, 152).
edge(89, 139).
edge(25, 92).
edge(98, 143).
edge(39, 55).
edge(22, 84).
edge(113, 116).
edge(52, 136).
edge(7, 78).
edge(44, 119).
edge(5, 60).
edge(75, 120).
edge(69, 98).
edge(54, 120).
edge(74, 137).
edge(61, 142).
edge(55, 101).
edge(56, 110).
edge(122, 143).
edge(95, 112).
edge(14, 147).
edge(82, 122).
edge(32, 39).
edge(30, 61).
edge(14, 152).
edge(47, 149).
edge(8, 57).
edge(6, 91).
edge(89, 122).
edge(79, 131).
edge(11, 55).
edge(28, 59).
edge(58, 139).
edge(114, 118).
edge(76, 142).
edge(28, 52).
edge(66, 144).
edge(34, 58).
edge(62, 110).
edge(3, 149).
edge(49, 119).
edge(100, 109).
edge(73, 82).
edge(42, 117).
edge(40, 67).
edge(7, 14).
edge(11, 21).
edge(99, 151).
edge(45, 110).
edge(56, 131).
edge(98, 131).
edge(81, 121).
edge(38, 111).
edge(6, 120).
edge(31, 136).
edge(42, 151).
edge(6, 46).
edge(80, 134).
edge(27, 58).
edge(52, 132).
edge(28, 55).
edge(46, 111).
edge(86, 110).
edge(8, 41).
edge(68, 95).
edge(27, 63).
edge(73, 130).
edge(7, 36).
edge(11, 123).
edge(22, 132).
edge(87, 152).
edge(2, 143).
edge(15, 18).
edge(93, 137).
edge(15, 85).
edge(56, 134).
edge(104, 119).
edge(31, 60).
edge(55, 131).
edge(11, 79).
edge(59, 81).
edge(127, 136).
edge(54, 146).
edge(12, 47).
edge(52, 55).
edge(13, 129).
edge(21, 87).
edge(61, 90).
edge(22, 121).
edge(59, 92).
edge(75, 125).
edge(2, 116).
edge(95, 143).
edge(58, 153).
edge(72, 134).
edge(40, 74).
edge(87, 93).
edge(55, 147).
edge(35, 94).
edge(41, 77).
edge(45, 134).
edge(13, 64).
edge(71, 79).
edge(4, 51).
edge(63, 146).
edge(24, 27).
edge(54, 59).
edge(48, 136).
edge(21, 89).
edge(19, 94).
edge(30, 152).
edge(38, 47).
edge(101, 104).
edge(82, 154).
edge(17, 84).
edge(20, 52).
edge(10, 39).
edge(18, 48).
edge(49, 69).
edge(90, 131).
edge(96, 114).
edge(47, 81).
edge(8, 107).
edge(3, 122).
edge(66, 154).
edge(27, 90).
edge(32, 48).
edge(75, 86).
edge(25, 50).
edge(25, 45).
edge(18, 41).
edge(14, 57).
edge(33, 99).
edge(9, 18).
edge(38, 76).
edge(77, 128).
edge(28, 118).
edge(10, 41).
edge(91, 150).
edge(88, 94).
edge(31, 152).
edge(40, 51).
edge(23, 60).
edge(80, 114).
edge(113, 142).
edge(71, 106).
edge(71, 76).
edge(86, 115).
edge(144, 151).
edge(40, 135).
edge(85, 122).
edge(45, 63).
edge(53, 98).
edge(5, 91).
edge(13, 101).
edge(44, 117).
edge(1, 72).
edge(13, 27).
edge(49, 140).
edge(55, 75).
edge(10, 117).
edge(41, 86).
edge(83, 132).
edge(80, 118).
edge(38, 128).
edge(9, 121).
edge(87, 131).
edge(30, 144).
edge(11, 100).
edge(34, 59).
edge(37, 57).
edge(34, 101).
edge(27, 110).
edge(22, 137).
edge(105, 131).
edge(47, 103).
edge(32, 110).
edge(132, 136).
edge(18, 42).
edge(15, 83).
edge(46, 75).
edge(73, 85).
edge(29, 124).
edge(28, 102).
edge(32, 99).
edge(85, 150).
edge(65, 106).
edge(56, 99).
edge(125, 134).
edge(52, 67).
edge(34, 75).
edge(29, 32).
edge(82, 121).
edge(47, 112).
edge(7, 140).
edge(73, 129).
edge(62, 133).
edge(87, 149).
edge(34, 94).
edge(36, 51).
edge(28, 130).
edge(60, 126).
edge(120, 144).
edge(4, 107).
edge(1, 34).
edge(7, 86).
edge(104, 130).
edge(33, 93).
edge(101, 143).
edge(86, 147).
edge(63, 95).
edge(66, 140).
edge(61, 103).
edge(41, 154).
edge(9, 95).
edge(0, 18).
edge(14, 54).
edge(75, 103).
edge(106, 144).
edge(71, 123).
edge(117, 122).
edge(30, 138).
edge(106, 109).
edge(30, 69).
edge(93, 149).
edge(35, 130).
edge(60, 73).
edge(13, 135).
edge(21, 56).
edge(91, 127).
edge(19, 97).
edge(63, 128).
edge(10, 86).
edge(75, 109).
edge(19, 113).
edge(62, 137).
edge(59, 113).
edge(13, 73).
edge(82, 133).
edge(104, 108).
edge(88, 112).
edge(31, 54).
edge(15, 64).
edge(74, 153).
edge(85, 95).
edge(105, 130).
edge(81, 113).
edge(47, 56).
edge(28, 140).
edge(146, 153).
edge(83, 133).
edge(41, 103).
edge(8, 85).
edge(94, 139).
edge(77, 149).
edge(88, 104).
edge(75, 98).
edge(79, 140).
edge(28, 114).
edge(15, 92).
edge(69, 131).
edge(11, 63).
edge(123, 141).
edge(106, 149).
edge(10, 69).
edge(60, 82).
edge(1, 15).
edge(1, 82).
edge(44, 101).
edge(15, 110).
edge(83, 109).
edge(0, 63).
edge(78, 149).
edge(58, 63).
edge(44, 72).
edge(63, 68).
edge(7, 115).
edge(13, 95).
edge(27, 30).
edge(1, 31).
edge(30, 67).
edge(44, 87).
edge(12, 58).
edge(72, 125).
edge(23, 49).
edge(38, 155).
edge(77, 137).
edge(62, 116).
edge(34, 65).
edge(86, 135).
edge(23, 106).
edge(45, 86).
edge(41, 80).
edge(73, 153).
edge(93, 129).
edge(3, 128).
edge(12, 129).
edge(22, 62).
edge(25, 72).
edge(67, 143).
edge(74, 118).
edge(45, 79).
edge(97, 113).
edge(24, 50).
edge(20, 129).
edge(32, 78).
edge(13, 57).
edge(141, 155).
edge(59, 100).
edge(29, 40).
edge(22, 68).
edge(87, 130).
edge(30, 100).
edge(9, 58).
edge(19, 114).
edge(6, 151).
edge(1, 58).
edge(13, 32).
edge(85, 118).
edge(63, 131).
edge(52, 75).
edge(79, 102).
edge(7, 44).
edge(0, 25).
edge(140, 145).
edge(27, 115).
edge(108, 136).
edge(41, 136).
edge(20, 109).
edge(11, 98).
edge(56, 145).
edge(35, 143).
edge(62, 132).
edge(75, 151).
edge(54, 151).
edge(35, 66).
edge(67, 107).
edge(91, 140).
edge(123, 146).
edge(126, 143).
edge(95, 137).
edge(56, 104).
edge(54, 118).
edge(92, 110).
edge(75, 88).
edge(18, 79).
edge(8, 141).
edge(113, 149).
edge(37, 89).
edge(1, 26).
edge(43, 61).
edge(47, 137).
edge(33, 64).
edge(5, 35).
edge(6, 98).
edge(85, 117).
edge(5, 32).
edge(78, 109).
edge(46, 126).
edge(92, 149).
edge(19, 39).
edge(0, 115).
edge(82, 124).
edge(3, 13).
edge(52, 146).
edge(127, 143).
edge(83, 93).
edge(112, 117).
edge(21, 127).
edge(17, 31).
edge(4, 95).
edge(72, 111).
edge(116, 144).
edge(61, 96).
edge(69, 70).
edge(66, 115).
edge(71, 108).
edge(39, 119).
edge(128, 141).
edge(10, 32).
edge(18, 126).
edge(10, 40).
edge(57, 67).
edge(18, 47).
edge(79, 103).
edge(101, 119).
edge(16, 121).
edge(9, 127).
edge(117, 130).
edge(5, 80).
edge(65, 109).
edge(70, 82).
edge(110, 129).
edge(17, 28).
edge(37, 58).
edge(16, 67).
edge(83, 124).
edge(106, 121).
edge(96, 154).
edge(7, 118).
edge(54, 93).
edge(17, 41).
edge(38, 138).
edge(4, 148).
edge(64, 154).
edge(13, 50).
edge(25, 105).
edge(31, 121).
edge(1, 143).
edge(66, 96).
edge(19, 108).
edge(30, 40).
edge(16, 117).
edge(71, 121).
edge(17, 128).
edge(6, 102).
edge(44, 152).
edge(45, 136).
edge(82, 135).
edge(119, 123).
edge(54, 147).
edge(4, 98).
edge(39, 96).
edge(131, 134).
edge(64, 149).
edge(22, 79).
edge(5, 154).
edge(6, 61).
edge(41, 101).
edge(4, 12).
edge(32, 37).
edge(128, 137).
edge(26, 76).
edge(129, 144).
edge(120, 143).
edge(32, 77).
edge(43, 81).
edge(75, 124).
edge(4, 114).
edge(101, 110).
edge(17, 68).
edge(23, 150).
edge(2, 26).
edge(35, 119).
edge(108, 133).
edge(25, 122).
edge(49, 52).
edge(35, 105).
edge(47, 89).
edge(53, 152).
edge(25, 139).
edge(11, 70).
edge(25, 116).
edge(32, 105).
edge(57, 85).
edge(43, 129).
edge(57, 120).
edge(30, 114).
edge(40, 70).
edge(40, 118).
edge(100, 135).
edge(9, 15).
edge(71, 152).
edge(132, 137).
edge(36, 150).
edge(57, 146).
edge(87, 123).
edge(87, 144).
edge(7, 27).
edge(77, 119).
edge(21, 34).
edge(86, 127).
edge(0, 32).
edge(23, 63).
edge(74, 94).
edge(84, 104).
edge(21, 67).
edge(63, 85).
edge(1, 118).
edge(14, 60).
edge(71, 136).
edge(86, 90).
edge(44, 120).
edge(13, 93).
edge(70, 135).
edge(35, 96).
edge(72, 117).
edge(23, 48).
edge(2, 25).
edge(55, 109).
edge(11, 22).
edge(5, 125).
edge(68, 109).
edge(50, 155).
edge(117, 154).
edge(128, 143).
edge(24, 56).
edge(16, 130).
edge(11, 89).
edge(51, 118).
edge(8, 121).
edge(58, 88).
edge(94, 140).
edge(23, 97).
edge(51, 125).
edge(6, 86).
edge(69, 91).
edge(1, 53).
edge(39, 46).
edge(13, 90).
edge(86, 105).
edge(0, 120).
edge(118, 149).
edge(18, 46).
edge(75, 116).
edge(41, 50).
edge(54, 98).
edge(23, 112).
edge(18, 149).
edge(42, 44).
edge(28, 95).
edge(39, 56).
edge(19, 86).
edge(10, 138).
edge(61, 66).
edge(91, 124).
edge(9, 70).
edge(66, 114).
edge(20, 117).
edge(60, 155).
edge(17, 145).
edge(6, 112).
edge(14, 101).
edge(94, 114).
edge(85, 146).
edge(130, 135).
edge(13, 153).
edge(109, 153).
edge(94, 105).
edge(58, 94).
edge(5, 149).
edge(13, 34).
edge(26, 81).
edge(49, 151).
edge(37, 43).
edge(93, 114).
edge(33, 94).
edge(90, 141).
edge(32, 83).
edge(24, 149).
edge(116, 145).
edge(59, 104).
edge(100, 103).
edge(120, 132).
edge(18, 58).
edge(79, 144).
edge(87, 100).
edge(58, 69).
edge(122, 136).
edge(21, 41).
edge(64, 121).
edge(1, 100).
edge(90, 124).
edge(0, 89).
edge(60, 80).
edge(19, 128).
edge(5, 96).
edge(145, 146).
edge(59, 62).
edge(11, 136).
edge(12, 22).
edge(25, 93).
edge(80, 116).
edge(7, 135).
edge(71, 118).
edge(37, 41).
edge(116, 152).
edge(62, 123).
edge(62, 69).
edge(14, 137).
edge(116, 117).
edge(140, 155).
edge(115, 122).
edge(81, 146).
edge(4, 55).
edge(29, 121).
edge(90, 98).
edge(10, 128).
edge(0, 138).
edge(108, 121).
edge(1, 112).
edge(37, 61).
edge(21, 146).
edge(43, 80).
edge(7, 137).
edge(57, 134).
edge(46, 63).
edge(65, 146).
edge(107, 154).
edge(4, 16).
edge(40, 56).
edge(19, 142).
edge(20, 139).
edge(95, 129).
edge(74, 91).
edge(48, 109).
edge(25, 136).
edge(42, 146).
edge(86, 155).
edge(128, 155).
edge(37, 94).
edge(13, 151).
edge(0, 84).
edge(99, 122).
edge(38, 40).
edge(90, 127).
edge(67, 98).
edge(70, 120).
edge(88, 100).
edge(2, 84).
edge(79, 150).
edge(14, 67).
edge(68, 104).
edge(40, 125).
edge(6, 92).
edge(46, 113).
edge(2, 110).
edge(97, 100).
edge(61, 97).
edge(13, 46).
edge(33, 110).
edge(32, 117).
edge(52, 98).
edge(39, 118).
edge(128, 150).
edge(6, 77).
edge(50, 124).
edge(14, 108).
edge(15, 146).
edge(27, 118).
edge(66, 101).
edge(80, 130).
edge(38, 113).
edge(132, 155).
edge(65, 90).
edge(10, 42).
edge(50, 111).
edge(28, 90).
edge(54, 104).
edge(106, 130).
edge(78, 118).
edge(26, 138).
edge(16, 17).
edge(108, 111).
edge(138, 139).
edge(78, 95).
edge(29, 55).
edge(16, 122).
edge(10, 56).
edge(9, 109).
edge(80, 93).
edge(34, 90).
edge(65, 140).
edge(0, 146).
edge(8, 88).
edge(5, 132).
edge(65, 119).
edge(85, 92).
edge(54, 78).
edge(29, 104).
edge(14, 145).
edge(77, 118).
edge(98, 132).
edge(43, 92).
edge(80, 123).
edge(2, 98).
edge(67, 105).
edge(78, 93).
edge(16, 105).
edge(49, 82).
edge(87, 133).
edge(33, 113).
edge(107, 117).
edge(66, 98).
edge(17, 124).
edge(48, 115).
edge(23, 143).
edge(69, 106).
edge(15, 72).
edge(31, 85).
edge(39, 128).
edge(6, 62).
edge(93, 121).
edge(138, 142).
edge(108, 150).
edge(64, 92).
edge(35, 144).
edge(83, 119).
edge(89, 152).
edge(67, 69).
edge(35, 148).
edge(8, 93).
edge(5, 59).
edge(66, 67).
edge(16, 47).
edge(46, 89).
edge(74, 122).
edge(6, 126).
edge(77, 80).
edge(23, 83).
edge(68, 80).
edge(1, 20).
edge(48, 154).
edge(43, 53).
edge(17, 42).
edge(21, 29).
edge(16, 132).
edge(0, 110).
edge(18, 88).
edge(13, 78).
edge(102, 106).
edge(4, 80).
edge(12, 60).
edge(40, 80).
edge(53, 81).
edge(131, 136).
edge(43, 134).
edge(71, 74).
edge(43, 131).
edge(34, 132).
edge(18, 134).
edge(127, 146).
edge(68, 112).
edge(77, 79).
edge(103, 124).
edge(31, 131).
edge(2, 144).
edge(55, 100).
edge(39, 77).
edge(40, 75).
edge(39, 85).
edge(39, 114).
edge(12, 131).
edge(73, 79).
edge(123, 125).
edge(54, 154).
edge(71, 94).
edge(5, 113).
edge(79, 147).
edge(22, 155).
edge(45, 121).
edge(99, 104).
edge(2, 151).
edge(72, 152).
edge(90, 107).
edge(18, 35).
edge(57, 111).
edge(60, 84).
edge(31, 65).
edge(13, 98).
edge(41, 64).
edge(57, 59).
edge(69, 73).
edge(3, 68).
edge(63, 140).
edge(93, 139).
edge(67, 130).
edge(65, 130).
edge(42, 85).
edge(11, 112).
edge(27, 119).
edge(85, 110).
edge(18, 72).
edge(62, 135).
edge(118, 135).
edge(17, 90).
edge(28, 96).
edge(20, 138).
edge(56, 85).
edge(36, 107).
edge(99, 139).
edge(29, 89).
edge(15, 135).
edge(6, 138).
edge(84, 99).
edge(132, 153).
edge(43, 144).
edge(144, 147).
edge(106, 135).
edge(22, 122).
edge(2, 44).
edge(66, 125).
edge(46, 132).
edge(36, 64).
edge(20, 100).
edge(88, 126).
edge(97, 112).
edge(23, 36).
edge(78, 135).
edge(52, 120).
edge(82, 87).
edge(21, 63).
edge(120, 149).
edge(11, 81).
edge(16, 151).
edge(79, 83).
edge(23, 131).
edge(115, 150).
edge(16, 114).
edge(19, 84).
edge(134, 148).
edge(11, 84).
edge(65, 134).
edge(41, 125).
edge(36, 75).
edge(63, 138).
edge(112, 152).
edge(29, 129).
edge(7, 108).
edge(27, 148).
edge(131, 155).
edge(108, 146).
edge(114, 136).
edge(109, 141).
edge(117, 140).
edge(134, 151).
edge(28, 32).
edge(45, 125).
edge(75, 96).
edge(38, 86).
edge(0, 22).
edge(81, 114).
edge(41, 144).
edge(44, 129).
edge(125, 151).
edge(33, 67).
edge(72, 94).
edge(47, 120).
edge(115, 139).
edge(7, 63).
edge(49, 129).
edge(49, 85).
edge(26, 130).
edge(99, 129).
edge(10, 55).
edge(2, 15).
edge(19, 95).
edge(77, 102).
edge(52, 71).
edge(35, 109).
edge(41, 109).
edge(40, 72).
edge(25, 53).
edge(133, 153).
edge(105, 109).
edge(29, 148).
edge(44, 126).
edge(38, 95).
edge(64, 105).
edge(45, 111).
edge(122, 131).
edge(115, 144).
edge(11, 116).
edge(98, 127).
edge(16, 25).
edge(10, 79).
edge(58, 149).
edge(3, 67).
edge(58, 111).
edge(85, 123).
edge(109, 123).
edge(18, 116).
edge(40, 42).
edge(22, 26).
edge(10, 120).
edge(1, 93).
edge(105, 118).
edge(18, 128).
edge(4, 145).
edge(63, 77).
edge(35, 67).
edge(24, 33).
edge(99, 107).
edge(48, 50).
edge(19, 49).
edge(37, 74).
edge(16, 125).
edge(65, 153).
edge(90, 129).
edge(3, 10).
edge(15, 152).
edge(21, 39).
edge(33, 155).
edge(14, 110).
edge(130, 153).
edge(17, 66).
edge(87, 139).
edge(32, 53).
edge(30, 99).
edge(23, 32).
edge(16, 87).
edge(52, 131).
edge(80, 145).
edge(19, 81).
edge(18, 19).
edge(10, 103).
edge(98, 101).
edge(56, 141).
edge(40, 94).
edge(101, 125).
edge(0, 125).
edge(78, 92).
edge(17, 22).
edge(65, 99).
edge(70, 100).
edge(22, 49).
edge(19, 77).
edge(36, 105).
edge(49, 84).
edge(67, 86).
edge(22, 123).
edge(14, 86).
edge(11, 104).
edge(30, 54).
edge(36, 118).
edge(72, 91).
edge(91, 115).
edge(0, 27).
edge(31, 71).
edge(87, 101).
edge(118, 131).
edge(84, 134).
edge(18, 27).
edge(40, 142).
edge(142, 147).
edge(16, 104).
edge(39, 148).
edge(43, 116).
edge(54, 87).
edge(123, 126).
edge(81, 97).
edge(17, 18).
edge(21, 69).
edge(19, 136).
edge(7, 42).
edge(17, 99).
edge(53, 141).
edge(83, 113).
edge(47, 142).
edge(13, 81).
edge(132, 133).
edge(112, 150).
edge(59, 140).
edge(20, 102).
edge(38, 137).
edge(30, 115).
edge(87, 128).
edge(75, 115).
edge(45, 141).
edge(22, 81).
edge(78, 104).
edge(1, 90).
edge(52, 142).
edge(1, 145).
edge(29, 41).
edge(124, 131).
edge(71, 140).
edge(86, 92).
edge(76, 100).
edge(81, 133).
edge(65, 141).
edge(40, 98).
edge(22, 93).
edge(23, 144).
edge(20, 127).
edge(14, 27).
edge(71, 107).
edge(3, 11).
edge(35, 135).
edge(17, 133).
edge(60, 92).
edge(79, 143).
edge(84, 155).
edge(26, 38).
edge(29, 150).
edge(28, 71).
edge(13, 146).
edge(64, 73).
edge(13, 53).
edge(103, 154).
edge(127, 130).
edge(32, 127).
edge(54, 155).
edge(35, 49).
edge(72, 141).
edge(16, 62).
edge(43, 76).
edge(90, 132).
edge(29, 111).
edge(40, 150).
edge(68, 144).
edge(37, 113).
edge(30, 75).
edge(40, 71).
edge(4, 48).
edge(98, 151).
edge(94, 95).
edge(51, 91).
edge(92, 124).
edge(12, 55).
edge(79, 149).
edge(8, 95).
edge(39, 64).
edge(115, 133).
edge(70, 91).
edge(77, 108).
edge(77, 146).
edge(2, 42).
edge(48, 150).
edge(25, 152).
edge(39, 125).
edge(100, 137).
edge(38, 125).
edge(64, 111).
edge(104, 129).
edge(72, 151).
edge(126, 151).
edge(17, 27).
edge(14, 80).
edge(67, 135).
edge(31, 37).
edge(45, 98).
edge(129, 130).
edge(102, 151).
edge(18, 97).
edge(106, 155).
edge(62, 134).
edge(87, 127).
edge(27, 45).
edge(88, 142).
edge(26, 110).
edge(71, 154).
edge(60, 65).
edge(67, 99).
edge(24, 68).
edge(73, 87).
edge(3, 137).
edge(46, 49).
edge(30, 84).
edge(57, 147).
edge(46, 61).
edge(11, 137).
edge(85, 114).
edge(71, 153).
edge(32, 87).
edge(2, 101).
edge(49, 58).
edge(126, 155).
edge(84, 127).
edge(19, 125).
edge(1, 43).
edge(90, 130).
edge(25, 82).
edge(58, 78).
edge(47, 88).
edge(108, 112).
edge(26, 111).
edge(24, 105).
edge(49, 50).
edge(99, 155).
edge(114, 129).
edge(115, 149).
edge(73, 110).
edge(65, 107).
edge(4, 31).
edge(22, 64).
edge(129, 149).
edge(35, 124).
edge(55, 113).
edge(9, 63).
edge(29, 56).
edge(77, 81).
edge(44, 149).
edge(22, 131).
edge(97, 150).
edge(133, 134).
edge(27, 87).
edge(45, 64).
edge(43, 155).
edge(118, 138).
edge(148, 155).
edge(75, 106).
edge(32, 123).
edge(85, 133).
edge(116, 153).
edge(14, 126).
edge(56, 136).
edge(83, 150).
edge(51, 54).
edge(60, 78).
edge(104, 107).
edge(38, 118).
edge(67, 118).
edge(57, 132).
edge(15, 43).
edge(54, 71).
edge(19, 90).
edge(24, 144).
edge(136, 151).
edge(58, 80).
edge(39, 69).
edge(7, 95).
edge(27, 95).
edge(63, 145).
edge(64, 84).
edge(51, 92).
edge(12, 142).
edge(30, 62).
edge(19, 38).
edge(49, 114).
edge(27, 91).
edge(24, 48).
edge(72, 146).
edge(30, 94).
edge(92, 99).
edge(57, 97).
edge(8, 10).
edge(108, 116).
edge(107, 125).
edge(18, 69).
edge(46, 150).
edge(79, 118).
edge(52, 147).
edge(9, 66).
edge(22, 44).
edge(38, 93).
edge(123, 128).
edge(26, 94).
edge(5, 57).
edge(0, 77).
edge(43, 100).
edge(36, 47).
edge(46, 151).
edge(89, 117).
edge(8, 47).
edge(8, 139).
edge(81, 112).
edge(14, 38).
edge(19, 121).
edge(66, 91).
edge(13, 33).
edge(51, 129).
edge(65, 92).
edge(33, 75).
edge(79, 121).
edge(4, 13).
edge(12, 150).
edge(41, 117).
edge(31, 144).
edge(32, 35).
edge(16, 100).
edge(132, 148).
edge(122, 151).
edge(58, 105).
edge(8, 44).
edge(0, 44).
edge(126, 136).
edge(101, 141).
edge(93, 142).
edge(79, 132).
edge(116, 148).
edge(13, 67).
edge(40, 140).
edge(116, 140).
edge(15, 99).
edge(21, 40).
edge(27, 71).
edge(21, 145).
edge(55, 59).
edge(40, 127).
edge(53, 83).
edge(66, 130).
edge(33, 76).
edge(5, 11).
edge(72, 122).
edge(12, 96).
edge(61, 68).
edge(73, 86).
edge(0, 143).
edge(95, 148).
edge(11, 119).
edge(69, 84).
edge(10, 47).
edge(90, 121).
edge(4, 101).
edge(28, 107).
edge(61, 123).
edge(56, 151).
edge(47, 60).
edge(29, 81).
edge(61, 124).
edge(92, 129).
edge(56, 148).
edge(78, 154).
edge(55, 115).
edge(92, 140).
edge(26, 145).
edge(16, 77).
edge(6, 115).
edge(59, 69).
edge(47, 53).
edge(19, 28).
edge(22, 72).
edge(25, 106).
edge(69, 101).
edge(5, 109).
edge(108, 109).
edge(9, 105).
edge(25, 107).
edge(104, 115).
edge(16, 61).
edge(70, 115).
edge(7, 97).
edge(49, 103).
edge(25, 129).
edge(11, 61).
edge(18, 123).
edge(129, 143).
edge(7, 39).
edge(101, 123).
edge(118, 148).
edge(146, 149).
edge(9, 72).
edge(106, 131).
edge(65, 96).
edge(103, 106).
edge(12, 126).
edge(137, 145).
edge(96, 113).
edge(3, 105).
edge(60, 140).
edge(16, 92).
edge(26, 102).
edge(59, 150).
edge(18, 96).
edge(31, 149).
edge(129, 138).
edge(65, 97).
edge(21, 109).
edge(139, 149).
edge(96, 143).
edge(38, 96).
edge(74, 104).
edge(51, 68).
edge(44, 71).
edge(73, 95).
edge(135, 145).
edge(38, 54).
edge(63, 144).
edge(89, 129).
edge(11, 52).
edge(52, 119).
edge(46, 120).
edge(4, 136).
edge(18, 110).
edge(0, 90).
edge(107, 115).
edge(36, 100).
edge(54, 76).
edge(100, 139).
edge(27, 59).
edge(30, 134).
edge(21, 139).
edge(66, 147).
edge(101, 154).
edge(11, 67).
edge(117, 126).
edge(45, 74).
edge(83, 144).
edge(98, 124).
edge(9, 53).
edge(3, 133).
edge(90, 113).
edge(29, 118).
edge(46, 135).
edge(15, 17).
edge(9, 50).
edge(4, 131).
edge(59, 149).
edge(101, 155).
edge(41, 51).
edge(10, 72).
edge(32, 70).
edge(30, 155).
edge(75, 127).
edge(84, 91).
edge(89, 136).
edge(70, 121).
edge(38, 103).
edge(14, 65).
edge(114, 154).
edge(61, 87).
edge(34, 88).
edge(13, 25).
edge(77, 150).
edge(17, 57).
edge(49, 64).
edge(24, 128).
edge(10, 68).
edge(37, 73).
edge(116, 126).
edge(92, 144).
edge(10, 122).
edge(94, 154).
edge(16, 32).
edge(15, 36).
edge(94, 120).
edge(8, 111).
edge(70, 132).
edge(22, 150).
edge(41, 134).
edge(61, 141).
edge(45, 123).
edge(144, 154).
edge(54, 89).
edge(71, 109).
edge(57, 64).
edge(37, 51).
edge(9, 11).
edge(0, 131).
edge(75, 85).
edge(38, 134).
edge(50, 57).
edge(53, 105).
edge(115, 131).
edge(5, 73).
edge(32, 81).
edge(129, 131).
edge(37, 54).
edge(40, 104).
edge(20, 122).
edge(51, 72).
edge(47, 90).
edge(94, 152).
edge(26, 30).
edge(32, 109).
edge(3, 51).
edge(13, 128).
edge(36, 69).
edge(2, 18).
edge(9, 103).
edge(58, 102).
edge(75, 132).
edge(53, 150).
edge(130, 154).
edge(9, 23).
edge(101, 137).
edge(31, 36).
edge(91, 111).
edge(18, 80).
edge(35, 114).
edge(34, 86).
edge(37, 92).
edge(66, 86).
edge(51, 102).
edge(12, 116).
edge(11, 97).
edge(81, 141).
edge(68, 103).
edge(119, 132).
edge(83, 123).
edge(104, 149).
edge(23, 138).
edge(29, 45).
edge(7, 121).
edge(28, 98).
edge(100, 119).
edge(60, 144).
edge(23, 35).
edge(40, 153).
edge(34, 138).
edge(9, 22).
edge(122, 124).
edge(7, 16).
edge(22, 58).
edge(0, 104).
edge(92, 133).
edge(28, 111).
edge(29, 95).
edge(60, 113).
edge(88, 93).
edge(47, 107).
edge(29, 147).
edge(82, 129).
edge(17, 38).
edge(17, 94).
edge(84, 96).
edge(48, 52).
edge(24, 37).
edge(55, 140).
edge(24, 86).
edge(107, 137).
edge(22, 146).
edge(146, 147).
edge(0, 108).
edge(21, 78).
edge(6, 23).
edge(58, 101).
edge(60, 76).
edge(11, 31).
edge(61, 77).
edge(19, 54).
edge(43, 72).
edge(53, 123).
edge(39, 98).
edge(129, 139).
edge(63, 117).
edge(8, 137).
edge(59, 82).
edge(88, 153).
edge(17, 46).
edge(85, 144).
edge(25, 114).
edge(88, 102).
edge(41, 142).
edge(107, 110).
edge(24, 52).
edge(111, 113).
edge(26, 71).
edge(2, 6).
edge(15, 68).
edge(13, 147).
edge(108, 145).
edge(86, 133).
edge(32, 51).
edge(27, 68).
edge(14, 34).
edge(119, 131).
edge(48, 75).
edge(74, 107).
edge(29, 103).
edge(74, 136).
edge(104, 116).
edge(109, 119).
edge(23, 70).
edge(59, 99).
edge(42, 60).
edge(81, 155).
edge(45, 119).
edge(48, 117).
edge(67, 136).
edge(101, 152).
edge(90, 139).
edge(1, 64).
edge(24, 121).
edge(5, 79).
edge(99, 116).
edge(86, 146).
edge(69, 124).
edge(14, 91).
edge(128, 132).
edge(22, 125).
edge(44, 88).
edge(128, 136).
edge(59, 112).
edge(66, 75).
edge(106, 153).
edge(94, 112).
edge(43, 112).
edge(5, 48).
edge(30, 55).
edge(50, 144).
edge(14, 136).
edge(44, 153).
edge(96, 129).
edge(45, 93).
edge(87, 111).
edge(26, 97).
edge(26, 134).
edge(22, 88).
edge(27, 122).
edge(18, 91).
edge(107, 149).
edge(4, 130).
edge(89, 116).
edge(2, 90).
edge(27, 77).
edge(47, 155).
edge(125, 136).
edge(96, 145).
edge(41, 67).
edge(5, 58).
edge(126, 147).
edge(38, 67).
edge(89, 90).
edge(23, 135).
edge(114, 131).
edge(40, 111).
edge(100, 121).
edge(58, 125).
edge(115, 136).
edge(23, 53).
edge(34, 129).
edge(90, 122).
edge(56, 133).
edge(18, 153).
edge(20, 118).
edge(82, 84).
edge(76, 115).
edge(86, 125).
edge(91, 130).
edge(110, 137).
edge(48, 135).
edge(3, 30).
edge(85, 88).
edge(105, 153).
edge(117, 132).
edge(56, 127).
edge(110, 121).
edge(86, 103).
edge(46, 97).
edge(10, 131).
edge(30, 133).
edge(21, 32).
edge(80, 96).
edge(36, 152).
edge(54, 100).
edge(12, 122).
edge(28, 40).
edge(31, 154).
edge(1, 19).
edge(6, 8).
edge(102, 149).
edge(109, 155).
edge(73, 102).
edge(96, 110).
edge(69, 90).
edge(50, 125).
edge(49, 95).
edge(89, 144).
edge(75, 143).
edge(52, 128).
edge(57, 61).
edge(36, 130).
edge(44, 77).
edge(8, 43).
edge(119, 122).
edge(5, 72).
edge(54, 134).
edge(48, 119).
edge(24, 49).
edge(131, 132).
edge(46, 136).
edge(83, 87).
edge(26, 44).
edge(84, 133).
edge(100, 152).
edge(106, 115).
edge(13, 89).
edge(31, 150).
edge(3, 99).
edge(75, 136).
edge(58, 114).
edge(56, 142).
edge(94, 125).
edge(7, 83).
edge(69, 132).
edge(30, 149).
edge(22, 111).
edge(150, 153).
edge(41, 76).
edge(2, 45).
edge(16, 72).
edge(97, 133).
edge(123, 151).
edge(26, 69).
edge(90, 126).
edge(81, 96).
edge(13, 83).
edge(21, 76).
edge(35, 60).
edge(76, 152).
edge(50, 73).
edge(90, 97).
edge(45, 66).
edge(20, 110).
edge(15, 95).
edge(13, 137).
edge(57, 73).
edge(139, 147).
edge(15, 65).
edge(44, 66).
edge(76, 126).
edge(42, 43).
edge(53, 154).
edge(21, 74).
edge(3, 17).
edge(141, 142).
edge(48, 107).
edge(4, 73).
edge(33, 69).
edge(85, 152).
edge(72, 123).
edge(139, 144).
edge(44, 94).
edge(10, 20).
edge(64, 153).
edge(3, 46).
edge(21, 123).
edge(24, 101).
edge(127, 153).
edge(81, 108).
edge(76, 101).
edge(33, 77).
edge(45, 78).
edge(5, 51).
edge(78, 132).
edge(33, 131).
edge(46, 66).
edge(38, 87).
edge(60, 127).
edge(38, 61).
edge(35, 103).
edge(55, 71).
edge(79, 81).
edge(57, 135).
edge(68, 140).
edge(81, 82).
edge(9, 110).
edge(99, 110).
edge(18, 26).
edge(6, 31).
edge(87, 112).
edge(94, 133).
edge(52, 148).
edge(41, 73).
edge(27, 47).
edge(25, 40).
edge(85, 153).
edge(78, 102).
edge(76, 155).
edge(88, 121).
edge(31, 135).
edge(101, 126).
edge(4, 11).
edge(75, 97).
edge(120, 138).
edge(127, 135).
edge(68, 84).
edge(122, 137).
edge(11, 37).
edge(65, 86).
edge(4, 103).
edge(26, 96).
edge(8, 138).
edge(2, 73).
edge(102, 112).
edge(57, 128).
edge(12, 86).
edge(45, 57).
edge(3, 82).
edge(58, 113).
edge(86, 118).
edge(105, 121).
edge(64, 152).
edge(2, 70).
edge(56, 77).
edge(76, 108).
edge(40, 59).
edge(152, 155).
edge(93, 138).
edge(20, 49).
edge(31, 117).
edge(59, 94).
edge(79, 117).
edge(108, 128).
edge(45, 50).
edge(92, 98).
edge(75, 139).
edge(64, 123).
edge(81, 149).
edge(18, 63).
edge(108, 115).
edge(7, 93).
edge(42, 91).
edge(31, 69).
edge(32, 42).
edge(7, 61).
edge(29, 102).
edge(50, 101).
edge(11, 15).
edge(64, 91).
edge(31, 118).
edge(139, 154).
edge(8, 106).
edge(24, 26).
edge(71, 127).
edge(114, 144).
edge(1, 107).
edge(69, 140).
edge(119, 150).
edge(97, 154).
edge(77, 134).
edge(89, 95).
edge(31, 66).
edge(1, 128).
edge(119, 128).
edge(83, 152).
edge(103, 112).
edge(111, 119).
edge(27, 73).
edge(11, 128).
edge(54, 64).
edge(42, 141).
edge(133, 151).
edge(72, 112).
edge(5, 13).
edge(84, 148).
edge(18, 113).
edge(20, 146).
edge(86, 142).
edge(6, 29).
edge(2, 37).
edge(35, 88).
edge(78, 120).
edge(9, 92).
edge(2, 24).
edge(25, 47).
edge(51, 103).
edge(16, 86).
edge(20, 35).
edge(40, 106).
edge(32, 67).
edge(33, 114).
edge(26, 61).
edge(62, 86).
edge(80, 99).
edge(4, 65).
edge(60, 70).
edge(63, 99).
edge(18, 122).
edge(56, 150).
edge(71, 77).
edge(49, 104).
edge(40, 105).
edge(88, 119).
edge(20, 46).
edge(12, 92).
edge(63, 142).
edge(27, 44).
edge(66, 119).
edge(63, 66).
edge(12, 79).
edge(40, 138).
edge(97, 142).
edge(149, 154).
edge(30, 42).
edge(114, 132).
edge(26, 133).
edge(111, 138).
edge(35, 59).
edge(91, 137).
edge(47, 59).
edge(52, 56).
edge(5, 77).
edge(22, 63).
edge(53, 143).
edge(39, 106).
edge(25, 134).
edge(2, 147).
edge(102, 118).
edge(96, 123).
edge(16, 133).
edge(78, 150).
edge(24, 47).
edge(84, 119).
edge(31, 79).
edge(45, 133).
edge(17, 146).
edge(21, 128).
edge(151, 152).
edge(32, 112).
edge(118, 126).
edge(2, 36).
edge(95, 155).
edge(19, 40).
edge(23, 69).
edge(98, 111).
edge(76, 145).
edge(32, 118).
edge(55, 78).
edge(85, 121).
edge(49, 65).
edge(34, 43).
edge(18, 89).
edge(22, 36).
edge(49, 87).
edge(73, 88).
edge(30, 68).
edge(96, 112).
edge(8, 140).
edge(84, 109).
edge(17, 130).
edge(38, 107).
edge(0, 17).
edge(81, 104).
edge(7, 46).
edge(33, 115).
edge(23, 122).
edge(72, 88).
edge(89, 151).
edge(125, 129).
edge(141, 152).
edge(51, 65).
edge(34, 80).
edge(15, 148).
edge(36, 63).
edge(52, 94).
edge(14, 113).
edge(57, 116).
edge(30, 104).
edge(44, 127).
edge(6, 125).
edge(46, 68).
edge(4, 25).
edge(47, 52).
edge(3, 72).
edge(27, 152).
edge(70, 94).
edge(3, 123).
edge(14, 85).
edge(7, 134).
edge(26, 153).
edge(3, 57).
edge(41, 55).
edge(27, 129).
edge(77, 100).
edge(91, 106).
edge(38, 105).
edge(32, 64).
edge(65, 94).
edge(125, 145).
edge(12, 114).
edge(85, 112).
edge(71, 132).
edge(143, 152).
edge(28, 106).
edge(13, 155).
edge(32, 111).
edge(54, 130).
edge(82, 92).
edge(55, 102).
edge(25, 131).
edge(47, 78).
edge(64, 102).
edge(77, 98).
edge(43, 115).
edge(135, 152).
edge(22, 95).
edge(17, 48).
edge(15, 118).
edge(47, 83).
edge(17, 36).
edge(44, 124).
edge(122, 138).
edge(45, 130).
edge(47, 126).
edge(5, 50).
edge(42, 125).
edge(23, 113).
edge(1, 57).
edge(53, 87).
edge(58, 86).
edge(87, 88).
edge(3, 141).
edge(50, 115).
edge(5, 116).
edge(63, 147).
edge(27, 101).
edge(31, 86).
edge(50, 105).
edge(59, 129).
edge(96, 108).
edge(82, 95).
edge(19, 109).
edge(44, 105).
edge(31, 143).
edge(8, 33).
edge(86, 129).
edge(38, 56).
edge(23, 51).
edge(16, 60).
edge(29, 64).
edge(37, 93).
edge(27, 105).
edge(102, 144).
edge(13, 110).
edge(12, 130).
edge(37, 153).
edge(21, 44).
edge(86, 128).
edge(43, 67).
edge(25, 89).
edge(57, 127).
edge(57, 100).
edge(33, 98).
edge(2, 149).
edge(76, 150).
edge(11, 77).
edge(126, 137).
edge(134, 147).
edge(76, 154).
edge(70, 147).
edge(119, 134).
edge(25, 30).
edge(43, 153).
edge(71, 110).
edge(67, 70).
edge(32, 121).
edge(87, 107).
edge(114, 125).
edge(104, 141).
edge(51, 131).
edge(0, 28).
edge(44, 150).
edge(71, 125).
edge(9, 40).
edge(38, 99).
edge(9, 90).
edge(44, 95).
edge(69, 141).
edge(82, 89).
edge(76, 99).
edge(42, 78).
edge(115, 153).
edge(43, 104).
edge(47, 91).
edge(90, 111).
edge(73, 144).
edge(127, 148).
edge(25, 49).
edge(44, 122).
edge(75, 147).
edge(43, 152).
edge(118, 129).
edge(22, 25).
edge(23, 24).
edge(15, 74).
edge(33, 54).
edge(78, 96).
edge(5, 106).
edge(86, 139).
edge(85, 97).
edge(105, 125).
edge(73, 111).
edge(23, 134).
edge(87, 150).
edge(126, 130).
edge(6, 34).
edge(65, 112).
edge(38, 148).
edge(35, 108).
edge(41, 111).
edge(96, 138).
edge(44, 145).
edge(0, 124).
edge(50, 64).
edge(123, 149).
edge(25, 126).
edge(106, 116).
edge(81, 117).
edge(56, 139).
edge(140, 142).
edge(19, 20).
edge(39, 76).
edge(1, 110).
edge(65, 82).
edge(146, 150).
edge(10, 58).
edge(8, 127).
edge(11, 103).
edge(37, 103).
edge(63, 125).
edge(57, 81).
edge(27, 128).
edge(11, 108).
edge(23, 30).
edge(79, 92).
edge(54, 85).
edge(60, 103).
edge(12, 75).
edge(54, 129).
edge(32, 136).
edge(42, 118).
edge(21, 65).
edge(0, 52).
edge(30, 154).
edge(36, 84).
edge(117, 147).
edge(71, 134).
edge(0, 76).
edge(54, 132).
edge(33, 66).
edge(78, 143).
edge(116, 151).
edge(18, 68).
edge(56, 129).
edge(23, 34).
edge(47, 96).
edge(66, 155).
edge(92, 96).
edge(100, 111).
edge(6, 114).
edge(76, 144).
edge(47, 57).
edge(78, 88).
edge(64, 150).
edge(2, 130).
edge(22, 85).
edge(61, 154).
edge(30, 102).
edge(88, 115).
edge(49, 113).
edge(2, 27).
edge(112, 139).
edge(34, 63).
edge(17, 100).
edge(8, 123).
edge(16, 79).
edge(48, 151).
edge(12, 18).
edge(17, 112).
edge(45, 135).
edge(13, 99).
edge(79, 88).
edge(69, 99).
edge(46, 119).
edge(55, 63).
edge(60, 95).
edge(24, 87).
edge(96, 133).
edge(8, 133).
edge(49, 67).
edge(22, 100).
edge(3, 28).
edge(28, 144).
edge(21, 155).
edge(51, 87).
edge(20, 155).
edge(72, 113).
edge(59, 61).
edge(73, 154).
edge(30, 73).
edge(36, 120).
edge(35, 87).
edge(19, 98).
edge(79, 127).
edge(94, 135).
edge(47, 62).
edge(24, 125).
edge(141, 150).
edge(118, 133).
edge(77, 145).
edge(150, 155).
edge(60, 146).
edge(39, 79).
edge(4, 69).
edge(4, 28).
edge(2, 86).
edge(6, 93).
edge(57, 155).
edge(81, 132).
edge(13, 48).
edge(39, 60).
edge(60, 128).
edge(35, 154).
edge(14, 83).
edge(24, 63).
edge(55, 86).
edge(104, 136).
edge(45, 127).
edge(26, 37).
edge(75, 92).
edge(67, 92).
edge(32, 140).
edge(19, 117).
edge(66, 107).
edge(73, 77).
edge(50, 72).
edge(37, 152).
edge(24, 112).
edge(21, 152).
edge(19, 132).
edge(76, 131).
edge(83, 86).
edge(75, 130).
edge(30, 147).
edge(59, 98).
edge(17, 142).
edge(1, 120).
edge(16, 124).
edge(42, 144).
edge(59, 151).
edge(35, 84).
edge(50, 150).
edge(81, 139).
edge(40, 88).
edge(110, 115).
edge(28, 53).
edge(49, 102).
edge(118, 136).
edge(20, 93).
edge(66, 99).
edge(42, 105).
edge(22, 154).
edge(5, 31).
edge(114, 149).
edge(32, 76).
edge(12, 23).
edge(10, 85).
edge(139, 155).
edge(52, 53).
edge(0, 42).
edge(16, 109).
edge(105, 132).
edge(24, 135).
edge(68, 107).
edge(8, 17).
edge(65, 87).
edge(4, 56).
edge(121, 132).
edge(35, 57).
edge(101, 131).
edge(23, 61).
edge(9, 85).
edge(60, 96).
edge(30, 117).
edge(45, 117).
edge(85, 99).
edge(103, 107).
edge(64, 155).
edge(58, 140).
edge(75, 112).
edge(150, 154).
edge(8, 26).
edge(21, 121).
edge(100, 123).
edge(73, 104).
edge(121, 122).
edge(37, 66).
edge(19, 92).
edge(118, 143).
edge(51, 138).
edge(74, 105).
edge(54, 75).
edge(58, 91).
edge(124, 153).
edge(81, 124).
edge(68, 94).
edge(2, 68).
edge(24, 154).
edge(138, 147).
edge(58, 109).
edge(83, 141).
edge(3, 15).
edge(73, 132).
edge(146, 155).
edge(23, 139).
edge(53, 115).
edge(12, 124).
edge(91, 114).
edge(25, 118).
edge(5, 66).
edge(20, 87).
edge(7, 146).
edge(22, 82).
edge(33, 79).
edge(100, 122).
edge(73, 140).
edge(4, 7).
edge(146, 154).
edge(122, 152).
edge(2, 20).
edge(41, 68).
edge(48, 101).
edge(12, 125).
edge(87, 109).
edge(36, 97).
edge(25, 26).
edge(60, 150).
edge(93, 148).
edge(91, 146).
edge(39, 90).
edge(16, 134).
edge(41, 87).
edge(126, 132).
edge(89, 105).
edge(70, 116).
edge(46, 71).
edge(131, 144).
edge(64, 69).
edge(5, 41).
edge(99, 153).
edge(22, 23).
edge(13, 14).
edge(20, 45).
edge(11, 75).
edge(11, 60).
edge(118, 147).
edge(26, 105).
edge(109, 131).
edge(14, 132).
edge(120, 134).
edge(12, 64).
edge(3, 60).
edge(139, 148).
edge(30, 98).
edge(54, 66).
edge(69, 77).
edge(95, 115).
edge(2, 65).
edge(12, 13).
edge(56, 154).
edge(72, 114).
edge(32, 36).
edge(94, 102).
edge(3, 9).
edge(4, 78).
edge(88, 106).
edge(130, 147).
edge(31, 77).
edge(105, 150).
edge(13, 126).
edge(122, 141).
edge(75, 141).
edge(125, 128).
edge(119, 154).
edge(20, 130).
edge(87, 91).
edge(13, 26).
edge(58, 120).
edge(31, 62).
edge(27, 137).
edge(25, 61).
edge(15, 52).
edge(18, 30).
edge(88, 103).
edge(61, 155).
edge(78, 145).
edge(126, 142).
edge(13, 136).
edge(133, 152).
edge(95, 128).
edge(122, 155).
edge(59, 63).
edge(134, 144).
edge(13, 139).
edge(1, 9).
edge(17, 39).
edge(95, 127).
edge(27, 89).
edge(3, 62).
edge(42, 66).
edge(65, 70).
edge(102, 155).
edge(69, 111).
edge(51, 101).
edge(37, 67).
edge(22, 144).
edge(102, 142).
edge(63, 127).
edge(56, 88).
edge(33, 105).
edge(12, 33).
edge(77, 141).
edge(25, 83).
edge(5, 155).
edge(121, 136).
edge(36, 83).
edge(68, 143).
edge(18, 90).
edge(73, 151).
edge(131, 147).
edge(73, 109).
edge(96, 148).
edge(100, 118).
edge(78, 98).
edge(52, 64).
edge(30, 76).
edge(36, 115).
edge(39, 67).
edge(124, 140).
edge(46, 142).
edge(13, 94).
edge(72, 119).
edge(17, 148).
edge(69, 112).
edge(109, 110).
edge(86, 126).
edge(53, 60).
edge(41, 92).
edge(43, 154).
edge(61, 145).
edge(35, 115).
edge(41, 110).
edge(108, 141).
edge(152, 153).
edge(17, 110).
edge(3, 85).
edge(39, 81).
edge(112, 142).
edge(16, 46).
edge(78, 152).
edge(35, 102).
edge(34, 109).
edge(62, 64).
edge(9, 151).
edge(33, 84).
edge(55, 67).
edge(27, 70).
edge(21, 75).
edge(6, 95).
edge(105, 111).
edge(59, 73).
edge(28, 154).
edge(36, 38).
edge(55, 64).
edge(72, 126).
edge(70, 104).
edge(58, 99).
edge(64, 99).
edge(46, 52).
edge(9, 93).
edge(1, 27).
edge(60, 131).
edge(54, 110).
edge(28, 54).
edge(31, 38).
edge(0, 11).
edge(10, 136).
edge(37, 108).
edge(100, 145).
edge(108, 147).
edge(14, 42).
edge(0, 145).
edge(47, 121).
edge(20, 151).
edge(25, 41).
edge(12, 90).
edge(35, 136).
edge(45, 103).
edge(38, 48).
edge(55, 98).
edge(53, 147).
edge(28, 89).
edge(44, 98).
edge(25, 102).
edge(132, 140).
edge(93, 95).
edge(101, 146).
edge(79, 93).
edge(66, 113).
edge(50, 51).
edge(10, 46).
edge(52, 59).
edge(61, 70).
edge(0, 71).
edge(90, 109).
edge(45, 101).
edge(42, 106).
edge(51, 106).
edge(4, 68).
edge(24, 129).
edge(61, 72).
edge(75, 83).
edge(76, 130).
edge(56, 107).
edge(67, 75).
edge(66, 103).
edge(4, 140).
edge(74, 148).
edge(3, 35).
edge(111, 122).
edge(88, 152).
edge(30, 146).
edge(14, 59).
edge(10, 141).
edge(27, 107).
edge(86, 137).
edge(3, 108).
edge(27, 49).
edge(63, 78).
edge(21, 125).
edge(56, 89).
edge(41, 105).
edge(41, 135).
edge(103, 120).
edge(94, 130).
edge(6, 107).
edge(9, 120).
edge(96, 136).
edge(25, 78).
edge(125, 139).
edge(86, 88).
edge(34, 46).
edge(77, 99).
edge(39, 100).
edge(1, 36).
edge(64, 142).
edge(112, 154).
edge(5, 56).
edge(47, 58).
edge(114, 148).
edge(21, 93).
edge(32, 141).
edge(75, 150).
edge(31, 94).
edge(128, 153).
edge(67, 96).
edge(63, 118).
edge(135, 138).
edge(41, 146).
edge(7, 91).
edge(127, 150).
edge(110, 118).
edge(110, 113).
edge(62, 91).
edge(43, 96).
edge(49, 70).
edge(9, 100).
edge(99, 105).
edge(62, 154).
edge(15, 33).
edge(51, 80).
edge(103, 104).
edge(9, 49).
edge(89, 138).
edge(66, 123).
edge(5, 150).
edge(30, 95).
edge(87, 105).
edge(68, 127).
edge(72, 116).
edge(125, 131).
edge(117, 123).
edge(67, 109).
edge(114, 142).
edge(14, 58).
edge(32, 153).
edge(116, 122).
edge(52, 110).
edge(50, 104).
edge(15, 107).
edge(126, 146).
edge(10, 94).
edge(40, 145).
edge(84, 123).
edge(48, 49).
edge(12, 104).
edge(42, 97).
edge(121, 125).
edge(24, 69).
edge(10, 124).
edge(44, 137).
edge(14, 154).
edge(73, 150).
edge(28, 149).
edge(59, 106).
edge(3, 92).
edge(21, 83).
edge(20, 134).
edge(107, 124).
edge(89, 115).
edge(111, 143).
edge(58, 141).
edge(10, 60).
edge(83, 122).
edge(32, 34).
edge(3, 8).
edge(19, 79).
edge(25, 95).
edge(38, 123).
edge(48, 120).
edge(111, 132).
edge(80, 110).
edge(8, 60).
edge(11, 91).
edge(51, 147).
edge(69, 79).
edge(138, 152).
edge(57, 150).
edge(147, 154).
edge(91, 120).
edge(145, 153).
edge(30, 119).
edge(43, 147).
edge(17, 24).
edge(1, 42).
edge(41, 83).
edge(121, 123).
edge(21, 59).
edge(84, 90).
edge(58, 128).
edge(41, 106).
edge(123, 136).
edge(67, 106).
edge(124, 138).
edge(21, 73).
edge(129, 153).
edge(46, 121).
edge(139, 143).
edge(57, 60).
edge(31, 132).
edge(75, 137).
edge(56, 64).
edge(65, 78).
edge(56, 105).
edge(23, 114).
edge(11, 141).
edge(17, 33).
edge(49, 134).
edge(48, 58).
edge(5, 102).
edge(9, 27).
edge(50, 118).
edge(31, 127).
edge(71, 93).
edge(49, 136).
edge(99, 120).
edge(22, 103).
edge(68, 79).
edge(10, 148).
edge(17, 95).
edge(37, 133).
edge(6, 117).
edge(127, 154).
edge(21, 107).
edge(40, 130).
edge(24, 28).
edge(15, 46).
edge(78, 89).
edge(113, 139).
edge(36, 116).
edge(41, 61).
edge(108, 142).
edge(29, 133).
edge(18, 104).
edge(47, 48).
edge(4, 124).
edge(71, 101).
edge(91, 126).
edge(71, 124).
edge(10, 105).
edge(115, 140).
edge(102, 108).
edge(65, 155).
edge(50, 117).
edge(64, 108).
edge(31, 70).
edge(14, 31).
edge(18, 152).
edge(145, 155).
edge(2, 100).
edge(29, 141).
edge(107, 108).
edge(93, 147).
edge(69, 123).
edge(23, 152).
edge(73, 83).
edge(31, 84).
edge(90, 140).
edge(82, 139).
edge(19, 37).
edge(9, 86).
edge(4, 29).
edge(45, 114).
edge(76, 119).
edge(9, 59).
edge(89, 107).
edge(62, 90).
edge(64, 97).
edge(52, 140).
edge(56, 120).
edge(47, 131).
edge(77, 144).
edge(55, 108).
edge(136, 155).
edge(93, 103).
edge(24, 104).
edge(20, 57).
edge(0, 48).
edge(117, 138).
edge(30, 121).
edge(109, 136).
edge(114, 116).
edge(35, 111).
edge(20, 97).
edge(4, 45).
edge(68, 120).
edge(106, 139).
edge(16, 90).
edge(97, 132).
edge(96, 126).
edge(67, 93).
edge(32, 61).
edge(110, 149).
edge(6, 51).
edge(45, 142).
edge(13, 124).
edge(58, 123).
edge(64, 68).
edge(52, 66).
edge(8, 71).
edge(37, 115).
edge(49, 89).
edge(100, 132).
edge(44, 106).
edge(6, 94).
edge(51, 127).
edge(35, 48).
edge(82, 142).
edge(45, 59).
edge(108, 126).
edge(85, 113).
edge(19, 123).
edge(74, 112).
edge(123, 137).
edge(35, 70).
edge(18, 100).
edge(42, 98).
edge(110, 141).
edge(31, 102).
edge(79, 80).
edge(102, 119).
edge(10, 121).
edge(53, 125).
edge(4, 32).
edge(93, 154).
edge(103, 143).
edge(19, 72).
edge(95, 153).
edge(42, 80).
edge(80, 82).
edge(55, 141).
edge(71, 116).
edge(1, 62).
edge(89, 155).
edge(44, 108).
edge(85, 98).
edge(12, 97).
edge(84, 105).
edge(18, 38).
edge(14, 114).
edge(16, 107).
edge(7, 34).
edge(76, 112).
edge(80, 103).
edge(30, 41).
edge(35, 125).
edge(136, 138).
edge(69, 139).
edge(15, 61).
edge(103, 111).
edge(60, 135).
edge(19, 36).
edge(60, 141).
edge(118, 132).
edge(2, 122).
edge(36, 133).
edge(43, 111).
edge(31, 74).
edge(26, 82).
edge(61, 92).
edge(53, 145).
edge(22, 55).
edge(50, 89).
edge(101, 138).
edge(102, 117).
edge(94, 153).
edge(50, 52).
edge(133, 146).
edge(2, 120).
edge(30, 81).
edge(109, 113).
edge(21, 57).
edge(89, 91).
edge(87, 92).
edge(40, 101).
edge(42, 135).
edge(38, 64).
edge(38, 102).
edge(84, 151).
edge(27, 64).
edge(42, 65).
edge(36, 108).
edge(59, 74).
edge(94, 150).
edge(101, 103).
edge(63, 79).
edge(76, 129).
edge(101, 118).
edge(55, 85).
edge(39, 49).
edge(60, 62).
edge(5, 42).
edge(80, 97).
edge(57, 129).
edge(3, 90).
edge(104, 147).
edge(19, 53).
edge(16, 75).
edge(88, 98).
edge(24, 124).
edge(70, 127).
edge(112, 143).
edge(35, 110).
edge(74, 111).
edge(5, 89).
edge(49, 78).
edge(24, 113).
edge(56, 97).
edge(28, 109).
edge(75, 133).
edge(55, 121).
edge(26, 75).
edge(82, 145).
edge(96, 116).
edge(44, 47).
edge(11, 58).
edge(48, 137).
edge(13, 97).
edge(95, 120).
edge(120, 153).
edge(79, 109).
edge(23, 43).
edge(53, 57).
edge(60, 122).
edge(72, 73).
edge(54, 96).
edge(6, 123).
edge(106, 150).
edge(56, 72).
edge(47, 143).
edge(123, 155).
edge(28, 63).
edge(2, 137).
edge(68, 122).
edge(55, 139).
edge(131, 139).
edge(1, 61).
edge(12, 110).
edge(20, 144).
edge(74, 135).
edge(23, 41).
edge(35, 81).
edge(31, 61).
edge(98, 133).
edge(33, 125).
edge(83, 136).
edge(35, 36).
edge(88, 90).
edge(32, 56).
edge(33, 141).
edge(84, 113).
edge(1, 149).
edge(103, 119).
edge(140, 144).
edge(121, 149).
edge(23, 118).
edge(112, 121).
edge(29, 110).
edge(117, 141).
edge(83, 125).
edge(27, 147).
edge(44, 102).
edge(39, 135).
edge(52, 60).
edge(15, 138).
edge(69, 145).
edge(43, 102).
edge(28, 51).
edge(52, 133).
edge(62, 92).
edge(53, 72).
edge(38, 108).
edge(70, 118).
edge(41, 130).
edge(48, 55).
edge(100, 116).
edge(12, 113).
edge(31, 76).
edge(8, 15).
edge(12, 48).
edge(34, 126).
edge(36, 81).
edge(42, 63).
edge(52, 116).
edge(10, 149).
edge(34, 155).
edge(95, 146).
edge(42, 47).
edge(52, 65).
edge(46, 60).
edge(42, 136).
edge(73, 92).
edge(125, 152).
edge(67, 113).
edge(9, 35).
edge(51, 89).
edge(49, 150).
edge(89, 121).
edge(64, 127).
edge(101, 111).
edge(53, 134).
edge(33, 60).
edge(113, 144).
edge(16, 80).
edge(88, 145).
edge(40, 155).
edge(32, 148).
edge(16, 143).
edge(110, 128).
edge(19, 68).
edge(19, 130).
edge(125, 142).
edge(24, 107).
edge(53, 108).
edge(103, 129).
edge(111, 116).
edge(113, 121).
edge(137, 138).
edge(13, 121).
edge(14, 93).
edge(55, 128).
edge(37, 56).
edge(8, 56).
edge(89, 102).
edge(34, 89).
edge(21, 58).
edge(38, 101).
edge(75, 155).
edge(68, 118).
edge(97, 153).
edge(97, 110).
edge(13, 133).
edge(61, 65).
edge(72, 124).
edge(34, 56).
edge(14, 94).
edge(95, 101).
edge(83, 131).
edge(14, 118).
edge(14, 102).
edge(26, 91).
edge(20, 33).
edge(46, 104).
edge(46, 138).
edge(104, 127).
edge(84, 132).
edge(34, 124).
edge(27, 133).
edge(16, 43).
edge(144, 150).
edge(12, 36).
edge(46, 101).
edge(101, 153).
edge(0, 88).
edge(2, 126).
edge(71, 91).
edge(41, 145).
edge(36, 93).
edge(15, 108).
edge(12, 44).
edge(47, 49).
edge(50, 127).
edge(3, 114).
edge(80, 132).
edge(36, 77).
edge(46, 100).
edge(125, 150).
edge(58, 129).
edge(75, 82).
edge(21, 43).
edge(70, 72).
edge(29, 87).
edge(71, 142).
edge(54, 82).
edge(40, 114).
edge(90, 106).
edge(70, 124).
edge(46, 105).
edge(8, 154).
edge(80, 136).
edge(4, 52).
edge(59, 147).
edge(37, 82).
edge(53, 65).
edge(28, 37).
edge(95, 136).
edge(67, 95).
edge(37, 112).
edge(118, 119).
edge(0, 70).
edge(88, 137).
edge(23, 128).
edge(74, 80).
edge(106, 133).
edge(46, 91).
edge(30, 48).
edge(38, 88).
edge(61, 84).
edge(124, 127).
edge(37, 126).
edge(12, 59).
edge(39, 139).
edge(32, 65).
edge(96, 101).
edge(106, 128).
edge(17, 47).
edge(50, 119).
edge(6, 137).
edge(42, 56).
edge(0, 93).
edge(4, 90).
edge(122, 153).
edge(2, 33).
edge(60, 86).
edge(38, 141).
edge(95, 147).
edge(45, 152).
edge(79, 137).
edge(23, 155).
edge(11, 154).
edge(2, 76).
edge(51, 77).
edge(102, 141).
edge(10, 19).
edge(5, 9).
edge(149, 155).
edge(40, 81).
edge(61, 137).
edge(103, 108).
edge(31, 140).
edge(77, 82).
edge(73, 117).
edge(0, 98).
edge(4, 96).
edge(51, 59).
edge(133, 136).
edge(25, 115).
edge(29, 97).
edge(137, 154).
edge(107, 129).
edge(136, 154).
edge(77, 104).
edge(51, 61).
edge(5, 22).
edge(53, 117).
edge(12, 112).
edge(30, 89).
edge(104, 132).
edge(113, 154).
edge(10, 146).
edge(38, 82).
edge(134, 150).
edge(30, 72).
edge(49, 135).
edge(118, 130).
edge(0, 87).
edge(14, 44).
edge(2, 41).
edge(14, 120).
edge(3, 112).
edge(74, 100).
edge(65, 77).
edge(10, 98).
edge(21, 24).
edge(35, 74).
edge(2, 62).
edge(19, 102).
edge(142, 145).
edge(4, 104).
edge(47, 55).
edge(103, 142).
edge(105, 140).
edge(40, 89).
edge(122, 150).
edge(38, 104).
edge(115, 123).
edge(100, 150).
edge(116, 150).
edge(13, 37).
edge(106, 112).
edge(1, 54).
edge(64, 94).
edge(94, 127).
edge(85, 143).
edge(71, 88).
edge(20, 140).
edge(84, 139).
edge(81, 83).
edge(31, 53).
edge(92, 145).
edge(66, 120).
edge(0, 68).
edge(70, 109).
edge(29, 71).
edge(18, 20).
edge(74, 140).
edge(0, 60).
edge(35, 92).
edge(26, 89).
edge(101, 117).
edge(106, 152).
edge(2, 93).
edge(70, 122).
edge(71, 102).
edge(52, 100).
edge(15, 142).
edge(6, 63).
edge(48, 61).
edge(128, 147).
edge(47, 122).
edge(6, 60).
edge(6, 7).
edge(5, 142).
edge(29, 85).
edge(97, 123).
edge(5, 65).
edge(79, 151).
edge(4, 149).
edge(4, 123).
edge(154, 155).
edge(62, 63).
edge(125, 126).
edge(22, 99).
edge(19, 56).
edge(30, 105).
edge(66, 92).
edge(52, 130).
edge(67, 91).
edge(31, 105).
edge(7, 35).
edge(102, 122).
edge(21, 99).
edge(37, 62).
edge(7, 64).
edge(54, 123).
edge(25, 135).
edge(106, 118).
edge(152, 154).
edge(40, 43).
edge(62, 101).
edge(96, 118).
edge(100, 140).
edge(59, 131).
edge(88, 107).
edge(7, 151).
edge(110, 151).
edge(116, 136).
edge(49, 153).
edge(142, 151).
edge(6, 11).
edge(77, 125).
edge(58, 108).
edge(37, 100).
edge(16, 35).
edge(31, 81).
edge(15, 27).
edge(77, 153).
edge(11, 149).
edge(74, 86).
edge(24, 151).
edge(8, 64).
edge(107, 146).
edge(80, 81).
edge(30, 116).
edge(50, 154).
edge(67, 78).
edge(25, 68).
edge(26, 150).
edge(75, 76).
edge(53, 135).
edge(2, 63).
edge(84, 87).
edge(67, 129).
edge(55, 133).
edge(32, 66).
edge(83, 153).
edge(43, 45).
edge(26, 36).
edge(4, 92).
edge(77, 130).
edge(43, 93).
edge(27, 79).
edge(69, 147).
edge(23, 44).
edge(57, 137).
edge(20, 153).
edge(99, 111).
edge(71, 126).
edge(59, 80).
edge(96, 99).
edge(77, 121).
edge(75, 144).
edge(57, 109).
edge(37, 146).
edge(53, 59).
edge(36, 136).
edge(48, 146).
edge(36, 144).
edge(98, 140).
edge(71, 155).
edge(3, 24).
edge(115, 121).
edge(75, 93).
edge(84, 147).
edge(2, 4).
edge(53, 62).
edge(81, 148).
edge(2, 55).
edge(19, 124).
edge(48, 60).
edge(43, 126).
edge(55, 58).
edge(16, 71).
edge(13, 104).
edge(73, 120).
edge(58, 152).
edge(39, 154).
edge(32, 102).
edge(57, 142).
edge(137, 151).
edge(5, 26).
edge(13, 69).
edge(29, 90).
edge(5, 129).
edge(21, 134).
edge(25, 43).
edge(8, 73).
edge(113, 128).
edge(55, 70).
edge(116, 133).
edge(26, 77).
edge(78, 100).
edge(132, 147).
edge(52, 106).
edge(31, 125).
edge(34, 73).
edge(15, 120).
edge(120, 152).
edge(63, 119).
edge(26, 109).
edge(10, 29).
edge(92, 143).
edge(110, 155).
edge(38, 132).
edge(136, 153).
edge(71, 122).
edge(33, 154).
edge(5, 53).
edge(92, 121).
edge(14, 142).
edge(24, 54).
edge(74, 151).
edge(115, 132).
weight(0, 5).
weight(1, 6).
weight(2, 2).
weight(3, 9).
weight(4, 5).
weight(5, 5).
weight(6, 3).
weight(7, 5).
weight(8, 7).
weight(9, 1).
weight(10, 1).
weight(11, 5).
weight(12, 1).
weight(13, 4).
weight(14, 8).
weight(15, 8).
weight(16, 4).
weight(17, 8).
weight(18, 4).
weight(19, 6).
weight(20, 8).
weight(21, 6).
weight(22, 5).
weight(23, 9).
weight(24, 3).
weight(25, 1).
weight(26, 6).
weight(27, 9).
weight(28, 7).
weight(29, 2).
weight(30, 8).
weight(31, 4).
weight(32, 1).
weight(33, 6).
weight(34, 8).
weight(35, 9).
weight(36, 4).
weight(37, 6).
weight(38, 9).
weight(39, 9).
weight(40, 6).
weight(41, 1).
weight(42, 1).
weight(43, 4).
weight(44, 5).
weight(45, 2).
weight(46, 3).
weight(47, 4).
weight(48, 5).
weight(49, 8).
weight(50, 5).
weight(51, 8).
weight(52, 5).
weight(53, 5).
weight(54, 8).
weight(55, 1).
weight(56, 8).
weight(57, 8).
weight(58, 1).
weight(59, 9).
weight(60, 4).
weight(61, 6).
weight(62, 9).
weight(63, 2).
weight(64, 3).
weight(65, 5).
weight(66, 1).
weight(67, 9).
weight(68, 8).
weight(69, 4).
weight(70, 5).
weight(71, 2).
weight(72, 3).
weight(73, 4).
weight(74, 3).
weight(75, 6).
weight(76, 7).
weight(77, 4).
weight(78, 2).
weight(79, 2).
weight(80, 6).
weight(81, 6).
weight(82, 6).
weight(83, 3).
weight(84, 7).
weight(85, 8).
weight(86, 6).
weight(87, 5).
weight(88, 4).
weight(89, 2).
weight(90, 4).
weight(91, 1).
weight(92, 4).
weight(93, 6).
weight(94, 7).
weight(95, 4).
weight(96, 4).
weight(97, 6).
weight(98, 1).
weight(99, 4).
weight(100, 8).
weight(101, 2).
weight(102, 9).
weight(103, 7).
weight(104, 5).
weight(105, 7).
weight(106, 6).
weight(107, 4).
weight(108, 2).
weight(109, 7).
weight(110, 6).
weight(111, 9).
weight(112, 5).
weight(113, 8).
weight(114, 5).
weight(115, 5).
weight(116, 1).
weight(117, 1).
weight(118, 5).
weight(119, 3).
weight(120, 5).
weight(121, 2).
weight(122, 6).
weight(123, 1).
weight(124, 9).
weight(125, 6).
weight(126, 3).
weight(127, 7).
weight(128, 4).
weight(129, 9).
weight(130, 9).
weight(131, 2).
weight(132, 5).
weight(133, 7).
weight(134, 8).
weight(135, 1).
weight(136, 8).
weight(137, 3).
weight(138, 6).
weight(139, 9).
weight(140, 9).
weight(141, 4).
weight(142, 9).
weight(143, 5).
weight(144, 3).
weight(145, 3).
weight(146, 4).
weight(147, 4).
weight(148, 5).
weight(149, 8).
weight(150, 8).
weight(151, 1).
weight(152, 9).
weight(153, 9).
weight(154, 5).
weight(155, 9).
bound(84).

adj(U,V) :- edge(U,V).
adj(U,V) :- edge(V,U).
{in(V)} :- node(V).
dominated(V) :- in(V).
dominated(V) :- in(U), adj(U,V).
:- node(V), not dominated(V).
:- bound(B), #sum{W,V : in(V), weight(V,W)} > B.
:~ in(V), weight(V,W). [W@1,V]
