node(0..135).
edge(7, 79).
edge(1, 110).
edge(20, 34).
edge(48, 129).
edge(100, 102).
edge(37, 89).
edge(132, 134).
edge(3, 46).
edge(45, 73).
edge(79, 121).
edge(58, 91).
edge(49, 82).
edge(41, 118).
edge(29, 130).
edge(47, 96).
edge(128, 133).
edge(6, 42).
edge(90, 134).
edge(110, 128).
edge(88, 111).
edge(2, 38).
edge(32, 108).
edge(6, 55).
edge(62, 114).
edge(2, 6).
edge(24, 47).
edge(26, 63).
edge(31, 75).
edge(28, 61).
edge(49, 68).
edge(21, 25).
edge(33, 37).
edge(62, 98).
edge(28, 108).
edge(11, 52).
edge(91, 117).
edge(41, 72).
edge(20, 78).
edge(63, 119).
edge(57, 117).
edge(65, 125).
edge(71, 83).
edge(17, 60).
edge(8, 30).
edge(48, 68).
edge(68, 78).
edge(81, 113).
edge(12, 64).
edge(19, 46).
edge(111, 112).
edge(18, 132).
edge(29, 50).
edge(29, 73).
edge(0, 37).
edge(2, 112).
edge(82, 114).
edge(103, 122).
edge(25, 85).
edge(51, 90).
edge(20, 72).
edge(2, 40).
edge(56, 84).
edge(11, 102).
edge(2, 52).
edge(82, 93).
edge(6, 130).
edge(6, 50).
edge(80, 105).
edge(0, 69).
edge(0, 24).
edge(82, 116).
edge(24, 98).
edge(31, 130).
edge(66, 90).
edge(11, 46).
edge(64, 122).
edge(70, 80).
edge(23, 37).
edge(42, 98).
edge(87, 102).
edge(9, 11).
edge(10, 66).
edge(0, 59).
edge(45, 103).
edge(16, 29).
edge(65, 78).
edge(78, 85).
edge(121, 135).
edge(38, 60).
edge(88, 124).
edge(8, 83).
edge(6, 14).
edge(12, 122).
edge(30, 75).
edge(10, 83).
edge(61, 108).
edge(56, 112).
edge(9, 102).
edge(62, 111).
edge(50, 65).
edge(48, 116).
edge(0, 118).
edge(99, 109).
edge(6, 31).
edge(38, 132).
edge(60, 106).
edge(33, 51).
edge(28, 30).
edge(86, 121).
edge(15, 78).
edge(71, 87).
edge(101, 123).
edge(31, 135).
edge(39, 70).
edge(21, 87).
edge(1, 71).
edge(45, 75).
edge(2, 27).
edge(33, 54).
edge(100, 130).
edge(9, 65).
edge(72, 130).
edge(0, 30).
edge(35, 88).
edge(21, 126).
edge(61, 115).
edge(40, 108).
edge(57, 102).
edge(49, 63).
edge(114, 120).
edge(6, 16).
edge(14, 32).
edge(60, 76).
edge(32, 88).
edge(88, 125).
edge(26, 32).
edge(86, 135).
edge(50, 68).
edge(1, 135).
edge(1, 28).
edge(31, 127).
edge(39, 80).
edge(18, 103).
edge(43, 105).
edge(37, 38).
edge(97, 134).
edge(79, 111).
edge(7, 69).
edge(21, 78).
edge(91, 102).
edge(5, 51).
edge(3, 79).
edge(20, 30).
edge(10, 37).
edge(29, 66).
edge(33, 95).
edge(16, 123).
edge(110, 118).
edge(53, 61).
edge(2, 24).
edge(2, 63).
edge(10, 41).
edge(53, 118).
edge(46, 117).
edge(22, 109).
edge(15, 25).
edge(57, 79).
edge(107, 134).
edge(70, 116).
edge(12, 83).
edge(79, 97).
edge(97, 106).
edge(81, 91).
edge(10, 76).
edge(21, 111).
edge(87, 116).
edge(38, 51).
edge(36, 53).
edge(55, 100).
edge(0, 68).
edge(8, 112).
edge(70, 108).
edge(5, 107).
edge(34, 48).
edge(52, 106).
edge(3, 13).
edge(50, 103).
edge(19, 52).
edge(4, 19).
edge(45, 125).
edge(37, 79).
edge(104, 123).
edge(8, 48).
edge(76, 112).
edge(99, 118).
edge(7, 62).
edge(38, 128).
edge(25, 102).
edge(71, 82).
edge(14, 68).
edge(7, 75).
edge(34, 107).
edge(25, 83).
edge(26, 104).
edge(54, 89).
edge(86, 113).
edge(18, 98).
edge(8, 131).
edge(37, 118).
edge(20, 134).
edge(44, 98).
edge(33, 90).
edge(16, 124).
edge(9, 29).
edge(10, 107).
edge(87, 133).
edge(116, 122).
edge(19, 26).
edge(35, 69).
edge(80, 117).
edge(118, 135).
edge(36, 82).
edge(24, 43).
edge(24, 77).
edge(17, 106).
edge(45, 126).
edge(71, 102).
edge(16, 35).
edge(56, 89).
edge(10, 62).
edge(35, 104).
edge(65, 93).
edge(16, 79).
edge(100, 134).
edge(25, 108).
edge(22, 113).
edge(47, 82).
edge(38, 75).
edge(54, 68).
edge(59, 85).
edge(17, 53).
edge(54, 114).
edge(115, 128).
edge(47, 91).
edge(125, 127).
edge(55, 67).
edge(44, 111).
edge(26, 91).
edge(38, 92).
edge(38, 82).
edge(38, 135).
edge(5, 134).
edge(64, 105).
edge(70, 97).
edge(16, 38).
edge(10, 94).
edge(18, 25).
edge(12, 27).
edge(57, 96).
edge(12, 60).
edge(77, 106).
edge(47, 92).
edge(22, 104).
edge(7, 93).
edge(14, 20).
edge(70, 103).
edge(105, 129).
edge(7, 25).
edge(69, 131).
edge(61, 95).
edge(81, 118).
edge(41, 92).
edge(52, 66).
edge(67, 87).
edge(11, 68).
edge(58, 62).
edge(59, 115).
edge(64, 96).
edge(63, 125).
edge(74, 91).
edge(8, 74).
edge(3, 52).
edge(9, 87).
edge(2, 25).
edge(88, 109).
edge(101, 133).
edge(69, 109).
edge(64, 128).
edge(58, 84).
edge(35, 110).
edge(17, 36).
edge(1, 111).
edge(73, 133).
edge(27, 107).
edge(21, 108).
edge(58, 72).
edge(7, 71).
edge(68, 70).
edge(14, 33).
edge(89, 112).
edge(22, 81).
edge(50, 78).
edge(47, 123).
edge(17, 31).
edge(67, 113).
edge(65, 76).
edge(36, 117).
edge(108, 132).
edge(50, 79).
edge(14, 64).
edge(59, 62).
edge(17, 91).
edge(31, 70).
edge(32, 35).
edge(65, 88).
edge(114, 115).
edge(21, 47).
edge(26, 27).
edge(67, 74).
edge(25, 50).
edge(5, 20).
edge(103, 121).
edge(61, 93).
edge(106, 110).
edge(45, 109).
edge(77, 88).
edge(85, 109).
edge(80, 115).
edge(74, 78).
edge(33, 71).
edge(3, 104).
edge(25, 43).
edge(122, 133).
edge(36, 46).
edge(29, 56).
edge(54, 88).
edge(92, 127).
edge(90, 114).
edge(11, 112).
edge(7, 11).
edge(32, 49).
edge(37, 54).
edge(27, 113).
edge(26, 60).
edge(76, 89).
edge(60, 116).
edge(44, 112).
edge(46, 109).
edge(110, 116).
edge(43, 69).
edge(133, 135).
edge(66, 75).
edge(45, 76).
edge(18, 119).
edge(118, 128).
edge(66, 107).
edge(125, 135).
edge(34, 54).
edge(21, 98).
edge(14, 114).
edge(19, 63).
edge(1, 82).
edge(39, 54).
edge(5, 11).
edge(29, 105).
edge(30, 106).
edge(40, 101).
edge(5, 102).
edge(5, 88).
edge(32, 84).
edge(74, 109).
edge(46, 56).
edge(19, 100).
edge(14, 135).
edge(53, 115).
edge(52, 82).
edge(94, 132).
edge(34, 77).
edge(35, 68).
edge(17, 116).
edge(28, 76).
edge(41, 111).
edge(2, 87).
edge(1, 19).
edge(2, 58).
edge(34, 80).
edge(69, 81).
edge(89, 129).
edge(29, 126).
edge(39, 41).
edge(2, 11).
edge(1, 72).
edge(34, 89).
edge(101, 116).
edge(90, 100).
edge(24, 126).
edge(36, 134).
edge(115, 121).
edge(3, 14).
edge(14, 85).
edge(28, 134).
edge(50, 89).
edge(53, 135).
edge(60, 129).
edge(6, 87).
edge(84, 108).
edge(6, 74).
edge(44, 58).
edge(81, 93).
edge(85, 98).
edge(110, 113).
edge(0, 87).
edge(8, 90).
edge(27, 121).
edge(4, 36).
edge(31, 54).
edge(14, 130).
edge(41, 96).
edge(61, 110).
edge(18, 80).
edge(14, 82).
edge(57, 62).
edge(16, 100).
edge(49, 56).
edge(38, 87).
edge(7, 78).
edge(102, 134).
edge(7, 70).
edge(20, 114).
edge(34, 37).
edge(99, 127).
edge(43, 117).
edge(40, 128).
edge(31, 129).
edge(22, 48).
edge(40, 98).
edge(27, 102).
edge(40, 88).
edge(79, 122).
edge(20, 25).
edge(40, 74).
edge(66, 69).
edge(9, 66).
edge(88, 131).
edge(30, 129).
edge(53, 109).
edge(14, 129).
edge(30, 51).
edge(39, 121).
edge(67, 104).
edge(57, 93).
edge(0, 131).
edge(31, 113).
edge(56, 60).
edge(22, 31).
edge(21, 28).
edge(70, 117).
edge(26, 57).
edge(79, 104).
edge(30, 124).
edge(46, 105).
edge(34, 36).
edge(20, 71).
edge(2, 83).
edge(8, 51).
edge(117, 126).
edge(59, 134).
edge(24, 26).
edge(6, 33).
edge(79, 108).
edge(47, 124).
edge(70, 127).
edge(30, 109).
edge(44, 64).
edge(8, 79).
edge(68, 99).
edge(18, 64).
edge(27, 126).
edge(70, 114).
edge(9, 30).
edge(12, 130).
edge(1, 88).
edge(91, 101).
edge(49, 132).
edge(17, 129).
edge(16, 78).
edge(20, 59).
edge(57, 108).
edge(35, 116).
edge(86, 98).
edge(25, 84).
edge(21, 104).
edge(31, 55).
edge(125, 132).
edge(120, 124).
edge(104, 113).
edge(91, 92).
edge(33, 85).
edge(96, 97).
edge(0, 130).
edge(44, 131).
edge(9, 42).
edge(36, 87).
edge(102, 111).
edge(50, 118).
edge(27, 130).
edge(39, 60).
edge(64, 77).
edge(3, 8).
edge(26, 93).
edge(47, 127).
edge(27, 69).
edge(48, 85).
edge(21, 60).
edge(49, 103).
edge(66, 102).
edge(0, 43).
edge(94, 129).
edge(74, 112).
edge(34, 64).
edge(39, 90).
edge(59, 102).
edge(97, 108).
edge(41, 46).
edge(70, 101).
edge(36, 55).
edge(41, 75).
edge(62, 69).
edge(30, 121).
edge(21, 93).
edge(39, 124).
edge(20, 55).
edge(57, 69).
edge(18, 61).
edge(24, 35).
edge(95, 112).
edge(67, 111).
edge(35, 46).
edge(11, 110).
edge(2, 127).
edge(64, 70).
edge(51, 104).
edge(88, 96).
edge(8, 100).
edge(30, 128).
edge(7, 60).
edge(3, 22).
edge(75, 107).
edge(62, 123).
edge(62, 63).
edge(91, 126).
edge(44, 124).
edge(68, 91).
edge(44, 60).
edge(26, 89).
edge(66, 114).
edge(35, 105).
edge(9, 17).
edge(66, 127).
edge(116, 126).
edge(34, 117).
edge(26, 42).
edge(10, 54).
edge(47, 88).
edge(69, 79).
edge(20, 102).
edge(16, 21).
edge(16, 129).
edge(37, 125).
edge(1, 127).
edge(24, 104).
edge(78, 106).
edge(69, 101).
edge(48, 101).
edge(17, 127).
edge(25, 131).
edge(41, 129).
edge(121, 130).
edge(23, 116).
edge(67, 109).
edge(33, 132).
edge(12, 69).
edge(41, 69).
edge(101, 103).
edge(9, 35).
edge(3, 56).
edge(46, 63).
edge(46, 51).
edge(70, 119).
edge(21, 81).
edge(53, 123).
edge(16, 46).
edge(3, 4).
edge(24, 131).
edge(31, 42).
edge(88, 100).
edge(4, 30).
edge(55, 108).
edge(51, 80).
edge(103, 117).
edge(105, 113).
edge(86, 115).
edge(90, 99).
edge(2, 96).
edge(106, 123).
edge(56, 76).
edge(32, 106).
edge(38, 129).
edge(51, 124).
edge(2, 97).
edge(63, 129).
edge(47, 81).
edge(5, 92).
edge(34, 92).
edge(21, 44).
edge(23, 62).
edge(44, 103).
edge(120, 133).
edge(23, 74).
edge(17, 73).
edge(10, 113).
edge(10, 55).
edge(102, 115).
edge(80, 85).
edge(19, 37).
edge(19, 29).
edge(74, 122).
edge(86, 99).
edge(14, 123).
edge(76, 120).
edge(64, 86).
edge(52, 70).
edge(116, 123).
edge(46, 106).
edge(57, 75).
edge(4, 132).
edge(49, 90).
edge(38, 58).
edge(61, 101).
edge(36, 86).
edge(7, 41).
edge(71, 101).
edge(86, 106).
edge(127, 130).
edge(62, 122).
edge(4, 68).
edge(47, 61).
edge(107, 113).
edge(18, 115).
edge(91, 131).
edge(23, 92).
edge(90, 125).
edge(5, 21).
edge(54, 62).
edge(31, 84).
edge(71, 74).
edge(54, 124).
edge(48, 55).
edge(66, 129).
edge(56, 120).
edge(29, 30).
edge(29, 42).
edge(42, 87).
edge(46, 77).
edge(28, 113).
edge(26, 96).
edge(29, 89).
edge(24, 93).
edge(79, 128).
edge(29, 101).
edge(87, 119).
edge(19, 36).
edge(21, 64).
edge(79, 95).
edge(65, 134).
edge(38, 101).
edge(39, 125).
edge(17, 85).
edge(94, 98).
edge(113, 122).
edge(18, 105).
edge(4, 7).
edge(82, 115).
edge(0, 3).
edge(23, 54).
edge(3, 132).
edge(55, 103).
edge(25, 107).
edge(47, 90).
edge(36, 135).
edge(25, 65).
edge(97, 107).
edge(76, 101).
edge(75, 100).
edge(9, 56).
edge(64, 127).
edge(56, 59).
edge(126, 128).
edge(53, 83).
edge(6, 71).
edge(19, 113).
edge(123, 126).
edge(96, 130).
edge(46, 82).
edge(37, 123).
edge(88, 92).
edge(56, 132).
edge(120, 131).
edge(30, 107).
edge(1, 95).
edge(47, 50).
edge(70, 91).
edge(18, 76).
edge(51, 127).
edge(36, 133).
edge(28, 115).
edge(47, 101).
edge(15, 50).
edge(63, 101).
edge(13, 85).
edge(7, 123).
edge(65, 73).
edge(27, 70).
edge(59, 132).
edge(27, 35).
edge(69, 91).
edge(28, 102).
edge(37, 41).
edge(32, 123).
edge(71, 103).
edge(94, 134).
edge(18, 34).
edge(22, 57).
edge(36, 127).
edge(64, 83).
edge(6, 13).
edge(90, 106).
edge(10, 101).
edge(72, 90).
edge(68, 109).
edge(55, 121).
edge(17, 99).
edge(59, 108).
edge(32, 98).
edge(14, 127).
edge(63, 121).
edge(28, 133).
edge(20, 126).
edge(4, 88).
edge(101, 107).
edge(12, 50).
edge(43, 130).
edge(30, 80).
edge(109, 120).
edge(102, 109).
edge(54, 95).
edge(50, 132).
edge(28, 33).
edge(9, 106).
edge(9, 58).
edge(2, 101).
edge(5, 84).
edge(15, 129).
edge(1, 50).
edge(15, 28).
edge(87, 135).
edge(72, 126).
edge(25, 116).
edge(34, 73).
edge(49, 93).
edge(9, 121).
edge(102, 121).
edge(36, 106).
edge(56, 57).
edge(6, 103).
edge(25, 52).
edge(3, 101).
edge(14, 71).
edge(3, 7).
edge(60, 119).
edge(28, 68).
edge(41, 103).
edge(29, 98).
edge(66, 135).
edge(89, 109).
edge(44, 129).
edge(30, 134).
edge(133, 134).
edge(1, 25).
edge(41, 61).
edge(27, 61).
edge(0, 21).
edge(96, 101).
edge(56, 98).
edge(5, 110).
edge(5, 125).
edge(91, 129).
edge(64, 100).
edge(42, 103).
edge(58, 109).
edge(30, 35).
edge(12, 126).
edge(114, 122).
edge(9, 77).
edge(6, 53).
edge(86, 94).
edge(83, 96).
edge(27, 115).
edge(77, 101).
edge(73, 93).
edge(90, 102).
edge(62, 82).
edge(15, 112).
edge(76, 109).
edge(21, 133).
edge(106, 122).
edge(22, 56).
edge(52, 116).
edge(87, 103).
edge(36, 126).
edge(8, 35).
edge(66, 77).
edge(117, 124).
edge(58, 127).
edge(56, 107).
edge(71, 91).
edge(81, 122).
edge(1, 13).
edge(46, 72).
edge(5, 127).
edge(6, 57).
edge(44, 78).
edge(17, 130).
edge(8, 132).
edge(23, 112).
edge(1, 90).
edge(11, 129).
edge(36, 67).
edge(107, 118).
edge(113, 116).
edge(104, 117).
edge(3, 97).
edge(2, 45).
edge(6, 91).
edge(15, 94).
edge(46, 88).
edge(11, 33).
edge(19, 33).
edge(2, 121).
edge(81, 115).
edge(83, 116).
edge(25, 90).
edge(2, 12).
edge(17, 38).
edge(64, 75).
edge(37, 60).
edge(26, 74).
edge(35, 64).
edge(90, 121).
edge(20, 87).
edge(15, 89).
edge(9, 51).
edge(41, 67).
edge(23, 25).
edge(108, 127).
edge(61, 66).
edge(4, 9).
edge(12, 127).
edge(16, 63).
edge(14, 38).
edge(53, 78).
edge(30, 98).
edge(37, 57).
edge(45, 71).
edge(3, 35).
edge(12, 78).
edge(5, 106).
edge(17, 44).
edge(50, 60).
edge(12, 62).
edge(60, 77).
edge(0, 49).
edge(44, 84).
edge(56, 110).
edge(35, 56).
edge(41, 64).
edge(84, 101).
edge(2, 132).
edge(37, 132).
edge(88, 120).
edge(24, 86).
edge(35, 58).
edge(122, 123).
edge(4, 13).
edge(14, 107).
edge(27, 76).
edge(9, 98).
edge(8, 62).
edge(49, 50).
edge(1, 35).
edge(5, 74).
edge(116, 124).
edge(44, 104).
edge(42, 104).
edge(17, 47).
edge(5, 39).
edge(10, 111).
edge(42, 72).
edge(54, 130).
edge(62, 109).
edge(50, 58).
edge(42, 70).
edge(37, 111).
edge(41, 97).
edge(87, 123).
edge(43, 77).
edge(1, 46).
edge(15, 125).
edge(33, 60).
edge(83, 133).
edge(50, 83).
edge(26, 33).
edge(69, 111).
edge(87, 132).
edge(110, 134).
edge(32, 48).
edge(41, 135).
edge(5, 80).
edge(92, 104).
edge(115, 132).
edge(4, 127).
edge(6, 15).
edge(74, 125).
edge(23, 50).
edge(47, 54).
edge(115, 126).
edge(34, 130).
edge(1, 30).
edge(118, 123).
edge(38, 86).
edge(105, 114).
edge(2, 49).
edge(7, 20).
edge(28, 69).
edge(93, 117).
edge(20, 80).
edge(10, 28).
edge(58, 125).
edge(31, 105).
edge(18, 111).
edge(31, 93).
edge(22, 80).
edge(75, 108).
edge(34, 131).
edge(62, 76).
edge(13, 64).
edge(57, 71).
edge(5, 23).
edge(88, 123).
edge(48, 111).
edge(32, 42).
edge(75, 118).
edge(19, 130).
edge(75, 99).
edge(110, 124).
edge(34, 39).
edge(46, 68).
edge(32, 58).
edge(72, 73).
edge(79, 126).
edge(0, 15).
edge(6, 83).
edge(50, 115).
edge(62, 66).
edge(35, 113).
edge(44, 90).
edge(92, 126).
edge(74, 98).
edge(2, 82).
edge(22, 126).
edge(37, 119).
edge(67, 83).
edge(33, 121).
edge(42, 86).
edge(27, 34).
edge(13, 112).
edge(60, 128).
edge(42, 134).
edge(20, 112).
edge(22, 74).
edge(91, 94).
edge(3, 12).
edge(83, 129).
edge(25, 45).
edge(120, 123).
edge(71, 110).
edge(28, 130).
edge(104, 107).
edge(8, 65).
edge(49, 133).
edge(32, 107).
edge(0, 82).
edge(92, 100).
edge(32, 81).
edge(14, 56).
edge(114, 126).
edge(75, 132).
edge(76, 111).
edge(37, 46).
edge(8, 92).
edge(10, 127).
edge(102, 122).
edge(37, 66).
edge(1, 129).
edge(0, 96).
edge(78, 111).
edge(35, 83).
edge(84, 116).
edge(9, 127).
edge(88, 91).
edge(85, 103).
edge(86, 130).
edge(72, 101).
edge(18, 42).
edge(99, 115).
edge(4, 5).
edge(0, 72).
edge(68, 103).
edge(45, 66).
edge(97, 121).
edge(77, 112).
edge(7, 44).
edge(68, 69).
edge(78, 118).
edge(32, 52).
edge(23, 105).
edge(82, 124).
edge(45, 128).
edge(12, 73).
edge(0, 16).
edge(50, 74).
edge(67, 129).
edge(69, 113).
edge(89, 113).
edge(53, 98).
edge(58, 126).
edge(14, 83).
edge(36, 78).
edge(10, 18).
edge(2, 108).
edge(34, 111).
edge(17, 117).
edge(92, 116).
edge(45, 108).
edge(36, 63).
edge(12, 135).
edge(56, 109).
edge(31, 124).
edge(17, 43).
edge(81, 116).
edge(46, 75).
edge(9, 123).
edge(18, 91).
edge(16, 94).
edge(11, 104).
edge(9, 99).
edge(13, 63).
edge(69, 133).
edge(26, 102).
edge(0, 125).
edge(14, 112).
edge(94, 117).
edge(57, 98).
edge(76, 96).
edge(36, 123).
edge(40, 123).
edge(68, 114).
edge(16, 33).
edge(77, 85).
edge(2, 22).
edge(26, 83).
edge(20, 47).
edge(36, 124).
edge(47, 67).
edge(30, 125).
edge(25, 118).
edge(28, 80).
edge(8, 125).
edge(43, 93).
edge(15, 117).
edge(51, 71).
edge(104, 109).
edge(30, 126).
edge(56, 64).
edge(73, 80).
edge(1, 126).
edge(72, 97).
edge(5, 55).
edge(9, 73).
edge(131, 133).
edge(23, 81).
edge(2, 7).
edge(17, 102).
edge(9, 52).
edge(31, 110).
edge(0, 23).
edge(21, 33).
edge(116, 121).
edge(65, 123).
edge(67, 73).
edge(108, 117).
edge(4, 135).
edge(45, 72).
edge(35, 76).
edge(42, 107).
edge(33, 53).
edge(14, 37).
edge(1, 47).
edge(94, 128).
edge(21, 54).
edge(33, 73).
edge(83, 91).
edge(29, 51).
edge(7, 97).
edge(23, 132).
edge(50, 111).
edge(13, 132).
edge(11, 60).
edge(39, 67).
edge(84, 134).
edge(32, 33).
edge(4, 25).
edge(65, 124).
edge(75, 91).
edge(81, 121).
edge(10, 93).
edge(0, 90).
edge(52, 76).
edge(35, 71).
edge(50, 88).
edge(84, 97).
edge(23, 98).
edge(99, 126).
edge(23, 128).
edge(42, 121).
edge(113, 119).
edge(59, 79).
edge(12, 26).
edge(99, 103).
edge(79, 130).
edge(32, 134).
edge(40, 92).
edge(4, 123).
edge(21, 113).
edge(86, 131).
edge(4, 38).
edge(98, 123).
edge(9, 76).
edge(3, 108).
edge(18, 82).
edge(35, 135).
edge(29, 36).
edge(14, 124).
edge(29, 116).
edge(29, 103).
edge(67, 132).
edge(3, 92).
edge(54, 129).
edge(35, 77).
edge(1, 76).
edge(20, 41).
edge(0, 25).
edge(19, 47).
edge(119, 135).
edge(12, 99).
edge(4, 87).
edge(89, 91).
edge(13, 113).
edge(89, 123).
edge(75, 103).
edge(93, 113).
edge(29, 76).
edge(51, 118).
edge(110, 131).
edge(10, 21).
edge(102, 117).
edge(128, 135).
edge(43, 133).
edge(0, 104).
edge(51, 129).
edge(96, 117).
edge(63, 99).
edge(58, 77).
edge(24, 70).
edge(19, 103).
edge(18, 110).
edge(64, 113).
edge(64, 123).
edge(20, 85).
edge(44, 115).
edge(7, 55).
edge(3, 135).
edge(47, 68).
edge(5, 97).
edge(9, 32).
edge(16, 114).
edge(57, 73).
edge(55, 84).
edge(64, 82).
edge(22, 75).
edge(60, 62).
edge(80, 86).
edge(47, 80).
edge(55, 91).
edge(66, 87).
edge(19, 51).
edge(6, 46).
edge(37, 70).
edge(78, 124).
edge(62, 70).
edge(73, 106).
edge(44, 61).
edge(20, 107).
edge(28, 107).
edge(39, 51).
edge(32, 92).
edge(4, 32).
edge(13, 60).
edge(56, 108).
edge(108, 121).
edge(6, 111).
edge(58, 70).
edge(29, 125).
edge(67, 90).
edge(51, 68).
edge(46, 73).
edge(15, 113).
edge(108, 113).
edge(20, 120).
edge(32, 125).
edge(53, 76).
edge(42, 46).
edge(111, 126).
edge(80, 110).
edge(84, 98).
edge(90, 93).
edge(30, 100).
edge(51, 89).
edge(113, 120).
edge(33, 125).
edge(6, 63).
edge(78, 80).
edge(8, 22).
edge(8, 91).
edge(44, 65).
edge(86, 134).
edge(64, 87).
edge(46, 99).
edge(30, 39).
edge(19, 64).
edge(23, 28).
edge(35, 130).
edge(14, 16).
edge(59, 90).
edge(105, 106).
edge(39, 132).
edge(58, 99).
edge(15, 86).
edge(25, 106).
edge(32, 99).
edge(26, 112).
edge(50, 77).
edge(69, 117).
edge(90, 130).
edge(47, 133).
edge(0, 135).
edge(80, 92).
edge(38, 85).
edge(10, 91).
edge(63, 96).
edge(36, 64).
edge(91, 125).
edge(17, 82).
edge(20, 111).
edge(2, 86).
edge(22, 47).
edge(23, 49).
edge(35, 129).
edge(64, 114).
edge(37, 122).
edge(65, 102).
edge(28, 48).
edge(13, 15).
edge(65, 98).
edge(39, 44).
edge(22, 36).
edge(36, 131).
edge(105, 133).
edge(24, 83).
edge(87, 131).
edge(3, 16).
edge(12, 108).
edge(29, 104).
edge(81, 133).
edge(112, 127).
edge(83, 97).
edge(4, 113).
edge(60, 70).
edge(23, 87).
edge(4, 42).
edge(98, 119).
edge(8, 61).
edge(43, 88).
edge(75, 86).
edge(48, 133).
edge(53, 107).
edge(63, 128).
edge(14, 60).
edge(31, 40).
edge(70, 83).
edge(84, 105).
edge(19, 89).
edge(19, 69).
edge(21, 117).
edge(3, 75).
edge(88, 101).
edge(25, 31).
edge(55, 106).
edge(39, 92).
edge(80, 97).
edge(37, 52).
edge(66, 95).
edge(8, 94).
edge(53, 66).
edge(36, 77).
edge(103, 133).
edge(46, 123).
edge(5, 36).
edge(18, 74).
edge(24, 32).
edge(93, 126).
edge(57, 112).
edge(76, 117).
edge(43, 120).
edge(8, 71).
edge(98, 114).
edge(85, 123).
edge(73, 90).
edge(33, 124).
edge(50, 121).
edge(5, 24).
edge(18, 65).
edge(57, 116).
edge(30, 32).
edge(12, 133).
edge(70, 74).
edge(33, 63).
edge(47, 100).
edge(78, 131).
edge(36, 101).
edge(51, 85).
edge(81, 84).
edge(6, 114).
edge(8, 41).
edge(12, 120).
edge(36, 85).
edge(3, 32).
edge(33, 40).
edge(46, 76).
edge(1, 26).
edge(24, 113).
edge(90, 118).
edge(69, 130).
edge(40, 83).
edge(57, 77).
edge(18, 45).
edge(126, 131).
edge(34, 115).
edge(42, 130).
edge(9, 103).
edge(13, 101).
edge(46, 116).
edge(63, 114).
edge(98, 122).
edge(74, 87).
edge(104, 132).
edge(97, 105).
edge(14, 115).
edge(88, 105).
edge(16, 57).
edge(14, 35).
edge(10, 33).
edge(52, 85).
edge(109, 111).
edge(73, 94).
edge(66, 124).
edge(2, 79).
edge(61, 71).
edge(9, 104).
edge(52, 133).
edge(26, 70).
edge(1, 32).
edge(4, 120).
edge(65, 128).
edge(36, 49).
edge(45, 124).
edge(27, 54).
edge(131, 135).
edge(40, 42).
edge(11, 108).
edge(0, 99).
edge(6, 134).
edge(70, 134).
edge(74, 84).
edge(59, 112).
edge(84, 130).
edge(83, 95).
edge(22, 103).
edge(39, 63).
edge(68, 88).
edge(51, 116).
edge(95, 130).
edge(21, 49).
edge(40, 77).
edge(15, 70).
edge(15, 61).
edge(57, 132).
edge(86, 119).
edge(73, 82).
edge(17, 22).
edge(50, 99).
edge(118, 131).
edge(38, 56).
edge(66, 108).
edge(52, 129).
edge(72, 87).
edge(10, 79).
edge(18, 43).
edge(27, 57).
edge(15, 65).
edge(1, 18).
edge(43, 131).
edge(29, 52).
edge(92, 109).
edge(66, 74).
edge(10, 102).
edge(96, 99).
edge(25, 113).
edge(35, 111).
edge(104, 111).
edge(44, 67).
edge(113, 118).
edge(103, 126).
edge(34, 45).
edge(28, 117).
edge(41, 52).
edge(47, 120).
edge(48, 87).
edge(93, 118).
edge(28, 58).
edge(30, 54).
edge(20, 131).
edge(36, 38).
edge(31, 61).
edge(113, 133).
edge(86, 133).
edge(34, 120).
edge(92, 105).
edge(44, 80).
edge(53, 112).
edge(75, 115).
edge(36, 92).
edge(105, 108).
edge(10, 67).
edge(17, 80).
edge(21, 125).
edge(6, 127).
edge(20, 40).
edge(86, 118).
edge(54, 82).
edge(98, 115).
edge(16, 30).
edge(25, 87).
edge(12, 94).
edge(126, 132).
edge(23, 65).
edge(14, 133).
edge(66, 117).
edge(88, 112).
edge(25, 40).
edge(7, 51).
edge(4, 108).
edge(45, 117).
edge(95, 97).
edge(85, 96).
edge(18, 22).
edge(27, 71).
edge(18, 130).
edge(16, 115).
edge(86, 117).
edge(5, 89).
edge(40, 114).
edge(82, 98).
edge(4, 109).
edge(32, 51).
edge(116, 117).
edge(22, 26).
edge(73, 117).
edge(84, 109).
edge(2, 75).
edge(22, 110).
edge(49, 74).
edge(86, 105).
edge(71, 109).
edge(46, 120).
edge(52, 81).
edge(18, 63).
edge(37, 108).
edge(91, 100).
edge(62, 75).
edge(65, 106).
edge(17, 52).
edge(44, 87).
edge(105, 116).
edge(74, 124).
edge(66, 132).
edge(38, 91).
edge(29, 99).
edge(41, 84).
edge(7, 23).
edge(51, 114).
edge(7, 35).
edge(28, 49).
edge(32, 63).
edge(19, 22).
edge(55, 85).
edge(39, 102).
edge(31, 83).
edge(55, 89).
edge(20, 23).
edge(48, 65).
edge(54, 66).
edge(52, 122).
edge(27, 133).
edge(18, 69).
edge(37, 87).
edge(81, 110).
edge(109, 127).
edge(20, 83).
edge(75, 135).
edge(41, 100).
edge(70, 104).
edge(47, 71).
edge(24, 64).
edge(30, 81).
edge(33, 45).
edge(27, 39).
edge(24, 50).
edge(40, 97).
edge(115, 127).
edge(18, 24).
edge(75, 94).
edge(31, 86).
edge(69, 98).
edge(11, 58).
edge(46, 130).
edge(50, 52).
edge(37, 48).
edge(14, 118).
edge(0, 100).
edge(43, 86).
edge(5, 117).
edge(85, 97).
edge(29, 63).
edge(62, 99).
edge(105, 128).
edge(18, 88).
edge(18, 109).
edge(50, 131).
edge(34, 134).
edge(68, 82).
edge(90, 133).
edge(21, 38).
edge(7, 131).
edge(73, 126).
edge(27, 104).
edge(62, 81).
edge(61, 133).
edge(29, 31).
edge(17, 66).
edge(16, 91).
edge(49, 98).
edge(43, 74).
edge(101, 130).
edge(39, 103).
edge(92, 95).
edge(85, 99).
edge(100, 117).
edge(25, 125).
edge(59, 103).
edge(29, 93).
edge(45, 53).
edge(19, 38).
edge(27, 125).
edge(58, 134).
edge(1, 78).
edge(35, 118).
edge(121, 127).
edge(35, 65).
edge(23, 122).
edge(32, 93).
edge(69, 127).
edge(109, 129).
edge(11, 78).
edge(91, 103).
edge(6, 24).
edge(91, 98).
edge(48, 59).
edge(6, 52).
edge(75, 88).
edge(46, 104).
edge(89, 97).
edge(24, 120).
edge(75, 104).
edge(102, 135).
edge(53, 113).
edge(37, 75).
edge(0, 7).
edge(10, 47).
edge(25, 126).
edge(119, 123).
edge(3, 11).
edge(4, 124).
edge(78, 119).
edge(56, 80).
edge(100, 109).
edge(115, 120).
edge(108, 134).
edge(3, 121).
edge(22, 93).
edge(1, 42).
edge(67, 75).
edge(76, 83).
edge(74, 77).
edge(3, 5).
edge(13, 84).
edge(81, 88).
edge(19, 84).
edge(66, 133).
edge(68, 127).
edge(70, 126).
edge(50, 101).
edge(29, 47).
edge(12, 47).
edge(48, 102).
edge(28, 120).
edge(17, 98).
edge(45, 99).
edge(50, 92).
edge(30, 89).
edge(49, 121).
edge(26, 78).
edge(56, 91).
edge(74, 106).
edge(40, 50).
edge(51, 88).
edge(48, 104).
edge(24, 39).
edge(66, 93).
edge(71, 99).
edge(58, 66).
edge(10, 39).
edge(63, 71).
edge(20, 118).
edge(103, 109).
edge(85, 122).
edge(19, 75).
edge(85, 94).
edge(93, 124).
edge(2, 128).
edge(82, 92).
edge(40, 106).
edge(27, 124).
edge(95, 134).
edge(29, 84).
edge(46, 135).
edge(119, 127).
edge(81, 101).
edge(28, 94).
edge(96, 108).
edge(52, 101).
edge(118, 127).
edge(44, 66).
edge(54, 77).
edge(23, 129).
edge(13, 42).
edge(12, 63).
edge(13, 83).
edge(15, 88).
edge(30, 94).
edge(9, 46).
edge(18, 57).
edge(107, 130).
edge(60, 83).
edge(51, 69).
edge(88, 93).
edge(17, 67).
edge(54, 93).
edge(59, 122).
edge(14, 120).
edge(33, 87).
edge(55, 113).
edge(10, 70).
edge(80, 114).
edge(82, 87).
edge(2, 54).
edge(24, 135).
edge(31, 106).
edge(29, 79).
edge(42, 64).
edge(49, 115).
edge(12, 51).
edge(4, 110).
edge(27, 119).
edge(1, 106).
edge(72, 119).
edge(0, 42).
edge(0, 41).
edge(82, 96).
edge(35, 133).
edge(75, 114).
edge(9, 107).
edge(48, 119).
edge(27, 55).
edge(106, 131).
edge(55, 62).
edge(39, 46).
edge(100, 106).
edge(95, 125).
edge(75, 83).
edge(74, 85).
edge(60, 65).
edge(80, 133).
edge(14, 84).
edge(115, 116).
edge(77, 116).
edge(4, 44).
edge(78, 109).
edge(4, 90).
edge(98, 100).
edge(10, 38).
edge(99, 101).
edge(7, 135).
edge(12, 54).
edge(66, 113).
edge(1, 63).
edge(21, 101).
edge(60, 93).
edge(71, 128).
edge(64, 110).
edge(24, 91).
edge(81, 123).
edge(11, 12).
edge(76, 99).
edge(53, 58).
edge(34, 108).
edge(9, 116).
edge(31, 101).
edge(12, 132).
edge(79, 106).
edge(17, 132).
edge(7, 102).
edge(19, 56).
edge(17, 101).
edge(4, 103).
edge(71, 122).
edge(3, 127).
edge(41, 56).
edge(2, 105).
edge(6, 70).
edge(83, 98).
edge(99, 123).
edge(1, 65).
edge(5, 101).
edge(8, 124).
edge(28, 43).
edge(128, 130).
edge(21, 62).
edge(33, 119).
edge(10, 32).
edge(66, 98).
edge(27, 96).
edge(6, 79).
edge(10, 119).
edge(37, 117).
edge(42, 61).
edge(22, 131).
edge(52, 73).
edge(46, 50).
edge(1, 74).
edge(47, 74).
edge(75, 79).
edge(30, 74).
edge(91, 99).
edge(13, 81).
edge(106, 109).
edge(86, 129).
edge(43, 68).
edge(36, 96).
edge(66, 85).
edge(21, 135).
edge(11, 55).
edge(37, 62).
edge(66, 88).
edge(0, 67).
edge(64, 89).
edge(10, 42).
edge(50, 102).
edge(76, 122).
edge(39, 128).
edge(61, 70).
edge(5, 114).
edge(90, 116).
edge(16, 86).
edge(93, 114).
edge(13, 97).
edge(23, 69).
edge(29, 41).
edge(104, 119).
edge(59, 88).
edge(0, 114).
edge(36, 71).
edge(83, 102).
edge(46, 94).
edge(10, 63).
edge(61, 106).
edge(69, 97).
edge(41, 110).
edge(119, 132).
edge(29, 132).
edge(108, 115).
edge(18, 101).
edge(46, 124).
edge(36, 118).
edge(79, 96).
edge(22, 23).
edge(13, 32).
edge(51, 83).
edge(15, 110).
edge(9, 114).
edge(33, 94).
edge(104, 131).
edge(8, 116).
edge(68, 110).
edge(58, 100).
edge(76, 82).
edge(64, 74).
edge(39, 49).
edge(8, 113).
edge(48, 134).
edge(122, 127).
edge(7, 29).
edge(31, 116).
edge(47, 109).
edge(73, 108).
edge(30, 52).
edge(52, 91).
edge(2, 114).
edge(27, 48).
edge(79, 116).
edge(37, 126).
edge(101, 134).
edge(57, 67).
edge(83, 128).
edge(87, 95).
edge(75, 93).
edge(42, 53).
edge(2, 4).
edge(5, 121).
edge(57, 72).
edge(12, 61).
edge(4, 69).
edge(24, 46).
edge(17, 55).
edge(41, 105).
edge(41, 108).
edge(85, 132).
edge(23, 61).
edge(107, 119).
edge(21, 102).
edge(18, 55).
edge(123, 130).
edge(61, 111).
edge(93, 120).
edge(104, 118).
edge(102, 126).
edge(72, 125).
edge(34, 105).
edge(15, 26).
edge(5, 128).
edge(33, 59).
edge(85, 111).
edge(65, 79).
edge(47, 134).
edge(47, 94).
edge(37, 110).
edge(69, 132).
edge(41, 119).
edge(95, 103).
edge(7, 86).
edge(42, 52).
edge(67, 98).
edge(19, 127).
edge(40, 70).
edge(87, 88).
edge(11, 57).
edge(44, 55).
edge(37, 56).
edge(100, 101).
edge(80, 129).
edge(33, 130).
edge(18, 56).
edge(15, 134).
edge(63, 117).
edge(32, 96).
edge(79, 127).
edge(17, 88).
edge(55, 79).
edge(10, 73).
edge(39, 101).
edge(33, 42).
edge(105, 124).
edge(13, 121).
edge(31, 126).
edge(10, 24).
edge(91, 95).
edge(98, 126).
edge(112, 119).
edge(18, 23).
edge(54, 123).
edge(46, 134).
edge(35, 72).
edge(39, 114).
edge(80, 130).
edge(5, 105).
edge(27, 83).
edge(12, 134).
edge(1, 61).
edge(82, 90).
edge(12, 32).
edge(99, 125).
edge(9, 79).
edge(35, 84).
edge(45, 48).
edge(43, 79).
edge(109, 118).
edge(59, 135).
edge(26, 73).
edge(29, 45).
edge(12, 38).
edge(28, 62).
edge(7, 48).
edge(59, 120).
edge(16, 55).
edge(41, 91).
edge(8, 49).
edge(103, 130).
edge(33, 135).
edge(14, 23).
edge(46, 80).
edge(89, 90).
edge(11, 94).
edge(47, 128).
edge(72, 129).
edge(44, 132).
edge(36, 122).
edge(4, 96).
edge(12, 113).
edge(78, 93).
edge(39, 75).
edge(25, 96).
edge(14, 48).
edge(46, 62).
edge(1, 83).
edge(75, 90).
edge(7, 63).
edge(46, 74).
edge(30, 91).
edge(26, 84).
edge(55, 83).
edge(33, 118).
edge(32, 124).
edge(117, 132).
edge(11, 98).
edge(34, 129).
edge(44, 130).
edge(42, 66).
edge(28, 35).
edge(117, 128).
edge(11, 19).
edge(46, 93).
edge(60, 109).
edge(44, 125).
edge(8, 121).
edge(20, 97).
edge(51, 64).
edge(27, 47).
edge(14, 126).
edge(76, 91).
edge(13, 16).
edge(1, 44).
edge(4, 24).
edge(40, 44).
edge(65, 84).
edge(39, 40).
edge(41, 94).
edge(115, 134).
edge(33, 55).
edge(45, 57).
edge(77, 103).
edge(6, 116).
edge(24, 65).
edge(37, 130).
edge(49, 69).
edge(22, 62).
edge(28, 124).
edge(73, 103).
edge(9, 95).
edge(2, 15).
edge(40, 61).
edge(49, 119).
edge(5, 61).
edge(25, 57).
edge(9, 111).
edge(71, 125).
edge(50, 85).
edge(101, 120).
edge(67, 80).
edge(50, 100).
edge(61, 79).
edge(24, 62).
edge(30, 70).
edge(35, 131).
edge(73, 110).
edge(10, 112).
edge(39, 68).
edge(11, 42).
edge(30, 93).
edge(61, 104).
edge(73, 122).
edge(2, 47).
edge(44, 69).
edge(11, 115).
edge(4, 95).
edge(7, 52).
edge(11, 131).
edge(28, 47).
edge(25, 82).
edge(12, 75).
edge(17, 71).
edge(19, 55).
edge(9, 130).
edge(12, 107).
edge(43, 119).
edge(65, 132).
edge(119, 121).
edge(1, 93).
edge(47, 66).
edge(83, 93).
edge(26, 30).
edge(72, 82).
edge(24, 85).
edge(73, 125).
edge(59, 114).
edge(19, 30).
edge(54, 128).
edge(58, 87).
edge(58, 132).
edge(1, 20).
edge(2, 35).
edge(8, 26).
edge(7, 22).
edge(0, 48).
edge(44, 73).
edge(20, 96).
edge(41, 58).
edge(32, 46).
edge(12, 80).
edge(49, 99).
edge(50, 128).
edge(66, 128).
edge(113, 123).
edge(73, 129).
edge(43, 113).
edge(51, 60).
edge(57, 100).
edge(87, 89).
edge(70, 105).
edge(78, 108).
edge(12, 49).
edge(39, 131).
edge(2, 134).
edge(53, 54).
edge(57, 122).
edge(56, 126).
edge(24, 51).
edge(62, 135).
edge(82, 101).
edge(60, 133).
edge(1, 77).
edge(13, 104).
edge(30, 50).
edge(44, 79).
edge(100, 120).
edge(5, 126).
edge(48, 107).
edge(26, 86).
edge(74, 101).
edge(17, 34).
edge(126, 127).
edge(11, 109).
edge(1, 59).
edge(73, 85).
edge(10, 35).
edge(47, 53).
edge(32, 47).
edge(67, 88).
edge(69, 128).
edge(6, 54).
edge(92, 132).
edge(21, 29).
edge(27, 28).
edge(89, 134).
edge(49, 60).
edge(61, 74).
edge(20, 60).
edge(4, 111).
edge(54, 133).
edge(123, 125).
edge(67, 100).
edge(110, 122).
edge(105, 119).
edge(45, 81).
edge(20, 88).
edge(5, 57).
edge(17, 90).
edge(13, 115).
edge(78, 112).
edge(39, 115).
edge(15, 47).
edge(22, 52).
edge(78, 115).
edge(31, 35).
edge(36, 129).
edge(15, 85).
edge(74, 115).
edge(76, 124).
edge(13, 94).
edge(67, 101).
edge(38, 61).
edge(17, 58).
edge(102, 132).
edge(6, 67).
edge(64, 91).
edge(4, 70).
edge(20, 93).
edge(107, 116).
edge(88, 110).
edge(100, 115).
edge(95, 98).
edge(63, 73).
edge(17, 37).
edge(48, 49).
edge(12, 58).
edge(37, 114).
edge(66, 71).
edge(60, 104).
edge(28, 38).
weight(0, 6).
weight(1, 6).
weight(2, 2).
weight(3, 5).
weight(4, 1).
weight(5, 5).
weight(6, 7).
weight(7, 2).
weight(8, 2).
weight(9, 1).
weight(10, 3).
weight(11, 5).
weight(12, 5).
weight(13, 4).
weight(14, 2).
weight(15, 5).
weight(16, 4).
weight(17, 7).
weight(18, 5).
weight(19, 5).
weight(20, 8).
weight(21, 1).
weight(22, 3).
weight(23, 1).
weight(24, 6).
weight(25, 4).
weight(26, 1).
weight(27, 7).
weight(28, 8).
weight(29, 8).
weight(30, 8).
weight(31, 4).
weight(32, 1).
weight(33, 4).
weight(34, 3).
weight(35, 7).
weight(36, 6).
weight(37, 8).
weight(38, 5).
weight(39, 1).
weight(40, 5).
weight(41, 1).
weight(42, 7).
weight(43, 1).
weight(44, 7).
weight(45, 1).
weight(46, 1).
weight(47, 3).
weight(48, 6).
weight(49, 8).
weight(50, 6).
weight(51, 7).
weight(52, 4).
weight(53, 8).
weight(54, 2).
weight(55, 2).
weight(56, 7).
weight(57, 7).
weight(58, 6).
weight(59, 6).
weight(60, 7).
weight(61, 2).
weight(62, 6).
weight(63, 4).
weight(64, 5).
weight(65, 7).
weight(66, 6).
weight(67, 6).
weight(68, 3).
weight(69, 4).
weight(70, 1).
weight(71, 4).
weight(72, 4).
weight(73, 3).
weight(74, 7).
weight(75, 8).
weight(76, 1).
weight(77, 2).
weight(78, 2).
weight(79, 5).
weight(80, 7).
weight(81, 1).
weight(82, 5).
weight(83, 5).
weight(84, 6).
weight(85, 8).
weight(86, 1).
weight(87, 8).
weight(88, 5).
weight(89, 4).
weight(90, 4).
weight(91, 7).
weight(92, 3).
weight(93, 6).
weight(94, 8).
weight(95, 3).
weight(96, 5).
weight(97, 6).
weight(98, 6).
weight(99, 6).
weight(100, 6).
weight(101, 3).
weight(102, 6).
weight(103, 8).
weight(104, 7).
weight(105, 6).
weight(106, 8).
weight(107, 3).
weight(108, 5).
weight(109, 2).
weight(110, 5).
weight(111, 8).
weight(112, 5).
weight(113, 5).
weight(114, 7).
weight(115, 5).
weight(116, 2).
weight(117, 2).
weight(118, 7).
weight(119, 2).
weight(120, 7).
weight(121, 8).
weight(122, 3).
weight(123, 5).
weight(124, 5).
weight(125, 5).
weight(126, 8).
weight(127, 1).
weight(128, 3).
weight(129, 5).
weight(130, 2).
weight(131, 3).
weight(132, 2).
weight(133, 2).
weight(134, 5).
weight(135, 4).
bound(72).

adj(U,V) :- edge(U,V).
adj(U,V) :- edge(V,U).
{in(V)} :- node(V).
dominated(V) :- in(V).
dominated(V) :- in(U), adj(U,V).
:- node(V), not dominated(V).
:- bound(B), #sum{W,V : in(V), weight(V,W)} > B.
:~ in(V), weight(V,W). [W@1,V]
