node(0..136).
edge(78, 82).
edge(79, 134).
edge(7, 125).
edge(54, 77).
edge(34, 42).
edge(76, 109).
edge(94, 124).
edge(5, 46).
edge(10, 120).
edge(32, 131).
edge(7, 92).
edge(24, 111).
edge(37, 97).
edge(56, 84).
edge(124, 128).
edge(100, 111).
edge(18, 29).
edge(61, 90).
edge(45, 59).
edge(25, 62).
edge(58, 106).
edge(53, 92).
edge(6, 97).
edge(15, 85).
edge(30, 46).
edge(90, 131).
edge(53, 135).
edge(77, 108).
edge(40, 67).
edge(19, 129).
edge(33, 90).
edge(82, 116).
edge(79, 85).
edge(13, 38).
edge(77, 110).
edge(49, 55).
edge(14, 58).
edge(23, 39).
edge(55, 81).
edge(8, 39).
edge(3, 134).
edge(59, 83).
edge(85, 136).
edge(3, 27).
edge(36, 112).
edge(109, 124).
edge(77, 94).
edge(24, 136).
edge(67, 73).
edge(28, 99).
edge(9, 118).
edge(36, 38).
edge(132, 134).
edge(61, 85).
edge(91, 123).
edge(87, 94).
edge(14, 126).
edge(18, 57).
edge(22, 73).
edge(38, 89).
edge(56, 86).
edge(46, 80).
edge(20, 124).
edge(62, 84).
edge(41, 108).
edge(70, 89).
edge(55, 106).
edge(51, 94).
edge(42, 105).
edge(31, 74).
edge(2, 118).
edge(48, 122).
edge(14, 16).
edge(35, 100).
edge(59, 76).
edge(89, 126).
edge(0, 64).
edge(61, 63).
edge(129, 133).
edge(73, 86).
edge(54, 101).
edge(72, 118).
edge(14, 131).
edge(4, 52).
edge(28, 134).
edge(47, 49).
edge(62, 127).
edge(38, 54).
edge(125, 132).
edge(35, 124).
edge(1, 93).
edge(33, 82).
edge(23, 24).
edge(37, 108).
edge(22, 127).
edge(94, 132).
edge(126, 127).
edge(59, 71).
edge(75, 94).
edge(78, 129).
edge(12, 15).
edge(36, 95).
edge(11, 109).
edge(42, 124).
edge(34, 102).
edge(11, 77).
edge(76, 110).
edge(53, 82).
edge(45, 96).
edge(33, 94).
edge(26, 53).
edge(66, 109).
edge(31, 133).
edge(63, 85).
edge(1, 101).
edge(7, 55).
edge(7, 25).
edge(72, 134).
edge(49, 84).
edge(1, 76).
edge(56, 70).
edge(69, 100).
edge(54, 103).
edge(107, 122).
edge(19, 91).
edge(111, 120).
edge(73, 94).
edge(80, 90).
edge(19, 81).
edge(0, 121).
edge(89, 98).
edge(26, 113).
edge(0, 106).
edge(16, 136).
edge(25, 102).
edge(86, 127).
edge(46, 136).
edge(27, 35).
edge(90, 95).
edge(73, 84).
edge(4, 50).
edge(2, 15).
edge(73, 125).
edge(7, 111).
edge(21, 88).
edge(55, 73).
edge(60, 78).
edge(3, 91).
edge(2, 128).
edge(45, 104).
edge(74, 121).
edge(24, 76).
edge(38, 118).
edge(114, 126).
edge(65, 80).
edge(97, 129).
edge(59, 69).
edge(88, 122).
edge(28, 80).
edge(43, 45).
edge(32, 62).
edge(31, 80).
edge(8, 36).
edge(70, 83).
edge(68, 121).
edge(46, 93).
edge(9, 76).
edge(117, 134).
edge(30, 103).
edge(9, 89).
edge(81, 93).
edge(34, 126).
edge(52, 103).
edge(1, 61).
edge(0, 25).
edge(119, 131).
edge(3, 109).
edge(79, 129).
edge(4, 129).
edge(22, 63).
edge(49, 122).
edge(18, 98).
edge(6, 15).
edge(31, 63).
edge(29, 50).
edge(27, 129).
edge(52, 110).
edge(13, 16).
edge(20, 63).
edge(121, 127).
edge(2, 80).
edge(17, 46).
edge(66, 84).
edge(37, 99).
edge(11, 87).
edge(50, 125).
edge(19, 95).
edge(20, 134).
edge(9, 70).
edge(28, 74).
edge(34, 75).
edge(83, 101).
edge(107, 117).
edge(2, 34).
edge(42, 93).
edge(60, 129).
edge(5, 113).
edge(17, 66).
edge(50, 113).
edge(97, 109).
edge(32, 134).
edge(42, 67).
edge(67, 86).
edge(58, 90).
edge(58, 129).
edge(63, 130).
edge(86, 121).
edge(109, 136).
edge(49, 77).
edge(17, 53).
edge(12, 96).
edge(57, 93).
edge(17, 23).
edge(90, 96).
edge(22, 119).
edge(26, 125).
edge(0, 66).
edge(2, 81).
edge(79, 93).
edge(50, 62).
edge(31, 114).
edge(26, 79).
edge(43, 52).
edge(103, 135).
edge(70, 76).
edge(3, 64).
edge(31, 68).
edge(98, 122).
edge(30, 66).
edge(26, 100).
edge(5, 20).
edge(124, 133).
edge(52, 62).
edge(43, 59).
edge(50, 112).
edge(12, 29).
edge(94, 133).
edge(4, 72).
edge(111, 129).
edge(33, 67).
edge(34, 96).
edge(59, 70).
edge(48, 64).
edge(105, 128).
edge(6, 62).
edge(61, 70).
edge(107, 112).
edge(64, 92).
edge(71, 109).
edge(1, 33).
edge(51, 135).
edge(76, 100).
edge(82, 98).
edge(42, 121).
edge(27, 63).
edge(84, 122).
edge(17, 45).
edge(64, 98).
edge(38, 108).
edge(50, 124).
edge(33, 132).
edge(72, 75).
edge(103, 114).
edge(78, 120).
edge(2, 4).
edge(43, 122).
edge(34, 101).
edge(31, 124).
edge(101, 104).
edge(7, 101).
edge(38, 129).
edge(70, 84).
edge(72, 132).
edge(19, 107).
edge(13, 74).
edge(92, 93).
edge(81, 120).
edge(106, 120).
edge(0, 34).
edge(1, 24).
edge(41, 71).
edge(8, 75).
edge(41, 86).
edge(53, 71).
edge(32, 129).
edge(90, 127).
edge(79, 95).
edge(88, 89).
edge(6, 16).
edge(67, 116).
edge(96, 129).
edge(31, 36).
edge(34, 54).
edge(54, 79).
edge(2, 117).
edge(85, 124).
edge(75, 115).
edge(119, 123).
edge(61, 109).
edge(7, 73).
edge(23, 53).
edge(16, 24).
edge(3, 20).
edge(64, 73).
edge(11, 100).
edge(41, 113).
edge(18, 126).
edge(24, 28).
edge(95, 118).
edge(22, 134).
edge(85, 86).
edge(12, 131).
edge(31, 136).
edge(61, 72).
edge(16, 130).
edge(55, 71).
edge(26, 75).
edge(16, 28).
edge(60, 109).
edge(62, 64).
edge(39, 96).
edge(15, 38).
edge(59, 107).
edge(18, 55).
edge(34, 134).
edge(74, 105).
edge(45, 131).
edge(85, 103).
edge(36, 92).
edge(13, 17).
edge(23, 123).
edge(89, 121).
edge(54, 96).
edge(3, 115).
edge(3, 15).
edge(72, 110).
edge(59, 104).
edge(39, 81).
edge(97, 114).
edge(53, 133).
edge(116, 124).
edge(10, 107).
edge(0, 112).
edge(50, 121).
edge(57, 62).
edge(13, 58).
edge(82, 105).
edge(84, 93).
edge(24, 57).
edge(41, 78).
edge(126, 136).
edge(41, 61).
edge(21, 49).
edge(90, 136).
edge(86, 111).
edge(14, 81).
edge(21, 55).
edge(7, 65).
edge(77, 129).
edge(45, 81).
edge(0, 38).
edge(71, 125).
edge(15, 103).
edge(3, 87).
edge(26, 74).
edge(80, 99).
edge(59, 90).
edge(21, 38).
edge(64, 109).
edge(83, 111).
edge(83, 92).
edge(11, 134).
edge(35, 101).
edge(25, 79).
edge(43, 55).
edge(67, 126).
edge(53, 125).
edge(61, 79).
edge(49, 126).
edge(49, 131).
edge(42, 126).
edge(100, 131).
edge(60, 80).
edge(60, 99).
edge(102, 111).
edge(27, 29).
edge(54, 66).
edge(73, 130).
edge(1, 120).
edge(31, 50).
edge(80, 120).
edge(37, 56).
edge(8, 113).
edge(8, 135).
edge(109, 135).
edge(82, 108).
edge(118, 119).
edge(57, 126).
edge(49, 109).
edge(94, 118).
edge(27, 115).
edge(8, 99).
edge(12, 105).
edge(41, 53).
edge(98, 101).
edge(43, 110).
edge(4, 39).
edge(30, 99).
edge(44, 135).
edge(15, 127).
edge(48, 103).
edge(26, 135).
edge(27, 84).
edge(66, 95).
edge(7, 38).
edge(90, 94).
edge(31, 54).
edge(0, 16).
edge(73, 77).
edge(40, 121).
edge(47, 52).
edge(102, 118).
edge(22, 112).
edge(66, 80).
edge(29, 77).
edge(78, 105).
edge(42, 56).
edge(103, 107).
edge(41, 52).
edge(89, 129).
edge(14, 64).
edge(128, 130).
edge(26, 50).
edge(1, 102).
edge(117, 124).
edge(24, 123).
edge(73, 90).
edge(45, 60).
edge(18, 33).
edge(19, 42).
edge(24, 45).
edge(3, 11).
edge(113, 132).
edge(14, 37).
edge(51, 112).
edge(95, 132).
edge(37, 77).
edge(46, 125).
edge(15, 45).
edge(0, 75).
edge(57, 127).
edge(20, 67).
edge(26, 70).
edge(1, 109).
edge(59, 82).
edge(94, 114).
edge(69, 134).
edge(7, 45).
edge(53, 75).
edge(98, 134).
edge(50, 77).
edge(29, 98).
edge(46, 48).
edge(22, 41).
edge(51, 70).
edge(31, 44).
edge(81, 116).
edge(3, 95).
edge(95, 123).
edge(24, 61).
edge(77, 128).
edge(115, 119).
edge(30, 94).
edge(40, 112).
edge(45, 122).
edge(87, 120).
edge(3, 65).
edge(96, 117).
edge(15, 107).
edge(20, 76).
edge(50, 78).
edge(0, 117).
edge(16, 116).
edge(37, 90).
edge(9, 61).
edge(52, 56).
edge(3, 112).
edge(97, 126).
edge(70, 131).
edge(20, 32).
edge(79, 113).
edge(93, 119).
edge(82, 102).
edge(12, 53).
edge(71, 115).
edge(121, 124).
edge(106, 128).
edge(47, 122).
edge(6, 49).
edge(3, 74).
edge(11, 94).
edge(40, 128).
edge(53, 89).
edge(67, 118).
edge(23, 121).
edge(50, 117).
edge(44, 100).
edge(30, 76).
edge(60, 131).
edge(33, 133).
edge(72, 113).
edge(16, 67).
edge(77, 83).
edge(7, 84).
edge(30, 78).
edge(18, 134).
edge(62, 105).
edge(84, 123).
edge(101, 127).
edge(3, 28).
edge(18, 112).
edge(21, 130).
edge(3, 133).
edge(51, 113).
edge(58, 113).
edge(84, 129).
edge(25, 93).
edge(108, 116).
edge(103, 117).
edge(127, 136).
edge(21, 28).
edge(33, 115).
edge(75, 96).
edge(38, 131).
edge(31, 102).
edge(88, 115).
edge(52, 89).
edge(30, 107).
edge(29, 112).
edge(113, 123).
edge(73, 108).
edge(58, 79).
edge(28, 114).
edge(6, 31).
edge(11, 21).
edge(53, 88).
edge(73, 111).
edge(63, 131).
edge(52, 92).
edge(73, 134).
edge(72, 79).
edge(10, 60).
edge(47, 80).
edge(34, 73).
edge(83, 108).
edge(16, 94).
edge(26, 60).
edge(62, 106).
edge(77, 115).
edge(50, 94).
edge(44, 85).
edge(12, 18).
edge(32, 98).
edge(15, 121).
edge(53, 72).
edge(114, 134).
edge(24, 105).
edge(1, 121).
edge(121, 136).
edge(101, 112).
edge(61, 124).
edge(44, 79).
edge(61, 86).
edge(82, 107).
edge(23, 44).
edge(21, 39).
edge(27, 36).
edge(21, 68).
edge(88, 112).
edge(1, 41).
edge(85, 123).
edge(92, 133).
edge(24, 133).
edge(18, 26).
edge(27, 105).
edge(20, 58).
edge(11, 111).
edge(71, 94).
edge(62, 76).
edge(14, 45).
edge(39, 55).
edge(15, 37).
edge(1, 68).
edge(0, 26).
edge(80, 105).
edge(5, 33).
edge(88, 93).
edge(10, 53).
edge(44, 119).
edge(110, 131).
edge(96, 98).
edge(120, 126).
edge(42, 90).
edge(51, 56).
edge(102, 134).
edge(71, 127).
edge(60, 136).
edge(74, 120).
edge(11, 34).
edge(65, 107).
edge(102, 120).
edge(47, 75).
edge(70, 82).
edge(65, 90).
edge(69, 88).
edge(17, 75).
edge(19, 130).
edge(71, 80).
edge(129, 130).
edge(8, 67).
edge(54, 67).
edge(33, 34).
edge(14, 103).
edge(59, 91).
edge(76, 106).
edge(119, 127).
edge(57, 104).
edge(44, 107).
edge(84, 103).
edge(5, 58).
edge(93, 124).
edge(74, 107).
edge(30, 128).
edge(99, 120).
edge(44, 72).
edge(61, 74).
edge(6, 95).
edge(18, 125).
edge(18, 45).
edge(9, 64).
edge(113, 119).
edge(32, 41).
edge(59, 87).
edge(27, 57).
edge(33, 45).
edge(67, 113).
edge(90, 128).
edge(97, 123).
edge(47, 135).
edge(56, 62).
edge(4, 53).
edge(33, 57).
edge(60, 89).
edge(59, 97).
edge(8, 133).
edge(23, 97).
edge(70, 112).
edge(59, 130).
edge(11, 128).
edge(10, 84).
edge(128, 129).
edge(5, 49).
edge(31, 42).
edge(113, 127).
edge(109, 126).
edge(65, 87).
edge(99, 100).
edge(75, 129).
edge(17, 64).
edge(60, 98).
edge(6, 47).
edge(26, 116).
edge(54, 136).
edge(49, 106).
edge(13, 106).
edge(14, 30).
edge(89, 133).
edge(82, 125).
edge(23, 78).
edge(68, 93).
edge(14, 22).
edge(92, 102).
edge(112, 128).
edge(26, 39).
edge(11, 65).
edge(95, 135).
edge(46, 84).
edge(23, 28).
edge(4, 65).
edge(109, 118).
edge(12, 52).
edge(51, 59).
edge(92, 111).
edge(36, 123).
edge(85, 122).
edge(62, 136).
edge(19, 80).
edge(61, 62).
edge(43, 91).
edge(48, 135).
edge(43, 93).
edge(22, 126).
edge(14, 67).
edge(0, 129).
edge(26, 126).
edge(0, 89).
edge(99, 113).
edge(27, 95).
edge(17, 30).
edge(2, 38).
edge(0, 17).
edge(64, 108).
edge(37, 80).
edge(9, 119).
edge(110, 127).
edge(35, 45).
edge(0, 22).
edge(60, 125).
edge(109, 110).
edge(98, 131).
edge(88, 114).
edge(58, 72).
edge(57, 71).
edge(76, 99).
edge(14, 118).
edge(17, 87).
edge(48, 79).
edge(53, 100).
edge(33, 62).
edge(94, 127).
edge(8, 95).
edge(41, 83).
edge(51, 111).
edge(23, 68).
edge(69, 121).
edge(20, 74).
edge(61, 104).
edge(36, 78).
edge(31, 109).
edge(0, 132).
edge(83, 110).
edge(59, 112).
edge(68, 69).
edge(24, 94).
edge(32, 37).
edge(25, 123).
edge(66, 118).
edge(79, 96).
edge(40, 89).
edge(91, 118).
edge(25, 37).
edge(81, 108).
edge(48, 56).
edge(2, 67).
edge(15, 84).
edge(26, 52).
edge(2, 121).
edge(22, 27).
edge(45, 102).
edge(44, 117).
edge(89, 97).
edge(13, 89).
edge(15, 54).
edge(91, 133).
edge(46, 121).
edge(6, 58).
edge(50, 129).
edge(102, 126).
edge(49, 51).
edge(28, 112).
edge(103, 121).
edge(58, 133).
edge(126, 129).
edge(57, 65).
edge(7, 128).
edge(25, 47).
edge(108, 127).
edge(81, 132).
edge(45, 120).
edge(30, 116).
edge(18, 122).
edge(1, 50).
edge(32, 71).
edge(16, 49).
edge(73, 131).
edge(51, 66).
edge(6, 21).
edge(76, 85).
edge(124, 125).
edge(36, 45).
edge(28, 108).
edge(60, 111).
edge(17, 27).
edge(110, 114).
edge(45, 134).
edge(64, 118).
edge(31, 60).
edge(9, 117).
edge(66, 132).
edge(8, 46).
edge(106, 134).
edge(0, 54).
edge(10, 64).
edge(28, 89).
edge(40, 81).
edge(99, 103).
edge(19, 27).
edge(133, 136).
edge(76, 133).
edge(44, 62).
edge(29, 104).
edge(13, 111).
edge(50, 58).
edge(5, 34).
edge(16, 42).
edge(23, 86).
edge(24, 134).
edge(2, 89).
edge(72, 94).
edge(100, 119).
edge(6, 76).
edge(39, 88).
edge(3, 53).
edge(8, 35).
edge(103, 123).
edge(39, 95).
edge(48, 72).
edge(6, 19).
edge(14, 72).
edge(6, 36).
edge(98, 107).
edge(7, 109).
edge(78, 126).
edge(61, 115).
edge(56, 104).
edge(72, 112).
edge(77, 91).
edge(112, 124).
edge(75, 79).
edge(31, 135).
edge(56, 112).
edge(54, 114).
edge(12, 56).
edge(100, 120).
edge(43, 121).
edge(96, 106).
edge(22, 99).
edge(111, 131).
edge(47, 99).
edge(24, 116).
edge(47, 128).
edge(64, 103).
edge(49, 93).
edge(4, 64).
edge(39, 113).
edge(86, 100).
edge(3, 46).
edge(1, 55).
edge(99, 101).
edge(38, 79).
edge(0, 1).
edge(55, 119).
edge(26, 51).
edge(76, 77).
edge(53, 61).
edge(70, 94).
edge(41, 50).
edge(19, 88).
edge(48, 78).
edge(101, 102).
edge(21, 23).
edge(39, 65).
edge(78, 123).
edge(27, 112).
edge(2, 39).
edge(51, 136).
edge(59, 129).
edge(102, 129).
edge(10, 37).
edge(8, 57).
edge(88, 128).
edge(7, 105).
edge(14, 21).
edge(60, 63).
edge(112, 115).
edge(31, 129).
edge(4, 66).
edge(32, 82).
edge(57, 83).
edge(79, 104).
edge(6, 117).
edge(52, 125).
edge(90, 129).
edge(6, 110).
edge(11, 69).
edge(104, 125).
edge(9, 43).
edge(9, 18).
edge(67, 112).
edge(2, 106).
edge(11, 114).
edge(43, 49).
edge(5, 127).
edge(62, 122).
edge(78, 122).
edge(36, 58).
edge(45, 56).
edge(52, 120).
edge(55, 78).
edge(7, 19).
edge(6, 30).
edge(76, 98).
edge(16, 120).
edge(117, 118).
edge(0, 110).
edge(25, 72).
edge(19, 69).
edge(27, 87).
edge(89, 105).
edge(0, 134).
edge(14, 44).
edge(19, 32).
edge(52, 102).
edge(46, 104).
edge(85, 94).
edge(48, 115).
edge(93, 101).
edge(106, 123).
edge(27, 72).
edge(13, 19).
edge(1, 7).
edge(1, 13).
edge(95, 128).
edge(87, 124).
edge(86, 133).
edge(0, 42).
edge(22, 121).
edge(44, 114).
edge(44, 108).
edge(42, 117).
edge(24, 80).
edge(99, 128).
edge(30, 59).
edge(39, 135).
edge(84, 125).
edge(3, 58).
edge(71, 104).
edge(118, 125).
edge(54, 119).
edge(12, 19).
edge(49, 69).
edge(39, 44).
edge(18, 130).
edge(96, 135).
edge(10, 110).
edge(38, 83).
edge(93, 94).
edge(16, 99).
edge(17, 77).
edge(64, 89).
edge(22, 76).
edge(69, 127).
edge(48, 101).
edge(67, 110).
edge(71, 86).
edge(23, 82).
edge(42, 71).
edge(10, 11).
edge(71, 105).
edge(16, 35).
edge(65, 68).
edge(84, 110).
edge(80, 123).
edge(38, 122).
edge(22, 100).
edge(29, 52).
edge(41, 100).
edge(19, 48).
edge(77, 103).
edge(72, 104).
edge(23, 100).
edge(129, 132).
edge(32, 107).
edge(32, 43).
edge(2, 44).
edge(72, 83).
edge(109, 134).
edge(42, 107).
edge(30, 86).
edge(74, 114).
edge(24, 118).
edge(26, 99).
edge(93, 121).
edge(42, 136).
edge(38, 98).
edge(66, 78).
edge(19, 38).
edge(35, 50).
edge(17, 34).
edge(68, 114).
edge(15, 112).
edge(10, 50).
edge(24, 52).
edge(93, 136).
edge(35, 92).
edge(38, 71).
edge(43, 50).
edge(9, 34).
edge(47, 136).
edge(116, 128).
edge(12, 102).
edge(49, 56).
edge(11, 43).
edge(116, 136).
edge(115, 117).
edge(84, 106).
edge(21, 67).
edge(58, 134).
edge(40, 136).
edge(4, 69).
edge(96, 133).
edge(33, 46).
edge(51, 86).
edge(62, 119).
edge(118, 130).
edge(11, 48).
edge(43, 106).
edge(13, 86).
edge(43, 88).
edge(9, 128).
edge(42, 113).
edge(8, 51).
edge(6, 29).
edge(79, 88).
edge(27, 51).
edge(119, 134).
edge(35, 67).
edge(21, 87).
edge(81, 124).
edge(60, 127).
edge(20, 64).
edge(83, 105).
edge(51, 100).
edge(7, 56).
edge(20, 43).
edge(32, 95).
edge(3, 25).
edge(24, 121).
edge(4, 105).
edge(69, 71).
edge(36, 61).
edge(20, 33).
edge(53, 74).
edge(67, 104).
edge(12, 37).
edge(32, 108).
edge(132, 136).
edge(35, 41).
edge(80, 127).
edge(2, 104).
edge(36, 73).
edge(31, 64).
edge(9, 39).
edge(75, 91).
edge(5, 50).
edge(43, 47).
edge(89, 93).
edge(58, 116).
edge(53, 98).
edge(58, 132).
edge(71, 72).
edge(8, 134).
edge(40, 84).
edge(11, 84).
edge(68, 107).
edge(57, 58).
edge(56, 60).
edge(95, 103).
edge(66, 121).
edge(92, 103).
edge(98, 117).
edge(16, 45).
edge(58, 99).
edge(112, 135).
edge(7, 104).
edge(53, 79).
edge(50, 59).
edge(21, 136).
edge(98, 102).
edge(12, 128).
edge(47, 67).
edge(56, 80).
edge(94, 119).
edge(7, 121).
edge(123, 133).
edge(86, 122).
edge(1, 66).
edge(123, 126).
edge(81, 133).
edge(78, 93).
edge(10, 129).
edge(111, 118).
edge(49, 89).
edge(51, 75).
edge(66, 104).
edge(91, 93).
edge(3, 98).
edge(77, 121).
edge(9, 132).
edge(44, 63).
edge(24, 31).
edge(23, 132).
edge(24, 99).
edge(54, 97).
edge(6, 55).
edge(30, 53).
edge(84, 114).
edge(89, 134).
edge(12, 41).
edge(20, 88).
edge(112, 121).
edge(8, 82).
edge(27, 48).
edge(63, 101).
edge(56, 75).
edge(43, 111).
edge(34, 107).
edge(67, 97).
edge(70, 90).
edge(45, 49).
edge(28, 100).
edge(16, 19).
edge(10, 125).
edge(81, 101).
edge(83, 117).
edge(1, 123).
edge(12, 83).
edge(11, 133).
edge(100, 132).
edge(72, 92).
edge(80, 119).
edge(72, 87).
edge(22, 44).
edge(114, 121).
edge(27, 117).
edge(24, 46).
edge(6, 69).
edge(1, 133).
edge(82, 129).
edge(15, 80).
edge(53, 136).
edge(64, 136).
edge(67, 127).
edge(36, 85).
edge(101, 113).
edge(54, 118).
edge(63, 102).
edge(21, 54).
edge(11, 55).
edge(68, 118).
edge(13, 67).
edge(124, 129).
edge(46, 62).
edge(49, 83).
edge(27, 97).
edge(74, 94).
edge(10, 74).
edge(39, 86).
edge(2, 12).
edge(113, 131).
edge(40, 106).
edge(14, 127).
edge(50, 89).
edge(35, 81).
edge(52, 100).
edge(106, 122).
edge(2, 24).
edge(93, 100).
edge(27, 114).
edge(37, 81).
edge(46, 74).
edge(44, 71).
edge(41, 109).
edge(40, 66).
edge(76, 95).
edge(25, 52).
edge(51, 92).
edge(12, 54).
edge(73, 110).
edge(56, 127).
edge(30, 124).
edge(82, 121).
edge(68, 125).
edge(13, 109).
edge(113, 121).
edge(104, 107).
edge(83, 88).
edge(46, 60).
edge(87, 96).
edge(97, 136).
edge(87, 129).
edge(81, 104).
edge(24, 85).
edge(13, 125).
edge(28, 116).
edge(70, 98).
edge(101, 109).
edge(2, 50).
edge(4, 23).
edge(0, 120).
edge(0, 23).
edge(26, 30).
edge(79, 97).
edge(31, 37).
edge(47, 124).
edge(27, 50).
edge(13, 110).
edge(88, 111).
edge(49, 133).
edge(74, 104).
edge(28, 106).
edge(25, 105).
edge(3, 16).
edge(12, 101).
edge(20, 40).
edge(15, 98).
edge(91, 105).
edge(58, 61).
edge(67, 128).
edge(40, 51).
edge(10, 116).
edge(64, 72).
edge(11, 31).
edge(108, 132).
edge(32, 50).
edge(84, 118).
edge(58, 105).
edge(104, 132).
edge(122, 123).
edge(37, 76).
edge(63, 70).
edge(20, 118).
edge(44, 128).
edge(94, 117).
edge(12, 104).
edge(32, 87).
edge(92, 114).
edge(54, 87).
edge(64, 100).
edge(26, 131).
edge(116, 130).
edge(47, 125).
edge(3, 8).
edge(65, 134).
edge(23, 42).
edge(64, 79).
edge(2, 75).
edge(92, 99).
edge(67, 125).
edge(97, 121).
edge(1, 65).
edge(95, 96).
edge(116, 129).
edge(130, 131).
edge(61, 121).
edge(16, 95).
edge(88, 118).
edge(27, 79).
edge(12, 57).
edge(21, 29).
edge(7, 81).
edge(10, 91).
edge(65, 120).
edge(10, 111).
edge(21, 109).
edge(18, 95).
edge(20, 115).
edge(2, 45).
edge(54, 93).
edge(59, 77).
edge(26, 80).
edge(104, 128).
edge(0, 28).
edge(11, 18).
edge(16, 122).
edge(26, 72).
edge(2, 66).
edge(49, 75).
edge(17, 57).
edge(31, 90).
edge(0, 2).
edge(110, 132).
edge(77, 104).
edge(73, 128).
edge(81, 117).
edge(62, 134).
edge(15, 83).
edge(51, 60).
edge(54, 69).
edge(59, 64).
edge(19, 73).
edge(20, 92).
edge(28, 127).
edge(50, 105).
edge(32, 83).
edge(76, 94).
edge(115, 130).
edge(13, 75).
edge(14, 133).
edge(8, 115).
edge(16, 79).
edge(95, 112).
edge(89, 123).
edge(77, 124).
edge(103, 105).
edge(75, 132).
edge(41, 73).
edge(2, 27).
edge(100, 128).
edge(68, 82).
edge(6, 101).
edge(114, 122).
edge(4, 20).
edge(14, 39).
edge(26, 84).
edge(33, 86).
edge(52, 82).
edge(2, 136).
edge(14, 120).
edge(46, 115).
edge(27, 46).
edge(14, 17).
edge(27, 113).
edge(34, 133).
edge(25, 92).
edge(87, 112).
edge(45, 101).
edge(20, 54).
edge(66, 93).
edge(17, 128).
edge(48, 57).
edge(7, 35).
edge(76, 83).
edge(47, 116).
edge(76, 124).
edge(53, 108).
edge(20, 57).
edge(11, 30).
edge(116, 135).
edge(3, 127).
edge(17, 40).
edge(23, 35).
edge(35, 43).
edge(16, 117).
edge(45, 88).
edge(12, 69).
edge(12, 116).
edge(7, 68).
edge(40, 99).
edge(33, 104).
edge(23, 73).
edge(2, 96).
edge(73, 122).
edge(70, 116).
edge(21, 77).
edge(44, 48).
edge(35, 75).
edge(51, 55).
edge(52, 85).
edge(13, 62).
edge(2, 108).
edge(19, 87).
edge(0, 124).
edge(5, 57).
edge(122, 126).
edge(80, 93).
edge(37, 117).
edge(40, 94).
edge(27, 108).
edge(80, 92).
edge(0, 90).
edge(33, 64).
edge(16, 48).
edge(35, 74).
edge(28, 48).
edge(33, 93).
edge(4, 48).
edge(14, 19).
edge(14, 111).
edge(71, 78).
edge(37, 101).
edge(78, 118).
edge(57, 115).
edge(19, 40).
edge(8, 112).
edge(36, 115).
edge(60, 107).
edge(65, 116).
edge(8, 69).
edge(6, 35).
edge(2, 90).
edge(56, 113).
edge(73, 75).
edge(107, 114).
edge(3, 103).
edge(73, 100).
edge(9, 49).
edge(66, 115).
edge(10, 135).
edge(81, 131).
edge(17, 100).
edge(10, 69).
edge(49, 104).
edge(115, 118).
edge(5, 30).
edge(39, 101).
edge(17, 61).
edge(45, 67).
edge(4, 49).
edge(24, 122).
edge(68, 84).
edge(8, 62).
edge(12, 59).
edge(75, 122).
edge(15, 65).
edge(85, 128).
edge(23, 63).
edge(38, 87).
edge(65, 100).
edge(23, 110).
edge(118, 127).
edge(31, 115).
edge(23, 54).
edge(38, 128).
edge(33, 107).
edge(24, 33).
edge(74, 76).
edge(17, 89).
edge(50, 63).
edge(67, 99).
edge(41, 120).
edge(107, 128).
edge(81, 125).
edge(12, 46).
edge(100, 113).
edge(6, 12).
edge(25, 49).
edge(125, 126).
edge(43, 86).
edge(36, 81).
edge(61, 118).
edge(46, 127).
edge(0, 111).
edge(40, 50).
edge(27, 118).
edge(12, 70).
edge(31, 69).
edge(51, 69).
edge(94, 121).
edge(68, 75).
edge(66, 125).
edge(91, 135).
edge(31, 53).
edge(33, 36).
edge(93, 128).
edge(43, 83).
edge(64, 90).
edge(33, 87).
edge(47, 107).
edge(12, 120).
edge(68, 104).
edge(86, 97).
edge(33, 41).
edge(68, 85).
edge(1, 88).
edge(32, 94).
edge(47, 48).
edge(40, 95).
edge(119, 126).
edge(18, 66).
edge(28, 118).
edge(34, 86).
edge(20, 136).
edge(20, 119).
edge(66, 91).
edge(73, 74).
edge(30, 57).
edge(47, 100).
edge(96, 107).
edge(98, 136).
edge(53, 66).
edge(43, 77).
edge(3, 54).
edge(69, 116).
edge(16, 82).
edge(27, 68).
edge(38, 94).
edge(57, 103).
edge(33, 100).
edge(84, 95).
edge(7, 52).
edge(13, 103).
edge(0, 101).
edge(22, 39).
edge(34, 100).
edge(30, 119).
edge(32, 119).
edge(2, 103).
edge(27, 65).
edge(81, 105).
edge(26, 94).
edge(9, 31).
edge(20, 71).
edge(51, 79).
edge(20, 100).
edge(17, 106).
edge(29, 31).
edge(23, 49).
edge(11, 110).
edge(61, 106).
edge(57, 92).
edge(11, 129).
edge(16, 87).
edge(4, 135).
edge(48, 51).
edge(15, 97).
edge(34, 36).
edge(16, 86).
edge(65, 101).
edge(62, 88).
edge(75, 136).
edge(1, 89).
edge(3, 10).
edge(16, 63).
edge(12, 22).
edge(69, 122).
edge(90, 121).
edge(38, 119).
edge(13, 24).
edge(58, 67).
edge(1, 124).
edge(22, 114).
edge(20, 112).
edge(118, 121).
edge(66, 103).
edge(16, 134).
edge(98, 132).
edge(32, 76).
edge(83, 97).
edge(81, 109).
edge(59, 98).
edge(71, 103).
edge(20, 51).
edge(38, 59).
edge(47, 103).
edge(51, 124).
edge(42, 110).
edge(20, 28).
edge(6, 54).
edge(3, 4).
edge(30, 62).
edge(92, 119).
edge(1, 132).
edge(18, 79).
edge(51, 101).
edge(18, 132).
edge(65, 92).
edge(49, 129).
edge(19, 94).
edge(73, 93).
edge(71, 131).
edge(21, 107).
edge(34, 48).
edge(88, 106).
edge(126, 128).
edge(30, 102).
edge(108, 109).
edge(54, 111).
edge(18, 86).
edge(25, 75).
edge(79, 83).
edge(67, 94).
edge(125, 129).
edge(55, 80).
edge(33, 126).
edge(24, 39).
edge(86, 114).
edge(54, 131).
edge(97, 130).
edge(113, 118).
edge(70, 95).
edge(18, 19).
edge(68, 113).
edge(86, 108).
edge(12, 28).
edge(40, 131).
edge(18, 128).
edge(6, 71).
edge(6, 77).
edge(43, 94).
edge(2, 88).
edge(35, 119).
edge(52, 59).
edge(29, 83).
edge(30, 106).
edge(52, 99).
edge(36, 64).
edge(4, 8).
edge(89, 114).
edge(41, 105).
edge(18, 70).
edge(9, 12).
edge(45, 75).
edge(74, 98).
edge(77, 114).
edge(54, 82).
edge(58, 84).
edge(36, 113).
edge(39, 73).
edge(61, 66).
edge(75, 80).
edge(13, 36).
edge(24, 74).
edge(49, 136).
edge(32, 90).
edge(8, 29).
edge(10, 34).
edge(8, 92).
edge(63, 69).
edge(53, 121).
edge(19, 60).
edge(99, 105).
edge(22, 130).
edge(91, 98).
edge(6, 56).
edge(107, 132).
edge(95, 107).
edge(90, 99).
edge(42, 94).
edge(38, 102).
edge(6, 94).
edge(24, 49).
edge(33, 71).
edge(19, 74).
edge(27, 56).
edge(85, 113).
edge(45, 55).
edge(55, 130).
edge(14, 60).
edge(24, 107).
edge(69, 128).
edge(64, 84).
edge(25, 54).
edge(46, 83).
edge(31, 123).
edge(15, 91).
edge(68, 71).
edge(98, 118).
edge(25, 106).
edge(10, 17).
edge(80, 118).
edge(48, 134).
edge(63, 93).
edge(48, 91).
edge(65, 115).
edge(6, 114).
edge(6, 127).
edge(59, 136).
edge(11, 20).
edge(61, 101).
edge(18, 102).
edge(29, 51).
edge(44, 51).
edge(84, 117).
edge(19, 66).
edge(31, 112).
edge(24, 114).
edge(79, 90).
edge(7, 96).
edge(71, 75).
edge(91, 127).
edge(28, 60).
edge(71, 110).
edge(25, 101).
edge(52, 78).
edge(0, 51).
edge(32, 34).
edge(46, 124).
edge(21, 104).
edge(19, 34).
edge(20, 130).
edge(22, 36).
edge(79, 114).
edge(34, 108).
edge(62, 104).
edge(12, 132).
edge(21, 121).
edge(25, 111).
edge(26, 106).
edge(41, 123).
edge(15, 115).
edge(76, 80).
edge(86, 130).
edge(70, 80).
edge(108, 133).
edge(40, 76).
edge(59, 75).
edge(123, 130).
edge(36, 100).
edge(74, 122).
edge(77, 127).
edge(68, 115).
edge(19, 109).
edge(40, 41).
edge(34, 45).
edge(1, 82).
edge(15, 24).
edge(43, 131).
edge(56, 85).
edge(55, 118).
edge(78, 110).
edge(15, 105).
edge(15, 79).
edge(1, 23).
edge(72, 95).
edge(62, 135).
edge(16, 57).
edge(58, 75).
edge(91, 115).
edge(80, 84).
edge(57, 113).
edge(11, 32).
edge(89, 106).
edge(33, 92).
edge(38, 126).
edge(29, 66).
edge(59, 131).
edge(28, 39).
edge(10, 30).
edge(2, 71).
edge(14, 25).
edge(43, 115).
edge(11, 89).
edge(2, 133).
edge(23, 47).
edge(21, 66).
edge(50, 81).
edge(28, 32).
edge(63, 78).
edge(92, 106).
edge(84, 92).
edge(99, 130).
edge(107, 133).
edge(62, 75).
edge(13, 61).
edge(48, 83).
edge(18, 27).
edge(75, 92).
edge(69, 125).
edge(30, 63).
edge(40, 125).
edge(12, 67).
edge(34, 94).
edge(62, 130).
edge(16, 23).
edge(15, 46).
edge(8, 106).
edge(77, 118).
edge(82, 99).
edge(14, 123).
edge(53, 78).
edge(64, 65).
edge(39, 93).
edge(10, 87).
edge(25, 96).
edge(13, 104).
edge(30, 84).
edge(22, 86).
edge(56, 59).
edge(16, 39).
edge(72, 126).
edge(54, 104).
edge(54, 135).
edge(18, 87).
edge(9, 131).
edge(44, 99).
edge(56, 98).
edge(13, 84).
edge(7, 47).
edge(82, 91).
edge(5, 37).
edge(19, 128).
edge(111, 122).
edge(74, 84).
edge(75, 84).
edge(30, 90).
edge(60, 130).
edge(14, 110).
edge(48, 55).
edge(7, 12).
edge(5, 17).
edge(88, 109).
edge(8, 70).
edge(55, 114).
edge(69, 136).
edge(22, 109).
edge(14, 94).
edge(2, 32).
edge(35, 70).
edge(1, 100).
edge(7, 133).
edge(48, 73).
edge(56, 91).
edge(8, 64).
edge(9, 22).
edge(15, 131).
edge(39, 97).
edge(69, 83).
edge(21, 45).
edge(20, 82).
edge(55, 62).
edge(22, 117).
edge(21, 35).
edge(20, 59).
edge(126, 131).
edge(9, 107).
edge(43, 102).
edge(45, 125).
edge(20, 116).
edge(109, 125).
edge(78, 94).
edge(58, 111).
edge(84, 113).
edge(98, 112).
edge(48, 109).
edge(51, 85).
edge(32, 78).
edge(55, 117).
edge(29, 102).
edge(36, 67).
edge(11, 42).
edge(3, 67).
edge(49, 100).
edge(34, 123).
edge(79, 131).
edge(37, 107).
edge(34, 103).
edge(60, 97).
edge(5, 26).
edge(87, 100).
edge(22, 128).
edge(29, 76).
edge(122, 136).
edge(80, 96).
edge(14, 74).
edge(17, 67).
edge(52, 79).
edge(37, 72).
edge(19, 25).
edge(80, 87).
edge(62, 100).
edge(28, 30).
edge(70, 87).
edge(52, 60).
edge(87, 134).
edge(29, 46).
edge(32, 40).
edge(68, 126).
edge(23, 61).
edge(13, 49).
edge(9, 56).
edge(50, 119).
edge(50, 71).
edge(89, 100).
edge(89, 96).
edge(41, 94).
edge(42, 119).
edge(69, 78).
edge(3, 116).
edge(72, 78).
edge(5, 32).
edge(89, 104).
edge(8, 48).
edge(97, 110).
edge(18, 127).
edge(35, 114).
edge(51, 71).
edge(90, 110).
edge(17, 72).
edge(38, 70).
edge(15, 96).
edge(85, 135).
edge(48, 99).
edge(59, 94).
edge(74, 95).
edge(13, 116).
edge(96, 127).
edge(107, 118).
edge(59, 125).
edge(92, 134).
edge(70, 101).
edge(111, 114).
edge(28, 93).
edge(28, 33).
edge(34, 53).
edge(99, 125).
edge(15, 89).
edge(57, 98).
edge(54, 76).
edge(34, 62).
edge(41, 43).
edge(49, 88).
edge(50, 65).
edge(57, 100).
edge(38, 127).
edge(62, 73).
edge(87, 127).
edge(16, 100).
edge(118, 122).
edge(13, 50).
edge(81, 83).
edge(103, 133).
edge(45, 110).
edge(65, 67).
edge(27, 101).
edge(61, 84).
edge(54, 110).
edge(93, 95).
edge(44, 109).
edge(22, 62).
edge(59, 113).
edge(35, 94).
edge(87, 92).
edge(55, 91).
edge(68, 79).
edge(39, 130).
edge(12, 111).
edge(22, 123).
edge(78, 134).
edge(76, 87).
edge(79, 82).
edge(42, 118).
edge(7, 107).
edge(19, 104).
edge(48, 62).
edge(40, 126).
edge(9, 124).
edge(60, 128).
edge(30, 40).
edge(17, 36).
edge(18, 96).
edge(48, 68).
edge(63, 73).
edge(10, 43).
edge(21, 37).
edge(69, 102).
edge(9, 92).
edge(7, 116).
edge(2, 35).
edge(2, 93).
edge(82, 128).
edge(87, 118).
edge(33, 51).
edge(7, 10).
edge(8, 130).
edge(16, 60).
edge(76, 131).
edge(33, 48).
edge(56, 103).
edge(50, 131).
edge(29, 53).
edge(47, 98).
edge(5, 77).
edge(108, 115).
edge(1, 95).
edge(33, 131).
edge(7, 33).
edge(64, 96).
edge(40, 47).
edge(27, 132).
edge(88, 110).
edge(10, 127).
edge(21, 85).
edge(15, 23).
edge(56, 74).
edge(36, 121).
edge(29, 55).
edge(43, 125).
edge(76, 86).
edge(47, 95).
edge(64, 127).
edge(49, 90).
edge(70, 127).
edge(97, 120).
edge(1, 52).
edge(20, 68).
edge(71, 101).
edge(74, 99).
edge(48, 98).
edge(31, 51).
edge(80, 91).
edge(36, 126).
edge(56, 87).
edge(30, 50).
edge(2, 130).
edge(94, 108).
edge(114, 133).
edge(27, 67).
edge(68, 127).
edge(70, 114).
edge(17, 70).
edge(74, 83).
edge(13, 83).
edge(30, 123).
edge(25, 117).
edge(95, 122).
edge(3, 69).
edge(37, 61).
edge(1, 20).
edge(17, 19).
edge(83, 106).
edge(99, 123).
edge(24, 78).
edge(74, 87).
edge(59, 108).
edge(87, 117).
edge(63, 109).
edge(60, 135).
edge(62, 89).
edge(105, 116).
edge(30, 31).
edge(35, 38).
edge(96, 124).
edge(70, 110).
edge(59, 96).
edge(43, 81).
edge(12, 60).
edge(41, 64).
edge(8, 100).
edge(65, 119).
edge(32, 59).
edge(90, 105).
edge(33, 109).
edge(74, 127).
edge(1, 83).
edge(26, 38).
edge(88, 117).
edge(10, 124).
edge(9, 77).
edge(45, 100).
edge(5, 64).
edge(55, 75).
edge(79, 80).
edge(1, 12).
edge(21, 112).
edge(41, 75).
edge(13, 101).
edge(2, 113).
edge(1, 56).
edge(19, 75).
edge(74, 123).
edge(109, 128).
edge(45, 86).
edge(10, 66).
edge(44, 89).
edge(53, 132).
edge(68, 134).
edge(28, 40).
edge(4, 104).
edge(69, 98).
edge(70, 129).
edge(39, 98).
weight(0, 2).
weight(1, 4).
weight(2, 8).
weight(3, 3).
weight(4, 2).
weight(5, 1).
weight(6, 2).
weight(7, 5).
weight(8, 1).
weight(9, 7).
weight(10, 5).
weight(11, 1).
weight(12, 1).
weight(13, 5).
weight(14, 2).
weight(15, 1).
weight(16, 7).
weight(17, 7).
weight(18, 1).
weight(19, 6).
weight(20, 2).
weight(21, 7).
weight(22, 3).
weight(23, 8).
weight(24, 1).
weight(25, 3).
weight(26, 6).
weight(27, 2).
weight(28, 2).
weight(29, 3).
weight(30, 5).
weight(31, 6).
weight(32, 3).
weight(33, 2).
weight(34, 8).
weight(35, 3).
weight(36, 8).
weight(37, 6).
weight(38, 3).
weight(39, 5).
weight(40, 8).
weight(41, 8).
weight(42, 4).
weight(43, 2).
weight(44, 4).
weight(45, 4).
weight(46, 1).
weight(47, 1).
weight(48, 5).
weight(49, 7).
weight(50, 3).
weight(51, 1).
weight(52, 3).
weight(53, 3).
weight(54, 4).
weight(55, 3).
weight(56, 2).
weight(57, 7).
weight(58, 4).
weight(59, 4).
weight(60, 3).
weight(61, 3).
weight(62, 2).
weight(63, 1).
weight(64, 1).
weight(65, 1).
weight(66, 3).
weight(67, 2).
weight(68, 8).
weight(69, 7).
weight(70, 6).
weight(71, 2).
weight(72, 7).
weight(73, 4).
weight(74, 5).
weight(75, 4).
weight(76, 2).
weight(77, 8).
weight(78, 4).
weight(79, 7).
weight(80, 1).
weight(81, 2).
weight(82, 4).
weight(83, 4).
weight(84, 4).
weight(85, 2).
weight(86, 3).
weight(87, 5).
weight(88, 3).
weight(89, 6).
weight(90, 3).
weight(91, 8).
weight(92, 6).
weight(93, 4).
weight(94, 2).
weight(95, 3).
weight(96, 1).
weight(97, 4).
weight(98, 2).
weight(99, 1).
weight(100, 5).
weight(101, 4).
weight(102, 5).
weight(103, 2).
weight(104, 2).
weight(105, 2).
weight(106, 3).
weight(107, 8).
weight(108, 7).
weight(109, 3).
weight(110, 5).
weight(111, 1).
weight(112, 6).
weight(113, 3).
weight(114, 2).
weight(115, 6).
weight(116, 4).
weight(117, 5).
weight(118, 5).
weight(119, 1).
weight(120, 7).
weight(121, 8).
weight(122, 7).
weight(123, 6).
weight(124, 5).
weight(125, 7).
weight(126, 5).
weight(127, 2).
weight(128, 4).
weight(129, 6).
weight(130, 5).
weight(131, 2).
weight(132, 3).
weight(133, 3).
weight(134, 8).
weight(135, 8).
weight(136, 8).
bound(64).

adj(U,V) :- edge(U,V).
adj(U,V) :- edge(V,U).
{in(V)} :- node(V).
dominated(V) :- in(V).
dominated(V) :- in(U), adj(U,V).
:- node(V), not dominated(V).
:- bound(B), #sum{W,V : in(V), weight(V,W)} > B.
:~ in(V), weight(V,W). [W@1,V]
