node(0..128).
edge(23, 113).
edge(31, 112).
edge(98, 115).
edge(69, 74).
edge(22, 65).
edge(28, 42).
edge(18, 45).
edge(5, 37).
edge(81, 90).
edge(56, 70).
edge(52, 62).
edge(55, 74).
edge(40, 72).
edge(105, 113).
edge(49, 83).
edge(55, 111).
edge(48, 62).
edge(14, 36).
edge(41, 110).
edge(25, 29).
edge(62, 119).
edge(98, 104).
edge(28, 84).
edge(0, 104).
edge(11, 31).
edge(60, 92).
edge(4, 78).
edge(10, 59).
edge(43, 115).
edge(11, 108).
edge(9, 61).
edge(0, 99).
edge(35, 128).
edge(49, 81).
edge(2, 116).
edge(23, 86).
edge(33, 53).
edge(73, 102).
edge(46, 111).
edge(0, 53).
edge(65, 74).
edge(26, 103).
edge(28, 62).
edge(36, 55).
edge(46, 85).
edge(66, 73).
edge(36, 88).
edge(55, 84).
edge(33, 34).
edge(88, 98).
edge(73, 114).
edge(77, 118).
edge(35, 113).
edge(3, 98).
edge(24, 120).
edge(62, 109).
edge(29, 44).
edge(43, 96).
edge(41, 91).
edge(28, 93).
edge(5, 23).
edge(18, 33).
edge(52, 89).
edge(61, 89).
edge(84, 107).
edge(37, 120).
edge(113, 118).
edge(16, 68).
edge(0, 122).
edge(39, 121).
edge(11, 20).
edge(96, 108).
edge(20, 37).
edge(10, 24).
edge(17, 98).
edge(15, 38).
edge(5, 6).
edge(11, 105).
edge(41, 49).
edge(11, 87).
edge(65, 113).
edge(26, 107).
edge(66, 78).
edge(27, 88).
edge(108, 128).
edge(34, 106).
edge(93, 117).
edge(43, 65).
edge(45, 106).
edge(49, 56).
edge(110, 120).
edge(2, 120).
edge(8, 63).
edge(43, 72).
edge(33, 49).
edge(3, 105).
edge(95, 118).
edge(17, 49).
edge(51, 80).
edge(41, 123).
edge(29, 61).
edge(37, 64).
edge(40, 96).
edge(86, 114).
edge(21, 126).
edge(18, 20).
edge(23, 55).
edge(57, 85).
edge(110, 127).
edge(36, 69).
edge(44, 73).
edge(9, 17).
edge(71, 80).
edge(37, 116).
edge(28, 56).
edge(49, 95).
edge(96, 103).
edge(71, 108).
edge(69, 126).
edge(5, 127).
edge(91, 109).
edge(49, 59).
edge(9, 42).
edge(6, 64).
edge(40, 97).
edge(30, 105).
edge(42, 50).
edge(9, 127).
edge(8, 36).
edge(11, 61).
edge(65, 96).
edge(67, 88).
edge(18, 92).
edge(91, 118).
edge(16, 56).
edge(42, 43).
edge(60, 89).
edge(51, 118).
edge(82, 84).
edge(19, 81).
edge(30, 79).
edge(33, 67).
edge(118, 119).
edge(4, 97).
edge(63, 64).
edge(47, 82).
edge(3, 88).
edge(0, 14).
edge(66, 89).
edge(20, 31).
edge(82, 127).
edge(99, 123).
edge(55, 62).
edge(55, 104).
edge(19, 53).
edge(29, 54).
edge(36, 76).
edge(46, 78).
edge(45, 108).
edge(91, 119).
edge(75, 95).
edge(66, 94).
edge(19, 75).
edge(2, 123).
edge(44, 107).
edge(9, 18).
edge(65, 75).
edge(26, 112).
edge(29, 38).
edge(52, 75).
edge(100, 116).
edge(24, 73).
edge(38, 126).
edge(7, 29).
edge(36, 50).
edge(76, 114).
edge(29, 112).
edge(21, 23).
edge(65, 126).
edge(26, 124).
edge(42, 102).
edge(10, 47).
edge(29, 115).
edge(74, 126).
edge(0, 1).
edge(18, 127).
edge(34, 80).
edge(29, 94).
edge(31, 59).
edge(46, 90).
edge(39, 92).
edge(5, 52).
edge(28, 73).
edge(67, 121).
edge(32, 120).
edge(27, 126).
edge(116, 118).
edge(28, 85).
edge(61, 106).
edge(96, 100).
edge(0, 16).
edge(47, 48).
edge(8, 11).
edge(36, 81).
edge(37, 93).
edge(57, 72).
edge(51, 84).
edge(53, 89).
edge(19, 47).
edge(94, 105).
edge(6, 116).
edge(16, 21).
edge(28, 100).
edge(1, 97).
edge(27, 117).
edge(57, 117).
edge(96, 126).
edge(27, 61).
edge(30, 104).
edge(21, 28).
edge(90, 97).
edge(23, 117).
edge(56, 98).
edge(60, 71).
edge(41, 109).
edge(19, 65).
edge(6, 26).
edge(12, 22).
edge(74, 87).
edge(57, 116).
edge(105, 120).
edge(26, 71).
edge(48, 93).
edge(1, 20).
edge(84, 118).
edge(75, 121).
edge(62, 82).
edge(24, 34).
edge(38, 107).
edge(18, 108).
edge(2, 6).
edge(53, 82).
edge(16, 35).
edge(71, 126).
edge(8, 58).
edge(116, 126).
edge(12, 64).
edge(107, 127).
edge(4, 20).
edge(46, 74).
edge(87, 121).
edge(34, 108).
edge(100, 114).
edge(8, 108).
edge(9, 67).
edge(23, 78).
edge(65, 85).
edge(29, 78).
edge(23, 111).
edge(28, 60).
edge(22, 59).
edge(31, 125).
edge(48, 118).
edge(21, 26).
edge(73, 87).
edge(58, 108).
edge(112, 118).
edge(24, 126).
edge(21, 53).
edge(58, 102).
edge(8, 81).
edge(81, 107).
edge(92, 126).
edge(23, 89).
edge(95, 127).
edge(44, 46).
edge(51, 56).
edge(48, 113).
edge(58, 90).
edge(8, 85).
edge(51, 108).
edge(15, 84).
edge(27, 99).
edge(27, 109).
edge(70, 78).
edge(74, 120).
edge(64, 76).
edge(84, 125).
edge(112, 117).
edge(30, 111).
edge(33, 48).
edge(27, 106).
edge(69, 106).
edge(42, 58).
edge(13, 80).
edge(23, 59).
edge(40, 93).
edge(43, 66).
edge(112, 128).
edge(19, 116).
edge(108, 109).
edge(63, 91).
edge(61, 63).
edge(98, 109).
edge(48, 63).
edge(74, 91).
edge(24, 78).
edge(93, 124).
edge(65, 77).
edge(77, 90).
edge(26, 126).
edge(117, 128).
edge(53, 59).
edge(30, 86).
edge(49, 102).
edge(21, 110).
edge(11, 114).
edge(13, 118).
edge(83, 89).
edge(11, 25).
edge(51, 54).
edge(42, 48).
edge(94, 122).
edge(15, 126).
edge(43, 85).
edge(45, 114).
edge(89, 117).
edge(1, 85).
edge(20, 92).
edge(28, 71).
edge(31, 111).
edge(99, 117).
edge(40, 64).
edge(48, 70).
edge(40, 90).
edge(42, 98).
edge(18, 115).
edge(5, 100).
edge(7, 92).
edge(9, 24).
edge(49, 99).
edge(18, 56).
edge(12, 103).
edge(67, 91).
edge(10, 71).
edge(63, 120).
edge(38, 55).
edge(12, 111).
edge(25, 98).
edge(108, 124).
edge(29, 63).
edge(49, 85).
edge(0, 19).
edge(12, 104).
edge(8, 74).
edge(50, 106).
edge(46, 100).
edge(38, 82).
edge(45, 100).
edge(0, 54).
edge(2, 95).
edge(90, 110).
edge(59, 120).
edge(14, 73).
edge(55, 56).
edge(36, 56).
edge(43, 124).
edge(3, 48).
edge(25, 33).
edge(103, 115).
edge(47, 84).
edge(94, 114).
edge(47, 117).
edge(33, 57).
edge(66, 93).
edge(67, 109).
edge(74, 88).
edge(7, 62).
edge(73, 79).
edge(3, 73).
edge(1, 55).
edge(20, 88).
edge(1, 111).
edge(15, 30).
edge(91, 117).
edge(56, 66).
edge(21, 66).
edge(90, 119).
edge(5, 66).
edge(75, 96).
edge(16, 81).
edge(90, 124).
edge(36, 115).
edge(73, 89).
edge(110, 126).
edge(80, 93).
edge(85, 99).
edge(0, 100).
edge(63, 85).
edge(49, 66).
edge(76, 102).
edge(13, 37).
edge(21, 111).
edge(33, 80).
edge(52, 57).
edge(13, 126).
edge(40, 125).
edge(47, 85).
edge(38, 102).
edge(10, 92).
edge(4, 63).
edge(17, 125).
edge(58, 60).
edge(23, 53).
edge(15, 22).
edge(27, 89).
edge(55, 120).
edge(0, 114).
edge(11, 40).
edge(10, 36).
edge(25, 115).
edge(106, 127).
edge(51, 93).
edge(116, 121).
edge(5, 87).
edge(90, 112).
edge(62, 114).
edge(33, 41).
edge(71, 97).
edge(46, 125).
edge(10, 124).
edge(72, 74).
edge(19, 94).
edge(78, 80).
edge(70, 84).
edge(22, 119).
edge(5, 73).
edge(39, 55).
edge(15, 29).
edge(52, 111).
edge(60, 65).
edge(17, 115).
edge(55, 124).
edge(45, 73).
edge(47, 101).
edge(73, 116).
edge(8, 90).
edge(6, 67).
edge(14, 105).
edge(0, 121).
edge(19, 108).
edge(34, 107).
edge(10, 90).
edge(69, 105).
edge(86, 96).
edge(24, 68).
edge(9, 97).
edge(46, 92).
edge(4, 13).
edge(65, 80).
edge(21, 43).
edge(31, 46).
edge(12, 76).
edge(1, 121).
edge(63, 126).
edge(18, 124).
edge(36, 89).
edge(1, 76).
edge(21, 60).
edge(19, 70).
edge(43, 55).
edge(5, 46).
edge(17, 71).
edge(28, 82).
edge(28, 79).
edge(74, 105).
edge(28, 112).
edge(16, 113).
edge(93, 95).
edge(11, 102).
edge(59, 92).
edge(25, 48).
edge(17, 102).
edge(51, 81).
edge(38, 70).
edge(35, 126).
edge(36, 105).
edge(24, 27).
edge(4, 19).
edge(34, 47).
edge(27, 39).
edge(10, 83).
edge(31, 126).
edge(1, 71).
edge(13, 56).
edge(52, 84).
edge(8, 53).
edge(86, 104).
edge(5, 99).
edge(96, 118).
edge(103, 118).
edge(21, 39).
edge(12, 39).
edge(11, 37).
edge(35, 101).
edge(44, 112).
edge(104, 121).
edge(64, 99).
edge(7, 94).
edge(58, 84).
edge(2, 72).
edge(21, 99).
edge(111, 122).
edge(28, 105).
edge(115, 124).
edge(93, 114).
edge(25, 30).
edge(39, 111).
edge(20, 33).
edge(41, 90).
edge(29, 108).
edge(15, 72).
edge(111, 120).
edge(36, 51).
edge(41, 107).
edge(50, 113).
edge(1, 96).
edge(42, 105).
edge(22, 42).
edge(0, 124).
edge(29, 116).
edge(25, 91).
edge(21, 108).
edge(25, 84).
edge(9, 59).
edge(33, 111).
edge(80, 103).
edge(10, 17).
edge(33, 99).
edge(30, 40).
edge(18, 71).
edge(37, 118).
edge(61, 125).
edge(43, 121).
edge(46, 96).
edge(11, 82).
edge(53, 106).
edge(47, 53).
edge(56, 80).
edge(12, 19).
edge(16, 90).
edge(69, 109).
edge(31, 82).
edge(114, 124).
edge(33, 115).
edge(42, 115).
edge(42, 75).
edge(72, 99).
edge(73, 122).
edge(49, 80).
edge(72, 81).
edge(67, 110).
edge(2, 79).
edge(11, 36).
edge(0, 13).
edge(21, 62).
edge(28, 95).
edge(50, 65).
edge(11, 32).
edge(5, 117).
edge(63, 75).
edge(92, 125).
edge(106, 122).
edge(52, 59).
edge(25, 74).
edge(4, 73).
edge(36, 48).
edge(58, 88).
edge(26, 41).
edge(5, 116).
edge(76, 117).
edge(83, 118).
edge(5, 69).
edge(59, 66).
edge(81, 89).
edge(84, 117).
edge(40, 107).
edge(53, 57).
edge(82, 119).
edge(35, 88).
edge(26, 87).
edge(74, 84).
edge(41, 106).
edge(38, 71).
edge(25, 90).
edge(25, 41).
edge(43, 89).
edge(9, 74).
edge(96, 101).
edge(84, 122).
edge(13, 77).
edge(38, 124).
edge(54, 56).
edge(95, 121).
edge(43, 58).
edge(37, 128).
edge(17, 96).
edge(103, 122).
edge(31, 77).
edge(36, 117).
edge(31, 123).
edge(11, 117).
edge(31, 35).
edge(82, 108).
edge(58, 61).
edge(5, 50).
edge(23, 115).
edge(17, 86).
edge(6, 93).
edge(46, 102).
edge(58, 71).
edge(2, 57).
edge(12, 128).
edge(13, 50).
edge(54, 79).
edge(27, 34).
edge(0, 30).
edge(4, 65).
edge(38, 51).
edge(1, 43).
edge(102, 125).
edge(53, 93).
edge(81, 93).
edge(20, 86).
edge(35, 73).
edge(74, 81).
edge(58, 94).
edge(36, 64).
edge(10, 108).
edge(50, 84).
edge(9, 11).
edge(67, 69).
edge(10, 91).
edge(1, 110).
edge(43, 123).
edge(90, 114).
edge(46, 120).
edge(73, 118).
edge(23, 123).
edge(17, 78).
edge(82, 122).
edge(79, 83).
edge(71, 76).
edge(83, 109).
edge(13, 36).
edge(50, 103).
edge(69, 97).
edge(2, 34).
edge(77, 85).
edge(50, 122).
edge(44, 90).
edge(10, 121).
edge(4, 14).
edge(30, 45).
edge(71, 125).
edge(75, 83).
edge(13, 88).
edge(22, 41).
edge(13, 115).
edge(48, 111).
edge(1, 78).
edge(93, 118).
edge(3, 127).
edge(0, 102).
edge(70, 89).
edge(4, 88).
edge(10, 125).
edge(79, 93).
edge(6, 99).
edge(60, 110).
edge(51, 87).
edge(39, 90).
edge(80, 85).
edge(72, 117).
edge(52, 127).
edge(10, 61).
edge(28, 121).
edge(99, 107).
edge(13, 93).
edge(58, 96).
edge(46, 64).
edge(48, 91).
edge(70, 92).
edge(57, 60).
edge(27, 104).
edge(92, 104).
edge(30, 57).
edge(66, 91).
edge(65, 81).
edge(7, 95).
edge(39, 123).
edge(40, 68).
edge(100, 106).
edge(39, 96).
edge(61, 91).
edge(50, 120).
edge(67, 126).
edge(72, 111).
edge(31, 84).
edge(56, 58).
edge(26, 61).
edge(65, 98).
edge(69, 115).
edge(23, 63).
edge(34, 127).
edge(0, 61).
edge(32, 54).
edge(9, 40).
edge(7, 118).
edge(7, 84).
edge(35, 116).
edge(21, 120).
edge(42, 74).
edge(49, 79).
edge(33, 71).
edge(63, 110).
edge(1, 36).
edge(70, 96).
edge(87, 92).
edge(24, 44).
edge(28, 33).
edge(75, 101).
edge(23, 114).
edge(1, 62).
edge(43, 99).
edge(82, 106).
edge(68, 76).
edge(25, 92).
edge(58, 115).
edge(1, 92).
edge(22, 68).
edge(2, 105).
edge(67, 73).
edge(61, 120).
edge(67, 79).
edge(3, 62).
edge(104, 118).
edge(78, 84).
edge(13, 75).
edge(24, 76).
edge(72, 88).
edge(49, 121).
edge(81, 123).
edge(33, 103).
edge(39, 68).
edge(26, 68).
edge(1, 13).
edge(60, 105).
edge(12, 115).
edge(22, 72).
edge(16, 33).
edge(63, 97).
edge(43, 91).
edge(34, 111).
edge(0, 40).
edge(30, 68).
edge(57, 66).
edge(12, 54).
edge(24, 51).
edge(20, 60).
edge(17, 81).
edge(16, 116).
edge(17, 21).
edge(1, 66).
edge(21, 96).
edge(56, 83).
edge(34, 57).
edge(42, 113).
edge(70, 119).
edge(18, 82).
edge(14, 86).
edge(22, 24).
edge(58, 77).
edge(0, 36).
edge(76, 78).
edge(5, 81).
edge(47, 69).
edge(58, 106).
edge(30, 47).
edge(56, 91).
edge(19, 96).
edge(41, 92).
edge(106, 126).
edge(39, 66).
edge(26, 46).
edge(77, 103).
edge(78, 100).
edge(18, 81).
edge(75, 85).
edge(15, 67).
edge(32, 84).
edge(10, 107).
edge(76, 86).
edge(85, 128).
edge(68, 128).
edge(13, 71).
edge(31, 78).
edge(42, 124).
edge(33, 46).
edge(25, 67).
edge(42, 120).
edge(31, 88).
edge(13, 69).
edge(24, 69).
edge(4, 39).
edge(0, 38).
edge(26, 82).
edge(19, 93).
edge(28, 63).
edge(41, 124).
edge(0, 75).
edge(26, 27).
edge(82, 101).
edge(82, 102).
edge(16, 101).
edge(14, 32).
edge(66, 112).
edge(47, 93).
edge(27, 28).
edge(86, 89).
edge(38, 91).
edge(52, 90).
edge(29, 32).
edge(38, 39).
edge(89, 127).
edge(7, 124).
edge(2, 4).
edge(22, 112).
edge(68, 79).
edge(60, 102).
edge(3, 128).
edge(34, 84).
edge(99, 118).
edge(10, 70).
edge(14, 70).
edge(48, 128).
edge(19, 99).
edge(31, 37).
edge(27, 66).
edge(5, 105).
edge(72, 112).
edge(9, 19).
edge(36, 122).
edge(32, 113).
edge(52, 107).
edge(46, 65).
edge(7, 20).
edge(75, 104).
edge(1, 126).
edge(30, 80).
edge(35, 100).
edge(37, 99).
edge(21, 107).
edge(8, 32).
edge(5, 40).
edge(39, 47).
edge(29, 31).
edge(28, 65).
edge(4, 82).
edge(62, 84).
edge(32, 107).
edge(6, 25).
edge(24, 39).
edge(46, 61).
edge(62, 70).
edge(42, 117).
edge(96, 125).
edge(48, 52).
edge(24, 35).
edge(33, 87).
edge(36, 104).
edge(44, 110).
edge(5, 112).
edge(11, 67).
edge(71, 78).
edge(51, 85).
edge(95, 116).
edge(15, 26).
edge(5, 107).
edge(113, 123).
edge(60, 94).
edge(1, 100).
edge(42, 76).
edge(8, 12).
edge(70, 112).
edge(0, 109).
edge(72, 108).
edge(23, 44).
edge(7, 111).
edge(14, 69).
edge(105, 116).
edge(24, 104).
edge(1, 127).
edge(45, 111).
edge(0, 79).
edge(51, 94).
edge(39, 77).
edge(18, 111).
edge(51, 126).
edge(88, 115).
edge(104, 115).
edge(17, 90).
edge(87, 126).
edge(29, 86).
edge(74, 104).
edge(82, 123).
edge(97, 98).
edge(12, 83).
edge(18, 80).
edge(87, 116).
edge(39, 100).
edge(56, 57).
edge(47, 87).
edge(44, 113).
edge(16, 19).
edge(48, 99).
edge(109, 119).
edge(108, 120).
edge(53, 125).
edge(22, 62).
edge(51, 116).
edge(16, 115).
edge(55, 122).
edge(66, 124).
edge(4, 116).
edge(117, 124).
edge(113, 120).
edge(11, 81).
edge(1, 63).
edge(27, 60).
edge(93, 96).
edge(18, 44).
edge(78, 109).
edge(4, 102).
edge(41, 43).
edge(54, 87).
edge(94, 120).
edge(53, 103).
edge(10, 85).
edge(6, 101).
edge(16, 106).
edge(58, 121).
edge(37, 55).
edge(5, 51).
edge(103, 106).
edge(79, 118).
edge(19, 59).
edge(33, 116).
edge(17, 114).
edge(4, 36).
edge(22, 26).
edge(14, 28).
edge(67, 103).
edge(8, 80).
edge(79, 96).
edge(65, 122).
edge(48, 98).
edge(46, 98).
edge(97, 120).
edge(108, 110).
edge(8, 70).
edge(41, 50).
edge(13, 35).
edge(59, 102).
edge(1, 65).
edge(3, 99).
edge(15, 43).
edge(52, 101).
edge(57, 79).
edge(2, 7).
edge(11, 84).
edge(87, 124).
edge(24, 38).
edge(63, 117).
edge(59, 95).
edge(16, 61).
edge(51, 120).
edge(17, 46).
edge(24, 25).
edge(36, 44).
edge(22, 104).
edge(98, 125).
edge(4, 114).
edge(54, 89).
edge(17, 26).
edge(33, 58).
edge(85, 90).
edge(2, 11).
edge(5, 13).
edge(37, 85).
edge(18, 78).
edge(28, 81).
edge(62, 81).
edge(22, 85).
edge(39, 79).
edge(85, 87).
edge(25, 28).
edge(38, 74).
edge(65, 116).
edge(10, 94).
edge(12, 20).
edge(94, 96).
edge(102, 111).
edge(14, 23).
edge(102, 109).
edge(10, 22).
edge(23, 38).
edge(44, 55).
edge(94, 121).
edge(54, 108).
edge(82, 115).
edge(51, 66).
edge(31, 58).
edge(9, 68).
edge(21, 47).
edge(52, 106).
edge(92, 105).
edge(79, 125).
edge(63, 82).
edge(36, 70).
edge(91, 97).
edge(39, 103).
edge(39, 82).
edge(29, 68).
edge(42, 90).
edge(34, 66).
edge(6, 65).
edge(11, 35).
edge(55, 64).
edge(38, 86).
edge(79, 82).
edge(20, 107).
edge(46, 76).
edge(80, 87).
edge(34, 114).
edge(32, 112).
edge(8, 45).
edge(43, 93).
edge(18, 38).
edge(26, 69).
edge(57, 61).
edge(58, 86).
edge(10, 27).
edge(51, 125).
edge(29, 102).
edge(36, 107).
edge(51, 102).
edge(10, 105).
edge(9, 86).
edge(65, 79).
edge(33, 122).
edge(3, 18).
edge(45, 71).
edge(101, 105).
edge(50, 54).
edge(42, 72).
edge(32, 125).
edge(46, 86).
edge(110, 123).
edge(73, 111).
edge(11, 76).
edge(35, 40).
edge(2, 58).
edge(74, 75).
edge(70, 101).
edge(15, 99).
edge(85, 86).
edge(46, 59).
edge(8, 33).
edge(47, 108).
edge(85, 118).
edge(28, 39).
edge(47, 55).
edge(29, 49).
edge(43, 79).
edge(114, 125).
edge(80, 120).
edge(6, 122).
edge(64, 102).
edge(40, 126).
edge(88, 106).
edge(39, 97).
edge(13, 29).
edge(15, 80).
edge(68, 99).
edge(25, 73).
edge(100, 108).
edge(49, 91).
edge(21, 55).
edge(39, 65).
edge(6, 110).
edge(104, 124).
edge(79, 115).
edge(79, 127).
edge(18, 74).
edge(56, 86).
edge(85, 111).
edge(70, 87).
edge(31, 98).
edge(4, 111).
edge(41, 116).
edge(56, 73).
edge(28, 108).
edge(25, 112).
edge(40, 121).
edge(7, 123).
edge(43, 73).
edge(20, 50).
edge(11, 57).
edge(62, 78).
edge(51, 128).
edge(19, 57).
edge(1, 120).
edge(74, 76).
edge(92, 98).
edge(14, 58).
edge(18, 79).
edge(1, 6).
edge(36, 116).
edge(86, 120).
edge(15, 78).
edge(3, 108).
edge(89, 98).
edge(18, 106).
edge(73, 123).
edge(48, 61).
edge(56, 68).
edge(3, 43).
edge(87, 101).
edge(34, 113).
edge(16, 50).
edge(95, 98).
edge(10, 110).
edge(71, 101).
edge(32, 70).
edge(10, 44).
edge(51, 70).
edge(28, 57).
edge(75, 109).
edge(75, 91).
edge(29, 77).
edge(42, 95).
edge(5, 93).
edge(9, 52).
edge(55, 59).
edge(27, 74).
edge(61, 102).
edge(55, 72).
edge(24, 113).
edge(46, 99).
edge(41, 70).
edge(1, 44).
edge(49, 116).
edge(9, 91).
edge(32, 77).
edge(37, 72).
edge(11, 92).
edge(30, 102).
edge(40, 111).
edge(51, 53).
edge(43, 47).
edge(17, 77).
edge(22, 126).
edge(82, 103).
edge(9, 22).
edge(98, 127).
edge(60, 121).
edge(19, 60).
edge(98, 117).
edge(20, 23).
edge(2, 90).
edge(35, 76).
edge(1, 119).
edge(33, 114).
edge(82, 88).
edge(19, 102).
edge(33, 79).
edge(99, 127).
edge(88, 123).
edge(90, 102).
edge(18, 27).
edge(40, 46).
edge(27, 92).
edge(35, 104).
edge(6, 21).
edge(45, 58).
edge(42, 127).
edge(23, 25).
edge(16, 128).
edge(73, 94).
edge(74, 119).
edge(31, 55).
edge(27, 116).
edge(54, 70).
edge(64, 105).
edge(16, 39).
edge(22, 71).
edge(44, 67).
edge(46, 68).
edge(10, 75).
edge(29, 74).
edge(43, 76).
edge(16, 86).
edge(32, 93).
edge(62, 111).
edge(24, 98).
edge(82, 90).
edge(15, 17).
edge(98, 116).
edge(46, 95).
edge(5, 63).
edge(81, 125).
edge(72, 91).
edge(25, 120).
edge(23, 62).
edge(108, 117).
edge(23, 42).
edge(4, 46).
edge(1, 23).
edge(0, 115).
edge(4, 62).
edge(14, 43).
edge(69, 100).
edge(50, 72).
edge(44, 77).
edge(2, 56).
edge(81, 122).
edge(44, 127).
edge(95, 100).
edge(62, 100).
edge(50, 73).
edge(6, 44).
edge(19, 124).
edge(111, 124).
edge(31, 53).
edge(77, 102).
edge(48, 81).
edge(66, 95).
edge(57, 77).
edge(32, 109).
edge(6, 49).
edge(57, 90).
edge(94, 119).
edge(31, 57).
edge(5, 97).
edge(36, 80).
edge(29, 50).
edge(88, 96).
edge(46, 91).
edge(38, 45).
edge(25, 39).
edge(71, 87).
edge(116, 128).
edge(17, 36).
edge(49, 126).
edge(1, 24).
edge(88, 120).
edge(93, 108).
edge(10, 40).
edge(22, 81).
edge(16, 111).
edge(11, 12).
edge(115, 127).
edge(43, 83).
edge(0, 25).
edge(92, 118).
edge(30, 103).
edge(38, 117).
edge(105, 123).
edge(63, 83).
edge(29, 42).
edge(30, 33).
edge(27, 73).
edge(13, 65).
edge(40, 124).
edge(0, 33).
edge(58, 89).
edge(102, 127).
edge(66, 70).
edge(30, 121).
edge(82, 128).
edge(81, 85).
edge(45, 93).
edge(47, 92).
edge(23, 93).
edge(8, 110).
edge(107, 126).
edge(79, 92).
edge(25, 26).
edge(54, 73).
edge(64, 124).
edge(49, 86).
edge(58, 110).
edge(67, 118).
edge(32, 34).
edge(88, 122).
edge(5, 118).
edge(25, 125).
edge(18, 99).
edge(9, 117).
edge(15, 55).
edge(33, 126).
edge(94, 101).
edge(43, 61).
edge(17, 35).
edge(34, 95).
edge(63, 108).
edge(60, 81).
edge(46, 79).
edge(109, 120).
edge(91, 114).
edge(79, 85).
edge(51, 122).
edge(34, 125).
edge(80, 125).
edge(24, 100).
edge(80, 95).
edge(37, 42).
edge(11, 22).
edge(4, 40).
edge(84, 85).
edge(83, 92).
edge(46, 121).
edge(17, 60).
edge(77, 121).
edge(90, 108).
edge(102, 120).
edge(3, 55).
edge(4, 28).
edge(86, 99).
edge(64, 93).
edge(9, 58).
edge(7, 65).
edge(15, 116).
edge(14, 109).
edge(5, 19).
edge(26, 80).
edge(33, 38).
edge(27, 111).
edge(20, 61).
edge(18, 95).
edge(12, 70).
edge(54, 55).
edge(40, 81).
edge(65, 83).
edge(29, 58).
edge(61, 74).
edge(77, 115).
edge(37, 104).
edge(16, 117).
edge(58, 76).
edge(10, 64).
edge(61, 79).
edge(54, 68).
edge(106, 115).
edge(36, 113).
edge(20, 40).
edge(63, 127).
edge(25, 70).
edge(7, 61).
edge(53, 55).
edge(1, 67).
edge(29, 107).
edge(2, 121).
edge(31, 33).
edge(4, 75).
edge(85, 107).
edge(0, 3).
edge(37, 65).
edge(58, 74).
edge(6, 123).
edge(14, 85).
edge(90, 104).
edge(42, 108).
edge(114, 127).
edge(3, 111).
edge(109, 114).
edge(8, 96).
edge(87, 109).
edge(23, 124).
edge(56, 85).
edge(39, 57).
edge(33, 117).
edge(52, 91).
edge(50, 53).
edge(79, 101).
edge(66, 81).
edge(9, 72).
edge(11, 109).
edge(13, 113).
edge(92, 94).
edge(1, 73).
edge(11, 101).
edge(83, 90).
edge(104, 105).
edge(21, 98).
edge(35, 70).
edge(72, 106).
edge(8, 127).
edge(44, 105).
edge(40, 56).
edge(120, 123).
edge(47, 88).
edge(78, 96).
edge(70, 72).
edge(27, 100).
edge(30, 120).
edge(22, 99).
edge(17, 47).
edge(94, 111).
edge(80, 123).
edge(83, 124).
edge(83, 93).
edge(12, 113).
edge(10, 115).
edge(12, 60).
edge(64, 78).
edge(8, 98).
edge(59, 67).
edge(84, 89).
edge(47, 81).
edge(107, 110).
edge(16, 29).
edge(67, 78).
edge(39, 56).
edge(81, 110).
edge(36, 91).
edge(46, 60).
edge(13, 73).
edge(70, 81).
edge(0, 45).
edge(35, 57).
edge(23, 106).
edge(52, 103).
edge(41, 67).
edge(50, 118).
edge(17, 79).
edge(54, 72).
edge(35, 89).
edge(0, 108).
edge(89, 106).
edge(38, 65).
edge(60, 114).
edge(2, 122).
edge(12, 94).
edge(3, 15).
edge(32, 47).
edge(33, 100).
edge(92, 116).
edge(16, 31).
edge(26, 33).
edge(75, 112).
edge(49, 77).
edge(42, 80).
edge(83, 84).
edge(15, 52).
edge(25, 60).
edge(98, 120).
edge(18, 19).
edge(50, 83).
edge(45, 52).
edge(83, 122).
edge(5, 88).
edge(77, 97).
edge(27, 113).
edge(61, 90).
edge(94, 103).
edge(43, 102).
edge(0, 87).
edge(60, 72).
edge(74, 86).
edge(42, 52).
edge(83, 111).
edge(105, 107).
edge(50, 100).
edge(5, 60).
edge(14, 80).
edge(15, 25).
edge(61, 80).
edge(13, 51).
edge(22, 70).
edge(25, 89).
edge(80, 110).
edge(73, 128).
edge(49, 75).
edge(28, 40).
edge(40, 102).
edge(8, 27).
edge(0, 98).
edge(4, 89).
edge(22, 77).
edge(21, 36).
edge(28, 31).
edge(44, 102).
edge(28, 120).
edge(15, 34).
edge(29, 56).
edge(60, 125).
edge(1, 108).
edge(3, 38).
edge(24, 42).
edge(37, 114).
edge(44, 84).
edge(118, 120).
edge(4, 53).
edge(109, 122).
edge(83, 88).
edge(2, 84).
edge(42, 54).
edge(20, 73).
edge(31, 107).
edge(10, 46).
edge(53, 70).
edge(3, 23).
edge(13, 128).
edge(83, 121).
edge(26, 73).
edge(12, 73).
edge(95, 110).
edge(18, 84).
edge(3, 54).
edge(118, 127).
edge(92, 95).
edge(44, 82).
edge(2, 118).
edge(36, 112).
edge(15, 51).
edge(75, 122).
edge(1, 33).
edge(25, 93).
edge(51, 121).
edge(2, 78).
edge(23, 48).
edge(50, 89).
edge(58, 114).
edge(13, 59).
edge(24, 107).
edge(68, 119).
edge(20, 105).
edge(58, 123).
edge(59, 116).
edge(30, 37).
edge(3, 117).
edge(122, 125).
edge(31, 44).
edge(46, 105).
edge(12, 93).
edge(9, 95).
edge(2, 85).
edge(20, 32).
edge(8, 52).
edge(88, 124).
edge(36, 59).
edge(9, 12).
edge(19, 122).
edge(36, 63).
edge(41, 85).
edge(17, 94).
edge(14, 101).
edge(84, 115).
edge(84, 100).
edge(6, 66).
edge(53, 60).
edge(67, 127).
edge(57, 101).
edge(11, 103).
edge(27, 44).
edge(8, 72).
edge(18, 76).
edge(46, 126).
edge(63, 124).
edge(31, 74).
edge(20, 98).
edge(36, 109).
edge(22, 64).
edge(27, 108).
edge(113, 117).
edge(74, 124).
edge(59, 78).
edge(28, 115).
edge(38, 84).
edge(95, 108).
edge(43, 119).
edge(62, 66).
edge(62, 94).
edge(22, 92).
edge(62, 127).
edge(64, 95).
edge(52, 76).
edge(3, 36).
edge(41, 45).
edge(91, 115).
edge(21, 22).
edge(73, 74).
edge(55, 73).
edge(20, 84).
edge(25, 63).
edge(23, 127).
edge(13, 41).
edge(95, 106).
edge(19, 110).
edge(14, 46).
edge(7, 44).
edge(12, 44).
edge(19, 117).
edge(57, 68).
edge(28, 74).
edge(18, 29).
edge(2, 71).
edge(27, 76).
edge(23, 45).
edge(2, 13).
edge(35, 79).
edge(23, 40).
edge(45, 67).
edge(61, 88).
edge(75, 93).
edge(35, 44).
edge(23, 77).
edge(2, 55).
edge(55, 70).
edge(24, 58).
edge(23, 81).
edge(23, 107).
edge(38, 76).
edge(32, 116).
edge(70, 107).
edge(78, 90).
edge(44, 88).
edge(72, 120).
edge(45, 117).
edge(18, 128).
edge(56, 106).
edge(55, 110).
edge(18, 49).
edge(57, 104).
edge(21, 58).
edge(25, 121).
edge(12, 16).
edge(65, 93).
edge(99, 110).
edge(91, 110).
edge(69, 87).
edge(26, 125).
edge(66, 72).
edge(31, 72).
edge(58, 111).
edge(0, 68).
edge(50, 91).
edge(70, 93).
edge(85, 122).
edge(36, 79).
edge(59, 75).
edge(69, 119).
edge(62, 67).
edge(13, 27).
edge(46, 58).
edge(38, 120).
edge(35, 86).
edge(16, 27).
edge(63, 109).
edge(64, 115).
edge(16, 89).
edge(4, 81).
edge(37, 126).
edge(14, 116).
edge(18, 118).
edge(49, 63).
edge(10, 116).
edge(26, 35).
edge(12, 21).
edge(32, 57).
edge(96, 107).
edge(31, 86).
edge(75, 116).
edge(13, 76).
edge(3, 37).
edge(53, 108).
edge(14, 93).
edge(4, 68).
edge(60, 103).
edge(58, 72).
edge(36, 78).
edge(20, 38).
edge(5, 45).
edge(30, 84).
edge(60, 120).
edge(66, 86).
edge(30, 65).
edge(13, 105).
edge(49, 118).
edge(28, 113).
edge(24, 30).
edge(19, 69).
edge(38, 92).
edge(124, 127).
edge(106, 119).
edge(34, 91).
edge(1, 88).
edge(7, 76).
edge(2, 96).
edge(58, 119).
edge(81, 117).
edge(56, 72).
edge(66, 96).
edge(68, 118).
edge(73, 108).
edge(4, 47).
edge(0, 28).
edge(74, 122).
edge(12, 79).
edge(53, 90).
edge(4, 85).
edge(54, 83).
edge(92, 120).
edge(79, 97).
edge(43, 118).
edge(92, 93).
edge(26, 43).
edge(6, 103).
edge(49, 125).
edge(54, 69).
edge(70, 123).
edge(5, 18).
edge(56, 69).
edge(29, 109).
edge(114, 126).
edge(8, 18).
edge(26, 62).
edge(22, 115).
edge(27, 95).
edge(25, 86).
edge(15, 106).
edge(6, 127).
edge(40, 104).
edge(26, 63).
edge(10, 57).
edge(104, 111).
edge(5, 128).
edge(48, 50).
edge(24, 77).
edge(34, 73).
edge(45, 63).
edge(7, 50).
edge(16, 46).
edge(43, 71).
edge(30, 41).
edge(24, 110).
edge(1, 82).
edge(70, 74).
edge(9, 79).
edge(31, 120).
edge(78, 89).
edge(48, 124).
edge(19, 127).
edge(63, 112).
edge(31, 96).
edge(81, 91).
edge(7, 89).
edge(63, 99).
edge(59, 73).
edge(1, 29).
edge(0, 52).
edge(10, 39).
edge(65, 110).
edge(18, 35).
edge(24, 123).
edge(82, 121).
edge(100, 127).
edge(34, 35).
edge(59, 119).
edge(26, 75).
edge(52, 126).
edge(0, 50).
edge(89, 100).
edge(16, 30).
edge(32, 71).
edge(77, 104).
edge(57, 83).
edge(63, 92).
edge(35, 111).
edge(34, 123).
edge(25, 119).
edge(58, 59).
edge(52, 116).
edge(33, 108).
edge(52, 73).
edge(0, 112).
edge(55, 108).
edge(10, 80).
edge(53, 62).
edge(93, 111).
edge(92, 106).
edge(31, 61).
edge(75, 115).
edge(57, 91).
edge(44, 92).
edge(42, 100).
edge(36, 43).
edge(45, 112).
edge(93, 115).
edge(112, 122).
edge(24, 43).
edge(60, 84).
edge(8, 112).
edge(43, 117).
edge(12, 106).
edge(11, 115).
edge(3, 124).
edge(62, 72).
edge(45, 102).
edge(31, 121).
edge(83, 123).
edge(85, 119).
edge(6, 69).
edge(35, 81).
edge(0, 42).
edge(41, 66).
edge(54, 97).
edge(8, 67).
edge(38, 64).
edge(15, 71).
edge(36, 128).
edge(84, 127).
edge(85, 115).
edge(4, 115).
edge(10, 84).
edge(37, 94).
edge(91, 126).
edge(99, 113).
edge(8, 109).
edge(27, 50).
edge(7, 22).
edge(44, 47).
edge(10, 118).
edge(14, 111).
edge(13, 48).
edge(33, 77).
edge(6, 87).
edge(25, 104).
edge(44, 115).
edge(31, 85).
edge(3, 42).
edge(24, 90).
edge(72, 82).
edge(37, 61).
edge(40, 82).
edge(7, 72).
edge(46, 127).
edge(45, 91).
edge(89, 94).
edge(54, 111).
edge(5, 20).
edge(26, 105).
edge(60, 104).
edge(96, 123).
edge(23, 120).
edge(2, 17).
edge(18, 70).
edge(48, 85).
edge(33, 107).
edge(21, 48).
edge(7, 86).
edge(90, 100).
edge(14, 92).
edge(9, 15).
edge(74, 99).
edge(32, 74).
edge(45, 87).
edge(51, 78).
edge(31, 104).
edge(50, 63).
edge(46, 50).
edge(26, 31).
edge(19, 29).
edge(53, 107).
edge(29, 41).
edge(60, 107).
edge(3, 5).
edge(49, 71).
edge(11, 121).
edge(39, 62).
edge(11, 56).
edge(5, 90).
edge(17, 82).
edge(16, 17).
edge(5, 61).
edge(77, 124).
edge(55, 61).
edge(10, 96).
edge(45, 61).
edge(5, 43).
edge(37, 108).
edge(85, 96).
edge(3, 4).
edge(29, 87).
edge(32, 66).
edge(25, 47).
edge(43, 64).
edge(46, 117).
edge(40, 87).
edge(97, 112).
edge(69, 110).
edge(88, 116).
edge(3, 67).
edge(89, 96).
edge(30, 114).
edge(9, 78).
edge(9, 113).
edge(64, 127).
edge(28, 68).
edge(65, 104).
edge(14, 77).
edge(39, 44).
edge(17, 89).
edge(93, 94).
edge(90, 106).
edge(47, 77).
edge(6, 108).
edge(50, 85).
edge(21, 70).
edge(111, 113).
edge(14, 39).
edge(13, 54).
edge(1, 46).
edge(75, 105).
edge(98, 118).
edge(4, 119).
edge(6, 7).
edge(40, 84).
edge(82, 114).
edge(6, 84).
edge(23, 39).
edge(11, 38).
edge(41, 77).
edge(38, 112).
edge(97, 125).
edge(19, 87).
edge(73, 98).
edge(90, 98).
edge(27, 48).
edge(21, 82).
edge(14, 37).
edge(15, 97).
edge(63, 70).
edge(41, 76).
edge(32, 36).
edge(106, 128).
edge(3, 35).
edge(42, 88).
edge(41, 87).
edge(38, 61).
edge(3, 114).
edge(35, 45).
edge(56, 84).
edge(17, 120).
edge(95, 114).
edge(10, 103).
edge(1, 3).
edge(41, 121).
edge(14, 114).
edge(1, 5).
edge(67, 102).
edge(77, 95).
edge(5, 62).
edge(0, 96).
edge(38, 77).
edge(10, 25).
edge(9, 104).
edge(77, 101).
edge(43, 69).
edge(48, 126).
edge(0, 48).
edge(88, 103).
edge(26, 110).
edge(48, 65).
edge(41, 115).
edge(102, 107).
edge(19, 31).
edge(69, 81).
edge(49, 123).
edge(91, 120).
edge(81, 127).
edge(101, 111).
edge(17, 38).
edge(65, 87).
edge(2, 47).
edge(7, 13).
edge(2, 66).
edge(44, 101).
edge(24, 97).
edge(9, 70).
edge(28, 128).
edge(7, 91).
edge(13, 79).
edge(56, 100).
edge(19, 105).
edge(13, 45).
edge(58, 99).
edge(33, 118).
edge(8, 124).
edge(34, 55).
edge(12, 35).
edge(28, 34).
edge(70, 71).
edge(87, 96).
edge(28, 125).
edge(57, 59).
edge(32, 69).
edge(99, 111).
edge(24, 124).
edge(61, 124).
edge(7, 46).
edge(48, 60).
edge(30, 108).
edge(96, 99).
edge(87, 111).
edge(51, 69).
edge(68, 107).
edge(20, 56).
edge(64, 114).
edge(15, 90).
edge(5, 55).
edge(3, 26).
edge(6, 14).
edge(92, 115).
edge(88, 104).
edge(17, 110).
edge(25, 46).
edge(6, 59).
edge(11, 80).
edge(71, 89).
edge(64, 94).
edge(37, 113).
edge(40, 61).
edge(21, 79).
edge(30, 94).
edge(64, 123).
edge(21, 72).
edge(87, 106).
edge(35, 75).
edge(42, 126).
edge(4, 12).
edge(14, 17).
edge(3, 84).
edge(15, 118).
edge(16, 26).
edge(7, 80).
edge(87, 125).
edge(18, 121).
edge(32, 101).
edge(40, 101).
edge(71, 110).
edge(63, 89).
edge(9, 125).
edge(117, 122).
edge(25, 87).
edge(32, 105).
edge(62, 83).
edge(6, 11).
edge(69, 86).
edge(81, 109).
edge(58, 66).
edge(22, 75).
edge(20, 120).
edge(71, 100).
edge(26, 116).
edge(44, 54).
edge(14, 29).
weight(0, 6).
weight(1, 7).
weight(2, 1).
weight(3, 8).
weight(4, 5).
weight(5, 1).
weight(6, 7).
weight(7, 7).
weight(8, 6).
weight(9, 6).
weight(10, 7).
weight(11, 8).
weight(12, 6).
weight(13, 5).
weight(14, 7).
weight(15, 3).
weight(16, 2).
weight(17, 7).
weight(18, 2).
weight(19, 1).
weight(20, 3).
weight(21, 4).
weight(22, 8).
weight(23, 7).
weight(24, 3).
weight(25, 6).
weight(26, 8).
weight(27, 8).
weight(28, 8).
weight(29, 6).
weight(30, 2).
weight(31, 8).
weight(32, 3).
weight(33, 7).
weight(34, 4).
weight(35, 6).
weight(36, 7).
weight(37, 4).
weight(38, 6).
weight(39, 2).
weight(40, 1).
weight(41, 6).
weight(42, 5).
weight(43, 8).
weight(44, 1).
weight(45, 2).
weight(46, 1).
weight(47, 3).
weight(48, 6).
weight(49, 1).
weight(50, 5).
weight(51, 3).
weight(52, 7).
weight(53, 3).
weight(54, 6).
weight(55, 6).
weight(56, 7).
weight(57, 1).
weight(58, 2).
weight(59, 8).
weight(60, 2).
weight(61, 5).
weight(62, 6).
weight(63, 8).
weight(64, 5).
weight(65, 5).
weight(66, 7).
weight(67, 6).
weight(68, 4).
weight(69, 8).
weight(70, 3).
weight(71, 2).
weight(72, 3).
weight(73, 7).
weight(74, 2).
weight(75, 7).
weight(76, 4).
weight(77, 4).
weight(78, 6).
weight(79, 8).
weight(80, 1).
weight(81, 2).
weight(82, 5).
weight(83, 6).
weight(84, 2).
weight(85, 2).
weight(86, 1).
weight(87, 4).
weight(88, 3).
weight(89, 5).
weight(90, 3).
weight(91, 8).
weight(92, 1).
weight(93, 4).
weight(94, 2).
weight(95, 1).
weight(96, 8).
weight(97, 1).
weight(98, 2).
weight(99, 2).
weight(100, 6).
weight(101, 6).
weight(102, 4).
weight(103, 5).
weight(104, 3).
weight(105, 2).
weight(106, 8).
weight(107, 4).
weight(108, 7).
weight(109, 8).
weight(110, 1).
weight(111, 8).
weight(112, 2).
weight(113, 6).
weight(114, 6).
weight(115, 1).
weight(116, 4).
weight(117, 1).
weight(118, 2).
weight(119, 5).
weight(120, 2).
weight(121, 3).
weight(122, 6).
weight(123, 8).
weight(124, 6).
weight(125, 7).
weight(126, 3).
weight(127, 2).
weight(128, 4).
bound(54).

adj(U,V) :- edge(U,V).
adj(U,V) :- edge(V,U).
{in(V)} :- node(V).
dominated(V) :- in(V).
dominated(V) :- in(U), adj(U,V).
:- node(V), not dominated(V).
:- bound(B), #sum{W,V : in(V), weight(V,W)} > B.
:~ in(V), weight(V,W). [W@1,V]
