node(0..135).
edge(40, 86).
edge(21, 44).
edge(74, 127).
edge(103, 107).
edge(2, 106).
edge(10, 100).
edge(23, 115).
edge(14, 82).
edge(26, 89).
edge(63, 76).
edge(6, 61).
edge(123, 125).
edge(20, 56).
edge(78, 130).
edge(68, 135).
edge(73, 115).
edge(16, 106).
edge(22, 77).
edge(72, 100).
edge(85, 128).
edge(17, 44).
edge(10, 27).
edge(82, 93).
edge(24, 79).
edge(80, 109).
edge(35, 107).
edge(29, 61).
edge(43, 67).
edge(84, 94).
edge(10, 89).
edge(76, 87).
edge(38, 132).
edge(4, 17).
edge(64, 67).
edge(32, 72).
edge(67, 81).
edge(2, 113).
edge(100, 120).
edge(0, 15).
edge(4, 68).
edge(74, 99).
edge(119, 128).
edge(50, 96).
edge(45, 47).
edge(34, 67).
edge(58, 133).
edge(120, 126).
edge(0, 6).
edge(3, 49).
edge(30, 128).
edge(88, 112).
edge(2, 133).
edge(13, 104).
edge(19, 29).
edge(61, 74).
edge(75, 80).
edge(14, 102).
edge(70, 79).
edge(61, 118).
edge(22, 107).
edge(47, 105).
edge(6, 128).
edge(24, 121).
edge(18, 92).
edge(28, 64).
edge(60, 110).
edge(13, 76).
edge(19, 84).
edge(106, 130).
edge(14, 96).
edge(55, 113).
edge(106, 117).
edge(89, 114).
edge(31, 62).
edge(9, 34).
edge(36, 71).
edge(28, 42).
edge(25, 91).
edge(54, 107).
edge(19, 37).
edge(34, 105).
edge(71, 80).
edge(93, 129).
edge(45, 115).
edge(62, 94).
edge(70, 123).
edge(122, 131).
edge(67, 103).
edge(2, 123).
edge(17, 109).
edge(67, 120).
edge(21, 67).
edge(121, 129).
edge(4, 97).
edge(54, 67).
edge(10, 25).
edge(53, 118).
edge(29, 103).
edge(30, 95).
edge(18, 104).
edge(104, 105).
edge(8, 112).
edge(94, 101).
edge(46, 67).
edge(44, 68).
edge(95, 122).
edge(8, 98).
edge(92, 109).
edge(32, 87).
edge(29, 107).
edge(17, 87).
edge(87, 110).
edge(93, 111).
edge(42, 78).
edge(48, 67).
edge(53, 56).
edge(40, 56).
edge(55, 134).
edge(0, 98).
edge(81, 106).
edge(20, 72).
edge(104, 120).
edge(44, 100).
edge(93, 108).
edge(22, 81).
edge(13, 61).
edge(57, 88).
edge(0, 61).
edge(48, 52).
edge(73, 126).
edge(58, 114).
edge(37, 76).
edge(21, 120).
edge(44, 111).
edge(65, 129).
edge(32, 105).
edge(44, 121).
edge(68, 100).
edge(81, 83).
edge(33, 109).
edge(119, 132).
edge(66, 96).
edge(39, 48).
edge(68, 96).
edge(54, 96).
edge(73, 103).
edge(27, 30).
edge(8, 131).
edge(55, 101).
edge(24, 98).
edge(92, 99).
edge(73, 122).
edge(37, 97).
edge(83, 96).
edge(73, 86).
edge(16, 117).
edge(26, 88).
edge(112, 122).
edge(7, 29).
edge(34, 68).
edge(68, 129).
edge(17, 107).
edge(9, 36).
edge(42, 122).
edge(73, 76).
edge(42, 111).
edge(33, 70).
edge(34, 94).
edge(39, 50).
edge(7, 50).
edge(16, 126).
edge(107, 115).
edge(18, 60).
edge(49, 81).
edge(52, 100).
edge(41, 94).
edge(46, 108).
edge(56, 66).
edge(44, 122).
edge(24, 60).
edge(59, 63).
edge(40, 69).
edge(52, 132).
edge(5, 65).
edge(18, 93).
edge(3, 80).
edge(43, 108).
edge(38, 123).
edge(72, 102).
edge(13, 81).
edge(82, 106).
edge(67, 78).
edge(70, 90).
edge(116, 118).
edge(8, 113).
edge(42, 52).
edge(0, 125).
edge(50, 118).
edge(13, 101).
edge(36, 64).
edge(24, 64).
edge(17, 129).
edge(65, 105).
edge(103, 128).
edge(7, 112).
edge(90, 98).
edge(12, 130).
edge(20, 40).
edge(97, 128).
edge(1, 122).
edge(10, 108).
edge(1, 132).
edge(29, 127).
edge(2, 15).
edge(13, 103).
edge(36, 100).
edge(47, 110).
edge(89, 132).
edge(86, 108).
edge(78, 106).
edge(44, 74).
edge(101, 134).
edge(98, 113).
edge(49, 62).
edge(111, 124).
edge(51, 98).
edge(43, 68).
edge(17, 78).
edge(34, 73).
edge(47, 100).
edge(8, 22).
edge(5, 63).
edge(18, 79).
edge(56, 117).
edge(26, 62).
edge(35, 92).
edge(6, 84).
edge(0, 27).
edge(41, 44).
edge(37, 68).
edge(5, 66).
edge(32, 100).
edge(16, 109).
edge(5, 114).
edge(75, 90).
edge(35, 119).
edge(116, 130).
edge(95, 133).
edge(14, 48).
edge(31, 78).
edge(17, 113).
edge(8, 90).
edge(37, 84).
edge(33, 91).
edge(32, 86).
edge(14, 79).
edge(112, 127).
edge(16, 114).
edge(16, 96).
edge(24, 130).
edge(12, 134).
edge(54, 65).
edge(7, 68).
edge(70, 117).
edge(38, 93).
edge(27, 108).
edge(54, 115).
edge(1, 7).
edge(16, 95).
edge(56, 134).
edge(78, 84).
edge(34, 39).
edge(102, 110).
edge(59, 135).
edge(84, 117).
edge(46, 47).
edge(74, 84).
edge(24, 117).
edge(108, 120).
edge(15, 66).
edge(20, 52).
edge(40, 130).
edge(37, 66).
edge(31, 113).
edge(30, 99).
edge(40, 128).
edge(76, 133).
edge(51, 120).
edge(7, 58).
edge(103, 132).
edge(1, 69).
edge(42, 82).
edge(20, 27).
edge(34, 56).
edge(59, 94).
edge(51, 115).
edge(63, 124).
edge(25, 99).
edge(48, 59).
edge(7, 19).
edge(45, 57).
edge(8, 110).
edge(0, 108).
edge(68, 105).
edge(9, 28).
edge(15, 73).
edge(55, 92).
edge(12, 81).
edge(17, 36).
edge(55, 57).
edge(59, 131).
edge(55, 125).
edge(57, 116).
edge(10, 109).
edge(31, 51).
edge(7, 102).
edge(64, 131).
edge(2, 10).
edge(19, 89).
edge(7, 42).
edge(78, 97).
edge(6, 65).
edge(58, 82).
edge(0, 19).
edge(21, 115).
edge(14, 132).
edge(64, 123).
edge(27, 31).
edge(55, 65).
edge(44, 125).
edge(86, 99).
edge(79, 93).
edge(2, 101).
edge(32, 43).
edge(80, 100).
edge(17, 89).
edge(16, 69).
edge(14, 94).
edge(72, 101).
edge(45, 52).
edge(67, 87).
edge(73, 123).
edge(42, 54).
edge(88, 91).
edge(105, 123).
edge(64, 111).
edge(67, 135).
edge(12, 56).
edge(10, 102).
edge(60, 77).
edge(34, 118).
edge(27, 124).
edge(8, 119).
edge(79, 129).
edge(54, 72).
edge(74, 101).
edge(56, 122).
edge(73, 82).
edge(57, 67).
edge(76, 95).
edge(25, 30).
edge(83, 104).
edge(66, 102).
edge(71, 126).
edge(45, 96).
edge(80, 88).
edge(34, 89).
edge(5, 51).
edge(13, 93).
edge(1, 128).
edge(90, 102).
edge(31, 77).
edge(117, 125).
edge(75, 101).
edge(122, 123).
edge(37, 61).
edge(79, 124).
edge(9, 52).
edge(91, 100).
edge(42, 76).
edge(93, 131).
edge(13, 106).
edge(16, 99).
edge(49, 53).
edge(60, 114).
edge(120, 134).
edge(87, 120).
edge(38, 135).
edge(124, 126).
edge(112, 133).
edge(50, 54).
edge(72, 123).
edge(61, 76).
edge(31, 94).
edge(38, 74).
edge(28, 96).
edge(48, 62).
edge(106, 115).
edge(94, 130).
edge(57, 62).
edge(57, 104).
edge(110, 124).
edge(6, 95).
edge(9, 131).
edge(60, 123).
edge(50, 110).
edge(1, 2).
edge(52, 90).
edge(63, 92).
edge(44, 110).
edge(114, 118).
edge(70, 131).
edge(47, 74).
edge(32, 59).
edge(118, 119).
edge(50, 69).
edge(13, 80).
edge(18, 62).
edge(99, 128).
edge(23, 75).
edge(24, 66).
edge(109, 135).
edge(92, 119).
edge(73, 78).
edge(35, 130).
edge(32, 38).
edge(9, 89).
edge(71, 72).
edge(20, 38).
edge(110, 121).
edge(47, 96).
edge(59, 87).
edge(28, 41).
edge(106, 111).
edge(61, 107).
edge(26, 30).
edge(20, 32).
edge(3, 104).
edge(86, 129).
edge(28, 76).
edge(66, 125).
edge(16, 108).
edge(50, 115).
edge(15, 117).
edge(54, 83).
edge(7, 128).
edge(4, 92).
edge(11, 134).
edge(87, 132).
edge(96, 113).
edge(9, 75).
edge(67, 134).
edge(15, 103).
edge(17, 26).
edge(6, 32).
edge(33, 50).
edge(86, 133).
edge(6, 101).
edge(53, 74).
edge(38, 64).
edge(68, 72).
edge(6, 59).
edge(30, 58).
edge(0, 40).
edge(9, 106).
edge(2, 89).
edge(23, 129).
edge(93, 117).
edge(66, 120).
edge(128, 132).
edge(38, 87).
edge(43, 58).
edge(84, 118).
edge(38, 73).
edge(31, 71).
edge(84, 108).
edge(4, 103).
edge(25, 71).
edge(40, 131).
edge(39, 51).
edge(78, 82).
edge(17, 29).
edge(30, 56).
edge(1, 81).
edge(95, 124).
edge(82, 116).
edge(82, 83).
edge(46, 131).
edge(8, 96).
edge(33, 110).
edge(93, 114).
edge(2, 110).
edge(31, 135).
edge(22, 115).
edge(78, 103).
edge(73, 108).
edge(35, 114).
edge(25, 124).
edge(77, 87).
edge(17, 92).
edge(66, 103).
edge(51, 79).
edge(81, 97).
edge(111, 120).
edge(29, 42).
edge(1, 4).
edge(28, 35).
edge(14, 40).
edge(52, 59).
edge(73, 87).
edge(80, 125).
edge(27, 71).
edge(24, 33).
edge(21, 113).
edge(61, 130).
edge(60, 101).
edge(39, 128).
edge(5, 39).
edge(76, 99).
edge(66, 113).
edge(77, 88).
edge(19, 66).
edge(83, 106).
edge(71, 132).
edge(71, 125).
edge(12, 132).
edge(3, 102).
edge(46, 91).
edge(41, 129).
edge(49, 78).
edge(57, 112).
edge(53, 127).
edge(7, 121).
edge(34, 45).
edge(63, 133).
edge(64, 71).
edge(6, 80).
edge(3, 62).
edge(9, 92).
edge(35, 120).
edge(94, 97).
edge(101, 133).
edge(76, 89).
edge(7, 53).
edge(114, 115).
edge(85, 91).
edge(20, 126).
edge(17, 74).
edge(33, 46).
edge(37, 133).
edge(50, 92).
edge(51, 55).
edge(37, 95).
edge(38, 130).
edge(33, 101).
edge(6, 79).
edge(19, 76).
edge(93, 135).
edge(51, 108).
edge(82, 97).
edge(20, 29).
edge(1, 52).
edge(26, 114).
edge(61, 62).
edge(17, 82).
edge(61, 133).
edge(44, 102).
edge(37, 94).
edge(74, 92).
edge(10, 121).
edge(1, 57).
edge(24, 131).
edge(43, 97).
edge(63, 118).
edge(35, 53).
edge(52, 79).
edge(18, 89).
edge(96, 131).
edge(104, 115).
edge(58, 88).
edge(113, 116).
edge(115, 121).
edge(115, 133).
edge(116, 119).
edge(11, 123).
edge(64, 106).
edge(58, 135).
edge(41, 92).
edge(65, 110).
edge(36, 102).
edge(12, 101).
edge(39, 40).
edge(43, 135).
edge(58, 68).
edge(54, 105).
edge(83, 113).
edge(94, 114).
edge(18, 73).
edge(60, 125).
edge(5, 23).
edge(2, 56).
edge(72, 85).
edge(50, 86).
edge(21, 85).
edge(7, 20).
edge(103, 108).
edge(54, 63).
edge(61, 90).
edge(47, 65).
edge(11, 34).
edge(25, 93).
edge(28, 129).
edge(38, 47).
edge(35, 52).
edge(67, 85).
edge(121, 131).
edge(43, 55).
edge(83, 99).
edge(84, 132).
edge(9, 19).
edge(20, 82).
edge(90, 133).
edge(25, 44).
edge(15, 133).
edge(75, 130).
edge(69, 94).
edge(76, 134).
edge(22, 79).
edge(96, 100).
edge(2, 24).
edge(31, 99).
edge(25, 103).
edge(43, 63).
edge(18, 72).
edge(71, 106).
edge(88, 117).
edge(25, 111).
edge(32, 81).
edge(3, 111).
edge(41, 85).
edge(5, 94).
edge(37, 41).
edge(21, 38).
edge(50, 85).
edge(49, 66).
edge(38, 44).
edge(7, 113).
edge(86, 89).
edge(8, 100).
edge(0, 94).
edge(55, 91).
edge(123, 128).
edge(3, 130).
edge(51, 77).
edge(8, 55).
edge(2, 86).
edge(53, 115).
edge(16, 77).
edge(78, 110).
edge(33, 60).
edge(103, 117).
edge(16, 67).
edge(22, 61).
edge(79, 108).
edge(21, 92).
edge(28, 62).
edge(58, 97).
edge(129, 134).
edge(7, 17).
edge(11, 44).
edge(62, 88).
edge(116, 133).
edge(43, 62).
edge(0, 29).
edge(107, 120).
edge(5, 107).
edge(75, 119).
edge(37, 48).
edge(8, 39).
edge(23, 87).
edge(67, 91).
edge(71, 75).
edge(103, 130).
edge(50, 95).
edge(16, 83).
edge(37, 59).
edge(21, 86).
edge(63, 68).
edge(35, 124).
edge(111, 118).
edge(41, 43).
edge(24, 29).
edge(35, 135).
edge(11, 71).
edge(67, 125).
edge(37, 116).
edge(62, 78).
edge(42, 124).
edge(26, 39).
edge(21, 134).
edge(96, 112).
edge(6, 130).
edge(42, 67).
edge(0, 49).
edge(0, 116).
edge(57, 76).
edge(59, 116).
edge(1, 111).
edge(23, 112).
edge(2, 13).
edge(14, 127).
edge(97, 118).
edge(35, 116).
edge(5, 109).
edge(33, 76).
edge(19, 103).
edge(44, 79).
edge(77, 78).
edge(19, 21).
edge(25, 59).
edge(11, 28).
edge(68, 82).
edge(32, 88).
edge(27, 38).
edge(45, 112).
edge(87, 99).
edge(63, 67).
edge(55, 103).
edge(64, 107).
edge(62, 92).
edge(41, 72).
edge(49, 107).
edge(14, 114).
edge(87, 131).
edge(37, 78).
edge(45, 49).
edge(6, 90).
edge(50, 57).
edge(16, 131).
edge(29, 94).
edge(2, 44).
edge(49, 54).
edge(73, 93).
edge(26, 103).
edge(54, 80).
edge(24, 119).
edge(32, 92).
edge(92, 96).
edge(64, 113).
edge(105, 114).
edge(3, 66).
edge(55, 133).
edge(4, 37).
edge(95, 115).
edge(21, 121).
edge(113, 121).
edge(30, 53).
edge(10, 36).
edge(90, 131).
edge(65, 95).
edge(76, 96).
edge(74, 128).
edge(57, 117).
edge(32, 37).
edge(23, 62).
edge(12, 34).
edge(113, 128).
edge(68, 117).
edge(67, 105).
edge(93, 123).
edge(100, 128).
edge(118, 125).
edge(46, 90).
edge(105, 131).
edge(5, 32).
edge(38, 115).
edge(17, 68).
edge(80, 121).
edge(88, 100).
edge(33, 77).
edge(83, 107).
edge(24, 43).
edge(64, 94).
edge(13, 88).
edge(63, 109).
edge(62, 107).
edge(46, 126).
edge(20, 122).
edge(41, 67).
edge(42, 66).
edge(33, 87).
edge(13, 120).
edge(64, 84).
edge(61, 122).
edge(1, 85).
edge(81, 87).
edge(31, 49).
edge(40, 71).
edge(89, 90).
edge(49, 118).
edge(36, 105).
edge(44, 77).
edge(67, 68).
edge(83, 109).
edge(20, 77).
edge(26, 72).
edge(2, 132).
edge(3, 108).
edge(23, 85).
edge(41, 75).
edge(65, 96).
edge(5, 111).
edge(36, 39).
edge(62, 68).
edge(14, 128).
edge(4, 54).
edge(130, 132).
edge(71, 89).
edge(62, 83).
edge(34, 79).
edge(23, 34).
edge(70, 85).
edge(34, 82).
edge(94, 106).
edge(85, 125).
edge(24, 133).
edge(56, 58).
edge(26, 120).
edge(102, 106).
edge(75, 122).
edge(65, 78).
edge(4, 24).
edge(10, 39).
edge(39, 100).
edge(38, 110).
edge(50, 98).
edge(60, 133).
edge(9, 64).
edge(118, 120).
edge(43, 112).
edge(78, 126).
edge(50, 80).
edge(106, 119).
edge(5, 78).
edge(27, 73).
edge(56, 67).
edge(96, 128).
edge(33, 121).
edge(95, 126).
edge(38, 76).
edge(22, 91).
edge(98, 121).
edge(23, 35).
edge(32, 77).
edge(107, 121).
edge(1, 48).
edge(2, 39).
edge(42, 71).
edge(21, 36).
edge(51, 119).
edge(19, 34).
edge(46, 113).
edge(89, 123).
edge(98, 114).
edge(3, 61).
edge(57, 79).
edge(21, 65).
edge(64, 77).
edge(31, 111).
edge(45, 86).
edge(39, 49).
edge(72, 122).
edge(18, 90).
edge(26, 35).
edge(48, 131).
edge(67, 92).
edge(87, 122).
edge(36, 116).
edge(61, 109).
edge(16, 124).
edge(29, 77).
edge(38, 118).
edge(74, 108).
edge(84, 112).
edge(11, 53).
edge(69, 110).
edge(62, 82).
edge(13, 37).
edge(106, 110).
edge(61, 73).
edge(30, 121).
edge(25, 127).
edge(44, 49).
edge(14, 98).
edge(4, 94).
edge(43, 121).
edge(51, 112).
edge(57, 58).
edge(4, 48).
edge(0, 121).
edge(26, 83).
edge(19, 39).
edge(12, 93).
edge(14, 65).
edge(4, 114).
edge(48, 88).
edge(81, 114).
edge(100, 106).
edge(22, 35).
edge(102, 134).
edge(16, 118).
edge(12, 120).
edge(34, 96).
edge(114, 132).
edge(66, 68).
edge(4, 107).
edge(20, 45).
edge(31, 80).
edge(19, 36).
edge(70, 108).
edge(28, 134).
edge(98, 122).
edge(21, 81).
edge(74, 95).
edge(48, 113).
edge(41, 115).
edge(10, 110).
edge(96, 103).
edge(32, 50).
edge(58, 122).
edge(36, 123).
edge(110, 117).
edge(46, 111).
edge(84, 122).
edge(87, 129).
edge(85, 87).
edge(87, 104).
edge(40, 52).
edge(13, 72).
edge(116, 134).
edge(2, 20).
edge(45, 72).
edge(53, 126).
edge(15, 30).
edge(26, 42).
edge(94, 133).
edge(8, 66).
edge(16, 30).
edge(37, 51).
edge(50, 77).
edge(118, 135).
edge(36, 40).
edge(63, 81).
edge(5, 26).
edge(67, 119).
edge(72, 117).
edge(58, 74).
edge(31, 91).
edge(66, 134).
edge(40, 94).
edge(82, 92).
edge(43, 79).
edge(56, 74).
edge(89, 97).
edge(41, 73).
edge(24, 41).
edge(44, 67).
edge(33, 124).
edge(6, 53).
edge(111, 114).
edge(17, 46).
edge(25, 84).
edge(38, 120).
edge(89, 118).
edge(25, 48).
edge(69, 76).
edge(39, 90).
edge(103, 122).
edge(83, 128).
edge(107, 109).
edge(108, 125).
edge(71, 74).
edge(92, 100).
edge(64, 134).
edge(19, 97).
edge(39, 115).
edge(25, 33).
edge(38, 69).
edge(11, 79).
edge(61, 129).
edge(115, 123).
edge(1, 82).
edge(19, 47).
edge(38, 66).
edge(27, 64).
edge(54, 109).
edge(82, 110).
edge(60, 119).
edge(2, 126).
edge(10, 53).
edge(82, 119).
edge(94, 131).
edge(72, 132).
edge(5, 75).
edge(85, 101).
edge(53, 97).
edge(33, 52).
edge(12, 116).
edge(19, 69).
edge(5, 11).
edge(23, 76).
edge(16, 32).
edge(2, 31).
edge(72, 91).
edge(15, 63).
edge(14, 74).
edge(31, 123).
edge(69, 84).
edge(77, 110).
edge(21, 117).
edge(78, 113).
edge(2, 104).
edge(83, 131).
edge(15, 130).
edge(105, 110).
edge(18, 128).
edge(61, 91).
edge(40, 59).
edge(1, 35).
edge(17, 101).
edge(38, 102).
edge(10, 99).
edge(11, 14).
edge(2, 43).
edge(59, 102).
edge(34, 88).
edge(22, 110).
edge(44, 70).
edge(3, 109).
edge(105, 115).
edge(21, 116).
edge(60, 73).
edge(56, 96).
edge(18, 124).
edge(18, 65).
edge(10, 68).
edge(42, 70).
edge(64, 116).
edge(4, 122).
edge(21, 42).
edge(7, 104).
edge(12, 62).
edge(101, 110).
edge(41, 98).
edge(1, 20).
edge(58, 79).
edge(44, 47).
edge(0, 87).
edge(65, 94).
edge(77, 135).
edge(36, 118).
edge(32, 46).
edge(14, 116).
edge(3, 94).
edge(130, 135).
edge(13, 56).
edge(22, 54).
edge(60, 115).
edge(40, 62).
edge(46, 114).
edge(80, 85).
edge(62, 77).
edge(29, 43).
edge(68, 128).
edge(15, 96).
edge(68, 109).
edge(29, 87).
edge(15, 56).
edge(1, 72).
edge(5, 18).
edge(103, 114).
edge(52, 106).
edge(27, 91).
edge(23, 27).
edge(26, 96).
edge(12, 41).
edge(89, 127).
edge(71, 110).
edge(60, 105).
edge(18, 66).
edge(94, 113).
edge(8, 85).
edge(52, 86).
edge(43, 61).
edge(17, 135).
edge(15, 95).
edge(18, 20).
edge(43, 118).
edge(69, 121).
edge(93, 134).
edge(95, 111).
edge(0, 5).
edge(1, 54).
edge(9, 18).
edge(3, 7).
edge(45, 46).
edge(105, 119).
edge(45, 134).
edge(2, 12).
edge(19, 106).
edge(2, 116).
edge(27, 117).
edge(71, 131).
edge(28, 105).
edge(103, 126).
edge(117, 129).
edge(4, 27).
edge(50, 121).
edge(23, 95).
edge(24, 107).
edge(16, 128).
edge(93, 122).
edge(4, 126).
edge(112, 134).
edge(12, 49).
edge(15, 28).
edge(18, 80).
edge(51, 83).
edge(71, 73).
edge(88, 129).
edge(75, 85).
edge(0, 58).
edge(25, 43).
edge(103, 118).
edge(36, 55).
edge(7, 33).
edge(72, 119).
edge(29, 105).
edge(4, 127).
edge(46, 87).
edge(3, 110).
edge(43, 132).
edge(108, 133).
edge(2, 96).
edge(6, 58).
edge(115, 127).
edge(52, 76).
edge(36, 79).
edge(14, 46).
edge(19, 96).
edge(11, 72).
edge(84, 127).
edge(30, 113).
edge(10, 107).
edge(1, 78).
edge(1, 63).
edge(58, 104).
edge(5, 126).
edge(7, 87).
edge(33, 64).
edge(25, 135).
edge(43, 70).
edge(107, 113).
edge(74, 126).
edge(1, 73).
edge(104, 131).
edge(12, 77).
edge(60, 72).
edge(22, 93).
edge(94, 117).
edge(30, 133).
edge(27, 34).
edge(79, 131).
edge(52, 113).
edge(23, 94).
edge(4, 115).
edge(24, 96).
edge(10, 35).
edge(36, 53).
edge(93, 121).
edge(85, 111).
edge(79, 105).
edge(28, 94).
edge(93, 110).
edge(27, 123).
edge(74, 132).
edge(8, 135).
edge(80, 103).
edge(0, 129).
edge(25, 105).
edge(28, 111).
edge(78, 108).
edge(94, 103).
edge(35, 81).
edge(76, 102).
edge(4, 80).
edge(40, 127).
edge(16, 24).
edge(46, 107).
edge(30, 60).
edge(16, 107).
edge(23, 127).
edge(62, 111).
edge(18, 85).
edge(18, 98).
edge(66, 119).
edge(56, 105).
edge(19, 134).
edge(81, 130).
edge(6, 122).
edge(118, 133).
edge(43, 81).
edge(34, 72).
edge(97, 124).
edge(77, 98).
edge(52, 75).
edge(9, 62).
edge(41, 99).
edge(26, 64).
edge(103, 111).
edge(7, 63).
edge(110, 128).
edge(17, 86).
edge(36, 111).
edge(69, 129).
edge(54, 132).
edge(61, 70).
edge(72, 131).
edge(30, 88).
edge(5, 86).
edge(33, 61).
edge(46, 97).
edge(115, 129).
edge(26, 91).
edge(54, 64).
edge(61, 95).
edge(76, 120).
edge(88, 127).
edge(47, 84).
edge(29, 83).
edge(74, 120).
edge(11, 15).
edge(20, 108).
edge(84, 115).
edge(90, 125).
edge(37, 105).
edge(41, 57).
edge(49, 94).
edge(81, 123).
edge(23, 51).
edge(37, 128).
edge(38, 133).
edge(32, 68).
edge(18, 84).
edge(60, 129).
edge(21, 46).
edge(89, 115).
edge(68, 119).
edge(12, 50).
edge(29, 133).
edge(50, 65).
edge(46, 119).
edge(0, 68).
edge(83, 120).
edge(81, 135).
edge(25, 47).
edge(35, 55).
edge(56, 90).
edge(87, 97).
edge(24, 106).
edge(2, 74).
edge(61, 102).
edge(54, 117).
edge(57, 84).
edge(83, 105).
edge(25, 95).
edge(43, 74).
edge(58, 120).
edge(8, 87).
edge(47, 118).
edge(10, 98).
edge(15, 46).
edge(125, 126).
edge(1, 56).
edge(11, 133).
edge(22, 85).
edge(20, 83).
edge(79, 103).
edge(6, 87).
edge(98, 109).
edge(53, 80).
edge(43, 109).
edge(15, 69).
edge(1, 41).
edge(83, 102).
edge(35, 131).
edge(31, 39).
edge(54, 100).
edge(72, 105).
edge(8, 36).
edge(34, 44).
edge(71, 129).
edge(116, 131).
edge(3, 21).
edge(25, 77).
edge(7, 74).
edge(27, 83).
edge(44, 72).
edge(92, 128).
edge(26, 73).
edge(42, 79).
edge(78, 116).
edge(1, 112).
edge(60, 92).
edge(69, 85).
edge(11, 39).
edge(79, 122).
edge(80, 81).
edge(90, 118).
edge(75, 104).
edge(54, 102).
edge(27, 45).
edge(33, 118).
edge(24, 61).
edge(23, 69).
edge(35, 134).
edge(34, 71).
edge(15, 124).
edge(28, 66).
edge(67, 110).
edge(2, 72).
edge(116, 135).
edge(17, 117).
edge(72, 93).
edge(0, 13).
edge(86, 88).
edge(0, 59).
edge(95, 107).
edge(57, 135).
edge(12, 80).
edge(108, 130).
edge(55, 64).
edge(30, 37).
edge(49, 104).
edge(36, 96).
edge(2, 108).
edge(24, 54).
edge(3, 10).
edge(44, 53).
edge(79, 100).
edge(104, 113).
edge(42, 130).
edge(38, 98).
edge(59, 127).
edge(59, 88).
edge(59, 92).
edge(24, 62).
edge(20, 78).
edge(129, 132).
edge(55, 100).
edge(85, 126).
edge(32, 99).
edge(17, 55).
edge(51, 99).
edge(35, 70).
edge(31, 63).
edge(59, 110).
edge(46, 122).
edge(31, 115).
edge(8, 64).
edge(23, 41).
edge(43, 94).
edge(28, 77).
edge(5, 17).
edge(99, 133).
edge(119, 135).
edge(44, 46).
edge(32, 91).
edge(0, 10).
edge(16, 22).
edge(49, 91).
edge(32, 133).
edge(6, 93).
edge(117, 127).
edge(3, 6).
edge(41, 48).
edge(81, 92).
edge(45, 97).
edge(51, 76).
edge(70, 114).
edge(10, 44).
edge(68, 115).
edge(64, 105).
edge(42, 109).
edge(74, 124).
edge(56, 103).
edge(28, 61).
edge(99, 126).
edge(56, 72).
edge(50, 131).
edge(3, 112).
edge(45, 54).
edge(8, 125).
edge(97, 106).
edge(0, 38).
edge(1, 124).
edge(28, 55).
edge(1, 51).
edge(10, 62).
edge(48, 77).
edge(15, 81).
edge(47, 92).
edge(31, 133).
edge(102, 116).
edge(41, 86).
edge(104, 112).
edge(24, 97).
edge(12, 128).
edge(33, 97).
edge(48, 118).
edge(20, 24).
edge(16, 37).
edge(25, 69).
edge(86, 120).
edge(31, 67).
edge(128, 130).
edge(20, 80).
edge(27, 46).
edge(45, 113).
edge(98, 103).
edge(115, 135).
edge(12, 75).
edge(75, 113).
edge(73, 95).
edge(101, 121).
edge(75, 125).
edge(84, 119).
edge(16, 76).
edge(32, 129).
edge(29, 100).
edge(64, 115).
edge(40, 61).
edge(45, 122).
edge(60, 124).
edge(93, 103).
edge(67, 95).
edge(22, 28).
edge(72, 103).
edge(80, 99).
edge(5, 68).
edge(27, 42).
edge(68, 121).
edge(77, 92).
edge(96, 125).
edge(51, 64).
edge(6, 20).
edge(2, 103).
edge(24, 44).
edge(36, 135).
edge(24, 116).
edge(67, 73).
edge(120, 132).
edge(58, 62).
edge(6, 109).
edge(59, 79).
edge(89, 99).
edge(32, 104).
edge(2, 61).
edge(57, 86).
edge(36, 45).
edge(17, 54).
edge(36, 91).
edge(62, 64).
edge(101, 114).
edge(129, 130).
edge(30, 85).
edge(73, 91).
edge(14, 117).
edge(55, 112).
edge(88, 89).
edge(15, 36).
edge(25, 120).
edge(103, 123).
edge(31, 65).
edge(24, 45).
edge(79, 92).
edge(4, 14).
edge(24, 91).
edge(72, 89).
edge(66, 108).
edge(7, 12).
edge(77, 128).
edge(72, 133).
edge(25, 57).
edge(58, 103).
edge(57, 82).
edge(92, 133).
edge(77, 112).
edge(75, 128).
edge(106, 125).
edge(11, 55).
edge(58, 108).
edge(13, 112).
edge(88, 107).
edge(68, 101).
edge(15, 49).
edge(6, 123).
edge(29, 44).
edge(63, 125).
edge(41, 60).
edge(26, 69).
edge(26, 86).
edge(40, 58).
edge(104, 121).
edge(9, 111).
edge(26, 34).
edge(4, 128).
edge(50, 120).
edge(22, 82).
edge(34, 110).
edge(47, 70).
edge(51, 122).
edge(41, 61).
edge(56, 108).
edge(4, 70).
edge(47, 131).
edge(75, 89).
edge(108, 127).
edge(11, 76).
edge(48, 103).
edge(92, 131).
edge(68, 130).
edge(37, 92).
edge(2, 75).
edge(48, 66).
edge(75, 96).
edge(47, 76).
edge(83, 84).
edge(11, 74).
edge(6, 8).
edge(9, 125).
edge(62, 63).
edge(45, 66).
edge(59, 81).
edge(48, 109).
edge(26, 27).
edge(12, 30).
edge(63, 130).
edge(47, 63).
edge(14, 47).
edge(123, 133).
edge(55, 119).
edge(57, 133).
edge(63, 73).
edge(71, 103).
edge(91, 110).
edge(2, 40).
edge(20, 41).
edge(61, 78).
edge(116, 127).
edge(86, 124).
edge(17, 33).
edge(68, 97).
edge(0, 92).
edge(5, 130).
edge(110, 131).
edge(48, 126).
edge(121, 132).
edge(15, 106).
edge(69, 131).
edge(1, 94).
edge(24, 118).
edge(79, 85).
edge(31, 104).
edge(44, 96).
edge(95, 119).
edge(70, 77).
edge(4, 8).
edge(115, 134).
edge(39, 41).
edge(65, 86).
edge(99, 123).
edge(6, 113).
edge(70, 128).
edge(29, 115).
edge(11, 59).
edge(41, 64).
edge(31, 47).
edge(76, 127).
edge(94, 121).
edge(23, 24).
edge(19, 82).
edge(32, 132).
edge(82, 134).
edge(51, 69).
edge(117, 121).
edge(74, 106).
edge(35, 110).
edge(90, 116).
edge(27, 58).
edge(42, 60).
edge(100, 108).
edge(12, 84).
edge(13, 79).
edge(18, 43).
edge(22, 32).
edge(21, 43).
edge(20, 121).
edge(61, 114).
edge(3, 64).
edge(40, 121).
edge(36, 72).
edge(52, 71).
edge(85, 103).
edge(35, 129).
edge(10, 20).
edge(8, 83).
edge(120, 135).
edge(73, 125).
edge(34, 76).
edge(33, 83).
edge(12, 117).
edge(84, 93).
edge(48, 61).
edge(30, 106).
edge(6, 22).
edge(89, 126).
edge(79, 118).
edge(71, 86).
edge(57, 99).
edge(0, 83).
edge(49, 129).
edge(112, 123).
edge(23, 32).
edge(62, 132).
edge(39, 130).
edge(66, 105).
edge(98, 124).
edge(9, 14).
edge(81, 96).
edge(44, 128).
edge(82, 105).
edge(11, 82).
edge(29, 37).
edge(12, 94).
edge(63, 100).
edge(13, 99).
edge(71, 107).
edge(54, 113).
edge(31, 45).
edge(37, 79).
edge(10, 88).
edge(6, 114).
edge(83, 110).
edge(36, 103).
edge(62, 114).
edge(111, 134).
edge(52, 108).
edge(60, 134).
edge(56, 57).
edge(118, 121).
edge(7, 11).
edge(23, 26).
edge(47, 119).
edge(61, 89).
edge(9, 71).
edge(3, 77).
edge(52, 64).
edge(65, 71).
edge(4, 112).
edge(96, 102).
edge(68, 104).
edge(85, 97).
edge(19, 98).
edge(34, 135).
edge(32, 126).
edge(18, 24).
edge(106, 131).
edge(46, 133).
edge(55, 104).
edge(83, 130).
edge(49, 51).
edge(0, 22).
edge(118, 130).
edge(73, 120).
edge(27, 93).
edge(29, 86).
edge(4, 56).
edge(34, 95).
edge(69, 119).
edge(0, 96).
edge(25, 94).
edge(79, 96).
edge(100, 119).
edge(41, 100).
edge(80, 82).
edge(68, 107).
edge(35, 133).
edge(35, 94).
edge(91, 113).
edge(15, 78).
edge(73, 133).
edge(39, 86).
edge(48, 87).
edge(62, 87).
edge(46, 65).
edge(79, 107).
edge(70, 99).
edge(13, 45).
edge(21, 112).
edge(62, 76).
edge(88, 90).
edge(65, 131).
edge(62, 79).
edge(39, 105).
edge(39, 77).
edge(28, 46).
edge(46, 88).
edge(91, 123).
edge(63, 74).
edge(61, 80).
edge(23, 33).
edge(81, 128).
edge(28, 121).
edge(17, 130).
edge(27, 77).
edge(16, 93).
edge(23, 86).
edge(5, 67).
edge(36, 47).
edge(77, 126).
edge(28, 80).
edge(14, 104).
edge(85, 98).
edge(42, 103).
edge(0, 35).
edge(4, 59).
edge(70, 73).
edge(32, 94).
edge(117, 128).
edge(16, 59).
edge(110, 119).
edge(76, 79).
edge(110, 130).
edge(27, 97).
edge(0, 107).
edge(2, 111).
edge(10, 11).
edge(15, 70).
edge(45, 133).
edge(65, 119).
edge(74, 88).
edge(16, 87).
edge(67, 121).
edge(33, 134).
edge(15, 82).
edge(85, 127).
edge(28, 125).
edge(26, 110).
edge(49, 56).
edge(59, 90).
edge(63, 78).
edge(6, 47).
edge(109, 111).
edge(0, 109).
edge(112, 117).
edge(3, 79).
edge(91, 105).
edge(27, 92).
edge(106, 122).
edge(103, 120).
edge(13, 125).
edge(98, 123).
edge(60, 93).
edge(17, 73).
edge(0, 76).
edge(102, 120).
edge(4, 90).
edge(2, 58).
edge(2, 35).
edge(46, 134).
edge(4, 16).
edge(71, 121).
edge(23, 74).
edge(68, 81).
edge(26, 116).
edge(40, 41).
edge(18, 48).
edge(45, 128).
edge(40, 83).
edge(117, 132).
edge(72, 134).
edge(40, 106).
edge(54, 99).
edge(23, 104).
edge(11, 31).
edge(34, 49).
edge(63, 134).
edge(7, 132).
edge(98, 130).
edge(24, 111).
edge(6, 63).
edge(104, 106).
edge(42, 80).
edge(93, 127).
edge(11, 109).
edge(47, 94).
edge(17, 99).
edge(57, 113).
edge(30, 44).
edge(69, 107).
edge(28, 98).
edge(50, 107).
edge(6, 29).
edge(39, 131).
edge(16, 57).
edge(53, 120).
edge(86, 118).
edge(50, 76).
edge(14, 99).
edge(10, 51).
edge(95, 114).
edge(32, 55).
edge(22, 106).
edge(13, 132).
edge(28, 101).
edge(31, 50).
edge(26, 102).
edge(3, 39).
edge(41, 108).
edge(39, 58).
edge(66, 83).
edge(82, 87).
edge(0, 105).
edge(112, 128).
edge(91, 95).
edge(16, 88).
edge(3, 25).
edge(63, 75).
edge(48, 54).
edge(37, 55).
edge(7, 49).
edge(88, 134).
edge(37, 132).
edge(107, 131).
edge(20, 74).
edge(72, 114).
edge(83, 92).
edge(90, 134).
edge(35, 38).
edge(9, 24).
edge(74, 76).
edge(88, 133).
edge(28, 83).
edge(55, 82).
edge(79, 94).
edge(3, 101).
edge(14, 32).
edge(19, 61).
edge(33, 48).
edge(6, 107).
edge(39, 129).
edge(64, 97).
edge(20, 21).
edge(35, 51).
edge(77, 111).
edge(40, 74).
edge(53, 78).
edge(49, 99).
edge(66, 124).
edge(17, 24).
edge(66, 67).
edge(24, 68).
edge(18, 103).
edge(11, 106).
edge(24, 104).
edge(87, 105).
edge(51, 53).
edge(43, 119).
edge(24, 56).
edge(7, 34).
edge(15, 109).
edge(19, 20).
edge(20, 43).
edge(33, 105).
edge(31, 127).
edge(15, 23).
edge(55, 58).
edge(6, 42).
edge(19, 51).
edge(16, 91).
edge(26, 66).
edge(73, 96).
edge(70, 119).
edge(81, 124).
edge(79, 111).
edge(8, 124).
edge(71, 135).
edge(38, 83).
edge(97, 135).
edge(39, 113).
edge(58, 61).
edge(14, 24).
edge(13, 40).
edge(3, 83).
edge(88, 97).
edge(26, 126).
edge(29, 109).
edge(37, 134).
edge(13, 63).
edge(24, 49).
edge(51, 89).
edge(108, 119).
edge(1, 65).
edge(95, 117).
edge(14, 52).
edge(13, 20).
edge(43, 86).
edge(27, 69).
edge(6, 24).
edge(19, 57).
edge(19, 130).
edge(88, 92).
edge(45, 124).
edge(98, 99).
edge(10, 57).
edge(9, 43).
edge(50, 66).
edge(52, 73).
edge(109, 112).
edge(25, 86).
edge(125, 129).
edge(28, 135).
edge(44, 126).
edge(39, 122).
edge(59, 91).
edge(18, 25).
edge(66, 72).
edge(1, 108).
edge(97, 129).
edge(25, 65).
edge(2, 112).
edge(4, 34).
edge(24, 89).
edge(46, 75).
edge(47, 127).
edge(9, 46).
edge(59, 106).
edge(7, 24).
edge(96, 97).
edge(3, 91).
edge(33, 34).
edge(5, 108).
edge(4, 76).
edge(36, 82).
edge(8, 103).
edge(19, 43).
edge(15, 58).
edge(20, 54).
edge(97, 115).
edge(34, 46).
edge(35, 118).
edge(33, 120).
edge(80, 120).
edge(32, 41).
edge(53, 122).
edge(15, 37).
edge(82, 111).
edge(12, 52).
edge(77, 93).
edge(6, 73).
edge(37, 113).
edge(34, 66).
edge(8, 12).
edge(4, 65).
edge(68, 80).
edge(17, 100).
edge(72, 110).
edge(50, 135).
edge(106, 123).
edge(62, 81).
edge(30, 123).
edge(3, 17).
edge(30, 112).
edge(25, 85).
edge(100, 127).
edge(56, 86).
edge(14, 42).
edge(20, 57).
edge(40, 82).
edge(123, 129).
edge(2, 50).
edge(90, 129).
edge(64, 80).
edge(74, 111).
edge(44, 90).
edge(7, 57).
edge(58, 80).
edge(34, 134).
edge(6, 74).
edge(102, 107).
edge(17, 91).
edge(16, 43).
edge(53, 125).
edge(33, 123).
edge(23, 91).
edge(39, 96).
edge(4, 52).
edge(4, 85).
edge(33, 51).
edge(29, 56).
edge(15, 107).
edge(0, 33).
edge(8, 47).
edge(18, 120).
edge(71, 90).
edge(24, 65).
edge(66, 104).
edge(37, 93).
edge(82, 101).
edge(31, 129).
edge(92, 123).
edge(34, 65).
edge(3, 84).
edge(30, 36).
edge(34, 40).
edge(14, 129).
edge(33, 88).
edge(50, 64).
edge(42, 63).
edge(9, 15).
edge(73, 77).
edge(42, 97).
edge(12, 122).
edge(53, 135).
edge(109, 115).
edge(87, 92).
edge(58, 90).
edge(21, 123).
edge(27, 135).
edge(49, 57).
edge(23, 107).
edge(34, 70).
edge(81, 102).
edge(56, 75).
edge(48, 70).
edge(59, 112).
edge(98, 126).
edge(104, 134).
edge(19, 121).
edge(78, 133).
edge(66, 135).
edge(36, 83).
edge(60, 69).
edge(13, 92).
edge(48, 75).
edge(29, 132).
edge(19, 70).
edge(47, 99).
edge(70, 75).
edge(31, 119).
edge(78, 80).
edge(4, 86).
edge(4, 110).
edge(32, 124).
edge(10, 15).
edge(53, 119).
edge(65, 103).
edge(112, 118).
edge(115, 124).
edge(101, 120).
edge(27, 55).
edge(35, 132).
edge(59, 96).
edge(51, 58).
edge(52, 69).
edge(11, 26).
edge(104, 116).
edge(8, 17).
edge(3, 53).
edge(7, 55).
edge(56, 78).
edge(21, 91).
edge(66, 132).
edge(38, 60).
edge(15, 35).
edge(20, 135).
edge(74, 114).
edge(13, 19).
edge(7, 13).
edge(74, 79).
edge(3, 74).
edge(71, 105).
edge(26, 135).
edge(46, 48).
edge(40, 73).
edge(47, 130).
edge(37, 71).
edge(32, 128).
edge(23, 46).
edge(14, 135).
edge(11, 43).
edge(31, 41).
edge(15, 97).
edge(24, 127).
edge(1, 103).
edge(82, 114).
edge(22, 27).
edge(124, 128).
edge(85, 119).
edge(58, 65).
edge(20, 127).
edge(111, 122).
edge(6, 11).
edge(30, 65).
edge(91, 121).
edge(60, 112).
edge(94, 128).
edge(31, 120).
edge(5, 99).
edge(10, 126).
edge(9, 121).
edge(42, 68).
edge(3, 43).
edge(38, 57).
edge(70, 109).
edge(41, 88).
edge(30, 68).
edge(79, 81).
edge(7, 122).
edge(12, 129).
edge(30, 127).
edge(21, 122).
edge(49, 120).
edge(39, 124).
edge(45, 61).
edge(80, 83).
edge(54, 98).
edge(83, 134).
edge(47, 79).
edge(21, 68).
edge(86, 103).
edge(4, 26).
edge(99, 119).
edge(38, 82).
edge(13, 95).
edge(71, 104).
edge(43, 80).
edge(53, 55).
edge(22, 76).
edge(34, 38).
edge(53, 131).
edge(14, 80).
edge(99, 108).
edge(11, 77).
edge(9, 40).
edge(13, 33).
edge(35, 85).
edge(107, 110).
edge(44, 54).
edge(70, 88).
edge(101, 103).
edge(88, 108).
edge(39, 65).
edge(44, 105).
edge(3, 123).
edge(31, 53).
edge(24, 102).
weight(0, 2).
weight(1, 3).
weight(2, 8).
weight(3, 6).
weight(4, 7).
weight(5, 3).
weight(6, 2).
weight(7, 2).
weight(8, 2).
weight(9, 4).
weight(10, 8).
weight(11, 7).
weight(12, 5).
weight(13, 1).
weight(14, 3).
weight(15, 1).
weight(16, 2).
weight(17, 6).
weight(18, 6).
weight(19, 4).
weight(20, 7).
weight(21, 4).
weight(22, 1).
weight(23, 7).
weight(24, 5).
weight(25, 6).
weight(26, 8).
weight(27, 7).
weight(28, 5).
weight(29, 5).
weight(30, 5).
weight(31, 5).
weight(32, 6).
weight(33, 6).
weight(34, 3).
weight(35, 8).
weight(36, 5).
weight(37, 3).
weight(38, 8).
weight(39, 6).
weight(40, 2).
weight(41, 7).
weight(42, 8).
weight(43, 3).
weight(44, 5).
weight(45, 4).
weight(46, 6).
weight(47, 6).
weight(48, 8).
weight(49, 1).
weight(50, 2).
weight(51, 2).
weight(52, 3).
weight(53, 6).
weight(54, 3).
weight(55, 7).
weight(56, 5).
weight(57, 3).
weight(58, 5).
weight(59, 1).
weight(60, 4).
weight(61, 7).
weight(62, 2).
weight(63, 2).
weight(64, 3).
weight(65, 1).
weight(66, 2).
weight(67, 2).
weight(68, 8).
weight(69, 2).
weight(70, 5).
weight(71, 3).
weight(72, 8).
weight(73, 3).
weight(74, 7).
weight(75, 7).
weight(76, 2).
weight(77, 3).
weight(78, 2).
weight(79, 2).
weight(80, 1).
weight(81, 2).
weight(82, 8).
weight(83, 2).
weight(84, 1).
weight(85, 4).
weight(86, 4).
weight(87, 8).
weight(88, 5).
weight(89, 7).
weight(90, 8).
weight(91, 8).
weight(92, 7).
weight(93, 4).
weight(94, 4).
weight(95, 5).
weight(96, 7).
weight(97, 4).
weight(98, 4).
weight(99, 5).
weight(100, 2).
weight(101, 4).
weight(102, 3).
weight(103, 8).
weight(104, 3).
weight(105, 2).
weight(106, 8).
weight(107, 6).
weight(108, 4).
weight(109, 6).
weight(110, 7).
weight(111, 4).
weight(112, 4).
weight(113, 6).
weight(114, 4).
weight(115, 3).
weight(116, 1).
weight(117, 8).
weight(118, 2).
weight(119, 6).
weight(120, 7).
weight(121, 1).
weight(122, 2).
weight(123, 5).
weight(124, 6).
weight(125, 5).
weight(126, 4).
weight(127, 8).
weight(128, 8).
weight(129, 3).
weight(130, 8).
weight(131, 7).
weight(132, 7).
weight(133, 3).
weight(134, 8).
weight(135, 2).
bound(67).

adj(U,V) :- edge(U,V).
adj(U,V) :- edge(V,U).
{in(V)} :- node(V).
dominated(V) :- in(V).
dominated(V) :- in(U), adj(U,V).
:- node(V), not dominated(V).
:- bound(B), #sum{W,V : in(V), weight(V,W)} > B.
:~ in(V), weight(V,W). [W@1,V]
