node(0..189).
edge(48, 148).
edge(50, 176).
edge(128, 189).
edge(15, 86).
edge(112, 150).
edge(39, 74).
edge(92, 158).
edge(5, 159).
edge(64, 189).
edge(55, 131).
edge(20, 94).
edge(0, 141).
edge(17, 103).
edge(25, 139).
edge(111, 129).
edge(16, 112).
edge(35, 119).
edge(51, 65).
edge(0, 80).
edge(2, 98).
edge(11, 13).
edge(14, 93).
edge(77, 126).
edge(70, 118).
edge(179, 182).
edge(115, 173).
edge(22, 66).
edge(44, 113).
edge(17, 87).
edge(46, 71).
edge(125, 147).
edge(44, 133).
edge(35, 49).
edge(75, 91).
edge(4, 8).
edge(102, 150).
edge(47, 131).
edge(123, 161).
edge(79, 98).
edge(152, 177).
edge(162, 175).
edge(12, 121).
edge(83, 124).
edge(5, 157).
edge(19, 52).
edge(75, 124).
edge(10, 31).
edge(65, 89).
edge(79, 136).
edge(29, 107).
edge(22, 165).
edge(53, 59).
edge(110, 151).
edge(11, 95).
edge(69, 70).
edge(87, 164).
edge(104, 133).
edge(91, 163).
edge(76, 154).
edge(37, 95).
edge(22, 57).
edge(34, 125).
edge(70, 85).
edge(53, 64).
edge(98, 116).
edge(53, 54).
edge(67, 111).
edge(43, 152).
edge(3, 149).
edge(37, 130).
edge(26, 106).
edge(60, 128).
edge(47, 92).
edge(43, 172).
edge(15, 43).
edge(7, 176).
edge(97, 109).
edge(109, 176).
edge(86, 167).
edge(71, 162).
edge(39, 142).
edge(40, 72).
edge(58, 145).
edge(92, 118).
edge(16, 23).
edge(1, 47).
edge(103, 146).
edge(61, 141).
edge(33, 132).
edge(127, 129).
edge(38, 186).
edge(103, 133).
edge(168, 169).
edge(59, 157).
edge(28, 70).
edge(78, 142).
edge(128, 172).
edge(120, 166).
edge(44, 136).
edge(69, 95).
edge(45, 70).
edge(82, 87).
edge(9, 179).
edge(114, 134).
edge(6, 68).
edge(131, 161).
edge(115, 158).
edge(75, 100).
edge(14, 97).
edge(77, 135).
edge(9, 95).
edge(30, 48).
edge(18, 160).
edge(43, 141).
edge(32, 133).
edge(71, 182).
edge(3, 63).
edge(105, 106).
edge(5, 28).
edge(84, 141).
edge(105, 175).
edge(22, 36).
edge(63, 112).
edge(36, 124).
edge(113, 185).
edge(21, 188).
edge(3, 148).
edge(61, 162).
edge(148, 164).
edge(69, 159).
edge(3, 51).
edge(102, 115).
edge(11, 104).
edge(81, 163).
edge(85, 139).
edge(28, 187).
edge(52, 186).
edge(43, 110).
edge(129, 140).
edge(134, 146).
edge(35, 148).
edge(55, 158).
edge(59, 142).
edge(65, 113).
edge(14, 45).
edge(132, 136).
edge(4, 18).
edge(153, 173).
edge(1, 155).
edge(125, 166).
edge(24, 188).
edge(16, 154).
edge(49, 152).
edge(59, 116).
edge(125, 165).
edge(17, 38).
edge(111, 169).
edge(87, 175).
edge(21, 183).
edge(24, 92).
edge(14, 125).
edge(6, 80).
edge(164, 173).
edge(104, 124).
edge(74, 110).
edge(18, 179).
edge(13, 23).
edge(62, 185).
edge(0, 4).
edge(31, 188).
edge(38, 169).
edge(23, 139).
edge(13, 61).
edge(29, 80).
edge(16, 82).
edge(84, 138).
edge(133, 145).
edge(123, 145).
edge(22, 150).
edge(68, 141).
edge(137, 155).
edge(32, 136).
edge(9, 101).
edge(48, 134).
edge(3, 152).
edge(57, 129).
edge(91, 139).
edge(8, 19).
edge(33, 186).
edge(38, 73).
edge(138, 157).
edge(0, 77).
edge(55, 137).
edge(42, 116).
edge(30, 178).
edge(157, 167).
edge(114, 152).
edge(8, 53).
edge(55, 57).
edge(119, 168).
edge(124, 161).
edge(95, 105).
edge(57, 121).
edge(14, 180).
edge(136, 182).
edge(10, 154).
edge(127, 136).
edge(2, 187).
edge(20, 185).
edge(49, 90).
edge(57, 90).
edge(109, 119).
edge(90, 101).
edge(72, 94).
edge(29, 160).
edge(91, 100).
edge(60, 170).
edge(31, 93).
edge(39, 85).
edge(19, 127).
edge(27, 54).
edge(62, 79).
edge(93, 160).
edge(61, 130).
edge(14, 81).
edge(113, 170).
edge(15, 148).
edge(116, 169).
edge(63, 148).
edge(175, 185).
edge(8, 183).
edge(123, 150).
edge(11, 116).
edge(163, 181).
edge(73, 125).
edge(36, 81).
edge(127, 171).
edge(9, 145).
edge(21, 115).
edge(30, 113).
edge(86, 189).
edge(25, 68).
edge(100, 170).
edge(53, 104).
edge(17, 142).
edge(21, 64).
edge(40, 69).
edge(8, 122).
edge(134, 162).
edge(56, 104).
edge(165, 174).
edge(63, 130).
edge(46, 70).
edge(52, 126).
edge(68, 182).
edge(31, 79).
edge(113, 152).
edge(117, 142).
edge(98, 173).
edge(28, 156).
edge(16, 123).
edge(83, 97).
edge(38, 105).
edge(99, 148).
edge(59, 173).
edge(122, 133).
edge(86, 99).
edge(56, 95).
edge(98, 176).
edge(114, 137).
edge(73, 81).
edge(105, 144).
edge(49, 130).
edge(28, 77).
edge(20, 125).
edge(65, 145).
edge(109, 114).
edge(57, 177).
edge(51, 169).
edge(123, 134).
edge(73, 147).
edge(34, 107).
edge(40, 64).
edge(55, 97).
edge(4, 24).
edge(140, 185).
edge(64, 90).
edge(33, 48).
edge(30, 44).
edge(17, 41).
edge(11, 108).
edge(114, 156).
edge(75, 169).
edge(50, 129).
edge(76, 83).
edge(126, 175).
edge(92, 121).
edge(6, 114).
edge(103, 136).
edge(71, 123).
edge(29, 170).
edge(118, 159).
edge(17, 165).
edge(127, 143).
edge(67, 80).
edge(13, 75).
edge(16, 30).
edge(66, 175).
edge(149, 168).
edge(30, 185).
edge(106, 108).
edge(0, 71).
edge(172, 174).
edge(83, 145).
edge(46, 183).
edge(41, 140).
edge(31, 92).
edge(37, 131).
edge(81, 182).
edge(34, 117).
edge(22, 31).
edge(24, 67).
edge(167, 184).
edge(2, 58).
edge(46, 78).
edge(59, 61).
edge(136, 145).
edge(12, 131).
edge(147, 153).
edge(106, 160).
edge(33, 41).
edge(134, 182).
edge(7, 131).
edge(94, 98).
edge(83, 183).
edge(24, 176).
edge(10, 18).
edge(28, 86).
edge(15, 132).
edge(164, 181).
edge(117, 121).
edge(0, 84).
edge(36, 62).
edge(13, 160).
edge(38, 176).
edge(40, 151).
edge(21, 34).
edge(48, 141).
edge(91, 105).
edge(52, 88).
edge(20, 182).
edge(0, 177).
edge(84, 115).
edge(22, 78).
edge(90, 177).
edge(74, 128).
edge(112, 116).
edge(16, 183).
edge(15, 55).
edge(17, 155).
edge(59, 105).
edge(5, 124).
edge(89, 106).
edge(26, 104).
edge(50, 165).
edge(39, 78).
edge(34, 161).
edge(60, 181).
edge(71, 136).
edge(29, 62).
edge(44, 115).
edge(63, 72).
edge(49, 107).
edge(5, 150).
edge(66, 166).
edge(0, 183).
edge(21, 23).
edge(37, 161).
edge(2, 36).
edge(88, 133).
edge(55, 61).
edge(31, 135).
edge(25, 39).
edge(66, 86).
edge(123, 146).
edge(80, 136).
edge(131, 164).
edge(64, 179).
edge(22, 68).
edge(140, 157).
edge(178, 179).
edge(20, 90).
edge(107, 131).
edge(66, 70).
edge(45, 175).
edge(113, 119).
edge(87, 154).
edge(64, 78).
edge(16, 180).
edge(129, 137).
edge(77, 80).
edge(22, 119).
edge(11, 35).
edge(36, 133).
edge(82, 143).
edge(133, 160).
edge(132, 175).
edge(32, 54).
edge(93, 158).
edge(57, 75).
edge(97, 154).
edge(118, 177).
edge(40, 171).
edge(96, 113).
edge(118, 157).
edge(46, 189).
edge(62, 175).
edge(14, 187).
edge(77, 112).
edge(26, 111).
edge(25, 88).
edge(65, 106).
edge(47, 87).
edge(76, 112).
edge(53, 61).
edge(35, 51).
edge(27, 168).
edge(68, 74).
edge(82, 157).
edge(34, 130).
edge(8, 100).
edge(9, 103).
edge(57, 81).
edge(32, 99).
edge(36, 181).
edge(141, 189).
edge(87, 149).
edge(126, 164).
edge(87, 169).
edge(29, 70).
edge(21, 180).
edge(39, 176).
edge(15, 110).
edge(122, 124).
edge(88, 135).
edge(127, 168).
edge(62, 182).
edge(63, 149).
edge(51, 81).
edge(33, 189).
edge(29, 68).
edge(49, 172).
edge(13, 184).
edge(93, 127).
edge(53, 129).
edge(112, 119).
edge(62, 186).
edge(114, 123).
edge(91, 142).
edge(16, 49).
edge(12, 170).
edge(53, 58).
edge(120, 185).
edge(19, 66).
edge(81, 151).
edge(84, 160).
edge(94, 162).
edge(120, 174).
edge(62, 167).
edge(106, 164).
edge(2, 135).
edge(0, 135).
edge(66, 113).
edge(86, 111).
edge(9, 85).
edge(41, 133).
edge(74, 138).
edge(27, 77).
edge(47, 178).
edge(27, 82).
edge(12, 185).
edge(76, 177).
edge(39, 107).
edge(10, 118).
edge(34, 47).
edge(102, 128).
edge(33, 152).
edge(12, 19).
edge(12, 143).
edge(29, 128).
edge(2, 52).
edge(81, 187).
edge(38, 41).
edge(50, 166).
edge(50, 78).
edge(101, 187).
edge(19, 140).
edge(4, 14).
edge(105, 131).
edge(0, 100).
edge(44, 131).
edge(86, 147).
edge(23, 112).
edge(12, 109).
edge(140, 180).
edge(58, 185).
edge(26, 36).
edge(5, 21).
edge(41, 71).
edge(69, 76).
edge(34, 115).
edge(26, 53).
edge(85, 106).
edge(31, 124).
edge(27, 127).
edge(142, 176).
edge(27, 89).
edge(98, 127).
edge(63, 109).
edge(126, 139).
edge(154, 186).
edge(139, 144).
edge(23, 151).
edge(126, 138).
edge(180, 189).
edge(47, 115).
edge(54, 172).
edge(59, 129).
edge(55, 78).
edge(40, 98).
edge(156, 177).
edge(92, 166).
edge(89, 161).
edge(22, 151).
edge(59, 189).
edge(31, 77).
edge(106, 155).
edge(38, 115).
edge(125, 169).
edge(20, 81).
edge(15, 108).
edge(47, 114).
edge(130, 146).
edge(7, 8).
edge(75, 171).
edge(77, 145).
edge(8, 115).
edge(38, 181).
edge(50, 183).
edge(146, 150).
edge(46, 49).
edge(78, 127).
edge(108, 168).
edge(35, 130).
edge(27, 118).
edge(91, 187).
edge(53, 186).
edge(63, 171).
edge(54, 67).
edge(72, 78).
edge(22, 143).
edge(75, 110).
edge(73, 156).
edge(92, 112).
edge(100, 176).
edge(87, 148).
edge(29, 38).
edge(56, 140).
edge(18, 81).
edge(13, 70).
edge(33, 103).
edge(10, 166).
edge(162, 173).
edge(39, 167).
edge(38, 128).
edge(93, 177).
edge(49, 156).
edge(125, 134).
edge(99, 173).
edge(78, 162).
edge(0, 23).
edge(24, 179).
edge(55, 117).
edge(83, 187).
edge(8, 52).
edge(14, 38).
edge(50, 81).
edge(56, 144).
edge(42, 129).
edge(37, 128).
edge(93, 97).
edge(89, 167).
edge(102, 151).
edge(112, 137).
edge(24, 27).
edge(154, 185).
edge(41, 57).
edge(12, 166).
edge(42, 152).
edge(126, 160).
edge(99, 134).
edge(77, 110).
edge(11, 109).
edge(41, 168).
edge(134, 149).
edge(46, 84).
edge(172, 183).
edge(43, 108).
edge(130, 163).
edge(12, 145).
edge(2, 104).
edge(14, 89).
edge(109, 175).
edge(17, 116).
edge(15, 112).
edge(22, 81).
edge(18, 154).
edge(94, 173).
edge(118, 148).
edge(69, 162).
edge(48, 49).
edge(123, 186).
edge(93, 150).
edge(55, 98).
edge(54, 69).
edge(36, 136).
edge(156, 179).
edge(132, 140).
edge(117, 135).
edge(50, 95).
edge(94, 108).
edge(117, 120).
edge(2, 85).
edge(66, 89).
edge(15, 61).
edge(50, 97).
edge(78, 175).
edge(100, 136).
edge(111, 165).
edge(126, 177).
edge(64, 101).
edge(4, 132).
edge(1, 137).
edge(69, 180).
edge(0, 29).
edge(72, 158).
edge(11, 91).
edge(14, 176).
edge(26, 70).
edge(31, 82).
edge(8, 182).
edge(185, 189).
edge(94, 123).
edge(10, 68).
edge(124, 155).
edge(87, 144).
edge(77, 127).
edge(29, 31).
edge(43, 95).
edge(157, 158).
edge(47, 99).
edge(63, 89).
edge(33, 159).
edge(130, 142).
edge(111, 146).
edge(122, 155).
edge(3, 135).
edge(143, 172).
edge(5, 36).
edge(118, 173).
edge(55, 150).
edge(47, 183).
edge(104, 167).
edge(136, 183).
edge(10, 21).
edge(86, 115).
edge(113, 136).
edge(141, 154).
edge(86, 91).
edge(1, 93).
edge(5, 84).
edge(92, 159).
edge(63, 145).
edge(86, 168).
edge(61, 133).
edge(46, 165).
edge(66, 137).
edge(72, 89).
edge(117, 169).
edge(84, 111).
edge(56, 138).
edge(93, 145).
edge(103, 141).
edge(14, 42).
edge(49, 64).
edge(38, 141).
edge(25, 59).
edge(60, 100).
edge(42, 59).
edge(31, 161).
edge(89, 134).
edge(151, 155).
edge(3, 75).
edge(38, 187).
edge(99, 100).
edge(48, 156).
edge(176, 185).
edge(10, 113).
edge(23, 124).
edge(164, 188).
edge(19, 39).
edge(116, 140).
edge(102, 139).
edge(78, 180).
edge(18, 114).
edge(27, 119).
edge(123, 125).
edge(99, 147).
edge(27, 41).
edge(67, 156).
edge(104, 184).
edge(107, 172).
edge(39, 160).
edge(37, 80).
edge(80, 114).
edge(17, 124).
edge(39, 170).
edge(1, 164).
edge(30, 142).
edge(113, 171).
edge(57, 188).
edge(95, 148).
edge(4, 135).
edge(32, 57).
edge(18, 153).
edge(145, 165).
edge(1, 150).
edge(144, 147).
edge(114, 181).
edge(26, 122).
edge(35, 179).
edge(37, 55).
edge(23, 132).
edge(47, 60).
edge(15, 57).
edge(48, 91).
edge(44, 108).
edge(92, 162).
edge(61, 114).
edge(43, 144).
edge(6, 13).
edge(73, 157).
edge(29, 91).
edge(5, 136).
edge(144, 155).
edge(88, 174).
edge(25, 169).
edge(16, 139).
edge(46, 122).
edge(83, 173).
edge(133, 171).
edge(38, 175).
edge(18, 152).
edge(32, 78).
edge(119, 140).
edge(40, 53).
edge(47, 147).
edge(26, 78).
edge(68, 153).
edge(69, 164).
edge(9, 121).
edge(89, 158).
edge(4, 123).
edge(50, 158).
edge(14, 60).
edge(118, 141).
edge(44, 59).
edge(75, 131).
edge(96, 179).
edge(159, 180).
edge(22, 116).
edge(32, 55).
edge(78, 140).
edge(63, 88).
edge(12, 59).
edge(154, 189).
edge(77, 169).
edge(19, 41).
edge(57, 93).
edge(156, 171).
edge(36, 68).
edge(42, 111).
edge(50, 120).
edge(57, 180).
edge(169, 170).
edge(89, 176).
edge(51, 76).
edge(67, 106).
edge(9, 186).
edge(69, 87).
edge(5, 26).
edge(43, 155).
edge(135, 146).
edge(27, 133).
edge(46, 153).
edge(14, 32).
edge(86, 134).
edge(44, 53).
edge(72, 160).
edge(158, 167).
edge(5, 161).
edge(69, 175).
edge(29, 174).
edge(85, 92).
edge(41, 151).
edge(57, 167).
edge(66, 176).
edge(30, 129).
edge(19, 143).
edge(32, 179).
edge(12, 138).
edge(55, 84).
edge(111, 122).
edge(21, 61).
edge(9, 112).
edge(143, 157).
edge(34, 131).
edge(38, 173).
edge(110, 117).
edge(43, 103).
edge(15, 130).
edge(66, 85).
edge(165, 166).
edge(32, 75).
edge(114, 144).
edge(10, 44).
edge(153, 158).
edge(121, 131).
edge(66, 101).
edge(30, 49).
edge(29, 102).
edge(4, 102).
edge(6, 53).
edge(60, 186).
edge(59, 131).
edge(15, 158).
edge(1, 127).
edge(153, 182).
edge(166, 179).
edge(118, 135).
edge(25, 121).
edge(3, 33).
edge(65, 146).
edge(106, 144).
edge(142, 177).
edge(23, 167).
edge(53, 92).
edge(162, 189).
edge(6, 145).
edge(160, 171).
edge(25, 146).
edge(62, 63).
edge(140, 188).
edge(86, 101).
edge(30, 105).
edge(6, 169).
edge(28, 37).
edge(75, 144).
edge(43, 150).
edge(93, 114).
edge(51, 119).
edge(118, 166).
edge(19, 176).
edge(59, 74).
edge(73, 185).
edge(95, 179).
edge(132, 176).
edge(19, 34).
edge(42, 109).
edge(17, 95).
edge(0, 90).
edge(124, 150).
edge(136, 163).
edge(39, 90).
edge(126, 183).
edge(101, 103).
edge(41, 83).
edge(113, 156).
edge(123, 138).
edge(62, 128).
edge(8, 117).
edge(35, 58).
edge(83, 181).
edge(132, 148).
edge(76, 119).
edge(60, 171).
edge(66, 140).
edge(30, 73).
edge(21, 171).
edge(31, 104).
edge(151, 182).
edge(1, 48).
edge(10, 101).
edge(113, 128).
edge(91, 97).
edge(36, 98).
edge(100, 167).
edge(30, 70).
edge(75, 92).
edge(90, 162).
edge(118, 137).
edge(87, 116).
edge(18, 115).
edge(33, 133).
edge(146, 164).
edge(66, 77).
edge(109, 189).
edge(119, 131).
edge(44, 139).
edge(0, 163).
edge(78, 153).
edge(88, 148).
edge(67, 148).
edge(130, 178).
edge(98, 144).
edge(79, 118).
edge(40, 127).
edge(7, 31).
edge(30, 163).
edge(35, 153).
edge(47, 169).
edge(40, 164).
edge(19, 101).
edge(8, 82).
edge(139, 159).
edge(46, 184).
edge(13, 84).
edge(33, 168).
edge(30, 77).
edge(31, 53).
edge(59, 151).
edge(101, 163).
edge(62, 111).
edge(64, 94).
edge(53, 144).
edge(102, 134).
edge(15, 120).
edge(2, 170).
edge(12, 20).
edge(116, 133).
edge(4, 164).
edge(94, 166).
edge(146, 158).
edge(59, 96).
edge(107, 177).
edge(109, 164).
edge(4, 115).
edge(61, 83).
edge(66, 168).
edge(126, 145).
edge(35, 54).
edge(25, 100).
edge(52, 67).
edge(8, 149).
edge(45, 185).
edge(150, 180).
edge(15, 114).
edge(56, 88).
edge(59, 67).
edge(47, 54).
edge(91, 180).
edge(128, 165).
edge(98, 168).
edge(18, 167).
edge(46, 54).
edge(68, 112).
edge(95, 180).
edge(12, 129).
edge(72, 107).
edge(9, 22).
edge(67, 90).
edge(8, 47).
edge(11, 128).
edge(46, 61).
edge(1, 14).
edge(100, 185).
edge(49, 58).
edge(40, 173).
edge(38, 85).
edge(137, 173).
edge(51, 109).
edge(75, 127).
edge(61, 79).
edge(88, 187).
edge(79, 106).
edge(25, 53).
edge(97, 106).
edge(65, 187).
edge(160, 188).
edge(98, 123).
edge(40, 161).
edge(10, 75).
edge(66, 129).
edge(55, 119).
edge(170, 181).
edge(100, 118).
edge(99, 183).
edge(78, 84).
edge(130, 137).
edge(45, 89).
edge(97, 146).
edge(52, 182).
edge(18, 146).
edge(27, 90).
edge(142, 159).
edge(49, 53).
edge(1, 59).
edge(12, 51).
edge(65, 108).
edge(93, 176).
edge(105, 176).
edge(42, 56).
edge(19, 60).
edge(100, 138).
edge(79, 159).
edge(159, 182).
edge(58, 163).
edge(52, 55).
edge(4, 55).
edge(29, 33).
edge(165, 168).
edge(6, 185).
edge(79, 96).
edge(135, 168).
edge(109, 187).
edge(65, 134).
edge(154, 181).
edge(76, 89).
edge(46, 103).
edge(41, 181).
edge(38, 154).
edge(17, 112).
edge(54, 115).
edge(57, 74).
edge(0, 44).
edge(86, 142).
edge(12, 179).
edge(35, 37).
edge(87, 126).
edge(131, 166).
edge(146, 185).
edge(65, 68).
edge(129, 152).
edge(40, 143).
edge(69, 146).
edge(26, 29).
edge(6, 154).
edge(58, 135).
edge(59, 134).
edge(52, 95).
edge(85, 135).
edge(92, 157).
edge(137, 156).
edge(29, 186).
edge(102, 181).
edge(12, 184).
edge(74, 143).
edge(60, 108).
edge(8, 16).
edge(63, 182).
edge(118, 131).
edge(82, 130).
edge(47, 58).
edge(112, 166).
edge(92, 101).
edge(107, 166).
edge(85, 93).
edge(121, 130).
edge(154, 180).
edge(26, 90).
edge(61, 108).
edge(28, 62).
edge(129, 154).
edge(11, 86).
edge(34, 169).
edge(46, 169).
edge(91, 124).
edge(83, 174).
edge(136, 169).
edge(28, 121).
edge(25, 28).
edge(13, 183).
edge(7, 60).
edge(66, 112).
edge(5, 98).
edge(26, 136).
edge(21, 60).
edge(87, 145).
edge(32, 172).
edge(21, 128).
edge(97, 101).
edge(6, 84).
edge(25, 116).
edge(4, 31).
edge(22, 137).
edge(36, 104).
edge(34, 37).
edge(45, 173).
edge(132, 145).
edge(43, 157).
edge(28, 163).
edge(26, 65).
edge(43, 51).
edge(64, 132).
edge(39, 119).
edge(111, 179).
edge(153, 178).
edge(19, 185).
edge(80, 140).
edge(24, 69).
edge(56, 167).
edge(176, 186).
edge(19, 58).
edge(174, 177).
edge(80, 160).
edge(70, 91).
edge(120, 159).
edge(83, 114).
edge(61, 170).
edge(100, 121).
edge(13, 83).
edge(4, 98).
edge(43, 162).
edge(79, 183).
edge(36, 164).
edge(156, 159).
edge(68, 99).
edge(0, 125).
edge(14, 24).
edge(93, 126).
edge(25, 49).
edge(37, 166).
edge(106, 149).
edge(170, 171).
edge(42, 171).
edge(164, 178).
edge(77, 81).
edge(133, 173).
edge(175, 186).
edge(36, 63).
edge(143, 152).
edge(36, 122).
edge(62, 133).
edge(15, 54).
edge(12, 103).
edge(29, 119).
edge(90, 136).
edge(35, 56).
edge(65, 94).
edge(25, 112).
edge(30, 34).
edge(68, 76).
edge(19, 82).
edge(101, 172).
edge(13, 170).
edge(26, 44).
edge(15, 117).
edge(104, 188).
edge(135, 149).
edge(1, 43).
edge(29, 123).
edge(53, 174).
edge(1, 55).
edge(32, 145).
edge(149, 178).
edge(44, 83).
edge(7, 94).
edge(58, 110).
edge(59, 63).
edge(101, 136).
edge(14, 53).
edge(179, 180).
edge(47, 140).
edge(10, 59).
edge(144, 176).
edge(10, 48).
edge(81, 184).
edge(55, 168).
edge(20, 23).
edge(18, 155).
edge(84, 106).
edge(29, 71).
edge(4, 107).
edge(29, 103).
edge(13, 31).
edge(151, 172).
edge(40, 138).
edge(54, 59).
edge(40, 181).
edge(4, 37).
edge(49, 94).
edge(97, 121).
edge(68, 125).
edge(22, 67).
edge(19, 31).
edge(59, 137).
edge(84, 103).
edge(122, 173).
edge(116, 168).
edge(109, 117).
edge(51, 188).
edge(112, 117).
edge(67, 107).
edge(113, 188).
edge(4, 47).
edge(68, 160).
edge(27, 121).
edge(19, 187).
edge(39, 100).
edge(33, 140).
edge(73, 113).
edge(24, 103).
edge(87, 171).
edge(38, 146).
edge(23, 45).
edge(81, 154).
edge(129, 168).
edge(86, 137).
edge(136, 146).
edge(23, 84).
edge(41, 149).
edge(9, 107).
edge(23, 60).
edge(99, 141).
edge(72, 74).
edge(40, 61).
edge(17, 143).
edge(28, 85).
edge(27, 140).
edge(118, 182).
edge(74, 109).
edge(50, 112).
edge(70, 72).
edge(24, 39).
edge(69, 123).
edge(49, 157).
edge(56, 86).
edge(43, 184).
edge(154, 179).
edge(16, 164).
edge(119, 183).
edge(4, 94).
edge(65, 105).
edge(26, 115).
edge(36, 160).
edge(48, 133).
edge(113, 153).
edge(115, 159).
edge(82, 121).
edge(146, 160).
edge(9, 52).
edge(37, 60).
edge(80, 82).
edge(119, 186).
edge(70, 96).
edge(13, 104).
edge(118, 134).
edge(55, 172).
edge(56, 71).
edge(38, 43).
edge(144, 166).
edge(56, 136).
edge(13, 46).
edge(46, 75).
edge(60, 68).
edge(58, 88).
edge(15, 124).
edge(12, 146).
edge(24, 106).
edge(10, 108).
edge(60, 107).
edge(102, 189).
edge(87, 138).
edge(3, 44).
edge(42, 85).
edge(66, 177).
edge(14, 90).
edge(124, 146).
edge(17, 157).
edge(111, 156).
edge(100, 131).
edge(75, 184).
edge(67, 180).
edge(5, 109).
edge(125, 160).
edge(8, 154).
edge(17, 125).
edge(3, 35).
edge(49, 167).
edge(4, 25).
edge(54, 181).
edge(3, 9).
edge(59, 168).
edge(51, 133).
edge(72, 145).
edge(124, 130).
edge(103, 156).
edge(13, 159).
edge(51, 106).
edge(159, 174).
edge(27, 74).
edge(99, 156).
edge(80, 154).
edge(89, 182).
edge(16, 97).
edge(28, 35).
edge(57, 96).
edge(91, 92).
edge(41, 161).
edge(81, 159).
edge(67, 183).
edge(26, 43).
edge(141, 151).
edge(124, 135).
edge(12, 119).
edge(10, 128).
edge(29, 152).
edge(120, 131).
edge(57, 80).
edge(35, 39).
edge(40, 170).
edge(21, 107).
edge(2, 71).
edge(15, 189).
edge(150, 164).
edge(70, 100).
edge(97, 185).
edge(128, 150).
edge(33, 145).
edge(14, 71).
edge(68, 175).
edge(131, 146).
edge(28, 90).
edge(29, 154).
edge(105, 184).
edge(159, 187).
edge(36, 185).
edge(40, 48).
edge(127, 188).
edge(67, 93).
edge(43, 186).
edge(88, 95).
edge(139, 157).
edge(113, 151).
edge(33, 47).
edge(98, 172).
edge(4, 140).
edge(5, 17).
edge(51, 148).
edge(62, 110).
edge(50, 157).
edge(184, 188).
edge(99, 133).
edge(27, 93).
edge(46, 149).
edge(9, 104).
edge(68, 89).
edge(158, 189).
edge(37, 153).
edge(26, 108).
edge(6, 180).
edge(173, 183).
edge(139, 140).
edge(58, 142).
edge(1, 101).
edge(117, 182).
edge(24, 146).
edge(72, 152).
edge(34, 183).
edge(35, 38).
edge(22, 145).
edge(53, 83).
edge(37, 134).
edge(41, 64).
edge(92, 97).
edge(142, 157).
edge(8, 86).
edge(4, 112).
edge(175, 184).
edge(14, 145).
edge(7, 113).
edge(18, 35).
edge(1, 88).
edge(87, 112).
edge(57, 181).
edge(11, 62).
edge(22, 168).
edge(75, 182).
edge(87, 117).
edge(36, 40).
edge(79, 126).
edge(96, 98).
edge(42, 115).
edge(82, 182).
edge(79, 95).
edge(56, 57).
edge(11, 26).
edge(15, 162).
edge(82, 84).
edge(20, 155).
edge(86, 89).
edge(99, 130).
edge(14, 94).
edge(46, 172).
edge(68, 72).
edge(163, 167).
edge(92, 148).
edge(124, 157).
edge(74, 95).
edge(31, 173).
edge(0, 159).
edge(14, 130).
edge(19, 159).
edge(110, 173).
edge(3, 16).
edge(131, 147).
edge(54, 174).
edge(68, 154).
edge(9, 34).
edge(107, 163).
edge(17, 168).
edge(40, 67).
edge(75, 112).
edge(58, 80).
edge(50, 70).
edge(127, 172).
edge(121, 137).
edge(107, 128).
edge(21, 165).
edge(13, 126).
edge(6, 98).
edge(106, 170).
edge(0, 189).
edge(26, 182).
edge(158, 185).
edge(148, 176).
edge(5, 155).
edge(56, 60).
edge(15, 104).
edge(20, 112).
edge(152, 154).
edge(20, 148).
edge(67, 155).
edge(30, 46).
edge(80, 163).
edge(170, 173).
edge(133, 143).
edge(53, 185).
edge(10, 106).
edge(157, 179).
edge(36, 52).
edge(33, 165).
edge(97, 143).
edge(5, 176).
edge(57, 86).
edge(44, 78).
edge(49, 142).
edge(62, 69).
edge(41, 76).
edge(27, 30).
edge(70, 189).
edge(51, 96).
edge(3, 93).
edge(85, 161).
edge(95, 128).
edge(56, 73).
edge(87, 120).
edge(84, 137).
edge(64, 84).
edge(20, 142).
edge(9, 19).
edge(81, 160).
edge(66, 82).
edge(110, 125).
edge(5, 46).
edge(26, 116).
edge(40, 110).
edge(60, 117).
edge(90, 141).
edge(26, 67).
edge(97, 189).
edge(136, 170).
edge(33, 147).
edge(74, 156).
edge(0, 180).
edge(91, 101).
edge(149, 163).
edge(3, 114).
edge(79, 182).
edge(24, 173).
edge(73, 82).
edge(18, 185).
edge(134, 164).
edge(4, 116).
edge(16, 33).
edge(98, 179).
edge(5, 179).
edge(13, 110).
edge(49, 51).
edge(125, 150).
edge(42, 131).
edge(71, 113).
edge(15, 99).
edge(130, 154).
edge(48, 158).
edge(115, 135).
edge(68, 152).
edge(146, 179).
edge(84, 150).
edge(101, 168).
edge(82, 139).
edge(64, 70).
edge(61, 101).
edge(4, 60).
edge(110, 135).
edge(51, 146).
edge(61, 156).
edge(62, 168).
edge(23, 92).
edge(23, 156).
edge(21, 59).
edge(25, 66).
edge(69, 134).
edge(7, 17).
edge(59, 108).
edge(43, 145).
edge(48, 80).
edge(2, 139).
edge(27, 107).
edge(54, 157).
edge(3, 182).
edge(135, 150).
edge(109, 181).
edge(40, 70).
edge(42, 133).
edge(165, 169).
edge(3, 47).
edge(43, 161).
edge(72, 181).
edge(35, 72).
edge(134, 170).
edge(98, 188).
edge(31, 58).
edge(53, 157).
edge(69, 147).
edge(54, 119).
edge(16, 160).
edge(21, 89).
edge(73, 187).
edge(143, 150).
edge(119, 133).
edge(0, 9).
edge(141, 144).
edge(1, 133).
edge(65, 124).
edge(5, 178).
edge(44, 145).
edge(135, 157).
edge(42, 73).
edge(164, 167).
edge(4, 153).
edge(31, 180).
edge(104, 140).
edge(15, 164).
edge(28, 134).
edge(4, 86).
edge(75, 159).
edge(153, 179).
edge(20, 147).
edge(85, 94).
edge(13, 186).
edge(46, 186).
edge(130, 174).
edge(11, 58).
edge(44, 76).
edge(100, 177).
edge(17, 160).
edge(23, 187).
edge(53, 77).
edge(15, 155).
edge(78, 167).
edge(25, 158).
edge(85, 132).
edge(11, 88).
edge(32, 156).
edge(69, 138).
edge(78, 160).
edge(20, 122).
edge(11, 20).
edge(115, 178).
edge(0, 96).
edge(43, 56).
edge(39, 114).
edge(38, 107).
edge(93, 153).
edge(99, 186).
edge(115, 118).
edge(33, 63).
edge(142, 146).
edge(94, 152).
edge(134, 141).
edge(15, 140).
edge(129, 162).
edge(95, 99).
edge(0, 184).
edge(36, 86).
edge(89, 96).
edge(6, 63).
edge(17, 25).
edge(75, 123).
edge(47, 84).
edge(56, 128).
edge(64, 106).
edge(44, 117).
edge(52, 66).
edge(84, 165).
edge(165, 182).
edge(26, 184).
edge(66, 69).
edge(11, 163).
edge(129, 160).
edge(3, 166).
edge(7, 43).
edge(174, 188).
edge(118, 186).
edge(149, 151).
edge(33, 181).
edge(30, 170).
edge(78, 122).
edge(87, 89).
edge(1, 145).
edge(13, 19).
edge(8, 56).
edge(100, 189).
edge(22, 77).
edge(125, 133).
edge(16, 176).
edge(89, 109).
edge(93, 98).
edge(89, 127).
edge(110, 165).
edge(78, 115).
edge(125, 138).
edge(30, 91).
edge(69, 92).
edge(134, 156).
edge(39, 82).
edge(34, 66).
edge(30, 83).
edge(68, 188).
edge(38, 90).
edge(66, 108).
edge(72, 149).
edge(36, 139).
edge(140, 164).
edge(12, 169).
edge(22, 25).
edge(49, 146).
edge(1, 8).
edge(120, 145).
edge(77, 87).
edge(45, 139).
edge(20, 107).
edge(136, 154).
edge(116, 161).
edge(142, 189).
edge(31, 159).
edge(97, 98).
edge(43, 170).
edge(63, 73).
edge(100, 110).
edge(31, 85).
edge(134, 153).
edge(46, 83).
edge(32, 60).
edge(34, 96).
edge(113, 115).
edge(106, 122).
edge(15, 85).
edge(116, 120).
edge(10, 22).
edge(69, 102).
edge(115, 117).
edge(128, 174).
edge(9, 150).
edge(71, 176).
edge(73, 133).
edge(6, 56).
edge(2, 189).
edge(54, 86).
edge(81, 137).
edge(38, 82).
edge(142, 145).
edge(6, 24).
edge(132, 150).
edge(13, 136).
edge(128, 147).
edge(61, 88).
edge(54, 184).
edge(4, 67).
edge(48, 123).
edge(144, 161).
edge(43, 166).
edge(154, 174).
edge(112, 146).
edge(23, 119).
edge(13, 179).
edge(90, 133).
edge(13, 78).
edge(67, 75).
edge(100, 106).
edge(65, 114).
edge(16, 92).
edge(30, 112).
edge(163, 173).
edge(70, 181).
edge(81, 155).
edge(46, 102).
edge(149, 183).
edge(90, 160).
edge(11, 173).
edge(141, 181).
edge(10, 91).
edge(12, 180).
edge(25, 67).
edge(159, 178).
edge(78, 109).
edge(29, 161).
edge(0, 14).
edge(9, 67).
edge(0, 19).
edge(77, 104).
edge(121, 149).
edge(16, 151).
edge(34, 105).
edge(37, 138).
edge(6, 174).
edge(18, 130).
edge(136, 179).
edge(15, 83).
edge(59, 184).
edge(173, 182).
edge(13, 113).
edge(81, 88).
edge(94, 163).
edge(104, 187).
edge(87, 100).
edge(65, 167).
edge(36, 75).
edge(52, 64).
edge(3, 122).
edge(73, 127).
edge(102, 178).
edge(34, 132).
edge(141, 182).
edge(15, 187).
edge(86, 140).
edge(41, 116).
edge(87, 155).
edge(58, 107).
edge(36, 108).
edge(137, 165).
edge(24, 168).
edge(41, 48).
edge(39, 135).
edge(54, 118).
edge(83, 137).
edge(17, 21).
edge(20, 114).
edge(21, 69).
edge(92, 125).
edge(91, 170).
edge(64, 129).
edge(161, 165).
edge(23, 111).
edge(26, 149).
edge(70, 135).
edge(101, 116).
edge(53, 172).
edge(123, 126).
edge(0, 43).
edge(10, 102).
edge(1, 12).
edge(17, 22).
edge(35, 128).
edge(73, 117).
edge(154, 164).
edge(14, 147).
edge(52, 106).
edge(172, 182).
edge(54, 168).
edge(9, 127).
edge(65, 181).
edge(125, 184).
edge(2, 18).
edge(61, 171).
edge(100, 172).
edge(88, 176).
edge(127, 135).
edge(36, 114).
edge(19, 177).
edge(8, 109).
edge(33, 179).
edge(24, 133).
edge(110, 116).
edge(50, 55).
edge(115, 121).
edge(26, 79).
edge(89, 173).
edge(40, 68).
edge(41, 99).
edge(80, 103).
edge(98, 143).
edge(17, 153).
edge(55, 134).
edge(19, 184).
edge(49, 183).
edge(17, 108).
edge(63, 163).
edge(21, 159).
edge(120, 163).
edge(2, 31).
edge(26, 84).
edge(121, 142).
edge(69, 121).
edge(100, 139).
edge(0, 133).
edge(53, 103).
edge(3, 108).
edge(48, 142).
edge(103, 134).
edge(83, 148).
edge(59, 149).
edge(80, 90).
edge(31, 71).
edge(55, 140).
edge(103, 128).
edge(126, 182).
edge(81, 124).
edge(18, 163).
edge(19, 53).
edge(6, 12).
edge(93, 161).
edge(9, 20).
edge(83, 120).
edge(135, 143).
edge(86, 119).
edge(67, 128).
edge(64, 157).
edge(10, 115).
edge(83, 105).
edge(90, 157).
edge(65, 141).
edge(67, 124).
edge(12, 108).
edge(33, 92).
edge(57, 68).
edge(81, 103).
edge(98, 169).
edge(55, 64).
edge(37, 183).
edge(27, 48).
edge(4, 100).
edge(8, 161).
edge(115, 183).
edge(52, 137).
edge(15, 138).
edge(173, 187).
edge(46, 94).
edge(25, 141).
edge(55, 155).
edge(137, 166).
edge(115, 166).
edge(27, 132).
edge(17, 129).
edge(108, 167).
edge(29, 178).
edge(53, 94).
edge(71, 135).
edge(17, 149).
edge(46, 114).
edge(153, 161).
edge(40, 62).
edge(39, 137).
edge(150, 162).
edge(103, 184).
edge(135, 165).
edge(3, 170).
edge(59, 124).
edge(23, 142).
edge(116, 154).
edge(11, 149).
edge(95, 158).
edge(70, 185).
edge(80, 134).
edge(28, 79).
edge(38, 139).
edge(54, 76).
edge(49, 176).
edge(91, 188).
edge(16, 114).
edge(99, 154).
edge(16, 140).
edge(113, 117).
edge(87, 183).
edge(40, 113).
edge(24, 136).
edge(57, 126).
edge(83, 140).
edge(60, 158).
edge(76, 166).
edge(128, 148).
edge(27, 170).
edge(9, 81).
edge(60, 145).
edge(15, 35).
edge(60, 82).
edge(149, 167).
edge(55, 152).
edge(78, 85).
edge(78, 86).
edge(76, 82).
edge(87, 150).
edge(70, 104).
edge(31, 101).
edge(21, 66).
edge(29, 94).
edge(72, 114).
edge(0, 136).
edge(28, 141).
edge(11, 129).
edge(123, 155).
edge(10, 61).
edge(4, 73).
edge(20, 173).
edge(20, 158).
edge(125, 135).
edge(14, 133).
edge(50, 155).
edge(55, 149).
edge(134, 157).
edge(75, 165).
edge(63, 134).
edge(21, 27).
edge(16, 44).
edge(26, 30).
edge(86, 151).
edge(57, 140).
edge(133, 137).
edge(94, 145).
edge(81, 165).
edge(13, 92).
edge(31, 163).
edge(79, 164).
edge(58, 63).
edge(17, 39).
edge(28, 159).
edge(13, 172).
edge(97, 168).
edge(124, 170).
edge(10, 43).
edge(124, 172).
edge(49, 120).
edge(48, 126).
edge(43, 151).
edge(57, 137).
edge(16, 109).
edge(120, 157).
edge(179, 186).
edge(46, 56).
edge(12, 54).
edge(11, 32).
edge(17, 170).
edge(123, 149).
edge(26, 80).
edge(89, 138).
edge(29, 51).
edge(50, 181).
edge(31, 110).
edge(38, 117).
edge(2, 136).
edge(129, 171).
edge(14, 160).
edge(58, 140).
edge(98, 154).
edge(40, 147).
edge(2, 160).
edge(47, 76).
edge(125, 156).
edge(113, 131).
edge(62, 169).
edge(95, 154).
edge(40, 182).
edge(16, 61).
edge(54, 94).
edge(71, 173).
edge(116, 131).
edge(63, 97).
edge(29, 133).
edge(33, 58).
edge(141, 148).
edge(0, 65).
edge(49, 73).
edge(105, 138).
edge(89, 152).
edge(87, 96).
edge(11, 83).
edge(89, 168).
edge(90, 114).
edge(29, 87).
edge(23, 138).
edge(1, 118).
edge(179, 188).
edge(130, 159).
edge(54, 170).
edge(106, 188).
edge(95, 100).
edge(83, 136).
edge(122, 186).
edge(1, 89).
edge(154, 172).
edge(36, 39).
edge(60, 148).
edge(25, 123).
edge(12, 62).
edge(9, 182).
edge(45, 68).
edge(13, 55).
edge(34, 144).
edge(83, 143).
edge(26, 97).
edge(99, 138).
edge(101, 179).
edge(37, 97).
edge(110, 158).
edge(33, 135).
edge(77, 99).
edge(24, 38).
edge(157, 187).
edge(97, 110).
edge(34, 111).
edge(69, 183).
edge(53, 70).
edge(29, 183).
edge(144, 186).
edge(12, 100).
edge(77, 155).
edge(1, 108).
edge(106, 152).
edge(99, 152).
edge(63, 128).
edge(112, 155).
edge(171, 184).
edge(18, 118).
edge(67, 74).
edge(22, 41).
edge(178, 188).
edge(54, 153).
edge(41, 174).
edge(54, 151).
edge(67, 116).
edge(42, 119).
edge(54, 177).
edge(126, 155).
edge(145, 155).
edge(120, 127).
edge(19, 68).
edge(174, 176).
edge(43, 188).
edge(133, 151).
edge(6, 157).
edge(33, 111).
edge(4, 156).
edge(9, 117).
edge(32, 79).
edge(116, 125).
edge(132, 167).
edge(4, 125).
edge(10, 107).
edge(84, 117).
edge(3, 117).
edge(27, 180).
edge(17, 114).
edge(7, 172).
edge(141, 180).
edge(163, 186).
edge(92, 189).
edge(2, 82).
edge(81, 148).
edge(81, 127).
edge(35, 110).
edge(109, 179).
edge(29, 176).
edge(133, 177).
edge(40, 136).
edge(5, 9).
edge(143, 164).
edge(71, 77).
edge(123, 180).
edge(72, 132).
edge(108, 142).
edge(93, 185).
edge(159, 181).
edge(27, 86).
edge(98, 121).
edge(5, 73).
edge(45, 52).
edge(74, 82).
edge(41, 98).
edge(58, 69).
edge(134, 147).
edge(67, 122).
edge(9, 18).
edge(71, 188).
edge(73, 104).
edge(11, 52).
edge(20, 57).
edge(133, 186).
edge(80, 98).
edge(58, 78).
edge(63, 129).
edge(66, 73).
edge(166, 176).
edge(57, 70).
edge(93, 188).
edge(52, 61).
edge(45, 60).
edge(17, 186).
edge(22, 146).
edge(153, 154).
edge(11, 166).
edge(161, 163).
edge(44, 140).
edge(28, 158).
edge(27, 182).
edge(72, 112).
edge(67, 70).
edge(5, 41).
edge(153, 189).
edge(17, 184).
edge(57, 175).
edge(131, 188).
edge(36, 66).
edge(28, 125).
edge(9, 69).
edge(52, 162).
edge(68, 98).
edge(122, 148).
edge(51, 149).
edge(52, 172).
edge(11, 169).
edge(112, 182).
edge(6, 117).
edge(158, 179).
edge(69, 104).
edge(52, 138).
edge(9, 139).
edge(4, 150).
edge(46, 135).
edge(39, 47).
edge(29, 81).
edge(51, 139).
edge(37, 187).
edge(29, 121).
edge(18, 64).
edge(15, 73).
edge(11, 46).
edge(133, 140).
edge(4, 26).
edge(23, 181).
edge(119, 148).
edge(102, 105).
edge(92, 133).
edge(43, 86).
edge(101, 134).
edge(51, 123).
edge(0, 150).
edge(73, 159).
edge(15, 121).
edge(70, 171).
edge(45, 155).
edge(132, 143).
edge(2, 5).
edge(26, 169).
edge(138, 163).
edge(2, 78).
edge(42, 72).
edge(55, 178).
edge(101, 114).
edge(112, 145).
edge(144, 159).
edge(42, 49).
edge(122, 166).
edge(47, 137).
edge(76, 79).
edge(156, 184).
edge(104, 147).
edge(139, 151).
edge(4, 36).
edge(28, 53).
edge(49, 181).
edge(54, 62).
edge(105, 178).
edge(34, 175).
edge(89, 93).
edge(108, 188).
edge(45, 90).
edge(94, 113).
edge(81, 126).
edge(91, 94).
edge(157, 162).
edge(33, 106).
edge(2, 95).
edge(126, 153).
edge(76, 185).
edge(10, 65).
edge(17, 181).
edge(56, 126).
edge(78, 124).
edge(56, 102).
edge(15, 22).
edge(23, 169).
edge(51, 178).
edge(85, 187).
edge(80, 94).
edge(121, 133).
edge(12, 162).
edge(81, 176).
edge(6, 47).
edge(3, 82).
edge(75, 119).
edge(41, 162).
edge(94, 178).
edge(37, 84).
edge(20, 128).
edge(46, 76).
edge(60, 119).
edge(93, 143).
edge(15, 102).
edge(24, 30).
edge(139, 158).
edge(166, 183).
edge(20, 56).
edge(56, 129).
edge(129, 179).
edge(61, 113).
edge(124, 181).
edge(161, 171).
edge(52, 109).
edge(129, 131).
edge(126, 152).
edge(30, 99).
edge(50, 126).
edge(44, 141).
edge(70, 110).
edge(27, 172).
edge(113, 173).
edge(27, 40).
edge(119, 120).
edge(21, 83).
edge(143, 182).
edge(28, 103).
edge(66, 149).
edge(103, 132).
edge(79, 141).
edge(34, 75).
edge(43, 167).
edge(161, 166).
edge(68, 144).
edge(55, 121).
edge(65, 76).
edge(82, 163).
edge(90, 178).
edge(91, 186).
edge(6, 140).
edge(12, 40).
edge(134, 165).
edge(109, 130).
edge(97, 171).
edge(21, 136).
edge(76, 170).
edge(43, 84).
edge(19, 102).
edge(104, 118).
edge(165, 167).
edge(36, 148).
edge(25, 119).
edge(15, 170).
edge(161, 174).
edge(13, 142).
edge(19, 40).
edge(119, 135).
edge(51, 164).
edge(67, 91).
edge(52, 105).
edge(8, 91).
edge(34, 143).
edge(51, 140).
edge(78, 159).
edge(4, 21).
edge(39, 91).
edge(39, 171).
edge(109, 121).
edge(72, 138).
edge(45, 86).
edge(68, 138).
edge(133, 189).
edge(13, 175).
edge(175, 189).
edge(92, 128).
edge(4, 171).
edge(172, 177).
edge(126, 147).
edge(164, 169).
edge(123, 178).
edge(154, 165).
edge(35, 127).
edge(42, 149).
edge(13, 65).
edge(6, 172).
edge(79, 101).
edge(49, 105).
edge(145, 158).
edge(95, 183).
edge(48, 155).
edge(11, 47).
edge(111, 176).
edge(181, 186).
edge(21, 36).
edge(55, 188).
edge(26, 171).
edge(72, 156).
edge(8, 99).
edge(7, 44).
edge(40, 108).
edge(143, 169).
edge(0, 56).
edge(179, 181).
edge(6, 64).
edge(65, 112).
edge(100, 122).
edge(3, 22).
edge(73, 143).
edge(89, 178).
edge(95, 110).
edge(69, 177).
edge(103, 177).
edge(86, 187).
edge(90, 165).
edge(30, 51).
edge(96, 104).
edge(122, 144).
edge(36, 157).
edge(20, 42).
edge(50, 73).
edge(30, 151).
edge(117, 148).
edge(18, 46).
edge(109, 180).
edge(28, 39).
edge(40, 172).
edge(52, 127).
edge(35, 98).
edge(116, 177).
edge(39, 54).
edge(20, 93).
edge(68, 127).
edge(110, 122).
edge(113, 121).
edge(5, 121).
edge(12, 156).
edge(102, 148).
edge(15, 177).
edge(140, 161).
edge(119, 170).
edge(47, 62).
edge(125, 179).
edge(42, 75).
edge(56, 69).
edge(33, 176).
edge(51, 90).
edge(34, 184).
edge(68, 178).
edge(69, 131).
edge(144, 153).
edge(55, 60).
edge(15, 66).
edge(24, 166).
edge(41, 185).
edge(104, 143).
edge(35, 105).
edge(129, 157).
edge(133, 182).
edge(20, 119).
edge(122, 179).
edge(83, 111).
edge(99, 182).
edge(120, 180).
edge(6, 16).
edge(8, 118).
edge(27, 96).
edge(49, 149).
edge(104, 171).
edge(125, 130).
edge(18, 87).
edge(91, 103).
edge(22, 182).
edge(44, 45).
edge(56, 162).
edge(100, 166).
edge(83, 123).
edge(15, 181).
edge(35, 100).
edge(30, 138).
edge(21, 25).
edge(16, 31).
edge(0, 143).
edge(43, 85).
edge(96, 167).
edge(77, 151).
edge(76, 186).
edge(93, 179).
edge(144, 170).
edge(73, 100).
edge(100, 188).
edge(0, 186).
edge(61, 146).
edge(47, 138).
edge(41, 182).
edge(47, 113).
edge(65, 101).
edge(46, 139).
edge(43, 115).
edge(77, 79).
edge(102, 183).
edge(67, 113).
edge(70, 121).
edge(89, 105).
edge(5, 145).
edge(56, 153).
edge(108, 170).
edge(133, 174).
edge(84, 183).
edge(9, 70).
edge(38, 121).
edge(103, 121).
edge(53, 156).
edge(27, 189).
edge(75, 175).
edge(11, 171).
edge(36, 129).
edge(117, 155).
edge(22, 144).
edge(136, 186).
edge(24, 88).
edge(53, 158).
edge(13, 176).
edge(21, 146).
edge(93, 178).
edge(27, 57).
edge(138, 151).
edge(103, 148).
edge(24, 84).
edge(56, 115).
edge(38, 166).
edge(132, 180).
edge(13, 187).
edge(9, 97).
edge(22, 42).
edge(13, 137).
edge(44, 142).
edge(100, 135).
edge(48, 171).
edge(114, 157).
edge(86, 148).
edge(57, 116).
edge(3, 100).
edge(47, 89).
edge(54, 183).
edge(6, 116).
edge(16, 78).
edge(51, 124).
edge(26, 161).
edge(40, 57).
edge(62, 113).
edge(166, 170).
edge(25, 101).
edge(7, 29).
edge(146, 184).
edge(57, 112).
edge(49, 118).
edge(62, 68).
edge(64, 161).
edge(13, 62).
edge(2, 60).
edge(22, 88).
edge(11, 18).
edge(102, 177).
edge(34, 178).
edge(38, 119).
edge(76, 137).
edge(65, 133).
edge(78, 138).
edge(114, 130).
edge(60, 142).
edge(13, 69).
edge(43, 78).
edge(129, 175).
edge(3, 84).
edge(64, 134).
edge(112, 172).
edge(53, 138).
edge(69, 81).
edge(27, 156).
edge(93, 167).
edge(31, 120).
edge(86, 96).
edge(11, 135).
edge(37, 68).
edge(82, 154).
edge(119, 127).
edge(11, 103).
edge(148, 182).
edge(5, 139).
edge(4, 158).
edge(34, 167).
edge(154, 187).
edge(46, 161).
edge(47, 164).
edge(112, 122).
edge(136, 172).
edge(73, 145).
edge(149, 160).
edge(23, 86).
edge(25, 81).
edge(118, 178).
edge(60, 140).
edge(18, 56).
edge(113, 186).
edge(50, 80).
edge(39, 106).
edge(155, 182).
edge(102, 117).
edge(86, 149).
edge(98, 136).
edge(69, 132).
edge(123, 163).
edge(69, 105).
edge(24, 175).
edge(56, 112).
edge(37, 101).
edge(26, 107).
edge(2, 22).
edge(82, 106).
edge(83, 144).
edge(35, 75).
edge(53, 115).
edge(59, 120).
edge(2, 39).
edge(4, 170).
edge(23, 68).
edge(2, 178).
edge(26, 138).
edge(9, 147).
edge(148, 168).
edge(126, 186).
edge(27, 37).
edge(78, 177).
edge(67, 185).
edge(13, 36).
edge(79, 109).
edge(108, 133).
edge(4, 62).
edge(61, 112).
edge(83, 125).
edge(17, 122).
edge(15, 135).
edge(74, 186).
edge(67, 84).
edge(147, 155).
edge(20, 132).
edge(13, 120).
edge(39, 115).
edge(34, 124).
edge(99, 150).
edge(51, 175).
edge(11, 82).
edge(166, 178).
edge(39, 187).
edge(19, 99).
edge(121, 172).
edge(96, 118).
edge(29, 166).
edge(13, 124).
edge(25, 40).
edge(46, 145).
edge(50, 150).
edge(131, 173).
edge(60, 72).
edge(10, 152).
edge(69, 99).
edge(1, 36).
edge(119, 147).
edge(25, 163).
edge(133, 159).
edge(12, 63).
edge(12, 137).
edge(88, 104).
edge(0, 110).
edge(87, 111).
edge(118, 151).
edge(67, 186).
edge(0, 26).
edge(47, 111).
edge(50, 106).
edge(60, 177).
edge(145, 182).
edge(113, 123).
edge(2, 55).
edge(3, 112).
edge(23, 133).
edge(150, 155).
edge(54, 55).
edge(91, 151).
edge(15, 153).
edge(102, 121).
edge(120, 122).
edge(13, 64).
edge(10, 26).
edge(51, 156).
edge(22, 120).
edge(27, 35).
edge(23, 59).
edge(12, 79).
edge(67, 151).
edge(59, 169).
edge(148, 186).
edge(132, 168).
edge(77, 158).
edge(7, 88).
edge(18, 51).
edge(182, 185).
edge(10, 84).
edge(22, 163).
edge(30, 145).
edge(53, 150).
edge(147, 176).
edge(56, 89).
edge(49, 138).
edge(103, 165).
edge(118, 189).
edge(37, 175).
edge(15, 41).
edge(166, 185).
edge(29, 96).
edge(9, 33).
edge(72, 83).
edge(94, 107).
edge(69, 75).
edge(63, 153).
edge(61, 165).
edge(126, 156).
edge(32, 81).
edge(46, 120).
edge(137, 142).
edge(23, 150).
edge(10, 40).
edge(6, 188).
edge(16, 46).
edge(90, 155).
edge(13, 161).
edge(62, 138).
edge(7, 184).
edge(135, 159).
edge(15, 185).
edge(29, 188).
edge(36, 106).
edge(58, 141).
edge(70, 178).
edge(61, 107).
edge(55, 69).
edge(2, 114).
edge(30, 189).
edge(144, 174).
edge(88, 143).
edge(38, 77).
edge(30, 92).
edge(73, 136).
edge(49, 182).
edge(102, 131).
edge(3, 176).
edge(95, 187).
edge(127, 177).
edge(67, 82).
edge(44, 124).
edge(18, 121).
edge(75, 153).
edge(98, 124).
edge(98, 170).
edge(22, 91).
edge(57, 83).
edge(85, 126).
edge(78, 94).
edge(28, 164).
edge(20, 176).
edge(60, 146).
edge(112, 161).
edge(45, 78).
edge(157, 163).
edge(55, 142).
edge(21, 114).
edge(22, 154).
edge(144, 146).
edge(17, 40).
edge(108, 115).
edge(23, 130).
edge(26, 50).
edge(41, 68).
edge(44, 112).
edge(37, 67).
edge(137, 144).
edge(89, 131).
edge(7, 84).
edge(27, 152).
edge(56, 106).
edge(20, 105).
edge(1, 69).
edge(32, 140).
edge(89, 129).
edge(4, 80).
edge(121, 180).
edge(94, 111).
edge(54, 131).
edge(46, 116).
edge(60, 76).
edge(57, 151).
edge(144, 158).
edge(24, 68).
edge(76, 107).
edge(33, 35).
edge(66, 118).
edge(15, 68).
edge(51, 95).
edge(13, 139).
edge(5, 143).
edge(11, 152).
edge(99, 125).
edge(14, 22).
edge(116, 189).
edge(80, 162).
edge(45, 129).
edge(133, 184).
edge(4, 17).
edge(16, 90).
edge(9, 17).
edge(98, 119).
edge(26, 49).
edge(1, 56).
edge(74, 116).
edge(150, 178).
edge(33, 89).
edge(16, 116).
edge(112, 132).
edge(8, 181).
edge(16, 84).
edge(8, 60).
edge(61, 99).
edge(40, 168).
edge(68, 95).
edge(11, 29).
edge(61, 167).
edge(48, 101).
edge(22, 85).
edge(38, 69).
edge(129, 158).
edge(106, 137).
edge(29, 158).
edge(131, 153).
edge(50, 93).
edge(2, 122).
edge(125, 155).
edge(106, 167).
edge(141, 153).
edge(4, 176).
edge(41, 84).
edge(63, 122).
edge(75, 179).
edge(4, 78).
edge(65, 176).
edge(94, 142).
edge(93, 151).
edge(47, 174).
edge(155, 167).
edge(18, 120).
edge(151, 185).
edge(120, 154).
edge(111, 116).
edge(26, 103).
edge(52, 159).
edge(42, 98).
edge(31, 38).
edge(117, 186).
edge(118, 124).
edge(17, 50).
edge(73, 148).
edge(107, 140).
edge(52, 111).
edge(138, 174).
edge(46, 178).
edge(119, 167).
edge(120, 170).
edge(9, 51).
edge(100, 107).
edge(1, 99).
edge(43, 154).
edge(37, 86).
edge(61, 70).
edge(7, 34).
edge(73, 123).
edge(44, 46).
edge(24, 157).
edge(27, 79).
edge(23, 125).
edge(36, 95).
edge(89, 171).
edge(12, 91).
edge(6, 10).
edge(66, 103).
edge(80, 148).
edge(0, 64).
edge(10, 156).
edge(41, 134).
edge(80, 185).
edge(163, 184).
edge(20, 149).
edge(67, 159).
edge(74, 100).
edge(42, 45).
edge(39, 157).
edge(23, 157).
edge(50, 122).
edge(63, 166).
edge(3, 32).
edge(111, 140).
edge(123, 171).
edge(23, 185).
edge(34, 60).
edge(12, 163).
edge(19, 123).
edge(89, 123).
edge(41, 95).
edge(48, 154).
edge(104, 159).
edge(41, 60).
edge(4, 49).
edge(104, 163).
edge(27, 66).
edge(133, 163).
edge(145, 166).
edge(25, 177).
edge(53, 109).
edge(128, 175).
edge(98, 163).
edge(53, 130).
edge(11, 136).
edge(103, 157).
edge(68, 104).
edge(41, 126).
edge(12, 189).
edge(112, 184).
edge(100, 129).
edge(51, 108).
edge(26, 181).
edge(31, 76).
edge(15, 92).
edge(122, 138).
edge(56, 63).
edge(58, 83).
edge(92, 93).
edge(88, 182).
edge(54, 74).
edge(12, 111).
edge(86, 185).
edge(26, 38).
edge(6, 86).
edge(61, 139).
edge(4, 174).
edge(36, 54).
edge(62, 115).
edge(55, 66).
edge(81, 177).
edge(2, 129).
edge(20, 58).
edge(36, 163).
edge(2, 84).
edge(34, 56).
edge(6, 134).
edge(3, 140).
edge(19, 47).
edge(32, 80).
edge(27, 58).
edge(49, 99).
edge(35, 45).
edge(80, 109).
edge(174, 181).
edge(25, 63).
edge(46, 90).
edge(42, 144).
edge(8, 121).
edge(141, 188).
edge(79, 84).
edge(2, 76).
edge(9, 177).
edge(38, 57).
edge(3, 89).
edge(39, 152).
edge(23, 76).
edge(147, 162).
edge(90, 135).
edge(51, 120).
edge(40, 100).
edge(122, 167).
edge(70, 97).
edge(37, 163).
edge(40, 83).
edge(1, 41).
edge(48, 124).
edge(18, 141).
edge(87, 92).
edge(51, 165).
edge(84, 181).
edge(9, 141).
edge(59, 77).
edge(11, 186).
edge(165, 172).
edge(6, 82).
edge(34, 61).
edge(5, 108).
edge(124, 138).
edge(4, 41).
edge(117, 171).
edge(30, 165).
edge(112, 165).
edge(4, 35).
edge(35, 184).
edge(167, 178).
edge(41, 132).
edge(38, 42).
edge(90, 120).
edge(11, 133).
edge(27, 166).
edge(2, 185).
edge(0, 103).
edge(31, 102).
edge(66, 178).
edge(139, 182).
edge(9, 122).
edge(118, 144).
edge(26, 156).
edge(8, 43).
edge(37, 125).
edge(79, 129).
edge(177, 188).
edge(87, 167).
edge(27, 49).
edge(3, 66).
edge(29, 179).
edge(43, 138).
edge(22, 112).
edge(128, 153).
edge(109, 146).
edge(85, 160).
edge(120, 167).
edge(56, 74).
edge(16, 83).
edge(32, 53).
edge(137, 181).
edge(10, 92).
edge(50, 61).
edge(116, 142).
edge(89, 183).
edge(15, 31).
edge(35, 36).
edge(25, 144).
edge(46, 99).
edge(58, 81).
edge(106, 131).
edge(23, 100).
edge(101, 153).
edge(73, 173).
edge(81, 166).
edge(20, 41).
edge(170, 189).
edge(46, 124).
edge(10, 105).
edge(9, 92).
edge(44, 54).
edge(7, 187).
edge(119, 132).
edge(50, 115).
edge(12, 34).
edge(25, 33).
edge(32, 129).
edge(42, 54).
edge(36, 47).
edge(16, 67).
edge(97, 188).
edge(69, 154).
edge(145, 164).
edge(30, 98).
edge(56, 146).
edge(78, 139).
edge(0, 42).
edge(41, 136).
edge(86, 133).
edge(128, 182).
edge(48, 165).
edge(61, 110).
edge(23, 58).
edge(130, 135).
edge(47, 139).
edge(23, 106).
edge(52, 75).
edge(42, 114).
edge(79, 170).
edge(16, 174).
edge(6, 33).
edge(160, 165).
edge(111, 134).
edge(55, 182).
edge(8, 123).
edge(59, 144).
edge(138, 183).
edge(66, 91).
edge(81, 121).
edge(39, 62).
edge(46, 180).
edge(9, 158).
edge(73, 109).
edge(10, 117).
edge(10, 120).
edge(67, 109).
edge(144, 152).
edge(25, 72).
edge(169, 174).
edge(139, 189).
edge(55, 174).
edge(78, 108).
edge(8, 151).
edge(27, 134).
edge(35, 150).
edge(3, 95).
edge(63, 113).
edge(96, 156).
edge(9, 154).
edge(114, 164).
edge(37, 132).
edge(162, 187).
edge(98, 126).
edge(45, 167).
edge(122, 160).
edge(86, 164).
edge(85, 88).
edge(29, 76).
edge(62, 154).
edge(68, 69).
edge(79, 102).
edge(112, 163).
edge(83, 151).
edge(27, 162).
edge(64, 178).
edge(0, 146).
edge(30, 150).
edge(23, 54).
edge(31, 189).
edge(146, 162).
edge(3, 118).
edge(32, 127).
edge(6, 8).
edge(22, 76).
edge(149, 166).
edge(148, 187).
edge(171, 174).
edge(61, 157).
edge(98, 140).
edge(16, 57).
edge(38, 66).
edge(15, 32).
edge(89, 144).
edge(112, 187).
edge(17, 90).
edge(85, 148).
edge(92, 132).
edge(111, 183).
edge(53, 155).
edge(115, 134).
edge(95, 97).
edge(76, 148).
edge(57, 76).
edge(78, 171).
edge(33, 101).
edge(9, 164).
edge(19, 98).
edge(150, 183).
edge(22, 84).
edge(78, 137).
edge(81, 136).
edge(61, 72).
edge(39, 56).
edge(56, 65).
edge(167, 188).
edge(20, 124).
edge(47, 126).
edge(76, 176).
edge(8, 176).
edge(15, 154).
edge(14, 75).
edge(5, 110).
edge(40, 106).
edge(24, 94).
edge(50, 178).
edge(42, 107).
edge(56, 96).
edge(5, 39).
edge(64, 155).
edge(16, 47).
edge(116, 145).
edge(13, 59).
edge(93, 164).
edge(151, 154).
edge(138, 178).
edge(33, 112).
edge(12, 104).
edge(78, 170).
edge(107, 182).
edge(29, 32).
edge(114, 169).
edge(79, 112).
edge(35, 94).
edge(50, 65).
edge(43, 171).
edge(79, 175).
edge(44, 161).
edge(33, 50).
edge(64, 185).
edge(151, 162).
edge(6, 83).
edge(37, 170).
edge(11, 153).
edge(157, 165).
edge(42, 79).
edge(57, 99).
edge(101, 180).
edge(113, 161).
edge(55, 59).
edge(83, 158).
edge(160, 164).
edge(48, 136).
edge(67, 167).
edge(39, 133).
edge(31, 178).
edge(26, 151).
edge(31, 156).
edge(11, 76).
edge(95, 182).
edge(10, 143).
edge(10, 73).
edge(108, 143).
edge(18, 71).
edge(76, 175).
edge(101, 167).
edge(73, 122).
edge(141, 170).
edge(141, 183).
edge(64, 96).
edge(9, 105).
edge(62, 151).
edge(50, 138).
edge(109, 148).
edge(6, 162).
edge(7, 145).
edge(105, 158).
edge(142, 162).
edge(29, 136).
edge(50, 98).
edge(27, 46).
edge(69, 89).
edge(2, 146).
edge(47, 98).
edge(18, 111).
edge(2, 180).
edge(65, 100).
edge(15, 174).
edge(62, 142).
edge(84, 90).
edge(129, 147).
edge(40, 101).
edge(18, 142).
edge(120, 150).
edge(89, 133).
edge(54, 186).
edge(0, 74).
edge(36, 101).
edge(30, 80).
edge(168, 184).
edge(17, 100).
edge(29, 117).
edge(99, 129).
edge(5, 67).
edge(20, 140).
edge(106, 187).
edge(54, 123).
edge(76, 111).
edge(5, 70).
edge(122, 168).
edge(127, 176).
edge(48, 150).
edge(150, 175).
edge(40, 86).
edge(17, 159).
edge(84, 185).
edge(117, 134).
edge(60, 86).
edge(27, 117).
edge(75, 128).
edge(16, 72).
edge(63, 77).
edge(61, 75).
edge(22, 155).
edge(83, 165).
edge(95, 104).
edge(97, 176).
edge(13, 48).
edge(7, 76).
edge(139, 184).
edge(129, 173).
edge(44, 158).
edge(33, 77).
edge(21, 139).
edge(56, 82).
edge(12, 94).
edge(45, 183).
edge(73, 131).
edge(40, 119).
edge(47, 105).
edge(56, 160).
edge(46, 74).
edge(59, 133).
edge(98, 138).
edge(20, 83).
edge(79, 122).
edge(156, 174).
edge(13, 33).
edge(70, 123).
edge(31, 89).
edge(96, 162).
edge(92, 151).
edge(15, 159).
edge(11, 39).
edge(22, 132).
edge(113, 177).
edge(24, 96).
edge(24, 159).
edge(30, 128).
edge(116, 188).
edge(147, 148).
edge(8, 94).
edge(32, 170).
edge(148, 153).
edge(18, 62).
edge(119, 166).
edge(3, 147).
edge(78, 79).
edge(85, 142).
edge(127, 161).
edge(90, 174).
edge(50, 86).
edge(56, 87).
edge(129, 187).
edge(73, 126).
edge(61, 85).
edge(134, 171).
edge(39, 151).
edge(0, 162).
edge(106, 151).
edge(43, 182).
edge(19, 111).
edge(25, 79).
edge(20, 63).
edge(34, 86).
edge(60, 132).
edge(127, 164).
edge(166, 172).
edge(59, 93).
edge(183, 185).
edge(3, 8).
edge(0, 46).
edge(28, 150).
edge(33, 123).
edge(103, 107).
edge(24, 163).
edge(91, 153).
edge(29, 45).
edge(24, 32).
edge(12, 112).
edge(43, 179).
edge(31, 118).
edge(68, 85).
edge(87, 132).
edge(56, 147).
edge(131, 159).
edge(39, 68).
edge(112, 118).
edge(103, 151).
edge(10, 155).
edge(39, 109).
edge(28, 132).
edge(14, 112).
edge(0, 76).
edge(26, 114).
edge(41, 86).
edge(28, 178).
edge(176, 189).
edge(62, 143).
edge(108, 112).
edge(95, 147).
edge(97, 151).
edge(59, 89).
edge(8, 150).
edge(56, 143).
edge(47, 141).
edge(120, 184).
edge(91, 129).
edge(122, 152).
edge(24, 62).
edge(97, 120).
edge(32, 101).
edge(17, 54).
edge(65, 136).
edge(107, 130).
edge(107, 126).
edge(42, 95).
edge(134, 159).
edge(64, 98).
edge(61, 189).
edge(104, 183).
edge(120, 142).
edge(44, 172).
edge(2, 120).
edge(39, 149).
edge(89, 159).
edge(134, 135).
edge(63, 76).
edge(16, 152).
edge(67, 160).
edge(48, 74).
edge(97, 129).
edge(145, 171).
edge(9, 38).
edge(104, 116).
edge(153, 167).
edge(91, 169).
edge(47, 49).
edge(171, 187).
edge(27, 158).
edge(50, 142).
edge(65, 163).
edge(0, 93).
edge(34, 182).
edge(58, 174).
edge(7, 167).
edge(30, 188).
edge(124, 131).
edge(158, 175).
edge(44, 164).
edge(17, 46).
edge(32, 39).
edge(8, 25).
edge(12, 135).
edge(103, 160).
edge(68, 126).
edge(111, 188).
edge(17, 48).
edge(16, 24).
edge(50, 54).
edge(98, 125).
edge(27, 145).
edge(35, 63).
edge(68, 123).
edge(117, 163).
edge(108, 187).
edge(75, 156).
edge(104, 173).
edge(18, 26).
edge(22, 49).
edge(53, 171).
edge(59, 102).
edge(76, 109).
edge(90, 180).
edge(108, 169).
edge(137, 154).
edge(44, 114).
edge(16, 58).
edge(112, 170).
edge(70, 161).
edge(119, 189).
edge(69, 171).
edge(94, 119).
edge(17, 104).
edge(2, 15).
edge(141, 147).
edge(117, 184).
edge(61, 89).
edge(119, 128).
edge(24, 117).
edge(39, 139).
edge(56, 133).
edge(71, 106).
edge(81, 162).
edge(84, 85).
edge(124, 178).
edge(30, 172).
edge(167, 168).
edge(75, 145).
edge(90, 172).
edge(55, 143).
edge(36, 97).
edge(24, 150).
edge(64, 73).
edge(74, 89).
edge(5, 24).
edge(33, 173).
edge(93, 157).
edge(56, 149).
edge(68, 163).
edge(52, 179).
edge(33, 163).
edge(45, 117).
edge(78, 125).
edge(23, 96).
edge(57, 155).
edge(82, 156).
edge(137, 187).
edge(10, 56).
edge(26, 59).
edge(173, 179).
edge(71, 110).
edge(57, 78).
edge(106, 147).
edge(47, 118).
edge(74, 134).
edge(124, 139).
edge(124, 141).
edge(126, 157).
edge(32, 89).
edge(81, 173).
edge(45, 148).
edge(111, 137).
edge(99, 107).
edge(4, 127).
edge(90, 103).
edge(9, 108).
edge(72, 139).
edge(89, 122).
edge(6, 19).
edge(19, 129).
edge(85, 133).
edge(102, 176).
edge(41, 165).
edge(102, 158).
edge(160, 175).
edge(96, 146).
edge(60, 95).
edge(24, 66).
edge(37, 117).
edge(129, 169).
edge(44, 66).
edge(23, 31).
edge(90, 186).
edge(84, 164).
edge(47, 80).
edge(9, 43).
edge(3, 62).
edge(7, 42).
edge(43, 83).
edge(131, 132).
edge(59, 99).
edge(9, 118).
edge(46, 163).
edge(132, 173).
edge(36, 130).
edge(106, 116).
edge(135, 178).
edge(106, 130).
edge(37, 81).
edge(94, 185).
edge(72, 95).
edge(9, 161).
edge(72, 177).
edge(52, 113).
edge(67, 172).
edge(77, 133).
edge(134, 142).
edge(11, 172).
edge(64, 88).
edge(18, 100).
edge(71, 143).
edge(36, 65).
edge(74, 165).
edge(12, 46).
edge(94, 153).
edge(124, 185).
edge(1, 119).
edge(68, 106).
edge(159, 160).
edge(126, 179).
edge(35, 126).
edge(52, 152).
edge(133, 162).
edge(37, 66).
edge(50, 136).
edge(27, 116).
edge(83, 92).
edge(114, 185).
edge(3, 34).
edge(34, 113).
edge(150, 151).
edge(70, 126).
edge(134, 179).
edge(60, 138).
edge(25, 93).
edge(47, 156).
edge(114, 125).
edge(53, 75).
edge(64, 167).
edge(89, 147).
edge(87, 105).
edge(55, 89).
edge(76, 188).
edge(116, 180).
edge(64, 102).
edge(9, 94).
edge(80, 152).
edge(79, 166).
edge(25, 87).
edge(84, 129).
edge(86, 94).
edge(63, 123).
edge(124, 133).
edge(4, 165).
edge(14, 115).
edge(83, 108).
edge(35, 185).
edge(75, 149).
edge(111, 139).
edge(13, 32).
edge(112, 151).
edge(33, 93).
edge(152, 156).
edge(25, 107).
edge(43, 52).
edge(119, 184).
edge(87, 102).
edge(30, 41).
edge(5, 147).
edge(95, 108).
edge(16, 75).
edge(38, 129).
edge(7, 22).
edge(110, 154).
edge(31, 70).
edge(46, 156).
edge(135, 180).
edge(58, 184).
edge(86, 159).
edge(33, 80).
edge(101, 174).
edge(125, 136).
edge(35, 158).
edge(8, 148).
edge(70, 151).
edge(10, 100).
edge(47, 56).
edge(136, 188).
edge(64, 137).
edge(91, 168).
edge(33, 146).
edge(108, 177).
edge(61, 136).
edge(27, 163).
edge(106, 174).
edge(80, 146).
edge(40, 188).
edge(83, 110).
edge(10, 23).
edge(36, 92).
edge(64, 100).
edge(114, 178).
edge(66, 143).
edge(70, 99).
edge(60, 111).
edge(149, 180).
edge(33, 98).
edge(80, 104).
edge(3, 36).
edge(34, 98).
edge(6, 50).
edge(21, 184).
edge(63, 188).
edge(67, 149).
edge(73, 87).
edge(50, 174).
edge(23, 28).
edge(144, 169).
edge(61, 66).
edge(74, 168).
edge(79, 82).
edge(4, 44).
edge(54, 179).
edge(44, 62).
edge(4, 23).
edge(51, 180).
edge(56, 137).
edge(72, 159).
edge(131, 174).
edge(55, 75).
edge(44, 118).
edge(162, 168).
edge(60, 139).
edge(92, 122).
edge(96, 126).
edge(136, 147).
edge(5, 164).
edge(78, 134).
edge(35, 169).
edge(172, 188).
edge(15, 18).
edge(42, 141).
edge(25, 135).
edge(13, 27).
edge(47, 119).
edge(7, 18).
edge(17, 44).
edge(54, 83).
edge(50, 90).
edge(148, 162).
edge(59, 163).
edge(90, 147).
edge(157, 177).
edge(45, 121).
edge(72, 166).
edge(87, 90).
edge(70, 152).
edge(15, 48).
edge(54, 130).
edge(27, 84).
edge(71, 109).
edge(5, 103).
edge(3, 133).
edge(101, 155).
edge(9, 151).
edge(39, 52).
edge(96, 131).
edge(125, 144).
edge(30, 174).
edge(16, 25).
edge(36, 155).
edge(21, 47).
edge(120, 155).
edge(37, 118).
edge(66, 132).
edge(113, 149).
edge(85, 181).
edge(41, 79).
edge(103, 137).
edge(40, 87).
edge(1, 23).
edge(100, 186).
edge(74, 125).
edge(103, 127).
edge(17, 78).
edge(88, 159).
edge(39, 169).
edge(140, 167).
edge(98, 151).
edge(158, 187).
edge(46, 47).
edge(75, 85).
edge(22, 124).
edge(51, 78).
edge(162, 188).
edge(46, 129).
edge(14, 107).
edge(110, 175).
edge(80, 115).
edge(9, 78).
edge(70, 108).
edge(15, 182).
edge(13, 47).
edge(87, 159).
edge(66, 78).
edge(8, 62).
edge(7, 12).
edge(45, 177).
edge(136, 189).
edge(89, 103).
edge(78, 163).
edge(65, 147).
edge(111, 131).
edge(106, 177).
edge(83, 118).
edge(50, 125).
edge(8, 78).
edge(94, 177).
edge(147, 187).
edge(43, 50).
edge(21, 118).
edge(23, 159).
edge(141, 149).
edge(27, 29).
edge(18, 89).
edge(25, 189).
edge(38, 96).
edge(29, 93).
edge(52, 122).
edge(58, 68).
edge(48, 166).
edge(10, 96).
edge(106, 159).
edge(45, 88).
edge(18, 147).
edge(36, 140).
edge(120, 158).
edge(52, 103).
edge(2, 153).
edge(46, 140).
edge(32, 116).
edge(88, 96).
edge(49, 98).
edge(139, 172).
edge(93, 133).
edge(33, 107).
edge(70, 117).
edge(102, 110).
edge(104, 182).
edge(164, 166).
edge(4, 178).
edge(20, 180).
edge(78, 176).
edge(2, 30).
edge(51, 128).
edge(91, 109).
edge(8, 119).
edge(21, 152).
edge(51, 100).
edge(59, 64).
edge(102, 167).
edge(133, 136).
edge(15, 133).
edge(42, 110).
edge(55, 110).
edge(90, 184).
edge(116, 153).
edge(14, 158).
edge(103, 139).
edge(11, 48).
edge(15, 116).
edge(25, 157).
edge(1, 26).
edge(81, 98).
edge(132, 133).
edge(17, 151).
edge(50, 103).
edge(59, 81).
edge(96, 136).
edge(1, 151).
edge(69, 84).
edge(154, 173).
edge(112, 149).
edge(10, 177).
edge(165, 175).
edge(60, 156).
edge(183, 188).
edge(31, 121).
edge(17, 94).
edge(130, 149).
edge(118, 127).
edge(45, 134).
edge(7, 185).
edge(63, 156).
edge(83, 104).
edge(37, 152).
edge(153, 166).
edge(6, 29).
edge(24, 160).
edge(52, 163).
edge(66, 109).
edge(77, 90).
edge(155, 158).
edge(137, 141).
edge(63, 176).
edge(55, 94).
edge(33, 87).
edge(70, 157).
edge(8, 74).
edge(75, 114).
edge(1, 91).
edge(14, 167).
edge(58, 102).
edge(78, 105).
edge(85, 183).
edge(151, 158).
edge(30, 61).
edge(56, 189).
edge(120, 162).
edge(26, 40).
edge(145, 179).
edge(46, 67).
edge(34, 93).
edge(27, 144).
edge(123, 189).
edge(46, 53).
edge(98, 111).
edge(67, 138).
edge(35, 61).
edge(46, 151).
edge(50, 87).
edge(169, 175).
edge(47, 187).
edge(56, 85).
edge(84, 91).
edge(13, 157).
edge(55, 80).
edge(3, 91).
edge(93, 144).
edge(60, 137).
edge(114, 189).
edge(86, 112).
edge(16, 56).
edge(88, 158).
edge(129, 144).
edge(12, 28).
edge(58, 98).
edge(10, 35).
edge(13, 51).
edge(96, 123).
edge(49, 50).
edge(13, 163).
edge(19, 29).
edge(21, 103).
edge(104, 142).
edge(69, 112).
edge(10, 27).
edge(148, 163).
edge(17, 96).
edge(53, 60).
edge(101, 110).
edge(8, 173).
edge(43, 140).
edge(3, 45).
edge(100, 114).
edge(88, 112).
edge(34, 58).
edge(103, 158).
edge(23, 126).
edge(74, 122).
edge(9, 170).
edge(72, 144).
edge(56, 111).
edge(1, 84).
edge(152, 159).
edge(28, 128).
edge(154, 176).
edge(86, 110).
edge(99, 160).
edge(56, 72).
edge(153, 168).
edge(67, 147).
edge(120, 147).
edge(38, 143).
edge(150, 153).
edge(86, 162).
edge(49, 139).
edge(38, 59).
edge(9, 143).
edge(7, 13).
edge(4, 70).
edge(19, 22).
edge(108, 166).
edge(50, 94).
edge(37, 59).
edge(38, 65).
edge(146, 182).
edge(72, 174).
edge(12, 97).
edge(119, 181).
edge(166, 184).
edge(8, 128).
edge(70, 78).
edge(9, 131).
edge(58, 105).
edge(94, 169).
edge(33, 68).
edge(49, 52).
edge(152, 186).
edge(123, 142).
edge(62, 73).
edge(35, 167).
edge(37, 85).
edge(4, 104).
edge(39, 174).
edge(69, 181).
edge(47, 160).
edge(81, 188).
edge(11, 138).
edge(155, 172).
edge(74, 133).
edge(100, 151).
edge(170, 185).
edge(26, 56).
edge(80, 107).
edge(16, 27).
edge(79, 185).
edge(139, 178).
edge(95, 156).
edge(7, 61).
edge(55, 108).
edge(112, 148).
edge(37, 56).
edge(10, 97).
edge(21, 24).
edge(103, 124).
edge(48, 69).
edge(34, 40).
edge(15, 56).
edge(55, 76).
edge(72, 115).
edge(76, 183).
edge(76, 179).
edge(93, 124).
edge(67, 130).
edge(16, 149).
edge(62, 188).
edge(76, 77).
edge(46, 176).
edge(132, 186).
edge(8, 164).
edge(23, 118).
edge(122, 127).
edge(38, 153).
edge(58, 85).
edge(45, 149).
edge(65, 177).
edge(11, 182).
edge(68, 129).
edge(60, 112).
edge(19, 119).
edge(47, 108).
edge(132, 152).
edge(139, 168).
edge(21, 26).
edge(54, 91).
edge(15, 169).
edge(7, 107).
edge(79, 104).
edge(66, 111).
edge(115, 119).
edge(24, 90).
edge(60, 147).
edge(53, 76).
edge(53, 111).
edge(130, 171).
edge(74, 124).
edge(149, 153).
edge(14, 131).
edge(62, 126).
edge(13, 111).
edge(71, 84).
edge(148, 156).
edge(77, 178).
edge(27, 171).
edge(45, 73).
edge(107, 135).
edge(34, 149).
edge(142, 171).
edge(28, 122).
edge(126, 137).
edge(84, 189).
edge(63, 137).
edge(107, 185).
edge(15, 64).
edge(47, 185).
edge(0, 139).
edge(19, 122).
edge(55, 154).
edge(132, 137).
edge(75, 146).
edge(111, 123).
edge(78, 118).
edge(43, 147).
edge(106, 134).
edge(159, 171).
edge(44, 86).
edge(28, 155).
edge(41, 148).
edge(78, 99).
edge(46, 182).
edge(55, 139).
edge(136, 184).
edge(72, 146).
edge(64, 128).
edge(48, 103).
edge(185, 188).
edge(91, 152).
edge(6, 165).
edge(4, 71).
edge(171, 186).
edge(102, 175).
edge(124, 160).
edge(103, 116).
edge(56, 108).
edge(14, 185).
edge(16, 148).
edge(59, 95).
edge(58, 147).
edge(158, 188).
edge(3, 159).
edge(67, 95).
edge(17, 65).
edge(91, 104).
edge(110, 144).
edge(17, 189).
edge(125, 173).
edge(90, 182).
edge(98, 122).
edge(39, 77).
edge(102, 180).
edge(45, 108).
edge(112, 173).
edge(33, 183).
edge(40, 126).
edge(48, 68).
edge(41, 43).
edge(62, 99).
edge(47, 167).
edge(51, 60).
edge(54, 142).
edge(88, 154).
edge(113, 169).
edge(12, 43).
edge(108, 155).
edge(25, 150).
edge(38, 124).
edge(23, 144).
edge(49, 97).
edge(114, 128).
edge(1, 39).
edge(14, 157).
edge(9, 171).
edge(157, 174).
edge(43, 91).
edge(132, 179).
edge(53, 108).
edge(156, 183).
edge(11, 155).
edge(63, 116).
edge(28, 115).
edge(60, 141).
edge(14, 72).
edge(95, 143).
edge(40, 131).
edge(49, 188).
edge(20, 69).
edge(16, 70).
edge(104, 166).
edge(58, 168).
edge(20, 73).
edge(57, 148).
edge(9, 86).
edge(24, 130).
edge(10, 12).
edge(24, 154).
edge(85, 134).
edge(59, 106).
edge(167, 181).
edge(3, 86).
edge(52, 99).
edge(44, 81).
edge(1, 100).
edge(80, 138).
edge(124, 179).
edge(18, 134).
edge(3, 78).
edge(46, 167).
edge(145, 160).
edge(68, 187).
edge(33, 88).
edge(15, 165).
edge(69, 108).
edge(32, 73).
edge(83, 163).
edge(143, 148).
edge(25, 37).
edge(17, 141).
edge(25, 186).
edge(1, 107).
edge(53, 113).
edge(140, 151).
edge(7, 41).
edge(27, 97).
edge(81, 140).
edge(66, 121).
edge(74, 96).
edge(2, 161).
edge(18, 19).
edge(50, 185).
edge(26, 186).
edge(52, 125).
edge(81, 116).
edge(8, 95).
edge(45, 128).
edge(28, 71).
edge(10, 127).
edge(160, 181).
edge(38, 75).
edge(19, 186).
edge(7, 36).
edge(44, 138).
edge(91, 132).
edge(44, 87).
edge(142, 154).
edge(26, 27).
edge(53, 132).
edge(23, 99).
edge(76, 115).
edge(105, 146).
edge(63, 184).
edge(35, 143).
edge(2, 92).
edge(50, 156).
edge(83, 85).
edge(21, 62).
edge(4, 141).
edge(58, 148).
edge(110, 155).
edge(60, 164).
edge(74, 146).
edge(18, 79).
edge(25, 178).
edge(78, 143).
edge(187, 188).
edge(13, 108).
edge(52, 189).
edge(38, 52).
edge(97, 112).
edge(84, 116).
edge(87, 156).
edge(64, 69).
edge(65, 103).
edge(61, 164).
edge(12, 36).
edge(92, 181).
edge(11, 127).
edge(75, 148).
edge(130, 144).
edge(3, 19).
edge(26, 121).
edge(11, 60).
edge(28, 142).
edge(62, 98).
edge(76, 187).
edge(0, 99).
edge(59, 187).
edge(100, 134).
edge(14, 156).
edge(38, 70).
edge(122, 149).
edge(42, 68).
edge(31, 73).
edge(44, 182).
edge(79, 86).
edge(12, 47).
edge(16, 124).
edge(76, 117).
edge(36, 64).
edge(84, 123).
edge(52, 79).
edge(59, 69).
edge(111, 117).
edge(104, 146).
edge(39, 94).
edge(5, 86).
edge(45, 46).
edge(64, 175).
edge(112, 140).
edge(13, 182).
edge(46, 115).
edge(16, 120).
edge(52, 92).
edge(31, 136).
edge(134, 174).
edge(174, 183).
edge(83, 121).
edge(77, 168).
edge(125, 185).
edge(147, 178).
edge(66, 95).
edge(32, 187).
edge(1, 163).
edge(126, 163).
edge(71, 74).
edge(65, 67).
edge(33, 105).
edge(7, 149).
edge(80, 93).
edge(86, 141).
edge(65, 173).
edge(95, 132).
edge(51, 176).
edge(76, 132).
edge(18, 73).
edge(86, 93).
edge(60, 73).
edge(18, 138).
edge(13, 29).
edge(119, 125).
edge(8, 50).
edge(78, 128).
edge(35, 157).
edge(107, 138).
edge(94, 99).
edge(108, 186).
edge(61, 155).
edge(100, 125).
edge(23, 27).
edge(8, 134).
edge(48, 79).
edge(61, 74).
edge(65, 142).
edge(43, 173).
edge(40, 184).
edge(20, 117).
edge(124, 132).
edge(62, 136).
edge(42, 105).
edge(64, 177).
edge(108, 181).
edge(8, 163).
edge(62, 90).
edge(55, 165).
edge(105, 186).
edge(8, 10).
edge(16, 159).
edge(111, 171).
edge(29, 39).
edge(63, 183).
edge(64, 112).
edge(35, 111).
edge(112, 123).
edge(40, 117).
edge(27, 110).
edge(50, 152).
edge(65, 170).
edge(19, 150).
edge(94, 128).
edge(68, 161).
edge(13, 128).
edge(9, 148).
edge(126, 131).
edge(168, 176).
edge(12, 159).
edge(11, 102).
edge(96, 188).
edge(56, 121).
edge(39, 143).
edge(19, 95).
edge(12, 161).
edge(150, 168).
edge(28, 99).
edge(7, 182).
edge(10, 28).
edge(25, 111).
edge(97, 142).
edge(91, 181).
edge(36, 110).
edge(33, 65).
edge(62, 102).
edge(95, 168).
edge(159, 163).
edge(42, 44).
edge(28, 50).
edge(65, 185).
edge(144, 163).
edge(62, 80).
edge(71, 104).
edge(27, 80).
edge(2, 77).
edge(20, 136).
edge(111, 135).
edge(63, 172).
edge(40, 139).
edge(75, 118).
edge(63, 140).
edge(54, 160).
edge(74, 98).
edge(90, 115).
edge(50, 91).
edge(4, 105).
edge(96, 140).
edge(51, 168).
edge(101, 158).
edge(76, 160).
edge(24, 63).
edge(173, 176).
edge(79, 108).
edge(77, 125).
edge(8, 112).
edge(109, 150).
edge(107, 115).
edge(134, 160).
edge(107, 183).
edge(62, 96).
edge(38, 113).
edge(14, 64).
edge(16, 121).
edge(4, 128).
edge(81, 170).
edge(115, 189).
edge(6, 95).
edge(41, 175).
edge(141, 164).
edge(6, 96).
edge(54, 113).
edge(21, 43).
edge(8, 166).
edge(185, 187).
edge(10, 112).
edge(108, 124).
edge(22, 70).
edge(102, 140).
edge(65, 178).
edge(14, 149).
edge(156, 185).
edge(105, 147).
edge(149, 157).
edge(140, 149).
edge(25, 84).
edge(104, 169).
edge(121, 134).
edge(145, 147).
edge(5, 76).
edge(16, 86).
edge(10, 119).
edge(53, 166).
edge(42, 81).
edge(15, 129).
edge(85, 119).
edge(8, 130).
edge(66, 160).
edge(56, 139).
edge(18, 125).
edge(37, 74).
edge(125, 189).
edge(40, 105).
edge(142, 184).
edge(35, 78).
edge(33, 64).
edge(46, 154).
edge(33, 138).
edge(123, 157).
edge(44, 155).
edge(56, 94).
edge(1, 82).
edge(87, 181).
edge(44, 50).
edge(41, 112).
edge(125, 176).
edge(16, 144).
edge(41, 183).
edge(77, 173).
edge(152, 174).
edge(106, 156).
edge(37, 176).
edge(63, 185).
edge(25, 138).
edge(32, 115).
edge(38, 111).
edge(32, 137).
edge(99, 188).
edge(65, 119).
edge(1, 25).
edge(34, 157).
edge(143, 178).
edge(6, 55).
edge(53, 95).
edge(108, 152).
edge(32, 173).
edge(42, 71).
edge(8, 46).
edge(88, 100).
edge(48, 109).
edge(7, 104).
edge(29, 132).
edge(87, 143).
edge(139, 174).
edge(68, 128).
edge(128, 160).
edge(3, 40).
edge(16, 76).
edge(131, 157).
edge(28, 161).
edge(149, 161).
edge(66, 171).
edge(85, 156).
edge(46, 58).
edge(80, 106).
edge(161, 162).
edge(90, 188).
edge(29, 149).
edge(27, 141).
edge(163, 170).
edge(55, 129).
edge(73, 110).
edge(98, 162).
edge(102, 103).
edge(47, 82).
edge(58, 77).
edge(78, 107).
edge(56, 161).
edge(11, 38).
edge(144, 187).
edge(89, 121).
edge(14, 123).
edge(77, 117).
edge(49, 91).
edge(61, 166).
edge(25, 127).
edge(110, 163).
edge(39, 81).
edge(65, 109).
edge(78, 144).
edge(35, 176).
edge(37, 40).
edge(1, 156).
edge(20, 118).
edge(82, 102).
edge(114, 171).
edge(133, 181).
edge(53, 135).
edge(105, 117).
edge(21, 111).
edge(33, 70).
edge(138, 173).
edge(94, 115).
edge(96, 180).
edge(163, 169).
edge(135, 154).
edge(157, 171).
edge(145, 152).
edge(100, 104).
edge(131, 185).
edge(13, 168).
edge(100, 183).
edge(80, 85).
edge(116, 182).
edge(116, 179).
edge(47, 165).
edge(77, 161).
edge(87, 165).
edge(102, 179).
edge(106, 178).
edge(67, 177).
edge(6, 44).
edge(21, 135).
edge(62, 108).
edge(11, 134).
edge(59, 136).
edge(37, 186).
edge(95, 142).
edge(63, 114).
edge(54, 148).
edge(21, 157).
edge(2, 149).
edge(16, 101).
edge(82, 88).
edge(27, 42).
edge(25, 124).
edge(2, 157).
edge(2, 159).
edge(11, 53).
edge(105, 150).
edge(54, 109).
edge(133, 154).
edge(16, 137).
edge(78, 141).
edge(1, 94).
edge(111, 113).
edge(38, 50).
edge(22, 127).
edge(85, 146).
edge(102, 172).
edge(13, 112).
edge(7, 140).
edge(61, 187).
edge(45, 152).
edge(128, 151).
edge(42, 165).
edge(156, 165).
edge(125, 140).
edge(117, 179).
edge(4, 33).
edge(18, 61).
edge(156, 170).
edge(147, 165).
edge(90, 95).
edge(85, 108).
edge(7, 123).
edge(64, 80).
edge(58, 133).
edge(54, 63).
edge(32, 114).
edge(19, 33).
edge(39, 50).
edge(9, 24).
edge(3, 77).
edge(71, 180).
edge(29, 36).
edge(80, 168).
edge(12, 49).
edge(130, 158).
edge(4, 101).
edge(11, 137).
edge(13, 109).
edge(38, 47).
edge(142, 155).
edge(42, 70).
edge(184, 189).
edge(22, 97).
edge(47, 142).
edge(80, 179).
edge(3, 174).
edge(108, 176).
edge(11, 22).
edge(1, 152).
edge(40, 174).
edge(125, 148).
edge(60, 163).
edge(91, 172).
edge(0, 128).
edge(11, 170).
edge(25, 120).
edge(52, 71).
edge(124, 187).
edge(31, 41).
edge(8, 168).
edge(0, 151).
edge(112, 114).
edge(90, 143).
edge(128, 185).
edge(148, 155).
edge(82, 118).
edge(92, 123).
edge(28, 76).
edge(132, 184).
edge(55, 86).
edge(108, 128).
edge(7, 15).
edge(62, 75).
edge(2, 174).
edge(100, 162).
edge(36, 43).
edge(98, 166).
edge(17, 52).
edge(77, 184).
edge(80, 121).
edge(2, 91).
edge(36, 183).
edge(25, 36).
edge(42, 140).
edge(6, 132).
edge(78, 174).
edge(16, 107).
edge(70, 133).
edge(19, 188).
edge(14, 91).
edge(48, 116).
edge(159, 176).
edge(85, 172).
edge(17, 102).
edge(14, 59).
edge(44, 79).
edge(70, 149).
edge(22, 23).
edge(5, 62).
edge(38, 108).
edge(2, 128).
edge(135, 147).
edge(21, 81).
edge(135, 167).
edge(148, 189).
edge(40, 180).
edge(7, 161).
edge(32, 61).
edge(69, 97).
edge(85, 138).
edge(44, 49).
edge(15, 21).
edge(114, 158).
edge(8, 20).
edge(102, 156).
edge(58, 119).
edge(71, 120).
edge(67, 87).
edge(71, 99).
edge(64, 103).
edge(11, 78).
edge(32, 152).
edge(60, 77).
edge(48, 178).
edge(67, 153).
edge(14, 154).
edge(62, 93).
edge(4, 177).
edge(13, 16).
edge(142, 158).
edge(99, 185).
edge(142, 167).
edge(30, 134).
edge(127, 155).
edge(105, 107).
edge(152, 158).
edge(67, 83).
edge(30, 36).
edge(42, 157).
edge(15, 122).
edge(92, 174).
edge(146, 170).
edge(108, 183).
edge(39, 45).
edge(129, 180).
edge(31, 132).
edge(53, 131).
edge(40, 129).
edge(3, 7).
edge(96, 103).
edge(64, 186).
edge(87, 160).
edge(93, 148).
edge(141, 160).
edge(70, 143).
edge(86, 121).
edge(84, 168).
edge(36, 69).
edge(133, 155).
edge(39, 154).
edge(55, 99).
edge(62, 172).
edge(20, 104).
edge(65, 75).
edge(77, 180).
edge(1, 188).
edge(32, 50).
edge(2, 17).
edge(73, 92).
edge(81, 102).
edge(18, 25).
edge(130, 134).
edge(126, 173).
edge(54, 87).
edge(21, 166).
edge(74, 141).
edge(131, 151).
edge(77, 167).
edge(82, 86).
edge(37, 110).
edge(0, 82).
edge(170, 179).
edge(31, 90).
edge(32, 96).
edge(121, 158).
edge(62, 164).
edge(37, 129).
edge(11, 84).
edge(114, 118).
edge(23, 107).
edge(47, 90).
edge(20, 160).
edge(149, 152).
edge(5, 146).
edge(0, 83).
edge(27, 32).
edge(30, 175).
edge(45, 144).
edge(57, 122).
edge(99, 177).
edge(28, 58).
edge(85, 162).
edge(80, 87).
edge(133, 147).
edge(10, 123).
edge(155, 189).
edge(24, 144).
edge(29, 95).
edge(38, 161).
edge(27, 65).
edge(36, 179).
edge(89, 150).
edge(98, 165).
edge(149, 189).
edge(85, 145).
edge(36, 154).
edge(40, 73).
edge(93, 94).
edge(50, 127).
edge(125, 174).
edge(35, 67).
edge(133, 153).
edge(5, 87).
edge(7, 48).
edge(95, 163).
edge(28, 168).
edge(20, 103).
edge(102, 164).
edge(12, 101).
edge(36, 138).
edge(108, 118).
edge(42, 94).
edge(88, 107).
edge(79, 130).
edge(118, 120).
edge(8, 55).
edge(20, 162).
edge(52, 131).
edge(118, 188).
edge(104, 153).
edge(8, 179).
edge(107, 165).
edge(109, 138).
edge(21, 55).
edge(22, 186).
edge(119, 163).
edge(36, 132).
edge(107, 155).
edge(151, 183).
edge(77, 134).
edge(43, 180).
edge(19, 136).
edge(20, 141).
edge(23, 78).
edge(101, 128).
edge(20, 144).
edge(80, 95).
edge(25, 183).
edge(53, 180).
edge(107, 133).
edge(57, 149).
edge(85, 111).
edge(26, 93).
edge(13, 145).
edge(74, 77).
edge(43, 68).
edge(136, 173).
edge(18, 173).
edge(88, 156).
edge(38, 67).
edge(118, 149).
edge(104, 107).
edge(0, 8).
edge(124, 136).
edge(24, 61).
edge(93, 109).
edge(64, 97).
edge(21, 144).
edge(134, 166).
edge(94, 187).
edge(113, 178).
edge(24, 156).
edge(15, 137).
edge(89, 108).
edge(72, 85).
edge(18, 103).
edge(47, 155).
edge(67, 152).
edge(103, 153).
edge(32, 88).
edge(126, 169).
edge(93, 186).
edge(16, 146).
edge(154, 184).
edge(105, 164).
edge(76, 100).
edge(9, 176).
edge(19, 67).
edge(78, 150).
edge(142, 161).
edge(7, 59).
edge(37, 184).
edge(12, 53).
edge(117, 160).
edge(42, 46).
edge(76, 142).
edge(117, 123).
edge(2, 176).
edge(60, 129).
edge(52, 188).
edge(35, 144).
edge(77, 132).
edge(65, 154).
edge(34, 104).
edge(114, 147).
edge(91, 125).
edge(69, 184).
edge(1, 15).
edge(38, 137).
edge(131, 139).
edge(63, 147).
edge(43, 100).
edge(112, 189).
edge(88, 166).
edge(144, 151).
edge(1, 128).
edge(8, 83).
edge(29, 162).
edge(73, 83).
edge(75, 99).
edge(50, 189).
edge(104, 158).
edge(66, 148).
edge(23, 101).
edge(119, 142).
edge(61, 153).
edge(160, 170).
edge(100, 105).
edge(115, 160).
edge(101, 177).
edge(8, 126).
edge(63, 138).
edge(144, 164).
edge(45, 136).
edge(28, 143).
edge(30, 39).
edge(127, 142).
edge(107, 171).
edge(47, 124).
edge(17, 29).
edge(79, 110).
edge(39, 180).
edge(72, 122).
edge(1, 157).
edge(49, 119).
edge(45, 157).
edge(6, 54).
edge(52, 166).
edge(37, 154).
edge(56, 70).
edge(81, 143).
edge(24, 151).
edge(76, 127).
edge(80, 165).
edge(20, 130).
edge(96, 182).
edge(121, 143).
edge(48, 187).
edge(70, 74).
edge(53, 81).
edge(2, 57).
edge(47, 143).
edge(35, 93).
edge(52, 97).
edge(57, 71).
edge(125, 183).
edge(77, 89).
edge(42, 146).
edge(35, 55).
edge(115, 165).
edge(86, 180).
edge(19, 84).
edge(54, 167).
edge(82, 114).
edge(65, 160).
edge(93, 154).
edge(109, 158).
edge(67, 135).
edge(141, 150).
edge(65, 140).
edge(39, 113).
edge(25, 125).
edge(21, 160).
edge(3, 169).
edge(27, 47).
edge(109, 131).
edge(43, 122).
edge(100, 156).
edge(159, 161).
edge(99, 136).
edge(1, 42).
edge(124, 151).
edge(47, 55).
edge(4, 134).
edge(100, 109).
edge(15, 76).
edge(66, 154).
edge(72, 180).
edge(128, 188).
edge(6, 124).
edge(108, 148).
edge(21, 28).
edge(85, 118).
edge(93, 130).
edge(14, 52).
edge(23, 44).
edge(73, 96).
edge(73, 166).
edge(105, 172).
edge(5, 80).
edge(1, 159).
edge(6, 87).
edge(120, 135).
edge(115, 186).
edge(133, 172).
edge(90, 94).
edge(99, 109).
edge(1, 169).
edge(136, 157).
edge(72, 131).
edge(33, 142).
edge(70, 176).
edge(35, 180).
edge(152, 185).
edge(54, 112).
edge(116, 170).
edge(25, 60).
edge(20, 183).
edge(19, 157).
edge(176, 179).
edge(15, 17).
edge(11, 160).
edge(32, 184).
edge(90, 185).
edge(86, 179).
edge(101, 141).
edge(160, 161).
edge(56, 122).
edge(73, 115).
edge(69, 137).
edge(40, 109).
edge(162, 180).
edge(82, 94).
edge(112, 183).
edge(30, 160).
edge(36, 38).
edge(72, 142).
edge(100, 168).
edge(88, 137).
edge(43, 54).
edge(49, 67).
edge(46, 132).
edge(21, 56).
edge(72, 90).
edge(11, 64).
edge(132, 156).
edge(84, 140).
edge(123, 175).
edge(72, 147).
edge(74, 92).
edge(117, 151).
edge(17, 36).
edge(76, 129).
edge(137, 186).
edge(76, 92).
edge(11, 59).
edge(14, 46).
edge(104, 145).
edge(61, 122).
edge(51, 53).
edge(30, 184).
edge(57, 58).
edge(26, 164).
edge(158, 168).
edge(106, 118).
edge(66, 135).
edge(9, 100).
edge(51, 162).
edge(66, 127).
edge(129, 161).
edge(63, 93).
edge(81, 150).
edge(108, 178).
edge(92, 175).
edge(128, 184).
edge(79, 154).
edge(46, 175).
edge(110, 131).
edge(92, 113).
edge(148, 169).
edge(83, 128).
edge(34, 74).
edge(25, 133).
edge(58, 176).
edge(19, 32).
edge(5, 74).
edge(97, 130).
edge(69, 73).
edge(7, 152).
edge(50, 162).
edge(41, 172).
edge(17, 47).
edge(29, 189).
edge(93, 180).
edge(69, 78).
edge(31, 97).
edge(19, 165).
edge(39, 178).
edge(27, 33).
edge(146, 148).
edge(75, 188).
edge(25, 182).
edge(76, 78).
edge(2, 25).
edge(13, 15).
edge(28, 119).
edge(25, 142).
edge(47, 100).
edge(106, 169).
edge(45, 102).
edge(64, 104).
edge(130, 133).
edge(20, 139).
edge(60, 133).
edge(110, 180).
edge(1, 50).
edge(42, 65).
edge(141, 185).
edge(10, 142).
edge(48, 120).
edge(117, 138).
edge(44, 152).
edge(1, 46).
edge(119, 144).
edge(24, 111).
edge(92, 115).
edge(118, 185).
edge(168, 188).
edge(22, 156).
edge(81, 112).
edge(46, 50).
edge(11, 178).
edge(161, 178).
edge(79, 189).
edge(67, 165).
edge(8, 36).
edge(114, 160).
edge(112, 186).
edge(17, 132).
edge(58, 182).
edge(64, 184).
edge(92, 160).
edge(130, 172).
edge(109, 111).
edge(45, 154).
edge(44, 63).
edge(14, 57).
edge(20, 91).
edge(52, 90).
edge(4, 147).
edge(84, 101).
edge(58, 74).
edge(96, 138).
edge(18, 162).
edge(86, 183).
edge(60, 144).
edge(31, 171).
edge(33, 177).
edge(132, 164).
edge(0, 1).
edge(31, 149).
edge(7, 174).
edge(31, 60).
edge(156, 176).
edge(138, 139).
edge(110, 118).
edge(68, 93).
edge(7, 69).
edge(28, 135).
edge(121, 153).
edge(112, 138).
edge(158, 181).
edge(30, 156).
edge(6, 118).
edge(66, 180).
edge(109, 167).
edge(17, 28).
edge(87, 189).
edge(85, 136).
edge(134, 140).
edge(107, 132).
edge(1, 186).
edge(22, 111).
edge(2, 99).
edge(109, 185).
edge(52, 136).
edge(0, 124).
edge(111, 124).
edge(159, 169).
edge(108, 122).
edge(28, 87).
edge(81, 87).
edge(55, 125).
edge(97, 116).
edge(92, 129).
edge(91, 173).
edge(79, 142).
edge(30, 109).
edge(60, 88).
edge(23, 178).
edge(14, 44).
edge(6, 153).
edge(94, 97).
edge(94, 105).
edge(73, 150).
edge(161, 169).
edge(18, 36).
edge(159, 185).
edge(98, 134).
edge(8, 33).
edge(75, 76).
edge(94, 151).
edge(102, 136).
edge(67, 145).
edge(66, 187).
edge(55, 184).
edge(81, 131).
edge(27, 120).
edge(8, 45).
edge(4, 61).
edge(165, 186).
edge(1, 52).
edge(115, 151).
edge(107, 121).
edge(80, 149).
edge(85, 105).
edge(122, 139).
edge(49, 128).
edge(16, 108).
edge(20, 55).
edge(133, 169).
edge(102, 125).
edge(13, 93).
edge(105, 135).
edge(13, 106).
edge(49, 187).
edge(4, 30).
edge(112, 147).
edge(70, 76).
edge(87, 91).
edge(38, 64).
edge(122, 126).
edge(14, 184).
edge(36, 56).
edge(33, 110).
edge(18, 82).
edge(26, 35).
edge(14, 65).
edge(18, 151).
edge(108, 163).
edge(26, 162).
edge(37, 139).
edge(34, 103).
edge(55, 90).
edge(62, 104).
edge(35, 43).
edge(13, 185).
edge(67, 115).
edge(7, 106).
edge(72, 106).
edge(120, 177).
edge(130, 155).
edge(87, 185).
edge(15, 75).
edge(79, 120).
edge(2, 94).
edge(3, 161).
edge(110, 120).
edge(53, 147).
edge(65, 130).
edge(98, 131).
edge(166, 180).
edge(34, 156).
edge(117, 156).
edge(2, 156).
edge(74, 91).
edge(52, 158).
edge(28, 167).
edge(3, 17).
edge(42, 106).
edge(116, 121).
edge(58, 134).
edge(139, 147).
edge(131, 187).
edge(78, 97).
edge(70, 93).
edge(118, 143).
edge(42, 88).
edge(117, 141).
edge(118, 169).
edge(99, 175).
edge(12, 110).
edge(76, 156).
edge(88, 111).
edge(44, 69).
edge(103, 186).
edge(163, 185).
edge(52, 140).
edge(56, 124).
edge(111, 115).
edge(80, 112).
edge(49, 123).
edge(20, 138).
edge(9, 99).
edge(107, 189).
edge(64, 127).
edge(42, 139).
edge(10, 51).
edge(49, 57).
edge(126, 136).
edge(142, 163).
edge(19, 86).
edge(0, 106).
edge(78, 114).
edge(16, 173).
edge(42, 182).
edge(121, 159).
edge(75, 161).
edge(2, 163).
edge(7, 52).
edge(7, 168).
edge(2, 186).
edge(114, 167).
edge(28, 55).
edge(29, 88).
edge(48, 130).
edge(114, 139).
edge(126, 154).
edge(45, 74).
edge(74, 84).
edge(108, 189).
edge(59, 101).
edge(33, 150).
edge(3, 136).
edge(26, 159).
edge(32, 119).
edge(5, 23).
edge(13, 153).
edge(20, 159).
edge(15, 89).
edge(15, 23).
edge(111, 174).
edge(75, 107).
edge(39, 97).
edge(8, 70).
edge(11, 146).
edge(54, 71).
edge(44, 189).
edge(99, 172).
edge(51, 154).
edge(129, 182).
edge(158, 174).
edge(16, 181).
edge(14, 111).
edge(18, 52).
edge(186, 187).
edge(71, 145).
edge(44, 75).
edge(23, 117).
edge(131, 138).
edge(123, 131).
edge(119, 130).
edge(14, 85).
edge(49, 177).
edge(24, 29).
edge(69, 111).
edge(79, 157).
edge(50, 68).
edge(104, 134).
edge(2, 12).
edge(8, 90).
edge(37, 50).
edge(50, 57).
edge(12, 182).
edge(19, 69).
edge(60, 130).
edge(31, 187).
edge(79, 92).
edge(146, 189).
edge(12, 171).
edge(109, 182).
edge(53, 65).
edge(27, 111).
edge(140, 171).
edge(62, 124).
edge(9, 21).
edge(54, 187).
edge(27, 173).
edge(99, 159).
edge(15, 136).
edge(170, 178).
edge(7, 67).
edge(60, 124).
edge(128, 158).
edge(162, 163).
edge(61, 81).
edge(63, 126).
edge(17, 75).
edge(24, 134).
edge(138, 161).
edge(125, 170).
edge(137, 176).
edge(12, 165).
edge(77, 142).
edge(17, 185).
edge(19, 51).
edge(63, 118).
edge(149, 158).
edge(105, 167).
edge(145, 170).
edge(47, 173).
edge(21, 82).
edge(86, 171).
edge(75, 152).
edge(77, 181).
edge(8, 80).
edge(139, 186).
edge(23, 152).
edge(34, 129).
edge(40, 54).
edge(91, 138).
edge(6, 85).
edge(120, 153).
edge(79, 179).
edge(141, 143).
edge(13, 121).
edge(1, 21).
edge(127, 167).
edge(35, 44).
edge(44, 160).
edge(11, 33).
edge(17, 117).
edge(72, 119).
edge(89, 95).
edge(48, 162).
edge(82, 188).
edge(2, 151).
edge(33, 45).
edge(137, 184).
edge(18, 143).
edge(18, 37).
edge(111, 128).
edge(32, 69).
edge(10, 160).
edge(55, 109).
edge(105, 166).
edge(15, 20).
edge(5, 140).
edge(48, 122).
edge(94, 114).
edge(60, 182).
edge(121, 183).
edge(35, 135).
edge(151, 186).
edge(130, 148).
edge(50, 85).
edge(80, 97).
edge(23, 81).
edge(18, 32).
edge(27, 104).
edge(28, 137).
edge(115, 171).
edge(29, 171).
edge(19, 35).
edge(131, 183).
edge(168, 174).
edge(35, 74).
edge(11, 96).
edge(67, 103).
edge(85, 131).
edge(29, 73).
edge(119, 156).
edge(9, 153).
edge(161, 172).
edge(57, 178).
edge(33, 51).
edge(8, 107).
edge(5, 180).
edge(131, 184).
edge(72, 117).
edge(0, 174).
edge(136, 159).
edge(115, 149).
edge(87, 176).
edge(90, 140).
edge(34, 94).
edge(13, 103).
edge(21, 79).
edge(24, 75).
edge(20, 88).
edge(45, 178).
edge(8, 32).
edge(55, 118).
edge(8, 18).
edge(15, 151).
edge(27, 70).
edge(65, 151).
edge(135, 161).
edge(25, 45).
edge(16, 94).
edge(5, 22).
edge(104, 137).
edge(34, 181).
edge(4, 66).
edge(92, 155).
edge(68, 119).
edge(91, 161).
edge(117, 132).
edge(62, 64).
edge(70, 95).
edge(21, 150).
edge(3, 151).
edge(48, 113).
edge(66, 72).
edge(52, 167).
edge(99, 144).
edge(26, 89).
edge(4, 118).
edge(93, 118).
edge(78, 104).
edge(41, 65).
edge(110, 150).
edge(54, 137).
edge(44, 80).
edge(36, 85).
edge(32, 146).
edge(86, 127).
edge(22, 128).
edge(114, 136).
edge(61, 148).
edge(102, 160).
edge(43, 46).
edge(41, 85).
edge(33, 171).
edge(68, 157).
edge(4, 188).
edge(12, 25).
edge(28, 82).
edge(71, 138).
edge(50, 172).
edge(51, 150).
edge(3, 178).
edge(33, 129).
edge(25, 154).
edge(37, 144).
edge(28, 169).
edge(19, 81).
edge(88, 139).
edge(127, 132).
edge(13, 71).
edge(96, 171).
edge(10, 134).
edge(9, 167).
edge(6, 73).
edge(33, 82).
edge(79, 114).
edge(7, 79).
edge(88, 164).
edge(2, 109).
edge(47, 158).
edge(131, 136).
edge(4, 93).
edge(10, 164).
edge(150, 189).
edge(81, 149).
edge(55, 92).
edge(132, 172).
edge(10, 80).
edge(78, 113).
edge(157, 176).
edge(42, 91).
edge(12, 150).
edge(35, 120).
edge(139, 185).
edge(4, 97).
edge(109, 129).
edge(63, 108).
edge(67, 96).
edge(95, 96).
edge(54, 101).
edge(142, 182).
edge(91, 131).
edge(34, 147).
edge(63, 152).
edge(117, 126).
edge(2, 49).
edge(79, 148).
edge(4, 77).
edge(91, 98).
edge(56, 80).
edge(149, 185).
edge(38, 44).
edge(17, 83).
edge(97, 107).
edge(15, 100).
edge(11, 140).
edge(115, 185).
edge(65, 165).
edge(115, 174).
edge(25, 41).
edge(1, 33).
edge(154, 175).
edge(127, 150).
edge(61, 76).
edge(20, 38).
edge(80, 182).
edge(71, 171).
edge(117, 161).
edge(97, 162).
edge(42, 189).
edge(66, 116).
edge(21, 133).
edge(63, 132).
edge(7, 28).
edge(8, 24).
edge(94, 147).
edge(34, 139).
edge(166, 171).
edge(72, 185).
edge(149, 175).
edge(29, 56).
edge(46, 93).
edge(117, 164).
edge(20, 35).
edge(11, 105).
edge(41, 169).
edge(118, 142).
edge(41, 154).
edge(50, 151).
edge(122, 134).
edge(71, 98).
edge(31, 96).
edge(58, 154).
edge(42, 136).
edge(99, 108).
edge(26, 137).
edge(50, 177).
edge(68, 77).
edge(92, 119).
edge(124, 128).
edge(61, 185).
edge(38, 98).
edge(97, 132).
edge(68, 135).
edge(35, 145).
edge(22, 134).
edge(7, 51).
edge(53, 126).
edge(84, 142).
edge(123, 140).
edge(2, 141).
edge(26, 60).
edge(82, 168).
edge(97, 187).
edge(63, 150).
edge(8, 140).
edge(62, 170).
edge(7, 9).
edge(27, 147).
edge(33, 42).
edge(35, 104).
edge(33, 69).
edge(31, 61).
edge(68, 150).
edge(115, 139).
edge(0, 49).
edge(4, 143).
edge(30, 72).
edge(71, 151).
edge(114, 115).
edge(33, 127).
edge(24, 142).
edge(64, 92).
edge(73, 140).
edge(72, 126).
edge(32, 177).
edge(128, 154).
edge(62, 103).
edge(131, 140).
edge(93, 139).
edge(66, 156).
edge(92, 109).
edge(1, 32).
edge(37, 140).
edge(16, 34).
edge(74, 80).
edge(38, 132).
edge(90, 158).
edge(33, 137).
edge(81, 183).
edge(25, 61).
edge(83, 184).
edge(65, 159).
edge(163, 172).
edge(18, 23).
edge(69, 113).
edge(67, 112).
edge(32, 139).
edge(62, 78).
edge(84, 126).
edge(10, 50).
edge(46, 136).
edge(16, 110).
edge(129, 181).
edge(127, 189).
edge(129, 159).
edge(102, 168).
edge(79, 99).
edge(30, 33).
edge(13, 117).
edge(140, 175).
edge(103, 131).
edge(83, 175).
edge(44, 107).
edge(89, 102).
edge(45, 113).
edge(128, 163).
edge(160, 179).
edge(5, 111).
edge(72, 173).
edge(35, 80).
edge(57, 98).
edge(23, 148).
edge(92, 134).
edge(92, 120).
edge(10, 150).
edge(93, 132).
edge(18, 21).
edge(81, 101).
edge(3, 58).
edge(99, 157).
edge(88, 150).
edge(114, 174).
edge(98, 174).
edge(82, 119).
edge(135, 140).
edge(60, 131).
edge(18, 45).
edge(43, 120).
edge(77, 152).
edge(6, 125).
edge(71, 89).
edge(81, 123).
edge(22, 167).
edge(79, 151).
edge(81, 114).
edge(77, 160).
edge(45, 79).
edge(21, 95).
edge(35, 154).
edge(78, 185).
edge(167, 176).
edge(24, 135).
edge(22, 189).
edge(5, 33).
edge(7, 38).
edge(109, 156).
edge(79, 138).
edge(67, 69).
edge(46, 130).
edge(71, 131).
edge(130, 139).
edge(156, 175).
edge(71, 164).
edge(53, 72).
edge(40, 183).
edge(119, 137).
edge(41, 97).
edge(62, 65).
edge(132, 153).
edge(110, 160).
edge(60, 152).
edge(39, 183).
edge(102, 147).
edge(36, 70).
edge(54, 141).
edge(167, 179).
edge(79, 132).
edge(103, 187).
edge(0, 175).
edge(62, 187).
edge(150, 152).
edge(122, 176).
edge(8, 84).
edge(11, 69).
edge(96, 165).
edge(60, 118).
edge(39, 155).
edge(20, 100).
edge(78, 81).
edge(73, 102).
edge(60, 62).
edge(24, 174).
edge(77, 105).
edge(112, 175).
edge(82, 141).
edge(6, 133).
edge(71, 179).
edge(44, 121).
edge(93, 95).
edge(8, 131).
edge(9, 109).
edge(20, 175).
edge(53, 139).
edge(96, 102).
edge(111, 159).
edge(2, 66).
edge(41, 179).
edge(121, 171).
edge(16, 162).
edge(16, 134).
edge(49, 131).
edge(137, 164).
edge(40, 75).
edge(66, 161).
edge(70, 175).
edge(126, 158).
edge(183, 184).
edge(81, 189).
edge(110, 133).
edge(53, 97).
edge(64, 72).
edge(35, 70).
edge(48, 145).
edge(19, 166).
edge(48, 61).
edge(42, 64).
edge(61, 138).
edge(46, 48).
edge(26, 141).
edge(31, 94).
edge(41, 171).
edge(78, 126).
edge(73, 80).
edge(73, 93).
edge(0, 165).
edge(8, 143).
edge(30, 82).
edge(33, 136).
edge(73, 174).
edge(79, 152).
edge(56, 156).
edge(126, 127).
edge(23, 91).
edge(40, 46).
edge(163, 168).
edge(5, 162).
edge(31, 106).
edge(124, 142).
edge(29, 143).
edge(38, 182).
edge(123, 152).
edge(156, 158).
edge(49, 154).
edge(24, 43).
edge(83, 94).
edge(58, 116).
edge(98, 99).
edge(7, 156).
edge(5, 8).
edge(88, 108).
edge(125, 157).
edge(32, 100).
edge(75, 162).
edge(82, 112).
edge(121, 122).
edge(1, 4).
edge(92, 116).
edge(4, 95).
edge(35, 65).
edge(73, 160).
edge(172, 184).
edge(6, 143).
edge(158, 171).
edge(143, 145).
edge(164, 171).
edge(50, 182).
edge(39, 64).
edge(42, 102).
edge(31, 72).
edge(147, 160).
edge(23, 105).
edge(46, 170).
edge(154, 178).
edge(26, 28).
edge(22, 172).
edge(135, 152).
edge(48, 164).
edge(111, 148).
edge(30, 115).
edge(19, 110).
edge(27, 153).
edge(118, 156).
edge(49, 153).
edge(64, 158).
edge(39, 110).
edge(1, 111).
edge(34, 52).
edge(1, 95).
edge(44, 163).
edge(16, 118).
edge(47, 74).
edge(66, 97).
edge(50, 173).
edge(65, 144).
edge(63, 165).
edge(115, 161).
edge(77, 189).
edge(19, 113).
edge(53, 125).
edge(58, 103).
edge(114, 187).
edge(42, 155).
edge(87, 158).
edge(86, 105).
edge(153, 171).
edge(167, 186).
edge(146, 168).
edge(2, 142).
edge(23, 143).
edge(109, 163).
edge(61, 183).
edge(87, 99).
edge(76, 143).
edge(23, 115).
edge(114, 179).
edge(50, 53).
edge(16, 52).
edge(45, 131).
edge(5, 184).
edge(34, 134).
edge(67, 170).
edge(1, 147).
edge(45, 124).
edge(103, 178).
edge(53, 133).
edge(113, 120).
edge(152, 181).
edge(73, 112).
edge(37, 49).
edge(74, 145).
edge(24, 78).
edge(6, 94).
edge(15, 19).
edge(48, 111).
edge(124, 173).
edge(21, 58).
edge(82, 92).
edge(127, 178).
edge(0, 94).
edge(45, 179).
edge(120, 171).
edge(10, 58).
edge(155, 180).
edge(48, 151).
edge(105, 137).
edge(45, 83).
edge(41, 114).
edge(73, 186).
edge(41, 88).
edge(68, 79).
edge(49, 61).
edge(68, 116).
edge(63, 158).
edge(70, 101).
edge(56, 84).
edge(72, 164).
edge(48, 93).
edge(20, 61).
edge(104, 110).
edge(114, 129).
edge(40, 79).
edge(29, 145).
edge(54, 125).
edge(146, 172).
edge(49, 68).
edge(131, 172).
edge(35, 181).
edge(131, 175).
edge(21, 121).
edge(31, 45).
edge(103, 130).
edge(39, 158).
edge(93, 113).
edge(14, 35).
edge(48, 81).
edge(15, 98).
edge(78, 133).
edge(33, 43).
edge(25, 91).
edge(131, 181).
edge(5, 31).
edge(138, 152).
edge(73, 76).
edge(6, 75).
edge(132, 146).
edge(38, 185).
edge(5, 135).
edge(58, 94).
edge(13, 45).
edge(19, 108).
edge(59, 121).
edge(5, 115).
edge(140, 150).
edge(9, 110).
edge(0, 53).
edge(57, 152).
edge(57, 171).
edge(91, 185).
edge(61, 121).
edge(145, 174).
edge(22, 71).
edge(108, 174).
edge(28, 189).
edge(59, 114).
edge(57, 108).
edge(58, 173).
edge(147, 188).
edge(88, 98).
edge(51, 189).
edge(1, 139).
edge(2, 137).
edge(57, 65).
edge(85, 165).
edge(98, 129).
edge(105, 127).
edge(36, 99).
edge(30, 124).
edge(39, 124).
edge(71, 159).
edge(127, 128).
edge(7, 37).
edge(33, 84).
edge(30, 120).
edge(74, 166).
edge(123, 148).
edge(83, 150).
edge(109, 116).
edge(14, 128).
edge(130, 181).
edge(90, 96).
edge(24, 86).
edge(65, 93).
edge(68, 166).
edge(137, 175).
edge(17, 173).
edge(76, 84).
edge(2, 38).
edge(9, 144).
edge(41, 111).
edge(15, 93).
edge(166, 189).
edge(96, 185).
edge(11, 79).
edge(19, 85).
edge(0, 172).
edge(136, 180).
edge(63, 74).
edge(33, 149).
edge(19, 126).
edge(103, 114).
edge(134, 152).
edge(128, 135).
edge(32, 174).
edge(134, 143).
edge(10, 95).
edge(108, 136).
edge(38, 168).
edge(11, 80).
edge(8, 162).
edge(95, 186).
edge(7, 124).
edge(57, 131).
edge(66, 92).
edge(120, 179).
edge(47, 175).
edge(73, 88).
edge(14, 170).
edge(7, 62).
edge(107, 151).
edge(15, 63).
edge(146, 167).
edge(0, 168).
edge(12, 42).
edge(143, 177).
edge(41, 80).
edge(0, 112).
edge(64, 85).
edge(94, 109).
edge(75, 142).
edge(64, 81).
edge(11, 34).
edge(43, 146).
edge(41, 51).
edge(98, 128).
edge(26, 68).
edge(90, 129).
edge(135, 166).
edge(19, 124).
edge(135, 162).
edge(26, 118).
edge(126, 143).
edge(164, 184).
edge(129, 153).
edge(83, 96).
edge(24, 169).
edge(50, 83).
edge(43, 113).
edge(22, 140).
edge(155, 165).
edge(65, 71).
edge(88, 169).
edge(84, 179).
edge(163, 180).
edge(6, 88).
edge(38, 83).
edge(8, 170).
edge(82, 97).
edge(24, 147).
edge(32, 181).
edge(11, 106).
edge(0, 34).
edge(169, 182).
edge(92, 171).
edge(25, 103).
edge(80, 147).
edge(46, 117).
edge(31, 138).
edge(15, 178).
edge(17, 23).
edge(70, 124).
edge(1, 177).
edge(102, 149).
edge(35, 90).
edge(63, 170).
edge(15, 139).
edge(63, 146).
edge(52, 110).
edge(133, 142).
edge(99, 120).
edge(0, 140).
edge(73, 178).
edge(82, 171).
edge(0, 39).
edge(71, 118).
edge(38, 101).
edge(129, 185).
edge(99, 187).
edge(33, 38).
edge(23, 85).
edge(2, 21).
edge(0, 122).
edge(48, 71).
edge(11, 27).
edge(81, 169).
edge(16, 45).
edge(15, 16).
edge(7, 86).
edge(12, 75).
edge(77, 95).
edge(85, 164).
edge(12, 116).
edge(45, 62).
edge(54, 121).
edge(10, 122).
edge(17, 60).
edge(52, 128).
edge(142, 150).
edge(46, 91).
edge(99, 176).
edge(16, 187).
edge(98, 133).
edge(18, 91).
edge(35, 59).
edge(99, 149).
edge(37, 61).
edge(27, 73).
edge(43, 66).
edge(132, 154).
edge(27, 135).
edge(59, 103).
edge(141, 172).
edge(6, 176).
edge(140, 158).
edge(172, 178).
edge(93, 162).
edge(9, 137).
edge(43, 94).
edge(42, 84).
edge(11, 111).
edge(147, 173).
edge(7, 178).
edge(143, 167).
edge(35, 139).
edge(77, 156).
edge(12, 32).
edge(156, 157).
edge(142, 165).
edge(36, 187).
edge(5, 137).
edge(140, 147).
edge(91, 116).
edge(109, 141).
edge(168, 171).
edge(130, 138).
edge(9, 88).
edge(58, 113).
edge(51, 104).
edge(110, 159).
edge(93, 123).
edge(90, 159).
edge(10, 163).
edge(8, 21).
edge(41, 153).
edge(13, 135).
edge(44, 128).
edge(109, 169).
edge(81, 85).
edge(105, 165).
edge(77, 101).
edge(39, 141).
edge(20, 51).
edge(21, 186).
edge(29, 83).
edge(117, 124).
edge(118, 136).
edge(132, 134).
edge(120, 160).
edge(79, 81).
edge(47, 69).
edge(144, 145).
edge(32, 125).
edge(120, 176).
edge(5, 123).
edge(50, 179).
edge(99, 153).
edge(75, 160).
edge(14, 129).
edge(52, 133).
edge(35, 160).
edge(46, 112).
edge(141, 184).
edge(9, 157).
edge(13, 105).
edge(102, 152).
edge(107, 118).
edge(73, 124).
edge(24, 73).
edge(8, 64).
edge(1, 20).
edge(103, 174).
edge(24, 64).
edge(96, 161).
edge(84, 139).
edge(39, 51).
edge(0, 22).
edge(104, 160).
edge(73, 170).
edge(31, 155).
edge(108, 173).
edge(105, 153).
edge(17, 81).
edge(98, 103).
edge(121, 124).
edge(41, 115).
edge(41, 178).
edge(124, 159).
edge(93, 137).
edge(154, 183).
edge(99, 142).
edge(29, 181).
edge(73, 167).
edge(96, 100).
edge(67, 171).
edge(69, 101).
edge(24, 186).
edge(68, 171).
edge(15, 180).
edge(7, 164).
edge(96, 114).
edge(105, 115).
edge(94, 129).
edge(5, 130).
edge(39, 117).
edge(83, 149).
edge(45, 104).
edge(16, 157).
edge(35, 86).
edge(151, 166).
edge(11, 184).
edge(31, 75).
edge(27, 95).
edge(18, 135).
edge(48, 64).
edge(18, 139).
edge(48, 104).
edge(99, 115).
edge(131, 137).
edge(33, 83).
edge(104, 112).
edge(95, 159).
edge(52, 154).
edge(156, 164).
edge(23, 161).
edge(176, 187).
edge(18, 22).
edge(126, 134).
edge(3, 183).
edge(83, 115).
edge(125, 178).
edge(49, 66).
edge(53, 143).
edge(39, 48).
edge(63, 181).
edge(80, 117).
edge(104, 162).
edge(3, 181).
edge(97, 123).
edge(91, 114).
edge(33, 114).
edge(85, 91).
edge(17, 118).
edge(137, 174).
edge(55, 166).
edge(83, 178).
edge(114, 172).
edge(19, 144).
edge(76, 93).
edge(64, 122).
edge(162, 167).
edge(148, 179).
edge(33, 40).
edge(22, 60).
edge(81, 119).
edge(58, 75).
edge(37, 99).
edge(56, 178).
edge(28, 42).
edge(105, 119).
edge(177, 187).
edge(124, 175).
edge(8, 129).
edge(30, 85).
edge(10, 57).
edge(138, 159).
edge(44, 99).
edge(122, 130).
edge(68, 101).
edge(127, 162).
edge(60, 172).
edge(59, 171).
edge(46, 188).
edge(71, 161).
edge(98, 147).
edge(38, 110).
edge(100, 115).
edge(53, 71).
edge(28, 94).
edge(31, 98).
edge(36, 137).
edge(15, 58).
edge(70, 186).
edge(122, 165).
edge(46, 77).
edge(56, 179).
edge(122, 158).
edge(94, 189).
edge(115, 125).
edge(114, 135).
edge(32, 157).
edge(51, 129).
edge(7, 98).
edge(19, 167).
edge(156, 160).
edge(130, 162).
edge(95, 174).
edge(51, 155).
edge(113, 144).
edge(11, 17).
edge(10, 140).
edge(69, 110).
edge(26, 125).
edge(105, 136).
edge(84, 110).
edge(26, 110).
edge(152, 175).
edge(12, 132).
edge(132, 166).
edge(7, 71).
edge(86, 117).
edge(9, 44).
edge(94, 168).
edge(52, 68).
edge(95, 118).
edge(27, 124).
edge(58, 139).
edge(37, 127).
edge(58, 87).
edge(30, 62).
edge(83, 147).
edge(96, 124).
edge(14, 33).
edge(6, 173).
edge(4, 139).
edge(97, 153).
edge(116, 184).
edge(119, 124).
edge(33, 131).
edge(99, 161).
edge(134, 163).
edge(143, 185).
edge(10, 138).
edge(96, 166).
edge(66, 98).
edge(160, 178).
edge(20, 115).
edge(4, 180).
edge(44, 159).
edge(90, 128).
edge(147, 177).
edge(32, 46).
edge(42, 154).
edge(108, 141).
edge(134, 167).
edge(112, 159).
edge(8, 26).
edge(148, 178).
edge(171, 179).
edge(24, 87).
edge(147, 167).
edge(14, 80).
edge(136, 178).
edge(34, 119).
edge(82, 152).
edge(124, 183).
edge(11, 90).
edge(69, 77).
edge(56, 83).
edge(49, 103).
edge(136, 158).
edge(123, 179).
edge(112, 156).
edge(59, 71).
edge(80, 142).
edge(73, 182).
edge(30, 56).
edge(59, 162).
edge(60, 63).
edge(70, 160).
edge(73, 161).
edge(67, 121).
edge(54, 159).
edge(15, 69).
edge(56, 159).
edge(104, 168).
edge(171, 173).
edge(19, 20).
edge(120, 182).
edge(37, 75).
edge(31, 183).
edge(36, 118).
edge(35, 69).
edge(27, 157).
edge(41, 56).
edge(121, 163).
edge(79, 134).
edge(125, 143).
edge(33, 169).
edge(60, 151).
edge(114, 142).
edge(29, 105).
edge(4, 137).
edge(108, 132).
edge(121, 175).
edge(71, 111).
edge(36, 162).
edge(70, 109).
edge(23, 34).
edge(36, 174).
edge(24, 44).
edge(180, 188).
edge(33, 187).
edge(99, 163).
edge(25, 122).
edge(4, 167).
edge(50, 124).
edge(41, 54).
edge(6, 22).
edge(42, 183).
edge(115, 181).
edge(46, 68).
edge(25, 140).
edge(27, 123).
edge(112, 181).
edge(42, 159).
edge(92, 124).
edge(178, 189).
edge(80, 176).
edge(34, 69).
edge(19, 142).
edge(18, 93).
edge(3, 52).
edge(53, 128).
edge(80, 188).
edge(91, 149).
edge(51, 83).
edge(16, 170).
edge(76, 130).
edge(24, 74).
edge(30, 133).
edge(1, 60).
edge(29, 74).
edge(2, 63).
edge(41, 118).
edge(37, 158).
edge(3, 11).
edge(91, 106).
edge(51, 62).
edge(89, 188).
edge(129, 132).
edge(8, 23).
edge(94, 120).
edge(11, 100).
edge(74, 79).
edge(114, 120).
edge(31, 172).
edge(33, 97).
edge(8, 172).
edge(16, 80).
edge(61, 186).
edge(38, 184).
edge(39, 59).
edge(13, 162).
edge(6, 126).
edge(88, 146).
edge(23, 120).
edge(111, 182).
edge(100, 187).
edge(35, 53).
edge(50, 64).
edge(51, 68).
edge(130, 143).
edge(6, 25).
edge(80, 101).
edge(14, 40).
edge(117, 150).
edge(28, 89).
edge(21, 98).
edge(22, 138).
edge(65, 171).
edge(84, 131).
edge(71, 88).
edge(129, 150).
edge(96, 141).
edge(73, 175).
edge(15, 184).
edge(184, 187).
edge(41, 173).
weight(0, 2).
weight(1, 5).
weight(2, 7).
weight(3, 6).
weight(4, 4).
weight(5, 11).
weight(6, 10).
weight(7, 4).
weight(8, 2).
weight(9, 8).
weight(10, 9).
weight(11, 10).
weight(12, 9).
weight(13, 7).
weight(14, 3).
weight(15, 11).
weight(16, 10).
weight(17, 11).
weight(18, 1).
weight(19, 6).
weight(20, 2).
weight(21, 6).
weight(22, 11).
weight(23, 4).
weight(24, 2).
weight(25, 9).
weight(26, 1).
weight(27, 1).
weight(28, 11).
weight(29, 4).
weight(30, 5).
weight(31, 11).
weight(32, 3).
weight(33, 1).
weight(34, 10).
weight(35, 3).
weight(36, 11).
weight(37, 6).
weight(38, 3).
weight(39, 7).
weight(40, 5).
weight(41, 1).
weight(42, 2).
weight(43, 7).
weight(44, 2).
weight(45, 3).
weight(46, 10).
weight(47, 9).
weight(48, 2).
weight(49, 5).
weight(50, 2).
weight(51, 3).
weight(52, 3).
weight(53, 11).
weight(54, 8).
weight(55, 1).
weight(56, 1).
weight(57, 6).
weight(58, 8).
weight(59, 5).
weight(60, 3).
weight(61, 8).
weight(62, 9).
weight(63, 1).
weight(64, 1).
weight(65, 7).
weight(66, 6).
weight(67, 6).
weight(68, 5).
weight(69, 8).
weight(70, 10).
weight(71, 8).
weight(72, 6).
weight(73, 11).
weight(74, 3).
weight(75, 6).
weight(76, 9).
weight(77, 4).
weight(78, 3).
weight(79, 1).
weight(80, 6).
weight(81, 10).
weight(82, 11).
weight(83, 6).
weight(84, 2).
weight(85, 5).
weight(86, 8).
weight(87, 10).
weight(88, 5).
weight(89, 2).
weight(90, 5).
weight(91, 2).
weight(92, 7).
weight(93, 9).
weight(94, 3).
weight(95, 3).
weight(96, 3).
weight(97, 4).
weight(98, 4).
weight(99, 2).
weight(100, 7).
weight(101, 11).
weight(102, 9).
weight(103, 5).
weight(104, 6).
weight(105, 5).
weight(106, 10).
weight(107, 11).
weight(108, 3).
weight(109, 3).
weight(110, 5).
weight(111, 1).
weight(112, 9).
weight(113, 2).
weight(114, 10).
weight(115, 8).
weight(116, 1).
weight(117, 1).
weight(118, 1).
weight(119, 10).
weight(120, 6).
weight(121, 10).
weight(122, 10).
weight(123, 9).
weight(124, 11).
weight(125, 5).
weight(126, 2).
weight(127, 4).
weight(128, 4).
weight(129, 10).
weight(130, 1).
weight(131, 6).
weight(132, 1).
weight(133, 3).
weight(134, 11).
weight(135, 3).
weight(136, 1).
weight(137, 6).
weight(138, 7).
weight(139, 3).
weight(140, 7).
weight(141, 7).
weight(142, 11).
weight(143, 7).
weight(144, 4).
weight(145, 7).
weight(146, 8).
weight(147, 3).
weight(148, 9).
weight(149, 2).
weight(150, 7).
weight(151, 10).
weight(152, 1).
weight(153, 6).
weight(154, 4).
weight(155, 4).
weight(156, 6).
weight(157, 7).
weight(158, 11).
weight(159, 3).
weight(160, 8).
weight(161, 7).
weight(162, 9).
weight(163, 7).
weight(164, 9).
weight(165, 8).
weight(166, 11).
weight(167, 8).
weight(168, 10).
weight(169, 11).
weight(170, 11).
weight(171, 4).
weight(172, 9).
weight(173, 3).
weight(174, 11).
weight(175, 3).
weight(176, 6).
weight(177, 8).
weight(178, 11).
weight(179, 4).
weight(180, 11).
weight(181, 2).
weight(182, 9).
weight(183, 5).
weight(184, 7).
weight(185, 3).
weight(186, 3).
weight(187, 5).
weight(188, 10).
weight(189, 3).
bound(131).

adj(U,V) :- edge(U,V).
adj(U,V) :- edge(V,U).
{in(V)} :- node(V).
dominated(V) :- in(V).
dominated(V) :- in(U), adj(U,V).
:- node(V), not dominated(V).
:- bound(B), #sum{W,V : in(V), weight(V,W)} > B.
:~ in(V), weight(V,W). [W@1,V]
