node(0..155).
edge(33, 78).
edge(19, 141).
edge(22, 150).
edge(30, 141).
edge(112, 141).
edge(20, 22).
edge(70, 84).
edge(86, 91).
edge(61, 121).
edge(19, 92).
edge(64, 142).
edge(60, 104).
edge(6, 57).
edge(120, 144).
edge(42, 114).
edge(79, 98).
edge(82, 143).
edge(10, 145).
edge(22, 99).
edge(152, 155).
edge(77, 129).
edge(12, 65).
edge(4, 63).
edge(26, 152).
edge(44, 136).
edge(66, 139).
edge(116, 155).
edge(138, 150).
edge(15, 45).
edge(107, 122).
edge(9, 80).
edge(14, 66).
edge(48, 49).
edge(130, 148).
edge(94, 132).
edge(53, 98).
edge(24, 54).
edge(31, 144).
edge(7, 120).
edge(61, 113).
edge(60, 89).
edge(70, 148).
edge(24, 80).
edge(15, 62).
edge(47, 83).
edge(8, 45).
edge(37, 67).
edge(5, 123).
edge(45, 100).
edge(6, 51).
edge(28, 131).
edge(13, 38).
edge(11, 24).
edge(49, 74).
edge(69, 73).
edge(147, 151).
edge(79, 137).
edge(13, 66).
edge(9, 142).
edge(119, 141).
edge(56, 68).
edge(27, 73).
edge(38, 122).
edge(27, 59).
edge(82, 126).
edge(48, 67).
edge(99, 105).
edge(0, 108).
edge(50, 120).
edge(96, 99).
edge(39, 91).
edge(123, 151).
edge(4, 91).
edge(103, 106).
edge(8, 129).
edge(81, 143).
edge(120, 143).
edge(57, 83).
edge(79, 93).
edge(98, 116).
edge(3, 109).
edge(3, 39).
edge(104, 141).
edge(62, 115).
edge(5, 77).
edge(35, 105).
edge(28, 99).
edge(48, 59).
edge(0, 21).
edge(53, 92).
edge(5, 143).
edge(77, 102).
edge(4, 147).
edge(53, 67).
edge(43, 82).
edge(82, 87).
edge(15, 139).
edge(49, 61).
edge(98, 106).
edge(46, 124).
edge(58, 107).
edge(91, 105).
edge(64, 98).
edge(0, 99).
edge(58, 88).
edge(32, 146).
edge(42, 151).
edge(23, 145).
edge(97, 152).
edge(66, 125).
edge(83, 103).
edge(83, 89).
edge(3, 43).
edge(145, 153).
edge(66, 127).
edge(38, 65).
edge(33, 108).
edge(94, 96).
edge(78, 111).
edge(43, 130).
edge(42, 58).
edge(10, 143).
edge(67, 122).
edge(89, 132).
edge(34, 114).
edge(77, 98).
edge(24, 38).
edge(67, 86).
edge(116, 144).
edge(15, 41).
edge(70, 144).
edge(5, 131).
edge(73, 97).
edge(63, 137).
edge(32, 109).
edge(40, 124).
edge(117, 154).
edge(71, 95).
edge(81, 117).
edge(35, 150).
edge(1, 123).
edge(84, 154).
edge(42, 53).
edge(6, 106).
edge(30, 138).
edge(1, 116).
edge(88, 108).
edge(88, 132).
edge(43, 69).
edge(19, 147).
edge(53, 123).
edge(19, 105).
edge(21, 132).
edge(44, 59).
edge(16, 62).
edge(28, 30).
edge(27, 78).
edge(17, 109).
edge(33, 79).
edge(4, 6).
edge(7, 32).
edge(95, 132).
edge(115, 146).
edge(28, 130).
edge(45, 88).
edge(53, 155).
edge(129, 155).
edge(115, 149).
edge(98, 107).
edge(2, 135).
edge(25, 96).
edge(49, 50).
edge(112, 131).
edge(16, 107).
edge(97, 115).
edge(2, 140).
edge(19, 26).
edge(39, 68).
edge(72, 75).
edge(119, 144).
edge(7, 51).
edge(115, 121).
edge(46, 55).
edge(23, 42).
edge(94, 133).
edge(11, 89).
edge(92, 112).
edge(2, 127).
edge(13, 78).
edge(88, 152).
edge(79, 81).
edge(106, 153).
edge(5, 49).
edge(81, 90).
edge(112, 114).
edge(0, 154).
edge(78, 149).
edge(47, 106).
edge(19, 56).
edge(47, 71).
edge(15, 60).
edge(5, 153).
edge(68, 78).
edge(43, 116).
edge(32, 133).
edge(10, 133).
edge(61, 65).
edge(63, 116).
edge(19, 72).
edge(60, 122).
edge(95, 148).
edge(21, 75).
edge(18, 84).
edge(66, 76).
edge(35, 93).
edge(118, 150).
edge(41, 42).
edge(67, 139).
edge(25, 90).
edge(12, 55).
edge(126, 128).
edge(36, 49).
edge(72, 131).
edge(64, 67).
edge(53, 129).
edge(53, 120).
edge(126, 142).
edge(79, 83).
edge(39, 58).
edge(20, 118).
edge(59, 129).
edge(49, 59).
edge(4, 34).
edge(77, 137).
edge(3, 80).
edge(100, 154).
edge(59, 118).
edge(0, 35).
edge(6, 154).
edge(15, 106).
edge(42, 49).
edge(59, 153).
edge(35, 112).
edge(114, 133).
edge(67, 152).
edge(97, 142).
edge(0, 43).
edge(30, 78).
edge(84, 151).
edge(7, 64).
edge(3, 141).
edge(1, 42).
edge(72, 78).
edge(6, 139).
edge(73, 116).
edge(46, 59).
edge(8, 74).
edge(49, 120).
edge(17, 62).
edge(30, 111).
edge(92, 148).
edge(2, 131).
edge(0, 5).
edge(7, 93).
edge(99, 138).
edge(15, 142).
edge(47, 92).
edge(50, 84).
edge(55, 95).
edge(56, 130).
edge(22, 104).
edge(39, 145).
edge(7, 65).
edge(9, 26).
edge(38, 45).
edge(5, 55).
edge(39, 71).
edge(46, 92).
edge(87, 121).
edge(47, 141).
edge(18, 114).
edge(38, 95).
edge(49, 140).
edge(64, 73).
edge(68, 136).
edge(61, 150).
edge(39, 54).
edge(36, 144).
edge(38, 85).
edge(73, 92).
edge(5, 27).
edge(95, 105).
edge(29, 146).
edge(3, 51).
edge(33, 153).
edge(76, 104).
edge(72, 91).
edge(34, 151).
edge(3, 148).
edge(39, 100).
edge(15, 33).
edge(108, 112).
edge(80, 115).
edge(43, 138).
edge(80, 98).
edge(94, 119).
edge(119, 143).
edge(114, 134).
edge(62, 78).
edge(26, 115).
edge(129, 140).
edge(9, 100).
edge(93, 105).
edge(52, 95).
edge(3, 15).
edge(50, 151).
edge(87, 116).
edge(87, 151).
edge(8, 135).
edge(71, 87).
edge(12, 88).
edge(12, 31).
edge(54, 69).
edge(69, 78).
edge(149, 152).
edge(50, 114).
edge(116, 127).
edge(124, 144).
edge(5, 58).
edge(14, 133).
edge(35, 142).
edge(48, 104).
edge(98, 112).
edge(40, 80).
edge(2, 136).
edge(41, 51).
edge(4, 55).
edge(50, 124).
edge(23, 104).
edge(75, 93).
edge(24, 126).
edge(50, 141).
edge(14, 34).
edge(93, 129).
edge(47, 138).
edge(89, 146).
edge(21, 26).
edge(92, 129).
edge(90, 105).
edge(100, 133).
edge(2, 5).
edge(9, 155).
edge(44, 103).
edge(46, 137).
edge(10, 20).
edge(26, 68).
edge(57, 100).
edge(0, 4).
edge(57, 154).
edge(23, 57).
edge(35, 55).
edge(10, 108).
edge(4, 92).
edge(59, 65).
edge(85, 141).
edge(1, 115).
edge(79, 86).
edge(129, 144).
edge(32, 122).
edge(3, 106).
edge(82, 116).
edge(59, 147).
edge(103, 127).
edge(3, 151).
edge(12, 109).
edge(87, 115).
edge(24, 77).
edge(56, 64).
edge(32, 121).
edge(82, 145).
edge(68, 88).
edge(0, 34).
edge(70, 71).
edge(40, 142).
edge(10, 78).
edge(84, 127).
edge(72, 119).
edge(5, 29).
edge(21, 144).
edge(23, 85).
edge(14, 30).
edge(52, 112).
edge(58, 109).
edge(21, 78).
edge(25, 152).
edge(36, 57).
edge(33, 113).
edge(131, 154).
edge(52, 109).
edge(77, 149).
edge(74, 87).
edge(56, 101).
edge(2, 36).
edge(49, 132).
edge(42, 94).
edge(77, 105).
edge(15, 113).
edge(92, 154).
edge(108, 118).
edge(11, 29).
edge(3, 152).
edge(11, 35).
edge(87, 129).
edge(77, 154).
edge(78, 87).
edge(71, 122).
edge(48, 141).
edge(45, 69).
edge(97, 140).
edge(84, 136).
edge(18, 70).
edge(43, 76).
edge(38, 42).
edge(39, 109).
edge(67, 68).
edge(84, 107).
edge(7, 99).
edge(29, 43).
edge(23, 31).
edge(43, 129).
edge(103, 155).
edge(3, 16).
edge(146, 148).
edge(94, 137).
edge(61, 130).
edge(38, 91).
edge(133, 140).
edge(40, 144).
edge(67, 72).
edge(12, 128).
edge(60, 151).
edge(62, 135).
edge(5, 11).
edge(27, 100).
edge(19, 76).
edge(71, 90).
edge(87, 114).
edge(48, 57).
edge(127, 131).
edge(110, 135).
edge(65, 84).
edge(114, 141).
edge(65, 100).
edge(45, 131).
edge(75, 109).
edge(6, 83).
edge(77, 104).
edge(30, 136).
edge(24, 103).
edge(36, 133).
edge(53, 77).
edge(64, 81).
edge(29, 65).
edge(143, 155).
edge(82, 128).
edge(9, 25).
edge(101, 131).
edge(31, 129).
edge(105, 145).
edge(9, 90).
edge(97, 129).
edge(130, 142).
edge(11, 78).
edge(2, 29).
edge(21, 112).
edge(95, 138).
edge(45, 81).
edge(8, 155).
edge(47, 132).
edge(57, 85).
edge(150, 154).
edge(90, 94).
edge(47, 143).
edge(91, 101).
edge(72, 79).
edge(51, 109).
edge(44, 117).
edge(4, 109).
edge(83, 91).
edge(57, 118).
edge(9, 133).
edge(98, 120).
edge(43, 131).
edge(82, 121).
edge(40, 151).
edge(105, 153).
edge(114, 115).
edge(59, 108).
edge(33, 142).
edge(114, 132).
edge(80, 143).
edge(7, 135).
edge(39, 65).
edge(86, 120).
edge(32, 82).
edge(76, 116).
edge(42, 139).
edge(143, 149).
edge(42, 52).
edge(42, 108).
edge(90, 114).
edge(52, 144).
edge(37, 60).
edge(41, 143).
edge(5, 148).
edge(42, 113).
edge(21, 106).
edge(37, 87).
edge(86, 147).
edge(67, 73).
edge(35, 56).
edge(34, 44).
edge(16, 50).
edge(22, 125).
edge(33, 148).
edge(4, 128).
edge(48, 122).
edge(30, 76).
edge(27, 116).
edge(96, 120).
edge(63, 95).
edge(52, 61).
edge(103, 147).
edge(50, 109).
edge(8, 63).
edge(14, 23).
edge(25, 132).
edge(102, 104).
edge(69, 139).
edge(34, 153).
edge(68, 105).
edge(105, 140).
edge(6, 54).
edge(0, 75).
edge(85, 94).
edge(93, 94).
edge(2, 129).
edge(1, 94).
edge(54, 99).
edge(4, 103).
edge(72, 113).
edge(46, 120).
edge(26, 90).
edge(8, 100).
edge(83, 144).
edge(1, 24).
edge(1, 125).
edge(11, 122).
edge(2, 63).
edge(110, 149).
edge(106, 117).
edge(73, 80).
edge(137, 152).
edge(4, 139).
edge(119, 130).
edge(122, 152).
edge(11, 141).
edge(42, 65).
edge(12, 115).
edge(82, 123).
edge(21, 87).
edge(19, 81).
edge(34, 90).
edge(14, 40).
edge(50, 86).
edge(5, 109).
edge(16, 46).
edge(14, 102).
edge(52, 93).
edge(28, 80).
edge(57, 147).
edge(55, 68).
edge(13, 31).
edge(85, 143).
edge(22, 124).
edge(52, 62).
edge(75, 149).
edge(47, 52).
edge(37, 85).
edge(107, 135).
edge(24, 56).
edge(10, 85).
edge(34, 58).
edge(49, 72).
edge(31, 143).
edge(13, 88).
edge(8, 41).
edge(93, 151).
edge(23, 49).
edge(94, 115).
edge(90, 133).
edge(14, 123).
edge(39, 99).
edge(0, 109).
edge(55, 141).
edge(1, 62).
edge(107, 143).
edge(16, 34).
edge(4, 70).
edge(48, 113).
edge(37, 47).
edge(100, 110).
edge(50, 102).
edge(34, 48).
edge(57, 111).
edge(1, 49).
edge(12, 137).
edge(2, 134).
edge(4, 129).
edge(67, 107).
edge(43, 44).
edge(119, 140).
edge(22, 151).
edge(46, 82).
edge(128, 146).
edge(11, 110).
edge(105, 123).
edge(78, 103).
edge(6, 55).
edge(88, 97).
edge(55, 124).
edge(117, 131).
edge(24, 69).
edge(31, 149).
edge(35, 62).
edge(22, 152).
edge(11, 138).
edge(4, 76).
edge(69, 128).
edge(39, 64).
edge(40, 85).
edge(101, 113).
edge(10, 131).
edge(40, 111).
edge(17, 129).
edge(90, 118).
edge(112, 124).
edge(25, 154).
edge(15, 135).
edge(23, 65).
edge(7, 148).
edge(89, 100).
edge(41, 71).
edge(106, 127).
edge(3, 91).
edge(56, 108).
edge(140, 142).
edge(4, 130).
edge(22, 65).
edge(94, 113).
edge(0, 95).
edge(18, 31).
edge(127, 137).
edge(6, 101).
edge(5, 120).
edge(3, 93).
edge(11, 76).
edge(65, 137).
edge(54, 74).
edge(103, 133).
edge(97, 120).
edge(58, 82).
edge(91, 123).
edge(57, 135).
edge(54, 78).
edge(46, 80).
edge(120, 146).
edge(9, 150).
edge(57, 124).
edge(65, 67).
edge(67, 106).
edge(0, 1).
edge(78, 92).
edge(71, 79).
edge(4, 39).
edge(30, 99).
edge(58, 65).
edge(68, 98).
edge(49, 135).
edge(59, 103).
edge(59, 104).
edge(39, 90).
edge(73, 130).
edge(22, 49).
edge(56, 137).
edge(27, 45).
edge(14, 127).
edge(69, 130).
edge(67, 85).
edge(121, 124).
edge(30, 90).
edge(0, 40).
edge(43, 105).
edge(50, 116).
edge(9, 89).
edge(41, 49).
edge(48, 78).
edge(123, 133).
edge(12, 123).
edge(92, 132).
edge(109, 144).
edge(41, 96).
edge(44, 132).
edge(27, 151).
edge(58, 66).
edge(62, 144).
edge(19, 34).
edge(32, 123).
edge(124, 152).
edge(41, 150).
edge(47, 70).
edge(58, 113).
edge(79, 107).
edge(6, 40).
edge(18, 36).
edge(38, 114).
edge(8, 79).
edge(29, 117).
edge(52, 66).
edge(60, 87).
edge(102, 124).
edge(49, 118).
edge(45, 67).
edge(40, 132).
edge(7, 105).
edge(5, 100).
edge(16, 74).
edge(137, 144).
edge(147, 154).
edge(10, 74).
edge(61, 92).
edge(122, 131).
edge(48, 65).
edge(68, 91).
edge(19, 149).
edge(36, 141).
edge(1, 35).
edge(81, 119).
edge(47, 114).
edge(69, 127).
edge(30, 126).
edge(27, 142).
edge(38, 130).
edge(16, 99).
edge(2, 104).
edge(49, 63).
edge(40, 125).
edge(31, 107).
edge(12, 61).
edge(38, 105).
edge(31, 147).
edge(58, 104).
edge(7, 15).
edge(10, 141).
edge(59, 71).
edge(43, 45).
edge(85, 128).
edge(6, 19).
edge(53, 73).
edge(20, 61).
edge(45, 127).
edge(66, 133).
edge(68, 126).
edge(80, 121).
edge(71, 153).
edge(15, 124).
edge(73, 135).
edge(98, 122).
edge(103, 105).
edge(76, 82).
edge(9, 24).
edge(57, 117).
edge(0, 94).
edge(63, 91).
edge(54, 70).
edge(93, 128).
edge(78, 88).
edge(65, 89).
edge(24, 105).
edge(12, 82).
edge(94, 139).
edge(86, 127).
edge(87, 102).
edge(12, 95).
edge(6, 151).
edge(63, 68).
edge(37, 79).
edge(6, 63).
edge(14, 36).
edge(75, 142).
edge(13, 72).
edge(65, 74).
edge(51, 76).
edge(28, 86).
edge(82, 91).
edge(14, 146).
edge(32, 150).
edge(37, 114).
edge(53, 76).
edge(54, 148).
edge(49, 107).
edge(67, 132).
edge(21, 67).
edge(65, 134).
edge(4, 108).
edge(0, 149).
edge(16, 113).
edge(42, 148).
edge(11, 16).
edge(82, 153).
edge(31, 71).
edge(44, 55).
edge(102, 114).
edge(84, 108).
edge(42, 78).
edge(60, 129).
edge(52, 152).
edge(40, 90).
edge(2, 9).
edge(45, 146).
edge(60, 123).
edge(22, 77).
edge(109, 118).
edge(16, 52).
edge(116, 141).
edge(89, 103).
edge(21, 76).
edge(74, 129).
edge(63, 94).
edge(98, 141).
edge(53, 80).
edge(45, 62).
edge(78, 84).
edge(44, 110).
edge(39, 141).
edge(29, 70).
edge(75, 115).
edge(69, 89).
edge(6, 132).
edge(94, 144).
edge(59, 72).
edge(53, 151).
edge(27, 123).
edge(97, 117).
edge(59, 97).
edge(50, 95).
edge(51, 62).
edge(78, 132).
edge(33, 74).
edge(79, 136).
edge(119, 127).
edge(11, 123).
edge(7, 123).
edge(22, 61).
edge(26, 139).
edge(21, 54).
edge(43, 113).
edge(9, 56).
edge(11, 59).
edge(2, 12).
edge(17, 107).
edge(23, 78).
edge(86, 138).
edge(83, 111).
edge(20, 68).
edge(27, 54).
edge(36, 125).
edge(44, 131).
edge(2, 53).
edge(32, 43).
edge(5, 79).
edge(20, 57).
edge(63, 70).
edge(45, 151).
edge(36, 38).
edge(20, 33).
edge(95, 112).
edge(87, 147).
edge(60, 153).
edge(3, 112).
edge(91, 151).
edge(6, 60).
edge(22, 103).
edge(93, 130).
edge(30, 150).
edge(2, 155).
edge(114, 129).
edge(47, 149).
edge(27, 71).
edge(82, 120).
edge(46, 72).
edge(102, 123).
edge(71, 150).
edge(109, 127).
edge(20, 36).
edge(117, 151).
edge(75, 121).
edge(76, 93).
edge(16, 96).
edge(6, 93).
edge(59, 100).
edge(51, 77).
edge(99, 109).
edge(79, 108).
edge(52, 136).
edge(16, 51).
edge(54, 143).
edge(64, 70).
edge(41, 128).
edge(60, 72).
edge(148, 153).
edge(15, 152).
edge(10, 71).
edge(36, 37).
edge(117, 128).
edge(14, 50).
edge(52, 153).
edge(51, 74).
edge(3, 52).
edge(66, 122).
edge(101, 108).
edge(51, 114).
edge(92, 93).
edge(9, 151).
edge(62, 70).
edge(86, 96).
edge(82, 97).
edge(93, 106).
edge(20, 53).
edge(115, 150).
edge(44, 93).
edge(58, 90).
edge(6, 121).
edge(37, 155).
edge(114, 144).
edge(46, 148).
edge(42, 134).
edge(28, 112).
edge(5, 57).
edge(10, 42).
edge(11, 129).
edge(34, 123).
edge(65, 147).
edge(94, 104).
edge(107, 150).
edge(35, 38).
edge(31, 59).
edge(27, 86).
edge(49, 155).
edge(82, 84).
edge(12, 58).
edge(34, 75).
edge(81, 113).
edge(36, 45).
edge(22, 47).
edge(10, 32).
edge(41, 144).
edge(52, 142).
edge(53, 105).
edge(38, 51).
edge(49, 149).
edge(12, 99).
edge(19, 109).
edge(11, 14).
edge(54, 138).
edge(54, 97).
edge(15, 136).
edge(17, 141).
edge(28, 111).
edge(15, 69).
edge(10, 67).
edge(89, 108).
edge(93, 137).
edge(1, 37).
edge(31, 93).
edge(90, 140).
edge(35, 99).
edge(64, 83).
edge(109, 140).
edge(58, 138).
edge(66, 154).
edge(57, 63).
edge(40, 72).
edge(105, 133).
edge(2, 41).
edge(44, 91).
edge(47, 95).
edge(81, 127).
edge(103, 145).
edge(15, 31).
edge(86, 119).
edge(8, 43).
edge(18, 52).
edge(96, 102).
edge(89, 120).
edge(1, 126).
edge(39, 137).
edge(126, 141).
edge(27, 106).
edge(91, 149).
edge(96, 140).
edge(64, 127).
edge(82, 133).
edge(81, 98).
edge(11, 27).
edge(135, 155).
edge(14, 138).
edge(18, 72).
edge(101, 127).
edge(27, 117).
edge(99, 148).
edge(35, 49).
edge(16, 84).
edge(108, 110).
edge(34, 51).
edge(24, 93).
edge(127, 135).
edge(143, 150).
edge(14, 38).
edge(33, 63).
edge(113, 131).
edge(23, 123).
edge(27, 90).
edge(14, 28).
edge(25, 43).
edge(19, 125).
edge(81, 122).
edge(50, 155).
edge(0, 2).
edge(102, 128).
edge(68, 153).
edge(33, 50).
edge(69, 132).
edge(41, 127).
edge(51, 68).
edge(127, 141).
edge(46, 144).
edge(64, 139).
edge(124, 150).
edge(107, 151).
edge(31, 108).
edge(40, 45).
edge(104, 152).
edge(58, 101).
edge(91, 119).
edge(56, 57).
edge(55, 109).
edge(34, 35).
edge(36, 83).
edge(4, 124).
edge(79, 146).
edge(136, 151).
edge(43, 121).
edge(1, 91).
edge(14, 135).
edge(20, 32).
edge(38, 118).
edge(6, 78).
edge(99, 119).
edge(57, 74).
edge(20, 67).
edge(40, 136).
edge(52, 143).
edge(32, 56).
edge(131, 132).
edge(42, 51).
edge(34, 145).
edge(17, 49).
edge(93, 149).
edge(83, 85).
edge(11, 94).
edge(19, 146).
edge(108, 151).
edge(51, 79).
edge(26, 109).
edge(17, 92).
edge(38, 132).
edge(13, 36).
edge(74, 90).
edge(25, 106).
edge(25, 91).
edge(25, 69).
edge(38, 147).
edge(16, 129).
edge(39, 134).
edge(8, 71).
edge(51, 123).
edge(32, 116).
edge(15, 150).
edge(78, 110).
edge(87, 91).
edge(78, 83).
edge(74, 100).
edge(31, 36).
edge(26, 37).
edge(58, 81).
edge(77, 132).
edge(44, 126).
edge(26, 47).
edge(79, 144).
edge(34, 120).
edge(34, 63).
edge(40, 52).
edge(18, 34).
edge(13, 108).
edge(37, 86).
edge(6, 9).
edge(4, 12).
edge(145, 148).
edge(24, 108).
edge(87, 143).
edge(56, 145).
edge(49, 99).
edge(14, 56).
edge(63, 148).
edge(31, 95).
edge(122, 144).
edge(55, 74).
edge(105, 148).
edge(42, 96).
edge(13, 124).
edge(40, 149).
edge(60, 111).
edge(60, 145).
edge(26, 27).
edge(69, 100).
edge(57, 129).
edge(136, 153).
edge(43, 109).
edge(28, 33).
edge(61, 103).
edge(53, 122).
edge(81, 112).
edge(53, 115).
edge(91, 132).
edge(23, 89).
edge(71, 125).
edge(102, 145).
edge(93, 126).
edge(34, 73).
edge(120, 155).
edge(43, 106).
edge(98, 133).
edge(3, 146).
edge(46, 73).
edge(73, 79).
edge(8, 37).
edge(42, 142).
edge(86, 124).
edge(50, 93).
edge(104, 108).
edge(26, 94).
edge(9, 49).
edge(27, 29).
edge(6, 143).
edge(29, 150).
edge(24, 141).
edge(136, 154).
edge(91, 107).
edge(49, 151).
edge(120, 149).
edge(15, 98).
edge(146, 152).
edge(13, 99).
edge(78, 89).
edge(37, 75).
edge(27, 109).
edge(44, 142).
edge(94, 142).
edge(42, 60).
edge(3, 77).
edge(61, 74).
edge(47, 53).
edge(26, 111).
edge(43, 58).
edge(63, 135).
edge(76, 97).
edge(130, 131).
edge(67, 126).
edge(111, 113).
edge(66, 118).
edge(80, 123).
edge(23, 118).
edge(118, 144).
edge(58, 79).
edge(23, 87).
edge(76, 127).
edge(93, 146).
edge(1, 122).
edge(53, 78).
edge(22, 55).
edge(28, 90).
edge(9, 131).
edge(11, 121).
edge(36, 74).
edge(116, 137).
edge(37, 128).
edge(98, 123).
edge(7, 55).
edge(18, 136).
edge(23, 56).
edge(79, 131).
edge(17, 22).
edge(83, 94).
edge(106, 148).
edge(7, 28).
edge(108, 136).
edge(4, 80).
edge(46, 111).
edge(52, 100).
edge(20, 80).
edge(22, 73).
edge(7, 143).
edge(17, 150).
edge(40, 47).
edge(85, 88).
edge(8, 26).
edge(1, 63).
edge(109, 142).
edge(32, 118).
edge(13, 32).
edge(32, 62).
edge(75, 140).
edge(77, 101).
edge(76, 86).
edge(35, 70).
edge(39, 48).
edge(33, 68).
edge(14, 99).
edge(145, 149).
edge(53, 57).
edge(130, 146).
edge(118, 136).
edge(10, 16).
edge(4, 62).
edge(16, 105).
edge(5, 107).
edge(63, 66).
edge(93, 118).
edge(44, 140).
edge(145, 155).
edge(133, 134).
edge(39, 72).
edge(111, 143).
edge(66, 110).
edge(69, 96).
edge(1, 64).
edge(12, 66).
edge(33, 149).
edge(83, 145).
edge(13, 150).
edge(40, 73).
edge(98, 153).
edge(29, 57).
edge(87, 123).
edge(112, 139).
edge(39, 81).
edge(12, 18).
edge(50, 77).
edge(44, 81).
edge(29, 138).
edge(119, 147).
edge(44, 139).
edge(9, 95).
edge(42, 104).
edge(10, 104).
edge(69, 135).
edge(38, 155).
edge(26, 44).
edge(10, 66).
edge(9, 81).
edge(0, 134).
edge(135, 145).
edge(1, 60).
edge(6, 16).
edge(12, 73).
edge(71, 110).
edge(85, 115).
edge(48, 71).
edge(44, 89).
edge(84, 96).
edge(81, 109).
edge(52, 113).
edge(56, 97).
edge(0, 106).
edge(34, 113).
edge(0, 36).
edge(106, 118).
edge(120, 132).
edge(29, 149).
edge(42, 109).
edge(9, 99).
edge(71, 115).
edge(26, 125).
edge(58, 147).
edge(63, 76).
edge(58, 112).
edge(19, 39).
edge(106, 108).
edge(58, 126).
edge(6, 65).
edge(17, 137).
edge(133, 152).
edge(70, 112).
edge(68, 103).
edge(66, 91).
edge(130, 137).
edge(114, 149).
edge(64, 112).
edge(44, 96).
edge(114, 123).
edge(6, 7).
edge(112, 154).
edge(117, 144).
edge(54, 152).
edge(122, 147).
edge(89, 145).
edge(82, 150).
edge(12, 75).
edge(24, 154).
edge(98, 124).
edge(19, 43).
edge(94, 134).
edge(3, 5).
edge(103, 113).
edge(64, 68).
edge(17, 117).
edge(43, 80).
edge(49, 92).
edge(86, 94).
edge(8, 12).
edge(32, 87).
edge(58, 127).
edge(76, 109).
edge(45, 78).
edge(108, 115).
edge(10, 13).
edge(2, 85).
edge(40, 91).
edge(9, 106).
edge(64, 155).
edge(41, 78).
edge(10, 40).
edge(45, 46).
edge(3, 63).
edge(3, 14).
edge(15, 58).
edge(16, 144).
edge(65, 114).
edge(15, 49).
edge(16, 139).
edge(40, 150).
edge(48, 108).
edge(61, 153).
edge(15, 79).
edge(92, 102).
edge(56, 118).
edge(36, 76).
edge(24, 140).
edge(24, 138).
edge(60, 74).
edge(10, 136).
edge(12, 63).
edge(93, 122).
edge(100, 105).
edge(41, 93).
edge(114, 143).
edge(15, 141).
edge(52, 131).
edge(4, 144).
edge(56, 110).
edge(76, 148).
edge(70, 87).
edge(12, 29).
edge(42, 86).
edge(90, 96).
edge(31, 64).
edge(19, 21).
edge(32, 128).
edge(80, 83).
edge(9, 97).
edge(66, 149).
edge(38, 48).
edge(80, 114).
edge(7, 30).
edge(111, 138).
edge(39, 70).
edge(26, 106).
edge(85, 113).
edge(105, 107).
edge(65, 99).
edge(42, 143).
edge(55, 80).
edge(89, 125).
edge(52, 103).
edge(77, 152).
edge(5, 86).
edge(78, 142).
edge(45, 124).
edge(17, 75).
edge(90, 155).
edge(5, 65).
edge(54, 104).
edge(7, 98).
edge(115, 122).
edge(76, 126).
edge(14, 100).
edge(22, 96).
edge(105, 150).
edge(84, 147).
edge(48, 82).
edge(35, 98).
edge(29, 113).
edge(51, 60).
edge(63, 80).
edge(20, 46).
edge(45, 99).
edge(51, 96).
edge(4, 56).
edge(72, 153).
edge(98, 100).
edge(43, 96).
edge(55, 99).
edge(43, 133).
edge(19, 118).
edge(107, 145).
edge(108, 133).
edge(112, 135).
edge(26, 91).
edge(29, 40).
edge(7, 11).
edge(47, 116).
edge(20, 41).
edge(1, 107).
edge(71, 148).
edge(130, 149).
edge(49, 75).
edge(42, 67).
edge(45, 98).
edge(17, 34).
edge(3, 121).
edge(96, 112).
edge(31, 67).
edge(95, 150).
edge(76, 153).
edge(50, 138).
edge(27, 150).
edge(92, 100).
edge(39, 77).
edge(69, 74).
edge(34, 94).
edge(26, 43).
edge(17, 136).
edge(69, 123).
edge(2, 111).
edge(1, 124).
edge(53, 107).
edge(47, 94).
edge(14, 43).
edge(95, 131).
edge(31, 134).
edge(19, 61).
edge(36, 80).
edge(122, 138).
edge(14, 96).
edge(21, 59).
edge(22, 90).
edge(6, 110).
edge(104, 149).
edge(20, 24).
edge(27, 51).
edge(50, 55).
edge(45, 51).
edge(30, 56).
edge(41, 66).
edge(48, 135).
edge(139, 147).
edge(105, 110).
edge(32, 92).
edge(84, 126).
edge(73, 76).
edge(52, 65).
edge(2, 65).
edge(62, 84).
edge(113, 153).
edge(12, 111).
edge(74, 112).
edge(49, 71).
edge(41, 114).
edge(65, 138).
edge(11, 145).
edge(3, 107).
edge(41, 50).
edge(80, 102).
edge(5, 26).
edge(42, 149).
edge(55, 149).
edge(100, 155).
edge(15, 23).
edge(11, 22).
edge(130, 143).
edge(48, 81).
edge(97, 154).
edge(29, 59).
edge(75, 116).
edge(38, 138).
edge(42, 141).
edge(52, 57).
edge(36, 110).
edge(43, 144).
edge(84, 121).
edge(13, 61).
edge(5, 7).
edge(1, 81).
edge(25, 30).
edge(117, 124).
edge(19, 106).
edge(34, 83).
edge(13, 92).
edge(82, 119).
edge(34, 101).
edge(67, 70).
edge(81, 115).
edge(14, 37).
edge(31, 52).
edge(67, 108).
edge(57, 70).
edge(5, 125).
edge(41, 147).
edge(27, 88).
edge(101, 133).
edge(57, 59).
edge(52, 129).
edge(34, 106).
edge(121, 135).
edge(77, 142).
edge(88, 118).
edge(24, 88).
edge(72, 105).
edge(19, 36).
edge(90, 130).
edge(32, 79).
edge(18, 40).
edge(85, 98).
edge(19, 139).
edge(124, 131).
edge(110, 133).
edge(31, 72).
edge(32, 153).
edge(82, 118).
edge(89, 155).
edge(89, 110).
edge(51, 125).
edge(87, 113).
edge(118, 149).
edge(87, 128).
edge(56, 81).
edge(36, 146).
edge(14, 70).
edge(28, 106).
edge(101, 135).
edge(23, 50).
edge(30, 40).
edge(69, 124).
edge(59, 68).
edge(30, 81).
edge(12, 32).
edge(38, 100).
edge(31, 94).
edge(79, 119).
edge(95, 125).
edge(119, 121).
edge(88, 133).
edge(34, 45).
edge(54, 127).
edge(23, 150).
edge(10, 55).
edge(33, 152).
edge(98, 154).
edge(90, 100).
edge(47, 82).
edge(35, 66).
edge(11, 116).
edge(16, 42).
edge(43, 86).
edge(59, 148).
edge(44, 86).
edge(92, 135).
edge(12, 90).
edge(103, 110).
edge(128, 137).
edge(18, 109).
edge(87, 94).
edge(17, 101).
edge(71, 131).
edge(13, 145).
edge(152, 153).
edge(108, 111).
edge(10, 57).
edge(67, 153).
edge(34, 138).
edge(66, 89).
edge(22, 74).
edge(2, 54).
edge(11, 77).
edge(25, 127).
edge(24, 106).
edge(36, 150).
edge(30, 131).
edge(67, 143).
edge(22, 26).
edge(65, 71).
edge(31, 130).
edge(62, 123).
edge(21, 82).
edge(28, 49).
edge(10, 130).
edge(11, 33).
edge(19, 98).
edge(103, 154).
edge(80, 149).
edge(18, 48).
edge(28, 44).
edge(36, 111).
edge(66, 121).
edge(36, 151).
edge(48, 127).
edge(37, 134).
edge(58, 108).
edge(33, 141).
edge(27, 115).
edge(18, 150).
edge(26, 42).
edge(2, 14).
edge(52, 60).
edge(79, 96).
edge(82, 99).
edge(66, 70).
edge(6, 14).
edge(120, 145).
edge(11, 111).
edge(23, 47).
edge(12, 57).
edge(6, 133).
edge(110, 138).
edge(25, 26).
edge(135, 154).
edge(121, 141).
edge(16, 82).
edge(8, 96).
edge(48, 103).
edge(2, 4).
edge(139, 146).
edge(84, 90).
edge(6, 72).
edge(49, 104).
edge(93, 150).
edge(7, 39).
edge(3, 127).
edge(1, 44).
edge(28, 113).
edge(43, 53).
edge(12, 130).
edge(96, 133).
edge(78, 126).
edge(80, 89).
edge(40, 101).
edge(34, 59).
edge(93, 121).
edge(95, 115).
edge(118, 129).
edge(11, 73).
edge(33, 48).
edge(57, 127).
edge(19, 35).
edge(39, 136).
edge(4, 7).
edge(26, 128).
edge(26, 80).
edge(82, 129).
edge(0, 28).
edge(35, 134).
edge(35, 148).
edge(97, 155).
edge(2, 24).
edge(106, 109).
edge(17, 57).
edge(132, 154).
edge(33, 59).
edge(23, 93).
edge(75, 81).
edge(6, 46).
edge(36, 109).
edge(50, 139).
edge(49, 106).
edge(35, 88).
edge(47, 115).
edge(56, 83).
edge(126, 140).
edge(20, 111).
edge(90, 132).
edge(37, 123).
edge(55, 93).
edge(97, 133).
edge(20, 120).
edge(31, 57).
edge(124, 148).
edge(51, 154).
edge(104, 115).
edge(96, 109).
edge(28, 88).
edge(31, 141).
edge(68, 111).
edge(62, 72).
edge(0, 90).
edge(12, 51).
edge(107, 130).
edge(38, 40).
edge(102, 106).
edge(45, 82).
edge(101, 143).
edge(44, 154).
edge(5, 69).
edge(47, 126).
edge(42, 107).
edge(66, 94).
edge(88, 117).
edge(71, 85).
edge(40, 102).
edge(5, 126).
edge(44, 75).
edge(112, 121).
edge(21, 148).
edge(18, 80).
edge(20, 153).
edge(78, 107).
edge(35, 87).
edge(22, 60).
edge(68, 141).
edge(37, 122).
edge(22, 100).
edge(34, 119).
edge(104, 144).
edge(73, 118).
edge(73, 120).
edge(73, 108).
edge(4, 116).
edge(60, 73).
edge(8, 23).
edge(9, 29).
edge(10, 114).
edge(37, 119).
edge(50, 130).
edge(13, 107).
edge(48, 144).
edge(14, 151).
edge(17, 155).
edge(38, 54).
edge(29, 141).
edge(45, 54).
edge(19, 108).
edge(84, 146).
edge(5, 42).
edge(106, 152).
edge(25, 83).
edge(25, 37).
edge(21, 69).
edge(71, 104).
edge(47, 78).
edge(41, 113).
edge(81, 154).
edge(33, 115).
edge(104, 132).
edge(3, 142).
edge(17, 102).
edge(2, 39).
edge(21, 56).
edge(99, 127).
edge(96, 155).
edge(21, 55).
edge(5, 63).
edge(38, 46).
edge(97, 153).
edge(16, 92).
edge(55, 76).
edge(17, 123).
edge(19, 89).
edge(55, 104).
edge(40, 63).
edge(16, 125).
edge(17, 45).
edge(89, 154).
edge(62, 122).
edge(105, 130).
edge(21, 27).
edge(91, 139).
edge(64, 110).
edge(30, 112).
edge(6, 128).
edge(77, 89).
edge(70, 127).
edge(43, 122).
edge(23, 134).
edge(154, 155).
edge(107, 117).
edge(25, 125).
edge(17, 116).
edge(56, 140).
edge(6, 85).
edge(102, 120).
edge(21, 138).
edge(15, 91).
edge(45, 129).
edge(45, 84).
edge(92, 142).
edge(47, 58).
edge(26, 150).
edge(88, 146).
edge(70, 116).
edge(65, 150).
edge(83, 86).
edge(3, 9).
edge(20, 98).
edge(61, 81).
edge(37, 74).
edge(16, 43).
edge(53, 86).
edge(122, 139).
edge(115, 131).
edge(45, 148).
edge(32, 144).
edge(50, 147).
edge(37, 82).
edge(40, 46).
edge(2, 149).
edge(26, 33).
edge(17, 23).
edge(66, 147).
edge(123, 154).
edge(8, 140).
edge(78, 97).
edge(39, 122).
edge(5, 87).
edge(21, 151).
edge(96, 104).
edge(33, 41).
edge(83, 128).
edge(57, 144).
edge(134, 139).
edge(103, 149).
edge(80, 144).
edge(135, 144).
edge(14, 97).
edge(120, 125).
edge(38, 74).
edge(135, 139).
edge(45, 61).
edge(60, 155).
edge(122, 140).
edge(24, 149).
edge(44, 125).
edge(36, 82).
edge(93, 117).
edge(61, 110).
edge(135, 151).
edge(16, 104).
edge(21, 109).
edge(1, 26).
edge(73, 147).
edge(2, 69).
edge(91, 118).
edge(95, 108).
edge(4, 15).
edge(110, 119).
edge(50, 123).
edge(23, 77).
edge(61, 78).
edge(14, 22).
edge(18, 104).
edge(94, 130).
edge(40, 112).
edge(8, 59).
edge(133, 150).
edge(32, 39).
edge(31, 98).
edge(100, 116).
edge(117, 136).
edge(56, 100).
edge(34, 61).
edge(106, 141).
edge(125, 152).
edge(42, 129).
edge(15, 99).
edge(69, 121).
edge(47, 129).
edge(57, 155).
edge(28, 58).
edge(128, 133).
edge(61, 140).
edge(72, 104).
edge(29, 92).
edge(21, 143).
edge(32, 57).
edge(32, 91).
edge(81, 149).
edge(143, 151).
edge(24, 121).
edge(16, 91).
edge(125, 153).
edge(55, 69).
edge(25, 57).
edge(20, 56).
edge(7, 59).
edge(41, 46).
edge(20, 45).
edge(25, 66).
edge(54, 68).
edge(53, 150).
edge(7, 137).
edge(10, 54).
edge(24, 86).
edge(29, 54).
edge(15, 20).
edge(23, 24).
edge(10, 154).
edge(68, 115).
edge(65, 79).
edge(58, 135).
edge(83, 136).
edge(1, 38).
edge(18, 97).
edge(117, 118).
edge(4, 119).
edge(11, 15).
edge(55, 73).
edge(8, 53).
edge(117, 123).
edge(92, 127).
edge(82, 115).
edge(19, 124).
edge(0, 138).
edge(18, 135).
edge(53, 54).
edge(5, 76).
edge(20, 133).
edge(28, 66).
edge(46, 107).
edge(103, 134).
edge(27, 108).
edge(4, 101).
edge(51, 88).
edge(80, 112).
edge(37, 135).
edge(1, 47).
edge(65, 109).
edge(7, 126).
edge(1, 7).
edge(6, 148).
edge(11, 53).
edge(3, 8).
edge(65, 151).
edge(7, 106).
edge(62, 141).
edge(89, 102).
edge(76, 84).
edge(27, 152).
edge(40, 139).
edge(22, 28).
edge(97, 131).
edge(40, 138).
edge(16, 140).
edge(39, 127).
edge(33, 128).
edge(5, 106).
edge(80, 127).
edge(149, 151).
edge(7, 119).
edge(50, 98).
edge(78, 139).
edge(6, 77).
edge(35, 147).
edge(76, 124).
edge(58, 121).
edge(17, 89).
edge(57, 145).
edge(15, 19).
edge(32, 48).
edge(12, 76).
edge(108, 119).
edge(46, 101).
edge(20, 154).
edge(1, 93).
edge(10, 26).
edge(39, 115).
edge(29, 66).
edge(64, 103).
edge(27, 65).
edge(19, 116).
edge(36, 51).
edge(18, 145).
edge(5, 92).
edge(79, 80).
edge(23, 75).
edge(37, 51).
edge(81, 120).
edge(75, 131).
edge(97, 130).
edge(112, 125).
edge(4, 66).
edge(47, 118).
edge(35, 84).
edge(107, 144).
edge(119, 122).
edge(42, 150).
edge(51, 122).
edge(88, 123).
edge(104, 124).
edge(12, 53).
edge(84, 99).
edge(12, 50).
edge(3, 44).
edge(141, 154).
edge(64, 87).
edge(13, 135).
edge(20, 122).
edge(68, 113).
edge(30, 145).
edge(113, 120).
edge(105, 134).
edge(44, 143).
edge(76, 151).
edge(94, 118).
edge(140, 150).
edge(22, 38).
edge(39, 153).
edge(21, 90).
edge(59, 116).
edge(1, 103).
edge(52, 73).
edge(118, 154).
edge(50, 140).
edge(8, 117).
edge(24, 64).
edge(30, 118).
edge(70, 128).
edge(27, 102).
edge(31, 113).
edge(39, 131).
edge(67, 69).
edge(63, 86).
edge(39, 80).
edge(125, 149).
edge(1, 96).
edge(42, 115).
edge(59, 111).
edge(95, 127).
edge(32, 134).
edge(20, 147).
edge(61, 146).
edge(16, 65).
edge(70, 73).
edge(3, 25).
edge(26, 41).
edge(34, 50).
edge(51, 135).
edge(77, 143).
edge(70, 147).
edge(27, 146).
edge(56, 77).
edge(78, 93).
edge(0, 89).
edge(32, 95).
edge(43, 51).
edge(61, 83).
edge(88, 150).
edge(20, 104).
edge(63, 85).
edge(13, 73).
edge(72, 114).
edge(14, 59).
edge(53, 139).
edge(94, 155).
edge(65, 83).
edge(78, 138).
edge(7, 38).
edge(79, 109).
edge(65, 128).
edge(7, 72).
edge(68, 80).
edge(27, 122).
edge(56, 124).
edge(86, 118).
edge(114, 119).
edge(33, 101).
edge(113, 133).
edge(45, 128).
edge(91, 145).
edge(86, 105).
edge(72, 144).
edge(41, 149).
edge(127, 155).
edge(62, 96).
edge(37, 139).
edge(77, 126).
edge(73, 82).
edge(12, 68).
edge(106, 107).
edge(23, 152).
edge(90, 106).
edge(17, 44).
edge(32, 119).
edge(100, 153).
edge(70, 100).
edge(35, 85).
edge(11, 37).
edge(28, 123).
edge(62, 90).
edge(70, 125).
edge(106, 146).
edge(18, 67).
edge(24, 147).
edge(57, 133).
edge(25, 53).
edge(88, 104).
edge(118, 138).
edge(9, 119).
edge(4, 64).
edge(23, 48).
edge(54, 76).
edge(56, 150).
edge(18, 108).
edge(10, 142).
edge(97, 110).
edge(15, 17).
edge(97, 104).
edge(50, 110).
edge(69, 133).
edge(65, 123).
edge(16, 149).
edge(54, 75).
edge(3, 34).
edge(16, 143).
edge(21, 100).
edge(39, 62).
edge(32, 148).
edge(18, 77).
edge(70, 102).
edge(103, 111).
edge(13, 123).
edge(46, 86).
edge(33, 89).
edge(31, 121).
edge(55, 126).
edge(139, 143).
edge(67, 97).
edge(14, 104).
edge(30, 48).
edge(139, 142).
edge(95, 116).
edge(27, 125).
edge(31, 152).
edge(49, 94).
edge(35, 144).
edge(58, 96).
edge(104, 125).
edge(98, 132).
edge(112, 120).
edge(50, 82).
edge(25, 109).
edge(33, 46).
edge(65, 153).
edge(10, 118).
edge(30, 95).
edge(56, 139).
edge(6, 25).
edge(65, 119).
edge(102, 142).
edge(86, 131).
edge(38, 66).
edge(66, 98).
edge(71, 152).
edge(14, 71).
edge(133, 139).
edge(30, 98).
edge(15, 118).
edge(92, 138).
edge(85, 89).
edge(43, 126).
edge(6, 107).
edge(91, 148).
edge(47, 108).
edge(30, 50).
edge(34, 43).
edge(35, 104).
edge(5, 82).
edge(25, 28).
edge(132, 145).
edge(40, 86).
edge(13, 42).
edge(1, 87).
edge(92, 139).
edge(39, 96).
edge(36, 140).
edge(60, 77).
edge(68, 121).
edge(82, 155).
edge(51, 103).
edge(18, 127).
edge(77, 138).
edge(70, 131).
edge(53, 68).
edge(122, 150).
edge(20, 74).
edge(0, 63).
edge(29, 107).
edge(20, 144).
edge(5, 51).
edge(8, 126).
edge(52, 116).
edge(108, 124).
edge(75, 143).
edge(95, 133).
edge(50, 135).
edge(33, 133).
edge(50, 89).
edge(99, 139).
edge(72, 141).
edge(21, 50).
edge(58, 130).
edge(81, 141).
edge(64, 132).
edge(24, 39).
edge(78, 90).
edge(44, 121).
edge(13, 127).
edge(36, 121).
edge(37, 96).
edge(5, 103).
edge(22, 155).
edge(79, 139).
edge(75, 138).
edge(40, 50).
edge(4, 87).
edge(98, 111).
edge(55, 121).
edge(73, 140).
edge(28, 78).
edge(80, 92).
edge(10, 23).
edge(62, 146).
edge(81, 139).
edge(137, 147).
edge(96, 149).
edge(11, 104).
edge(12, 85).
edge(87, 133).
edge(143, 153).
edge(67, 109).
edge(39, 110).
edge(79, 125).
edge(78, 109).
edge(60, 88).
edge(14, 33).
edge(46, 93).
edge(80, 93).
edge(24, 87).
edge(118, 121).
edge(22, 105).
edge(1, 80).
edge(52, 79).
edge(70, 123).
edge(74, 85).
edge(35, 137).
edge(7, 60).
edge(28, 146).
edge(58, 139).
edge(105, 116).
edge(45, 102).
edge(17, 148).
edge(93, 140).
edge(1, 57).
edge(35, 138).
edge(81, 132).
edge(92, 137).
edge(46, 106).
edge(8, 130).
edge(13, 87).
edge(2, 10).
edge(7, 133).
edge(14, 119).
edge(53, 87).
edge(57, 88).
edge(32, 53).
edge(71, 96).
edge(40, 83).
edge(1, 52).
edge(83, 102).
edge(2, 154).
edge(56, 82).
edge(95, 96).
edge(20, 69).
edge(72, 76).
edge(49, 82).
edge(45, 154).
edge(73, 113).
edge(93, 100).
edge(20, 149).
edge(68, 108).
edge(50, 59).
edge(66, 117).
edge(42, 100).
edge(95, 98).
edge(100, 136).
edge(105, 127).
edge(67, 131).
edge(29, 102).
edge(35, 76).
edge(28, 81).
edge(10, 60).
edge(56, 96).
edge(33, 34).
edge(32, 103).
edge(60, 100).
edge(119, 136).
edge(9, 30).
edge(84, 141).
edge(36, 87).
edge(82, 106).
edge(58, 119).
edge(101, 122).
edge(111, 153).
edge(52, 78).
edge(64, 152).
edge(43, 94).
edge(24, 130).
edge(13, 60).
edge(61, 115).
edge(12, 146).
edge(62, 147).
edge(78, 116).
edge(6, 15).
edge(127, 144).
edge(60, 108).
edge(135, 152).
edge(3, 132).
edge(17, 85).
edge(26, 110).
edge(91, 124).
edge(42, 72).
edge(61, 66).
edge(27, 114).
edge(65, 103).
edge(7, 132).
edge(85, 149).
edge(22, 62).
edge(61, 95).
edge(59, 85).
edge(31, 79).
edge(66, 75).
edge(64, 78).
edge(105, 152).
edge(59, 131).
edge(43, 135).
edge(52, 106).
edge(6, 105).
edge(49, 126).
edge(36, 149).
edge(56, 74).
edge(40, 41).
edge(85, 111).
edge(60, 71).
edge(130, 141).
edge(45, 136).
edge(6, 90).
edge(2, 47).
edge(116, 146).
edge(77, 79).
edge(81, 94).
edge(23, 95).
edge(42, 92).
edge(34, 117).
edge(106, 133).
edge(9, 149).
edge(54, 109).
edge(46, 65).
edge(144, 154).
edge(28, 40).
edge(10, 123).
edge(51, 151).
edge(40, 105).
edge(39, 85).
edge(75, 107).
edge(23, 132).
edge(50, 118).
edge(0, 98).
edge(55, 145).
edge(87, 122).
edge(65, 155).
edge(115, 139).
edge(40, 110).
edge(47, 91).
edge(17, 138).
edge(73, 77).
edge(77, 123).
edge(21, 47).
edge(59, 122).
edge(82, 100).
edge(84, 144).
edge(16, 53).
edge(47, 111).
edge(14, 147).
edge(9, 50).
edge(41, 70).
edge(23, 88).
edge(61, 122).
edge(28, 95).
edge(14, 26).
edge(14, 74).
edge(2, 138).
edge(5, 46).
edge(0, 126).
edge(118, 128).
edge(41, 129).
edge(74, 75).
edge(123, 130).
edge(90, 121).
edge(47, 123).
edge(140, 153).
edge(33, 76).
edge(107, 124).
edge(74, 135).
edge(105, 111).
edge(62, 127).
edge(79, 90).
edge(8, 55).
edge(100, 108).
edge(60, 68).
edge(61, 114).
edge(122, 127).
edge(65, 149).
edge(19, 79).
edge(101, 139).
edge(6, 42).
edge(78, 100).
edge(1, 140).
edge(1, 118).
edge(140, 145).
edge(42, 144).
edge(73, 106).
edge(26, 58).
edge(2, 83).
edge(0, 56).
edge(95, 143).
edge(0, 9).
edge(78, 104).
edge(67, 150).
edge(73, 95).
edge(59, 99).
edge(61, 125).
edge(125, 126).
edge(9, 43).
edge(75, 76).
edge(6, 142).
edge(104, 137).
edge(70, 154).
edge(7, 97).
edge(40, 66).
edge(8, 111).
edge(86, 148).
edge(12, 117).
edge(9, 132).
edge(78, 152).
edge(35, 69).
edge(21, 43).
edge(12, 136).
edge(79, 126).
edge(32, 101).
edge(112, 147).
edge(80, 113).
edge(55, 56).
edge(121, 128).
edge(11, 38).
edge(46, 126).
edge(115, 153).
edge(40, 92).
edge(20, 138).
edge(105, 141).
edge(84, 88).
edge(92, 144).
edge(77, 136).
edge(55, 78).
edge(48, 148).
edge(25, 114).
edge(12, 72).
edge(0, 50).
edge(63, 118).
edge(58, 72).
edge(2, 124).
edge(12, 81).
edge(55, 98).
edge(73, 115).
edge(114, 155).
edge(99, 142).
edge(69, 142).
edge(50, 91).
edge(39, 57).
edge(103, 104).
edge(29, 145).
edge(75, 127).
edge(46, 153).
edge(22, 33).
edge(58, 144).
edge(53, 61).
edge(119, 151).
edge(14, 47).
edge(55, 67).
edge(91, 113).
edge(4, 95).
edge(24, 129).
edge(95, 145).
edge(96, 101).
edge(42, 117).
edge(51, 82).
edge(90, 147).
edge(23, 154).
edge(31, 83).
edge(0, 127).
edge(16, 130).
edge(129, 149).
edge(23, 34).
edge(9, 76).
edge(18, 65).
edge(56, 92).
edge(97, 121).
edge(80, 90).
edge(43, 57).
edge(12, 114).
edge(123, 132).
edge(101, 105).
edge(64, 90).
edge(98, 147).
edge(62, 113).
edge(71, 72).
edge(25, 150).
edge(48, 151).
edge(66, 88).
edge(4, 49).
edge(48, 79).
edge(29, 94).
edge(48, 123).
edge(107, 153).
edge(64, 137).
edge(26, 56).
edge(59, 128).
edge(56, 102).
edge(46, 96).
edge(134, 148).
edge(92, 119).
edge(7, 112).
edge(103, 123).
edge(3, 145).
edge(71, 78).
edge(47, 96).
edge(3, 100).
edge(137, 150).
edge(51, 71).
edge(58, 73).
edge(19, 129).
edge(44, 70).
edge(10, 31).
edge(134, 142).
edge(59, 150).
edge(48, 140).
edge(45, 141).
edge(73, 93).
edge(52, 137).
edge(18, 99).
edge(107, 147).
edge(15, 83).
edge(80, 126).
edge(54, 100).
edge(20, 84).
edge(37, 113).
edge(10, 63).
edge(37, 53).
edge(42, 79).
edge(2, 79).
edge(85, 140).
edge(44, 135).
edge(5, 154).
edge(84, 89).
edge(64, 106).
edge(55, 151).
edge(53, 106).
edge(18, 74).
edge(116, 152).
edge(0, 143).
edge(54, 128).
edge(3, 20).
edge(30, 96).
edge(28, 93).
edge(27, 82).
edge(13, 59).
edge(73, 139).
edge(111, 115).
edge(32, 65).
edge(5, 32).
edge(33, 120).
edge(63, 98).
edge(46, 152).
edge(124, 141).
edge(14, 92).
edge(36, 108).
edge(54, 153).
edge(82, 107).
edge(40, 57).
edge(53, 111).
edge(95, 119).
edge(41, 107).
edge(42, 43).
edge(39, 50).
edge(27, 56).
edge(84, 110).
edge(128, 134).
edge(81, 84).
edge(123, 137).
edge(142, 149).
edge(139, 150).
edge(5, 39).
edge(60, 142).
edge(34, 77).
edge(34, 110).
edge(123, 129).
edge(130, 151).
edge(31, 117).
edge(132, 140).
edge(30, 86).
edge(5, 150).
edge(92, 103).
edge(35, 75).
edge(37, 68).
edge(81, 133).
edge(72, 110).
edge(91, 103).
edge(67, 154).
edge(50, 136).
edge(51, 149).
edge(90, 92).
edge(26, 101).
edge(72, 108).
edge(48, 133).
edge(9, 78).
edge(87, 118).
edge(54, 66).
edge(32, 99).
edge(54, 110).
edge(38, 58).
edge(59, 146).
edge(12, 36).
edge(5, 102).
edge(2, 25).
edge(6, 116).
edge(17, 58).
edge(16, 141).
edge(64, 147).
edge(47, 79).
edge(78, 130).
edge(0, 146).
edge(31, 151).
edge(21, 64).
edge(92, 106).
edge(106, 123).
edge(29, 139).
edge(80, 119).
edge(132, 152).
edge(31, 115).
edge(44, 52).
edge(94, 122).
edge(51, 155).
edge(56, 78).
edge(18, 28).
edge(100, 145).
edge(13, 100).
edge(41, 99).
edge(82, 125).
edge(68, 134).
edge(51, 58).
edge(8, 32).
edge(28, 115).
edge(27, 84).
edge(108, 122).
edge(61, 90).
edge(59, 74).
edge(44, 53).
edge(77, 83).
edge(23, 101).
edge(86, 141).
edge(49, 143).
edge(52, 138).
edge(41, 44).
edge(99, 143).
edge(5, 15).
edge(7, 111).
edge(36, 134).
edge(18, 68).
edge(30, 125).
edge(41, 116).
edge(65, 104).
edge(18, 105).
edge(138, 151).
edge(88, 93).
edge(94, 121).
edge(45, 111).
edge(108, 129).
edge(20, 124).
edge(65, 142).
edge(78, 86).
edge(111, 124).
edge(20, 126).
edge(32, 145).
edge(126, 155).
edge(15, 151).
edge(14, 140).
edge(123, 131).
edge(17, 79).
edge(11, 136).
edge(42, 74).
edge(0, 100).
edge(70, 151).
edge(32, 136).
edge(70, 109).
edge(26, 116).
edge(17, 152).
edge(8, 28).
edge(72, 109).
edge(89, 144).
edge(35, 153).
edge(109, 146).
edge(89, 135).
edge(51, 95).
edge(126, 134).
edge(32, 54).
edge(43, 117).
edge(21, 135).
edge(30, 120).
edge(22, 53).
edge(51, 138).
edge(23, 90).
edge(51, 101).
edge(135, 140).
edge(37, 84).
edge(38, 53).
edge(28, 45).
edge(22, 67).
edge(18, 33).
edge(7, 146).
edge(24, 94).
edge(77, 122).
edge(43, 149).
edge(128, 150).
edge(49, 52).
edge(23, 115).
edge(22, 42).
edge(54, 124).
edge(71, 100).
edge(5, 67).
edge(14, 136).
edge(33, 42).
edge(24, 132).
edge(62, 129).
edge(45, 80).
edge(74, 144).
edge(44, 71).
edge(22, 36).
edge(67, 76).
edge(118, 146).
edge(108, 126).
edge(31, 65).
edge(112, 113).
edge(14, 124).
edge(11, 109).
edge(112, 117).
edge(26, 39).
edge(72, 112).
edge(9, 141).
edge(90, 153).
edge(43, 68).
edge(20, 52).
edge(12, 135).
edge(49, 122).
edge(63, 89).
edge(35, 67).
edge(90, 111).
edge(9, 144).
edge(17, 90).
edge(76, 100).
edge(147, 152).
edge(58, 78).
edge(43, 54).
edge(79, 127).
edge(50, 92).
edge(135, 150).
edge(33, 155).
edge(47, 84).
edge(87, 152).
edge(12, 34).
edge(4, 107).
edge(3, 114).
edge(73, 133).
edge(107, 149).
edge(104, 133).
edge(16, 22).
edge(28, 145).
edge(29, 130).
edge(108, 130).
edge(52, 149).
edge(96, 100).
edge(79, 151).
edge(7, 94).
edge(113, 151).
edge(5, 93).
edge(63, 122).
edge(16, 47).
edge(37, 109).
edge(99, 101).
edge(71, 141).
edge(15, 144).
edge(61, 148).
edge(29, 111).
edge(28, 125).
edge(56, 144).
edge(108, 144).
edge(8, 142).
edge(66, 99).
edge(13, 126).
edge(4, 84).
edge(18, 35).
edge(75, 146).
edge(54, 67).
edge(12, 62).
edge(9, 126).
edge(57, 122).
edge(111, 139).
edge(26, 84).
edge(9, 45).
edge(76, 122).
edge(16, 97).
edge(30, 46).
edge(75, 95).
edge(15, 143).
edge(95, 111).
edge(71, 126).
edge(12, 144).
edge(34, 47).
edge(36, 88).
edge(81, 152).
edge(113, 148).
edge(115, 142).
edge(82, 92).
edge(89, 137).
edge(41, 134).
edge(110, 141).
edge(45, 142).
edge(9, 112).
edge(89, 99).
edge(65, 139).
edge(92, 101).
edge(85, 138).
edge(16, 54).
edge(7, 80).
edge(3, 48).
edge(60, 94).
edge(112, 123).
edge(12, 107).
edge(53, 62).
edge(29, 101).
edge(71, 142).
edge(1, 10).
edge(81, 124).
edge(90, 99).
edge(2, 67).
edge(43, 114).
edge(106, 150).
edge(87, 141).
edge(14, 29).
edge(36, 79).
edge(48, 63).
edge(47, 121).
edge(91, 131).
edge(123, 150).
edge(44, 123).
edge(46, 51).
edge(21, 62).
edge(22, 56).
edge(64, 153).
edge(59, 63).
edge(49, 93).
edge(78, 117).
edge(49, 116).
edge(6, 152).
edge(55, 88).
edge(82, 130).
edge(82, 101).
edge(17, 78).
edge(19, 104).
edge(117, 121).
edge(112, 115).
edge(18, 39).
edge(69, 86).
edge(43, 139).
edge(30, 107).
edge(32, 49).
edge(62, 133).
edge(38, 112).
edge(25, 34).
edge(8, 81).
edge(1, 9).
edge(53, 132).
edge(74, 136).
edge(139, 148).
edge(63, 109).
edge(77, 107).
edge(8, 56).
edge(107, 154).
edge(85, 114).
edge(104, 127).
edge(69, 93).
edge(124, 146).
edge(72, 148).
edge(24, 92).
edge(68, 70).
edge(33, 127).
edge(64, 145).
edge(104, 148).
edge(73, 98).
edge(43, 75).
edge(68, 75).
edge(32, 80).
edge(6, 71).
edge(68, 140).
edge(49, 145).
edge(105, 147).
edge(46, 98).
edge(50, 85).
edge(8, 33).
edge(12, 46).
edge(31, 112).
edge(7, 21).
edge(5, 137).
edge(44, 83).
edge(121, 134).
edge(87, 148).
edge(66, 93).
edge(38, 151).
edge(35, 53).
edge(9, 70).
edge(26, 28).
edge(17, 83).
edge(14, 139).
edge(0, 33).
edge(2, 91).
edge(2, 44).
edge(72, 86).
edge(73, 107).
edge(122, 126).
edge(35, 143).
edge(40, 44).
edge(76, 146).
edge(8, 120).
edge(23, 97).
edge(18, 125).
edge(87, 140).
edge(105, 106).
edge(87, 108).
edge(73, 138).
edge(34, 46).
edge(18, 102).
edge(20, 50).
edge(44, 120).
edge(26, 88).
edge(91, 154).
edge(5, 21).
edge(23, 140).
edge(63, 69).
edge(82, 144).
edge(29, 134).
edge(29, 132).
edge(83, 92).
edge(115, 144).
edge(69, 83).
edge(15, 153).
edge(89, 105).
edge(35, 123).
edge(17, 55).
edge(124, 145).
edge(12, 121).
edge(88, 153).
edge(35, 121).
edge(77, 146).
edge(0, 22).
edge(42, 45).
edge(31, 133).
edge(73, 136).
edge(42, 110).
edge(68, 101).
edge(19, 29).
edge(52, 91).
edge(52, 127).
edge(49, 51).
edge(101, 154).
edge(10, 28).
edge(77, 153).
edge(33, 64).
edge(41, 97).
edge(15, 24).
edge(45, 105).
edge(3, 46).
edge(27, 49).
edge(100, 138).
edge(25, 126).
edge(11, 112).
edge(50, 129).
edge(1, 61).
edge(53, 143).
edge(55, 113).
edge(50, 103).
edge(40, 153).
edge(69, 97).
edge(14, 137).
edge(94, 98).
edge(44, 84).
edge(82, 147).
edge(56, 87).
edge(34, 88).
edge(40, 43).
edge(26, 61).
edge(25, 133).
edge(77, 78).
edge(69, 112).
edge(124, 140).
edge(42, 54).
edge(2, 116).
edge(108, 147).
edge(58, 77).
edge(72, 88).
edge(87, 101).
edge(61, 75).
edge(4, 9).
edge(115, 132).
edge(14, 121).
edge(32, 72).
edge(45, 64).
edge(20, 155).
edge(34, 70).
edge(52, 96).
edge(18, 152).
edge(68, 81).
edge(65, 88).
edge(26, 147).
edge(133, 138).
edge(2, 130).
edge(55, 90).
edge(61, 64).
edge(30, 68).
edge(75, 104).
edge(80, 138).
edge(37, 70).
edge(8, 148).
edge(18, 88).
edge(24, 89).
edge(56, 90).
edge(32, 36).
edge(16, 37).
edge(32, 46).
edge(55, 70).
edge(6, 45).
edge(53, 75).
edge(40, 68).
edge(41, 72).
edge(12, 77).
edge(16, 115).
edge(54, 80).
edge(34, 79).
edge(21, 30).
edge(31, 51).
edge(47, 62).
edge(108, 141).
edge(74, 108).
edge(68, 109).
edge(31, 127).
edge(45, 110).
edge(0, 12).
edge(50, 73).
edge(134, 145).
edge(4, 111).
edge(76, 154).
edge(12, 103).
edge(76, 96).
edge(64, 154).
edge(8, 127).
edge(13, 58).
edge(16, 36).
edge(85, 154).
edge(15, 117).
edge(22, 66).
edge(105, 122).
edge(38, 59).
edge(13, 14).
edge(17, 86).
edge(30, 34).
edge(6, 95).
edge(18, 142).
edge(23, 126).
edge(17, 39).
edge(7, 90).
edge(41, 69).
edge(77, 111).
edge(10, 102).
edge(3, 111).
edge(81, 116).
edge(22, 46).
edge(52, 69).
edge(3, 137).
edge(29, 85).
edge(31, 76).
edge(21, 94).
edge(138, 147).
edge(13, 152).
edge(46, 114).
edge(58, 115).
edge(41, 77).
edge(3, 119).
edge(12, 104).
edge(5, 152).
edge(9, 121).
edge(56, 122).
edge(30, 109).
edge(81, 140).
edge(6, 131).
edge(23, 96).
edge(77, 151).
edge(113, 116).
edge(113, 126).
edge(33, 49).
edge(70, 92).
edge(87, 144).
edge(88, 106).
edge(91, 114).
edge(88, 154).
edge(12, 97).
edge(49, 137).
edge(59, 101).
edge(35, 145).
edge(101, 123).
edge(59, 145).
edge(22, 63).
edge(101, 119).
edge(49, 77).
edge(61, 147).
edge(8, 123).
edge(104, 136).
edge(6, 44).
edge(146, 153).
edge(35, 101).
weight(0, 7).
weight(1, 7).
weight(2, 2).
weight(3, 6).
weight(4, 7).
weight(5, 7).
weight(6, 3).
weight(7, 3).
weight(8, 7).
weight(9, 4).
weight(10, 3).
weight(11, 4).
weight(12, 1).
weight(13, 5).
weight(14, 9).
weight(15, 4).
weight(16, 5).
weight(17, 1).
weight(18, 1).
weight(19, 6).
weight(20, 9).
weight(21, 3).
weight(22, 6).
weight(23, 7).
weight(24, 4).
weight(25, 1).
weight(26, 5).
weight(27, 1).
weight(28, 4).
weight(29, 3).
weight(30, 7).
weight(31, 5).
weight(32, 9).
weight(33, 4).
weight(34, 2).
weight(35, 1).
weight(36, 8).
weight(37, 5).
weight(38, 8).
weight(39, 3).
weight(40, 8).
weight(41, 5).
weight(42, 3).
weight(43, 7).
weight(44, 8).
weight(45, 3).
weight(46, 4).
weight(47, 5).
weight(48, 4).
weight(49, 4).
weight(50, 8).
weight(51, 5).
weight(52, 6).
weight(53, 7).
weight(54, 8).
weight(55, 7).
weight(56, 7).
weight(57, 3).
weight(58, 4).
weight(59, 8).
weight(60, 9).
weight(61, 3).
weight(62, 7).
weight(63, 7).
weight(64, 5).
weight(65, 1).
weight(66, 5).
weight(67, 6).
weight(68, 6).
weight(69, 8).
weight(70, 4).
weight(71, 2).
weight(72, 9).
weight(73, 7).
weight(74, 3).
weight(75, 6).
weight(76, 5).
weight(77, 1).
weight(78, 7).
weight(79, 5).
weight(80, 5).
weight(81, 2).
weight(82, 6).
weight(83, 1).
weight(84, 6).
weight(85, 2).
weight(86, 3).
weight(87, 3).
weight(88, 7).
weight(89, 5).
weight(90, 1).
weight(91, 3).
weight(92, 3).
weight(93, 8).
weight(94, 6).
weight(95, 2).
weight(96, 3).
weight(97, 9).
weight(98, 2).
weight(99, 3).
weight(100, 8).
weight(101, 7).
weight(102, 9).
weight(103, 6).
weight(104, 6).
weight(105, 6).
weight(106, 8).
weight(107, 3).
weight(108, 1).
weight(109, 9).
weight(110, 5).
weight(111, 3).
weight(112, 1).
weight(113, 3).
weight(114, 6).
weight(115, 8).
weight(116, 9).
weight(117, 6).
weight(118, 3).
weight(119, 2).
weight(120, 7).
weight(121, 7).
weight(122, 7).
weight(123, 6).
weight(124, 2).
weight(125, 2).
weight(126, 3).
weight(127, 7).
weight(128, 6).
weight(129, 3).
weight(130, 3).
weight(131, 8).
weight(132, 8).
weight(133, 8).
weight(134, 7).
weight(135, 4).
weight(136, 4).
weight(137, 5).
weight(138, 9).
weight(139, 6).
weight(140, 5).
weight(141, 9).
weight(142, 3).
weight(143, 5).
weight(144, 1).
weight(145, 7).
weight(146, 6).
weight(147, 1).
weight(148, 4).
weight(149, 4).
weight(150, 1).
weight(151, 5).
weight(152, 6).
weight(153, 2).
weight(154, 8).
weight(155, 7).
bound(77).

adj(U,V) :- edge(U,V).
adj(U,V) :- edge(V,U).
{in(V)} :- node(V).
dominated(V) :- in(V).
dominated(V) :- in(U), adj(U,V).
:- node(V), not dominated(V).
:- bound(B), #sum{W,V : in(V), weight(V,W)} > B.
:~ in(V), weight(V,W). [W@1,V]
