node(0..193).
edge(58, 142).
edge(71, 155).
edge(156, 174).
edge(80, 169).
edge(169, 185).
edge(65, 111).
edge(54, 112).
edge(102, 172).
edge(29, 139).
edge(16, 146).
edge(69, 163).
edge(46, 167).
edge(41, 44).
edge(140, 144).
edge(78, 114).
edge(24, 82).
edge(53, 92).
edge(58, 121).
edge(17, 147).
edge(113, 189).
edge(11, 190).
edge(131, 174).
edge(174, 180).
edge(111, 151).
edge(13, 168).
edge(129, 186).
edge(5, 53).
edge(51, 157).
edge(1, 14).
edge(118, 135).
edge(70, 125).
edge(71, 123).
edge(31, 167).
edge(51, 151).
edge(103, 140).
edge(18, 156).
edge(20, 142).
edge(27, 129).
edge(70, 136).
edge(77, 182).
edge(37, 157).
edge(47, 156).
edge(76, 155).
edge(11, 42).
edge(44, 88).
edge(17, 128).
edge(78, 186).
edge(38, 134).
edge(17, 28).
edge(46, 187).
edge(127, 159).
edge(23, 129).
edge(24, 34).
edge(18, 51).
edge(32, 63).
edge(25, 37).
edge(85, 114).
edge(59, 86).
edge(58, 65).
edge(71, 109).
edge(121, 124).
edge(63, 94).
edge(90, 183).
edge(53, 126).
edge(34, 80).
edge(6, 104).
edge(191, 192).
edge(14, 116).
edge(86, 170).
edge(25, 56).
edge(62, 116).
edge(14, 160).
edge(75, 87).
edge(22, 33).
edge(148, 192).
edge(44, 170).
edge(4, 54).
edge(134, 172).
edge(109, 154).
edge(47, 86).
edge(17, 49).
edge(10, 34).
edge(77, 128).
edge(79, 124).
edge(50, 168).
edge(28, 80).
edge(49, 74).
edge(27, 51).
edge(154, 193).
edge(51, 166).
edge(65, 188).
edge(19, 156).
edge(6, 182).
edge(103, 155).
edge(39, 165).
edge(48, 53).
edge(31, 131).
edge(80, 102).
edge(29, 64).
edge(117, 160).
edge(69, 111).
edge(22, 28).
edge(131, 189).
edge(77, 94).
edge(109, 117).
edge(126, 179).
edge(52, 113).
edge(9, 129).
edge(58, 100).
edge(18, 65).
edge(162, 180).
edge(96, 105).
edge(98, 177).
edge(116, 121).
edge(1, 26).
edge(81, 182).
edge(13, 164).
edge(70, 176).
edge(50, 117).
edge(1, 18).
edge(36, 160).
edge(35, 38).
edge(73, 135).
edge(61, 137).
edge(3, 87).
edge(37, 120).
edge(36, 98).
edge(4, 50).
edge(112, 190).
edge(17, 176).
edge(85, 150).
edge(17, 164).
edge(108, 119).
edge(91, 96).
edge(17, 74).
edge(2, 180).
edge(89, 107).
edge(0, 147).
edge(128, 144).
edge(112, 159).
edge(22, 113).
edge(72, 105).
edge(0, 31).
edge(17, 19).
edge(3, 163).
edge(94, 103).
edge(53, 120).
edge(39, 69).
edge(37, 92).
edge(146, 164).
edge(17, 135).
edge(7, 123).
edge(77, 141).
edge(0, 27).
edge(95, 133).
edge(40, 175).
edge(16, 98).
edge(119, 183).
edge(27, 119).
edge(69, 109).
edge(33, 119).
edge(118, 165).
edge(66, 117).
edge(135, 156).
edge(80, 153).
edge(42, 115).
edge(143, 169).
edge(104, 131).
edge(15, 71).
edge(41, 43).
edge(29, 80).
edge(79, 193).
edge(6, 13).
edge(44, 126).
edge(46, 149).
edge(20, 120).
edge(153, 167).
edge(107, 122).
edge(124, 144).
edge(58, 109).
edge(142, 148).
edge(150, 184).
edge(124, 176).
edge(7, 84).
edge(90, 177).
edge(107, 113).
edge(117, 175).
edge(2, 183).
edge(102, 170).
edge(57, 183).
edge(15, 22).
edge(7, 166).
edge(139, 152).
edge(51, 54).
edge(111, 152).
edge(81, 153).
edge(20, 152).
edge(68, 156).
edge(29, 131).
edge(0, 101).
edge(17, 138).
edge(24, 94).
edge(36, 188).
edge(102, 141).
edge(103, 170).
edge(63, 119).
edge(21, 146).
edge(181, 189).
edge(111, 184).
edge(131, 151).
edge(121, 153).
edge(97, 161).
edge(86, 175).
edge(69, 190).
edge(23, 62).
edge(85, 162).
edge(40, 101).
edge(34, 90).
edge(45, 74).
edge(169, 172).
edge(46, 48).
edge(158, 181).
edge(20, 133).
edge(101, 186).
edge(28, 89).
edge(101, 134).
edge(35, 179).
edge(149, 157).
edge(9, 130).
edge(92, 97).
edge(17, 132).
edge(66, 100).
edge(16, 26).
edge(103, 129).
edge(118, 128).
edge(92, 121).
edge(105, 183).
edge(15, 172).
edge(151, 163).
edge(39, 78).
edge(21, 36).
edge(83, 166).
edge(125, 167).
edge(42, 145).
edge(155, 172).
edge(52, 65).
edge(53, 128).
edge(78, 149).
edge(100, 168).
edge(37, 106).
edge(37, 156).
edge(84, 119).
edge(90, 184).
edge(8, 9).
edge(57, 118).
edge(15, 120).
edge(77, 149).
edge(85, 98).
edge(27, 64).
edge(127, 141).
edge(1, 159).
edge(42, 98).
edge(130, 148).
edge(7, 119).
edge(29, 133).
edge(44, 73).
edge(114, 167).
edge(91, 104).
edge(112, 169).
edge(25, 88).
edge(102, 144).
edge(105, 150).
edge(84, 169).
edge(12, 133).
edge(10, 19).
edge(114, 136).
edge(125, 156).
edge(175, 187).
edge(54, 185).
edge(138, 165).
edge(144, 146).
edge(90, 138).
edge(71, 174).
edge(30, 190).
edge(26, 177).
edge(43, 120).
edge(12, 51).
edge(49, 125).
edge(96, 138).
edge(44, 182).
edge(60, 107).
edge(43, 137).
edge(113, 114).
edge(69, 172).
edge(130, 188).
edge(40, 146).
edge(28, 115).
edge(29, 105).
edge(10, 87).
edge(21, 81).
edge(159, 160).
edge(2, 53).
edge(14, 184).
edge(88, 108).
edge(103, 124).
edge(116, 182).
edge(66, 156).
edge(19, 35).
edge(74, 81).
edge(13, 49).
edge(63, 122).
edge(26, 185).
edge(67, 127).
edge(121, 169).
edge(88, 148).
edge(55, 133).
edge(73, 183).
edge(112, 114).
edge(53, 64).
edge(9, 138).
edge(29, 166).
edge(92, 172).
edge(150, 170).
edge(102, 181).
edge(89, 188).
edge(109, 146).
edge(52, 81).
edge(86, 91).
edge(144, 186).
edge(140, 155).
edge(139, 182).
edge(109, 119).
edge(52, 182).
edge(96, 132).
edge(24, 174).
edge(93, 137).
edge(30, 164).
edge(59, 78).
edge(182, 188).
edge(31, 178).
edge(87, 148).
edge(130, 168).
edge(37, 64).
edge(54, 88).
edge(0, 116).
edge(134, 151).
edge(20, 191).
edge(0, 171).
edge(126, 163).
edge(129, 165).
edge(0, 115).
edge(78, 94).
edge(112, 155).
edge(55, 104).
edge(111, 166).
edge(115, 185).
edge(44, 52).
edge(50, 133).
edge(6, 36).
edge(29, 57).
edge(12, 79).
edge(147, 163).
edge(73, 154).
edge(36, 40).
edge(55, 180).
edge(6, 150).
edge(82, 138).
edge(3, 31).
edge(133, 175).
edge(114, 123).
edge(100, 110).
edge(34, 192).
edge(46, 146).
edge(32, 68).
edge(6, 128).
edge(55, 80).
edge(37, 118).
edge(48, 170).
edge(54, 61).
edge(17, 159).
edge(99, 149).
edge(75, 185).
edge(170, 190).
edge(8, 94).
edge(78, 133).
edge(24, 103).
edge(152, 180).
edge(174, 178).
edge(59, 77).
edge(6, 148).
edge(93, 123).
edge(98, 112).
edge(106, 167).
edge(25, 152).
edge(76, 127).
edge(116, 158).
edge(16, 25).
edge(94, 158).
edge(37, 130).
edge(19, 99).
edge(28, 42).
edge(23, 87).
edge(51, 52).
edge(38, 49).
edge(101, 190).
edge(41, 99).
edge(134, 146).
edge(130, 142).
edge(19, 43).
edge(5, 124).
edge(67, 72).
edge(87, 149).
edge(16, 66).
edge(16, 183).
edge(12, 88).
edge(58, 78).
edge(5, 135).
edge(33, 91).
edge(44, 189).
edge(128, 139).
edge(165, 180).
edge(48, 103).
edge(77, 169).
edge(105, 136).
edge(57, 94).
edge(51, 77).
edge(163, 187).
edge(159, 192).
edge(66, 108).
edge(9, 153).
edge(8, 148).
edge(128, 140).
edge(158, 162).
edge(94, 184).
edge(24, 170).
edge(58, 166).
edge(35, 125).
edge(50, 84).
edge(3, 16).
edge(80, 142).
edge(145, 175).
edge(94, 156).
edge(149, 189).
edge(2, 70).
edge(35, 52).
edge(24, 117).
edge(137, 165).
edge(21, 186).
edge(2, 122).
edge(42, 152).
edge(7, 167).
edge(100, 124).
edge(119, 157).
edge(13, 111).
edge(137, 193).
edge(20, 148).
edge(145, 166).
edge(32, 124).
edge(32, 143).
edge(19, 54).
edge(24, 65).
edge(23, 153).
edge(22, 142).
edge(145, 153).
edge(42, 170).
edge(56, 121).
edge(176, 189).
edge(78, 146).
edge(4, 173).
edge(41, 186).
edge(110, 143).
edge(60, 88).
edge(132, 141).
edge(99, 125).
edge(74, 147).
edge(31, 81).
edge(62, 132).
edge(61, 80).
edge(110, 149).
edge(40, 155).
edge(14, 73).
edge(63, 88).
edge(116, 180).
edge(52, 126).
edge(51, 135).
edge(150, 185).
edge(50, 91).
edge(69, 122).
edge(139, 157).
edge(74, 79).
edge(128, 178).
edge(15, 153).
edge(54, 173).
edge(40, 135).
edge(51, 72).
edge(53, 153).
edge(0, 126).
edge(98, 122).
edge(4, 171).
edge(20, 131).
edge(9, 97).
edge(3, 168).
edge(50, 163).
edge(89, 190).
edge(32, 185).
edge(67, 121).
edge(73, 77).
edge(56, 62).
edge(86, 141).
edge(25, 76).
edge(11, 22).
edge(10, 159).
edge(143, 168).
edge(133, 191).
edge(10, 51).
edge(40, 49).
edge(152, 173).
edge(108, 123).
edge(57, 117).
edge(166, 167).
edge(22, 163).
edge(20, 188).
edge(34, 50).
edge(62, 75).
edge(130, 155).
edge(51, 187).
edge(38, 122).
edge(7, 110).
edge(88, 159).
edge(153, 188).
edge(16, 168).
edge(130, 145).
edge(71, 118).
edge(94, 105).
edge(61, 168).
edge(34, 92).
edge(64, 93).
edge(157, 181).
edge(89, 132).
edge(2, 57).
edge(97, 102).
edge(117, 138).
edge(12, 90).
edge(135, 171).
edge(52, 54).
edge(58, 180).
edge(86, 133).
edge(102, 167).
edge(145, 169).
edge(39, 77).
edge(20, 113).
edge(8, 130).
edge(77, 170).
edge(92, 102).
edge(156, 192).
edge(82, 140).
edge(7, 101).
edge(97, 165).
edge(69, 81).
edge(0, 39).
edge(33, 69).
edge(60, 129).
edge(108, 178).
edge(21, 114).
edge(47, 97).
edge(45, 113).
edge(136, 142).
edge(74, 176).
edge(134, 159).
edge(59, 139).
edge(38, 159).
edge(92, 177).
edge(114, 189).
edge(165, 189).
edge(13, 190).
edge(121, 166).
edge(44, 62).
edge(22, 93).
edge(66, 189).
edge(122, 150).
edge(66, 188).
edge(152, 165).
edge(3, 126).
edge(115, 165).
edge(58, 59).
edge(166, 188).
edge(97, 149).
edge(57, 128).
edge(120, 167).
edge(38, 91).
edge(169, 184).
edge(150, 177).
edge(104, 137).
edge(40, 114).
edge(45, 191).
edge(151, 183).
edge(121, 186).
edge(64, 85).
edge(70, 160).
edge(161, 183).
edge(90, 114).
edge(1, 130).
edge(5, 29).
edge(158, 180).
edge(16, 113).
edge(154, 173).
edge(30, 153).
edge(69, 186).
edge(97, 108).
edge(44, 116).
edge(15, 163).
edge(49, 161).
edge(27, 128).
edge(24, 39).
edge(182, 186).
edge(64, 144).
edge(35, 185).
edge(86, 186).
edge(42, 67).
edge(3, 181).
edge(49, 144).
edge(43, 129).
edge(123, 173).
edge(124, 153).
edge(5, 98).
edge(72, 98).
edge(86, 93).
edge(141, 170).
edge(86, 112).
edge(88, 184).
edge(59, 133).
edge(22, 189).
edge(90, 176).
edge(12, 83).
edge(32, 97).
edge(112, 174).
edge(161, 178).
edge(111, 115).
edge(135, 155).
edge(43, 183).
edge(100, 153).
edge(114, 118).
edge(57, 61).
edge(23, 47).
edge(2, 118).
edge(22, 53).
edge(34, 87).
edge(113, 128).
edge(28, 81).
edge(23, 99).
edge(28, 192).
edge(8, 32).
edge(41, 174).
edge(176, 193).
edge(26, 49).
edge(84, 137).
edge(31, 134).
edge(138, 141).
edge(22, 35).
edge(173, 174).
edge(74, 159).
edge(19, 190).
edge(64, 84).
edge(74, 150).
edge(109, 134).
edge(47, 168).
edge(86, 113).
edge(137, 186).
edge(45, 140).
edge(8, 58).
edge(50, 138).
edge(33, 49).
edge(75, 176).
edge(60, 86).
edge(70, 133).
edge(39, 109).
edge(63, 154).
edge(87, 188).
edge(96, 190).
edge(37, 171).
edge(47, 184).
edge(146, 170).
edge(50, 110).
edge(56, 80).
edge(29, 74).
edge(27, 179).
edge(82, 186).
edge(7, 193).
edge(76, 147).
edge(137, 172).
edge(148, 193).
edge(71, 80).
edge(51, 186).
edge(26, 57).
edge(1, 114).
edge(127, 142).
edge(16, 152).
edge(8, 20).
edge(58, 145).
edge(155, 191).
edge(9, 183).
edge(59, 138).
edge(48, 165).
edge(161, 169).
edge(153, 179).
edge(3, 141).
edge(20, 26).
edge(11, 27).
edge(50, 191).
edge(12, 50).
edge(55, 84).
edge(147, 169).
edge(56, 184).
edge(139, 185).
edge(148, 191).
edge(70, 137).
edge(23, 26).
edge(110, 164).
edge(58, 155).
edge(65, 134).
edge(10, 73).
edge(67, 172).
edge(73, 165).
edge(12, 145).
edge(14, 105).
edge(85, 108).
edge(51, 189).
edge(49, 51).
edge(54, 104).
edge(95, 117).
edge(57, 83).
edge(61, 84).
edge(57, 172).
edge(3, 47).
edge(59, 100).
edge(44, 150).
edge(34, 140).
edge(3, 191).
edge(57, 190).
edge(95, 106).
edge(12, 96).
edge(130, 178).
edge(121, 170).
edge(33, 57).
edge(146, 166).
edge(11, 147).
edge(51, 188).
edge(105, 170).
edge(11, 17).
edge(44, 154).
edge(102, 158).
edge(71, 100).
edge(86, 121).
edge(50, 83).
edge(76, 133).
edge(8, 138).
edge(58, 191).
edge(21, 49).
edge(38, 45).
edge(33, 44).
edge(28, 99).
edge(103, 182).
edge(109, 168).
edge(2, 94).
edge(153, 190).
edge(7, 17).
edge(9, 113).
edge(38, 82).
edge(43, 86).
edge(39, 83).
edge(95, 96).
edge(146, 190).
edge(36, 39).
edge(60, 190).
edge(6, 186).
edge(33, 71).
edge(2, 139).
edge(68, 112).
edge(124, 137).
edge(73, 78).
edge(52, 93).
edge(102, 151).
edge(57, 113).
edge(170, 185).
edge(16, 135).
edge(13, 184).
edge(3, 177).
edge(59, 189).
edge(122, 176).
edge(31, 46).
edge(73, 124).
edge(70, 180).
edge(67, 116).
edge(125, 187).
edge(38, 113).
edge(58, 111).
edge(63, 159).
edge(44, 85).
edge(30, 68).
edge(75, 162).
edge(41, 42).
edge(12, 186).
edge(124, 170).
edge(69, 100).
edge(172, 190).
edge(28, 132).
edge(72, 182).
edge(65, 131).
edge(17, 80).
edge(16, 61).
edge(39, 56).
edge(124, 156).
edge(166, 174).
edge(155, 174).
edge(13, 188).
edge(54, 177).
edge(34, 46).
edge(92, 94).
edge(148, 165).
edge(14, 76).
edge(18, 33).
edge(59, 175).
edge(61, 127).
edge(1, 74).
edge(148, 154).
edge(54, 168).
edge(33, 134).
edge(26, 76).
edge(53, 169).
edge(37, 95).
edge(135, 173).
edge(97, 116).
edge(94, 141).
edge(130, 134).
edge(31, 58).
edge(48, 137).
edge(66, 93).
edge(2, 44).
edge(70, 166).
edge(84, 134).
edge(30, 88).
edge(13, 64).
edge(28, 86).
edge(57, 116).
edge(48, 66).
edge(26, 43).
edge(96, 124).
edge(32, 85).
edge(142, 167).
edge(117, 142).
edge(71, 163).
edge(126, 183).
edge(14, 193).
edge(165, 191).
edge(131, 162).
edge(150, 181).
edge(28, 44).
edge(23, 151).
edge(155, 186).
edge(70, 173).
edge(71, 153).
edge(107, 133).
edge(156, 187).
edge(142, 164).
edge(47, 169).
edge(33, 95).
edge(166, 180).
edge(73, 119).
edge(69, 180).
edge(99, 105).
edge(66, 142).
edge(76, 181).
edge(33, 182).
edge(24, 43).
edge(23, 72).
edge(170, 180).
edge(56, 178).
edge(10, 182).
edge(2, 106).
edge(24, 155).
edge(50, 123).
edge(12, 59).
edge(44, 181).
edge(146, 155).
edge(99, 145).
edge(109, 179).
edge(121, 193).
edge(29, 136).
edge(11, 143).
edge(59, 110).
edge(68, 91).
edge(98, 147).
edge(37, 191).
edge(0, 52).
edge(84, 115).
edge(57, 108).
edge(35, 57).
edge(32, 94).
edge(3, 66).
edge(66, 131).
edge(113, 158).
edge(108, 160).
edge(111, 119).
edge(156, 184).
edge(103, 187).
edge(2, 73).
edge(29, 193).
edge(19, 41).
edge(80, 186).
edge(17, 35).
edge(2, 193).
edge(149, 178).
edge(40, 192).
edge(97, 175).
edge(52, 61).
edge(36, 140).
edge(8, 120).
edge(66, 186).
edge(136, 185).
edge(180, 193).
edge(24, 182).
edge(9, 31).
edge(11, 81).
edge(11, 183).
edge(27, 106).
edge(147, 180).
edge(17, 76).
edge(93, 139).
edge(54, 77).
edge(32, 81).
edge(139, 184).
edge(0, 149).
edge(61, 149).
edge(41, 116).
edge(152, 169).
edge(55, 151).
edge(137, 161).
edge(75, 145).
edge(19, 170).
edge(157, 177).
edge(44, 59).
edge(119, 144).
edge(88, 126).
edge(110, 177).
edge(34, 125).
edge(21, 119).
edge(84, 191).
edge(62, 142).
edge(30, 156).
edge(8, 52).
edge(8, 111).
edge(94, 174).
edge(138, 152).
edge(9, 145).
edge(6, 25).
edge(96, 176).
edge(138, 186).
edge(134, 175).
edge(47, 158).
edge(109, 115).
edge(45, 136).
edge(74, 95).
edge(28, 134).
edge(6, 8).
edge(23, 105).
edge(31, 89).
edge(108, 128).
edge(129, 135).
edge(90, 134).
edge(113, 126).
edge(137, 190).
edge(80, 189).
edge(21, 181).
edge(108, 122).
edge(43, 180).
edge(102, 138).
edge(78, 160).
edge(116, 159).
edge(113, 168).
edge(152, 168).
edge(89, 162).
edge(64, 173).
edge(10, 168).
edge(47, 105).
edge(18, 160).
edge(16, 133).
edge(26, 110).
edge(21, 111).
edge(95, 173).
edge(43, 53).
edge(65, 187).
edge(53, 188).
edge(40, 151).
edge(87, 162).
edge(77, 146).
edge(15, 109).
edge(83, 137).
edge(79, 148).
edge(13, 183).
edge(92, 185).
edge(40, 67).
edge(109, 169).
edge(37, 45).
edge(85, 105).
edge(177, 192).
edge(169, 175).
edge(130, 179).
edge(156, 180).
edge(73, 132).
edge(98, 129).
edge(59, 149).
edge(65, 127).
edge(14, 170).
edge(45, 154).
edge(39, 73).
edge(22, 168).
edge(39, 91).
edge(34, 189).
edge(113, 115).
edge(133, 167).
edge(113, 141).
edge(18, 69).
edge(34, 184).
edge(53, 157).
edge(46, 139).
edge(18, 126).
edge(119, 148).
edge(42, 119).
edge(21, 191).
edge(121, 181).
edge(20, 35).
edge(73, 159).
edge(126, 140).
edge(82, 142).
edge(88, 183).
edge(1, 15).
edge(53, 144).
edge(86, 148).
edge(38, 83).
edge(79, 100).
edge(72, 190).
edge(13, 95).
edge(87, 98).
edge(6, 62).
edge(13, 122).
edge(162, 165).
edge(108, 124).
edge(72, 121).
edge(166, 177).
edge(19, 140).
edge(11, 99).
edge(12, 57).
edge(17, 40).
edge(33, 51).
edge(86, 132).
edge(137, 158).
edge(60, 96).
edge(6, 10).
edge(58, 87).
edge(58, 175).
edge(70, 192).
edge(47, 95).
edge(38, 48).
edge(36, 135).
edge(71, 145).
edge(70, 183).
edge(104, 166).
edge(162, 191).
edge(98, 175).
edge(9, 54).
edge(104, 184).
edge(10, 134).
edge(97, 192).
edge(131, 145).
edge(31, 120).
edge(7, 58).
edge(30, 58).
edge(33, 86).
edge(7, 55).
edge(19, 63).
edge(93, 107).
edge(35, 171).
edge(54, 128).
edge(71, 192).
edge(36, 125).
edge(15, 96).
edge(42, 110).
edge(0, 124).
edge(21, 102).
edge(15, 20).
edge(66, 152).
edge(76, 172).
edge(72, 152).
edge(110, 146).
edge(42, 109).
edge(45, 177).
edge(7, 71).
edge(23, 133).
edge(112, 146).
edge(27, 74).
edge(28, 34).
edge(23, 150).
edge(21, 77).
edge(4, 130).
edge(75, 77).
edge(50, 162).
edge(120, 149).
edge(97, 112).
edge(81, 163).
edge(27, 100).
edge(0, 40).
edge(95, 162).
edge(125, 161).
edge(40, 58).
edge(79, 164).
edge(134, 173).
edge(15, 60).
edge(38, 190).
edge(58, 137).
edge(54, 107).
edge(84, 179).
edge(137, 168).
edge(165, 174).
edge(60, 85).
edge(125, 149).
edge(125, 183).
edge(119, 128).
edge(123, 188).
edge(13, 61).
edge(172, 178).
edge(121, 175).
edge(130, 172).
edge(68, 76).
edge(64, 86).
edge(157, 188).
edge(81, 94).
edge(29, 60).
edge(46, 153).
edge(43, 168).
edge(16, 39).
edge(17, 123).
edge(148, 188).
edge(22, 133).
edge(83, 100).
edge(96, 129).
edge(34, 193).
edge(87, 160).
edge(126, 173).
edge(15, 26).
edge(84, 111).
edge(44, 121).
edge(129, 136).
edge(4, 186).
edge(3, 173).
edge(80, 111).
edge(77, 102).
edge(2, 11).
edge(3, 119).
edge(44, 98).
edge(121, 187).
edge(98, 126).
edge(58, 149).
edge(56, 153).
edge(130, 165).
edge(68, 83).
edge(11, 180).
edge(39, 124).
edge(26, 153).
edge(89, 191).
edge(3, 157).
edge(87, 151).
edge(5, 139).
edge(65, 92).
edge(6, 144).
edge(112, 124).
edge(37, 91).
edge(81, 92).
edge(11, 163).
edge(104, 117).
edge(4, 174).
edge(42, 174).
edge(76, 121).
edge(22, 148).
edge(112, 166).
edge(86, 130).
edge(91, 95).
edge(135, 137).
edge(12, 156).
edge(43, 161).
edge(157, 185).
edge(164, 171).
edge(58, 163).
edge(185, 190).
edge(113, 131).
edge(134, 139).
edge(74, 134).
edge(103, 166).
edge(42, 132).
edge(39, 113).
edge(41, 85).
edge(140, 173).
edge(125, 128).
edge(30, 89).
edge(61, 68).
edge(28, 38).
edge(89, 126).
edge(90, 105).
edge(12, 99).
edge(63, 140).
edge(117, 168).
edge(65, 98).
edge(149, 169).
edge(119, 145).
edge(114, 117).
edge(119, 121).
edge(7, 158).
edge(81, 108).
edge(4, 98).
edge(59, 66).
edge(84, 182).
edge(65, 82).
edge(60, 87).
edge(59, 144).
edge(15, 189).
edge(43, 92).
edge(133, 155).
edge(79, 102).
edge(101, 151).
edge(3, 88).
edge(56, 107).
edge(127, 155).
edge(10, 97).
edge(89, 100).
edge(104, 168).
edge(140, 185).
edge(12, 112).
edge(124, 163).
edge(56, 177).
edge(47, 133).
edge(96, 187).
edge(92, 178).
edge(137, 166).
edge(153, 154).
edge(35, 151).
edge(28, 156).
edge(13, 43).
edge(130, 184).
edge(1, 23).
edge(102, 178).
edge(18, 124).
edge(84, 129).
edge(103, 150).
edge(113, 156).
edge(69, 175).
edge(64, 168).
edge(145, 148).
edge(177, 186).
edge(9, 16).
edge(5, 79).
edge(111, 120).
edge(48, 110).
edge(24, 127).
edge(105, 169).
edge(116, 173).
edge(16, 77).
edge(74, 92).
edge(21, 144).
edge(22, 169).
edge(60, 71).
edge(1, 25).
edge(82, 88).
edge(8, 165).
edge(43, 122).
edge(3, 7).
edge(100, 129).
edge(39, 71).
edge(84, 156).
edge(100, 192).
edge(89, 97).
edge(37, 174).
edge(55, 153).
edge(22, 170).
edge(185, 186).
edge(121, 192).
edge(48, 75).
edge(46, 117).
edge(3, 74).
edge(95, 109).
edge(77, 161).
edge(11, 161).
edge(32, 141).
edge(44, 113).
edge(52, 87).
edge(13, 42).
edge(14, 127).
edge(92, 141).
edge(84, 130).
edge(6, 121).
edge(37, 181).
edge(58, 151).
edge(91, 101).
edge(55, 82).
edge(54, 59).
edge(11, 178).
edge(27, 174).
edge(24, 105).
edge(55, 65).
edge(2, 102).
edge(40, 85).
edge(53, 148).
edge(14, 117).
edge(7, 153).
edge(98, 114).
edge(81, 100).
edge(117, 151).
edge(11, 164).
edge(80, 157).
edge(148, 160).
edge(31, 186).
edge(65, 148).
edge(43, 48).
edge(114, 172).
edge(20, 24).
edge(45, 54).
edge(30, 61).
edge(12, 193).
edge(79, 103).
edge(65, 145).
edge(47, 126).
edge(98, 125).
edge(71, 139).
edge(22, 92).
edge(65, 105).
edge(102, 149).
edge(76, 158).
edge(170, 187).
edge(74, 102).
edge(22, 117).
edge(136, 169).
edge(87, 118).
edge(46, 171).
edge(166, 175).
edge(91, 98).
edge(131, 169).
edge(11, 173).
edge(81, 171).
edge(181, 185).
edge(105, 166).
edge(47, 129).
edge(130, 189).
edge(25, 39).
edge(46, 170).
edge(67, 69).
edge(20, 172).
edge(25, 79).
edge(67, 153).
edge(124, 147).
edge(55, 140).
edge(26, 129).
edge(34, 81).
edge(58, 181).
edge(127, 179).
edge(0, 180).
edge(38, 93).
edge(98, 101).
edge(67, 107).
edge(46, 111).
edge(6, 98).
edge(11, 96).
edge(52, 60).
edge(144, 153).
edge(140, 165).
edge(105, 159).
edge(28, 118).
edge(129, 175).
edge(40, 74).
edge(26, 81).
edge(64, 178).
edge(60, 133).
edge(176, 185).
edge(3, 62).
edge(6, 160).
edge(69, 146).
edge(27, 79).
edge(8, 27).
edge(110, 155).
edge(42, 63).
edge(85, 124).
edge(18, 119).
edge(11, 137).
edge(51, 103).
edge(158, 178).
edge(40, 158).
edge(46, 178).
edge(61, 136).
edge(59, 114).
edge(40, 115).
edge(64, 98).
edge(9, 172).
edge(34, 95).
edge(11, 40).
edge(20, 85).
edge(77, 132).
edge(15, 59).
edge(120, 146).
edge(5, 155).
edge(0, 69).
edge(11, 70).
edge(114, 193).
edge(38, 128).
edge(41, 181).
edge(147, 162).
edge(160, 161).
edge(23, 118).
edge(43, 177).
edge(133, 169).
edge(116, 118).
edge(80, 166).
edge(152, 175).
edge(23, 66).
edge(14, 166).
edge(6, 85).
edge(5, 26).
edge(25, 41).
edge(13, 62).
edge(127, 184).
edge(39, 65).
edge(106, 173).
edge(85, 172).
edge(172, 184).
edge(75, 192).
edge(11, 46).
edge(101, 180).
edge(36, 113).
edge(77, 143).
edge(26, 85).
edge(160, 192).
edge(25, 52).
edge(50, 78).
edge(146, 178).
edge(21, 165).
edge(1, 176).
edge(1, 144).
edge(32, 96).
edge(30, 57).
edge(117, 181).
edge(64, 112).
edge(151, 174).
edge(102, 186).
edge(47, 187).
edge(17, 172).
edge(25, 87).
edge(22, 25).
edge(173, 177).
edge(14, 132).
edge(26, 119).
edge(23, 114).
edge(30, 155).
edge(79, 184).
edge(90, 156).
edge(126, 133).
edge(8, 29).
edge(20, 93).
edge(2, 173).
edge(14, 138).
edge(108, 181).
edge(10, 124).
edge(171, 174).
edge(5, 9).
edge(86, 154).
edge(103, 145).
edge(26, 109).
edge(115, 181).
edge(12, 13).
edge(43, 141).
edge(3, 93).
edge(18, 152).
edge(99, 113).
edge(31, 65).
edge(179, 190).
edge(14, 52).
edge(12, 76).
edge(65, 185).
edge(147, 172).
edge(74, 94).
edge(83, 90).
edge(97, 185).
edge(25, 29).
edge(107, 173).
edge(99, 135).
edge(164, 168).
edge(34, 149).
edge(71, 135).
edge(77, 103).
edge(61, 132).
edge(88, 124).
edge(11, 171).
edge(9, 40).
edge(48, 72).
edge(138, 142).
edge(124, 171).
edge(29, 87).
edge(56, 83).
edge(90, 122).
edge(4, 81).
edge(80, 174).
edge(1, 169).
edge(105, 134).
edge(24, 175).
edge(9, 111).
edge(36, 153).
edge(80, 173).
edge(13, 15).
edge(16, 20).
edge(136, 173).
edge(106, 135).
edge(117, 163).
edge(7, 27).
edge(98, 186).
edge(81, 134).
edge(4, 157).
edge(70, 159).
edge(0, 150).
edge(77, 116).
edge(99, 118).
edge(2, 116).
edge(44, 162).
edge(80, 134).
edge(30, 192).
edge(2, 89).
edge(68, 77).
edge(49, 120).
edge(91, 137).
edge(6, 76).
edge(15, 143).
edge(98, 113).
edge(8, 14).
edge(111, 169).
edge(34, 152).
edge(10, 187).
edge(76, 115).
edge(66, 75).
edge(85, 187).
edge(26, 117).
edge(22, 166).
edge(136, 148).
edge(51, 117).
edge(126, 176).
edge(8, 76).
edge(72, 76).
edge(101, 188).
edge(117, 145).
edge(19, 132).
edge(38, 158).
edge(83, 131).
edge(30, 50).
edge(151, 171).
edge(149, 183).
edge(34, 188).
edge(128, 147).
edge(10, 151).
edge(108, 121).
edge(4, 78).
edge(48, 76).
edge(92, 118).
edge(91, 128).
edge(67, 124).
edge(43, 191).
edge(67, 159).
edge(115, 163).
edge(111, 122).
edge(116, 131).
edge(10, 107).
edge(92, 184).
edge(69, 102).
edge(50, 99).
edge(67, 123).
edge(92, 114).
edge(26, 147).
edge(52, 119).
edge(30, 136).
edge(55, 113).
edge(100, 156).
edge(135, 142).
edge(58, 118).
edge(85, 183).
edge(122, 126).
edge(49, 153).
edge(10, 190).
edge(6, 151).
edge(36, 154).
edge(39, 190).
edge(57, 193).
edge(127, 150).
edge(27, 184).
edge(28, 46).
edge(9, 133).
edge(53, 86).
edge(5, 177).
edge(42, 52).
edge(45, 56).
edge(26, 111).
edge(188, 189).
edge(61, 97).
edge(17, 43).
edge(43, 110).
edge(68, 121).
edge(18, 36).
edge(11, 38).
edge(67, 141).
edge(98, 170).
edge(59, 122).
edge(130, 190).
edge(15, 114).
edge(38, 116).
edge(54, 55).
edge(112, 128).
edge(9, 84).
edge(89, 110).
edge(60, 124).
edge(64, 152).
edge(40, 70).
edge(88, 129).
edge(26, 143).
edge(151, 166).
edge(82, 106).
edge(16, 149).
edge(77, 138).
edge(173, 185).
edge(37, 107).
edge(87, 163).
edge(172, 174).
edge(14, 33).
edge(33, 142).
edge(72, 154).
edge(117, 193).
edge(110, 174).
edge(37, 182).
edge(60, 154).
edge(116, 156).
edge(144, 147).
edge(10, 127).
edge(3, 29).
edge(97, 136).
edge(151, 193).
edge(18, 108).
edge(10, 91).
edge(177, 187).
edge(128, 189).
edge(16, 156).
edge(113, 144).
edge(2, 126).
edge(32, 55).
edge(67, 71).
edge(35, 47).
edge(54, 137).
edge(16, 73).
edge(54, 134).
edge(117, 121).
edge(6, 11).
edge(9, 179).
edge(183, 185).
edge(41, 48).
edge(65, 110).
edge(95, 185).
edge(22, 175).
edge(107, 138).
edge(5, 84).
edge(111, 177).
edge(105, 189).
edge(0, 43).
edge(64, 88).
edge(78, 174).
edge(49, 169).
edge(82, 139).
edge(12, 166).
edge(12, 115).
edge(7, 40).
edge(66, 171).
edge(37, 62).
edge(173, 184).
edge(12, 185).
edge(68, 149).
edge(55, 122).
edge(59, 79).
edge(134, 181).
edge(32, 173).
edge(65, 74).
edge(13, 29).
edge(97, 190).
edge(0, 156).
edge(83, 190).
edge(29, 190).
edge(46, 141).
edge(31, 146).
edge(7, 165).
edge(18, 106).
edge(34, 83).
edge(132, 135).
edge(24, 102).
edge(106, 163).
edge(182, 193).
edge(45, 68).
edge(65, 183).
edge(19, 109).
edge(48, 185).
edge(92, 154).
edge(15, 63).
edge(111, 121).
edge(88, 168).
edge(27, 101).
edge(1, 97).
edge(78, 143).
edge(9, 22).
edge(47, 68).
edge(174, 182).
edge(139, 175).
edge(74, 121).
edge(98, 131).
edge(145, 181).
edge(78, 89).
edge(78, 191).
edge(51, 176).
edge(30, 71).
edge(170, 173).
edge(11, 177).
edge(107, 152).
edge(34, 157).
edge(29, 86).
edge(131, 193).
edge(3, 25).
edge(75, 158).
edge(49, 102).
edge(17, 30).
edge(32, 50).
edge(9, 180).
edge(156, 188).
edge(67, 113).
edge(161, 190).
edge(0, 74).
edge(101, 106).
edge(30, 117).
edge(22, 61).
edge(145, 168).
edge(65, 153).
edge(107, 174).
edge(16, 119).
edge(49, 175).
edge(167, 181).
edge(77, 117).
edge(74, 189).
edge(6, 48).
edge(134, 169).
edge(30, 79).
edge(170, 191).
edge(140, 149).
edge(87, 101).
edge(66, 92).
edge(102, 124).
edge(20, 154).
edge(44, 53).
edge(37, 101).
edge(82, 189).
edge(28, 69).
edge(33, 80).
edge(2, 69).
edge(37, 70).
edge(114, 158).
edge(20, 122).
edge(92, 112).
edge(104, 108).
edge(10, 111).
edge(33, 40).
edge(0, 18).
edge(37, 183).
edge(41, 74).
edge(26, 165).
edge(43, 85).
edge(43, 123).
edge(101, 169).
edge(118, 179).
edge(2, 30).
edge(89, 113).
edge(36, 63).
edge(116, 168).
edge(41, 79).
edge(54, 75).
edge(56, 133).
edge(70, 89).
edge(47, 164).
edge(163, 190).
edge(120, 174).
edge(29, 154).
edge(68, 82).
edge(113, 185).
edge(31, 109).
edge(47, 63).
edge(96, 136).
edge(11, 123).
edge(21, 69).
edge(42, 135).
edge(85, 142).
edge(90, 143).
edge(71, 129).
edge(125, 192).
edge(95, 189).
edge(43, 119).
edge(134, 170).
edge(93, 152).
edge(26, 163).
edge(20, 89).
edge(87, 185).
edge(130, 137).
edge(11, 166).
edge(17, 183).
edge(31, 66).
edge(10, 24).
edge(3, 129).
edge(114, 128).
edge(30, 66).
edge(169, 183).
edge(28, 160).
edge(94, 165).
edge(2, 55).
edge(49, 78).
edge(84, 173).
edge(113, 182).
edge(59, 136).
edge(17, 125).
edge(2, 110).
edge(40, 52).
edge(86, 191).
edge(83, 151).
edge(62, 169).
edge(67, 126).
edge(102, 103).
edge(68, 101).
edge(84, 135).
edge(93, 145).
edge(99, 191).
edge(67, 90).
edge(25, 69).
edge(86, 110).
edge(150, 182).
edge(29, 104).
edge(142, 146).
edge(89, 119).
edge(9, 61).
edge(43, 175).
edge(141, 185).
edge(20, 186).
edge(5, 52).
edge(38, 70).
edge(35, 85).
edge(50, 80).
edge(7, 138).
edge(11, 133).
edge(40, 186).
edge(35, 137).
edge(16, 80).
edge(73, 187).
edge(79, 178).
edge(57, 125).
edge(96, 109).
edge(81, 154).
edge(11, 135).
edge(95, 115).
edge(134, 143).
edge(8, 187).
edge(14, 30).
edge(145, 149).
edge(150, 159).
edge(41, 172).
edge(102, 113).
edge(19, 84).
edge(118, 123).
edge(59, 99).
edge(14, 23).
edge(30, 108).
edge(19, 149).
edge(151, 157).
edge(29, 111).
edge(88, 89).
edge(113, 145).
edge(104, 106).
edge(121, 148).
edge(108, 171).
edge(27, 84).
edge(31, 70).
edge(107, 180).
edge(138, 163).
edge(13, 109).
edge(140, 179).
edge(60, 123).
edge(1, 134).
edge(26, 108).
edge(40, 170).
edge(78, 157).
edge(43, 166).
edge(20, 31).
edge(89, 158).
edge(111, 170).
edge(60, 151).
edge(32, 78).
edge(28, 103).
edge(24, 55).
edge(117, 141).
edge(59, 132).
edge(67, 192).
edge(70, 97).
edge(11, 68).
edge(80, 185).
edge(23, 186).
edge(29, 34).
edge(54, 167).
edge(119, 187).
edge(43, 82).
edge(106, 153).
edge(56, 160).
edge(152, 191).
edge(93, 172).
edge(57, 176).
edge(8, 31).
edge(100, 140).
edge(167, 187).
edge(20, 84).
edge(145, 192).
edge(128, 167).
edge(81, 142).
edge(0, 183).
edge(2, 138).
edge(13, 75).
edge(34, 127).
edge(40, 143).
edge(55, 138).
edge(16, 68).
edge(81, 147).
edge(57, 175).
edge(28, 101).
edge(80, 89).
edge(96, 133).
edge(34, 89).
edge(51, 160).
edge(44, 140).
edge(146, 174).
edge(101, 111).
edge(138, 177).
edge(4, 112).
edge(61, 140).
edge(143, 188).
edge(167, 173).
edge(15, 101).
edge(139, 140).
edge(16, 55).
edge(9, 25).
edge(42, 126).
edge(49, 148).
edge(87, 175).
edge(25, 53).
edge(122, 161).
edge(28, 71).
edge(53, 60).
edge(56, 79).
edge(113, 150).
edge(54, 58).
edge(113, 183).
edge(95, 136).
edge(64, 141).
edge(25, 189).
edge(30, 84).
edge(92, 115).
edge(50, 73).
edge(130, 191).
edge(31, 48).
edge(35, 144).
edge(148, 190).
edge(18, 94).
edge(123, 132).
edge(184, 189).
edge(102, 147).
edge(27, 47).
edge(18, 147).
edge(22, 124).
edge(144, 150).
edge(1, 155).
edge(5, 90).
edge(97, 130).
edge(21, 178).
edge(41, 153).
edge(31, 52).
edge(1, 174).
edge(1, 129).
edge(31, 162).
edge(1, 62).
edge(49, 70).
edge(8, 30).
edge(135, 178).
edge(71, 105).
edge(22, 143).
edge(4, 51).
edge(68, 122).
edge(37, 121).
edge(45, 139).
edge(99, 139).
edge(80, 136).
edge(52, 57).
edge(41, 148).
edge(110, 179).
edge(38, 127).
edge(4, 27).
edge(42, 50).
edge(86, 100).
edge(136, 159).
edge(42, 89).
edge(75, 167).
edge(127, 188).
edge(33, 98).
edge(10, 14).
edge(52, 162).
edge(24, 79).
edge(135, 161).
edge(56, 119).
edge(45, 129).
edge(70, 86).
edge(126, 154).
edge(5, 193).
edge(53, 68).
edge(44, 176).
edge(3, 154).
edge(25, 62).
edge(115, 130).
edge(108, 191).
edge(25, 30).
edge(30, 181).
edge(93, 122).
edge(144, 183).
edge(111, 167).
edge(31, 105).
edge(170, 181).
edge(81, 102).
edge(120, 192).
edge(0, 16).
edge(21, 166).
edge(107, 148).
edge(71, 101).
edge(91, 154).
edge(38, 146).
edge(54, 143).
edge(91, 182).
edge(87, 97).
edge(49, 179).
edge(23, 187).
edge(139, 159).
edge(18, 43).
edge(48, 136).
edge(67, 179).
edge(38, 106).
edge(7, 104).
edge(40, 182).
edge(38, 117).
edge(110, 132).
edge(56, 110).
edge(69, 72).
edge(92, 163).
edge(88, 137).
edge(168, 180).
edge(99, 101).
edge(61, 124).
edge(12, 69).
edge(38, 72).
edge(88, 160).
edge(55, 184).
edge(120, 153).
edge(4, 168).
edge(20, 99).
edge(45, 176).
edge(48, 130).
edge(131, 181).
edge(41, 158).
edge(52, 98).
edge(145, 185).
edge(34, 64).
edge(57, 82).
edge(20, 56).
edge(18, 37).
edge(33, 138).
edge(98, 154).
edge(38, 46).
edge(70, 108).
edge(38, 148).
edge(29, 148).
edge(142, 192).
edge(112, 118).
edge(81, 156).
edge(27, 173).
edge(8, 135).
edge(46, 110).
edge(54, 127).
edge(77, 100).
edge(150, 176).
edge(116, 170).
edge(21, 127).
edge(78, 144).
edge(21, 130).
edge(76, 145).
edge(138, 140).
edge(49, 182).
edge(41, 46).
edge(28, 68).
edge(60, 120).
edge(16, 74).
edge(24, 96).
edge(129, 182).
edge(52, 112).
edge(8, 53).
edge(76, 129).
edge(43, 81).
edge(17, 124).
edge(50, 143).
edge(52, 157).
edge(30, 95).
edge(86, 134).
edge(0, 179).
edge(9, 32).
edge(9, 128).
edge(61, 107).
edge(15, 49).
edge(63, 171).
edge(41, 142).
edge(79, 138).
edge(15, 25).
edge(26, 100).
edge(33, 164).
edge(90, 188).
edge(90, 111).
edge(120, 144).
edge(56, 116).
edge(139, 145).
edge(25, 96).
edge(109, 141).
edge(20, 54).
edge(15, 123).
edge(31, 60).
edge(83, 113).
edge(61, 104).
edge(28, 70).
edge(15, 46).
edge(20, 94).
edge(49, 112).
edge(95, 151).
edge(45, 116).
edge(110, 186).
edge(123, 165).
edge(24, 160).
edge(115, 119).
edge(62, 166).
edge(45, 146).
edge(98, 119).
edge(102, 133).
edge(41, 121).
edge(109, 192).
edge(157, 162).
edge(103, 191).
edge(79, 136).
edge(172, 175).
edge(108, 112).
edge(147, 159).
edge(45, 135).
edge(88, 149).
edge(9, 121).
edge(15, 149).
edge(69, 168).
edge(51, 104).
edge(46, 127).
edge(23, 95).
edge(18, 99).
edge(42, 117).
edge(25, 36).
edge(106, 190).
edge(51, 81).
edge(3, 103).
edge(112, 139).
edge(5, 37).
edge(96, 149).
edge(87, 107).
edge(3, 84).
edge(92, 170).
edge(1, 29).
edge(25, 144).
edge(41, 60).
edge(58, 132).
edge(69, 97).
edge(3, 112).
edge(5, 163).
edge(40, 174).
edge(2, 190).
edge(10, 135).
edge(80, 171).
edge(39, 116).
edge(106, 150).
edge(32, 91).
edge(57, 111).
edge(71, 125).
edge(114, 129).
edge(12, 143).
edge(23, 123).
edge(6, 90).
edge(46, 147).
edge(10, 98).
edge(16, 59).
edge(22, 107).
edge(26, 90).
edge(154, 188).
edge(73, 162).
edge(50, 120).
edge(44, 156).
edge(5, 143).
edge(123, 149).
edge(56, 114).
edge(55, 139).
edge(81, 90).
edge(1, 102).
edge(0, 72).
edge(12, 15).
edge(10, 170).
edge(26, 72).
edge(126, 134).
edge(54, 73).
edge(85, 186).
edge(20, 90).
edge(81, 114).
edge(0, 178).
edge(58, 130).
edge(12, 192).
edge(4, 87).
edge(40, 93).
edge(30, 105).
edge(13, 80).
edge(34, 77).
edge(78, 162).
edge(132, 136).
edge(48, 59).
edge(14, 57).
edge(52, 84).
edge(64, 189).
edge(118, 127).
edge(49, 63).
edge(58, 156).
edge(29, 126).
edge(87, 112).
edge(49, 121).
edge(80, 158).
edge(96, 162).
edge(59, 165).
edge(41, 191).
edge(7, 178).
edge(95, 169).
edge(18, 39).
edge(83, 168).
edge(27, 36).
edge(97, 154).
edge(5, 41).
edge(58, 74).
edge(111, 124).
edge(17, 119).
edge(56, 156).
edge(28, 178).
edge(35, 76).
edge(58, 174).
edge(25, 158).
edge(54, 70).
edge(37, 172).
edge(69, 189).
edge(30, 54).
edge(72, 122).
edge(66, 137).
edge(100, 102).
edge(28, 153).
edge(62, 68).
edge(47, 185).
edge(55, 159).
edge(32, 72).
edge(150, 178).
edge(123, 186).
edge(55, 155).
edge(7, 134).
edge(56, 188).
edge(58, 157).
edge(42, 189).
edge(15, 56).
edge(62, 128).
edge(88, 147).
edge(61, 157).
edge(25, 91).
edge(150, 172).
edge(37, 73).
edge(107, 185).
edge(29, 98).
edge(153, 161).
edge(58, 133).
edge(77, 166).
edge(106, 119).
edge(9, 85).
edge(67, 173).
edge(11, 120).
edge(13, 178).
edge(101, 140).
edge(23, 100).
edge(63, 102).
edge(11, 116).
edge(48, 123).
edge(53, 123).
edge(15, 31).
edge(80, 133).
edge(42, 93).
edge(94, 179).
edge(83, 162).
edge(30, 130).
edge(58, 170).
edge(2, 108).
edge(64, 123).
edge(11, 142).
edge(63, 165).
edge(45, 95).
edge(53, 81).
edge(99, 122).
edge(77, 120).
edge(16, 56).
edge(39, 173).
edge(93, 174).
edge(41, 96).
edge(99, 128).
edge(26, 61).
edge(37, 193).
edge(170, 189).
edge(97, 173).
edge(106, 170).
edge(0, 30).
edge(36, 64).
edge(168, 178).
edge(119, 152).
edge(159, 176).
edge(3, 57).
edge(42, 77).
edge(63, 126).
edge(40, 103).
edge(19, 146).
edge(65, 115).
edge(150, 183).
edge(99, 121).
edge(4, 175).
edge(8, 150).
edge(85, 116).
edge(23, 138).
edge(14, 39).
edge(93, 134).
edge(37, 117).
edge(53, 98).
edge(61, 112).
edge(125, 147).
edge(31, 50).
edge(34, 47).
edge(8, 136).
edge(64, 101).
edge(56, 74).
edge(38, 135).
edge(3, 123).
edge(2, 149).
edge(135, 192).
edge(48, 83).
edge(28, 187).
edge(62, 133).
edge(108, 125).
edge(91, 109).
edge(105, 163).
edge(86, 166).
edge(48, 141).
edge(166, 187).
edge(9, 14).
edge(90, 182).
edge(53, 162).
edge(98, 138).
edge(17, 118).
edge(45, 170).
edge(55, 89).
edge(122, 184).
edge(48, 113).
edge(49, 152).
edge(16, 180).
edge(134, 155).
edge(31, 152).
edge(3, 15).
edge(127, 137).
edge(16, 111).
edge(15, 75).
edge(9, 18).
edge(93, 162).
edge(76, 186).
edge(9, 59).
edge(27, 63).
edge(14, 17).
edge(46, 85).
edge(116, 188).
edge(22, 55).
edge(145, 190).
edge(70, 127).
edge(128, 132).
edge(81, 170).
edge(26, 40).
edge(38, 143).
edge(76, 163).
edge(25, 170).
edge(61, 62).
edge(113, 127).
edge(49, 156).
edge(12, 65).
edge(37, 47).
edge(57, 71).
edge(75, 106).
edge(42, 75).
edge(97, 174).
edge(116, 139).
edge(11, 41).
edge(32, 73).
edge(32, 42).
edge(0, 140).
edge(149, 176).
edge(56, 71).
edge(14, 148).
edge(70, 189).
edge(67, 119).
edge(6, 110).
edge(29, 149).
edge(44, 80).
edge(43, 147).
edge(102, 139).
edge(50, 146).
edge(115, 174).
edge(56, 87).
edge(81, 150).
edge(69, 151).
edge(156, 172).
edge(75, 157).
edge(99, 131).
edge(21, 87).
edge(36, 96).
edge(75, 177).
edge(66, 122).
edge(39, 147).
edge(107, 158).
edge(30, 185).
edge(72, 99).
edge(93, 126).
edge(90, 116).
edge(70, 92).
edge(113, 191).
edge(9, 158).
edge(53, 103).
edge(4, 38).
edge(42, 160).
edge(91, 118).
edge(39, 84).
edge(46, 112).
edge(46, 151).
edge(34, 62).
edge(26, 128).
edge(42, 184).
edge(53, 181).
edge(108, 163).
edge(47, 136).
edge(64, 157).
edge(107, 117).
edge(18, 169).
edge(88, 150).
edge(9, 78).
edge(134, 141).
edge(20, 60).
edge(49, 142).
edge(161, 162).
edge(156, 173).
edge(59, 62).
edge(38, 142).
edge(37, 53).
edge(96, 115).
edge(54, 166).
edge(85, 163).
edge(24, 52).
edge(29, 138).
edge(30, 85).
edge(33, 64).
edge(86, 90).
edge(18, 50).
edge(79, 154).
edge(63, 161).
edge(79, 82).
edge(139, 178).
edge(54, 102).
edge(59, 92).
edge(105, 149).
edge(5, 6).
edge(47, 160).
edge(67, 142).
edge(93, 110).
edge(62, 129).
edge(27, 107).
edge(116, 129).
edge(79, 121).
edge(76, 89).
edge(8, 49).
edge(67, 184).
edge(82, 118).
edge(79, 123).
edge(68, 89).
edge(60, 173).
edge(29, 132).
edge(48, 154).
edge(45, 59).
edge(72, 108).
edge(0, 165).
edge(34, 111).
edge(105, 118).
edge(90, 140).
edge(60, 70).
edge(8, 71).
edge(142, 152).
edge(30, 87).
edge(67, 75).
edge(26, 187).
edge(130, 173).
edge(7, 147).
edge(75, 159).
edge(0, 148).
edge(24, 93).
edge(12, 27).
edge(63, 78).
edge(83, 170).
edge(127, 170).
edge(113, 123).
edge(2, 78).
edge(104, 190).
edge(39, 104).
edge(51, 66).
edge(14, 136).
edge(71, 121).
edge(145, 152).
edge(11, 18).
edge(26, 118).
edge(60, 76).
edge(11, 131).
edge(63, 72).
edge(61, 177).
edge(106, 126).
edge(8, 140).
edge(78, 171).
edge(60, 178).
edge(139, 154).
edge(17, 87).
edge(162, 163).
edge(63, 99).
edge(0, 54).
edge(51, 56).
edge(13, 66).
edge(75, 118).
edge(37, 87).
edge(116, 128).
edge(43, 157).
edge(118, 136).
edge(4, 117).
edge(74, 125).
edge(112, 132).
edge(97, 132).
edge(98, 127).
edge(36, 192).
edge(3, 147).
edge(88, 190).
edge(163, 172).
edge(106, 189).
edge(106, 114).
edge(17, 93).
edge(8, 23).
edge(143, 156).
edge(9, 12).
edge(94, 101).
edge(77, 89).
edge(112, 192).
edge(64, 170).
edge(45, 155).
edge(123, 187).
edge(59, 151).
edge(13, 117).
edge(4, 40).
edge(29, 92).
edge(21, 175).
edge(119, 178).
edge(8, 59).
edge(37, 152).
edge(141, 188).
edge(17, 179).
edge(17, 162).
edge(80, 168).
edge(113, 125).
edge(2, 182).
edge(128, 179).
edge(13, 53).
edge(25, 110).
edge(53, 129).
edge(104, 156).
edge(4, 30).
edge(61, 67).
edge(62, 139).
edge(57, 75).
edge(98, 159).
edge(21, 74).
edge(83, 92).
edge(155, 168).
edge(1, 95).
edge(25, 74).
edge(96, 118).
edge(95, 138).
edge(25, 169).
edge(45, 152).
edge(67, 104).
edge(7, 174).
edge(163, 191).
edge(49, 53).
edge(129, 190).
edge(59, 121).
edge(90, 173).
edge(24, 168).
edge(63, 132).
edge(98, 111).
edge(84, 148).
edge(10, 155).
edge(32, 127).
edge(44, 56).
edge(123, 179).
edge(20, 50).
edge(129, 192).
edge(151, 158).
edge(80, 181).
edge(90, 159).
edge(44, 128).
edge(55, 182).
edge(34, 63).
edge(103, 183).
edge(136, 153).
edge(71, 138).
edge(65, 70).
edge(6, 65).
edge(72, 163).
edge(47, 102).
edge(52, 156).
edge(111, 180).
edge(56, 192).
edge(46, 174).
edge(4, 122).
edge(2, 153).
edge(109, 153).
edge(29, 125).
edge(29, 181).
edge(3, 127).
edge(1, 156).
edge(0, 83).
edge(133, 189).
edge(18, 155).
edge(21, 112).
edge(83, 98).
edge(91, 157).
edge(0, 25).
edge(128, 183).
edge(63, 117).
edge(66, 98).
edge(88, 171).
edge(7, 189).
edge(154, 159).
edge(73, 149).
edge(108, 157).
edge(113, 154).
edge(105, 188).
edge(86, 164).
edge(6, 94).
edge(67, 146).
edge(44, 180).
edge(74, 86).
edge(42, 183).
edge(57, 97).
edge(143, 192).
edge(83, 134).
edge(0, 145).
edge(136, 147).
edge(43, 60).
edge(94, 152).
edge(81, 172).
edge(105, 130).
edge(43, 62).
edge(6, 93).
edge(113, 181).
edge(95, 104).
edge(21, 34).
edge(102, 163).
edge(19, 148).
edge(48, 128).
edge(42, 193).
edge(36, 56).
edge(63, 152).
edge(46, 181).
edge(17, 130).
edge(6, 137).
edge(52, 174).
edge(37, 127).
edge(65, 95).
edge(37, 98).
edge(80, 165).
edge(35, 51).
edge(118, 169).
edge(52, 158).
edge(102, 111).
edge(72, 180).
edge(146, 172).
edge(110, 157).
edge(12, 153).
edge(73, 130).
edge(61, 78).
edge(33, 79).
edge(38, 156).
edge(7, 144).
edge(11, 174).
edge(9, 137).
edge(98, 172).
edge(125, 163).
edge(115, 134).
edge(74, 123).
edge(78, 154).
edge(118, 141).
edge(67, 178).
edge(101, 141).
edge(104, 149).
edge(44, 167).
edge(59, 64).
edge(104, 109).
edge(136, 144).
edge(71, 92).
edge(94, 114).
edge(57, 73).
edge(50, 88).
edge(50, 101).
edge(33, 160).
edge(51, 114).
edge(5, 145).
edge(95, 146).
edge(83, 144).
edge(170, 184).
edge(115, 155).
edge(13, 143).
edge(59, 83).
edge(132, 171).
edge(3, 138).
edge(116, 161).
edge(53, 73).
edge(155, 183).
edge(100, 180).
edge(126, 128).
edge(137, 149).
edge(51, 150).
edge(51, 97).
edge(32, 138).
edge(143, 153).
edge(99, 167).
edge(0, 86).
edge(64, 191).
edge(67, 152).
edge(48, 112).
edge(10, 162).
edge(154, 161).
edge(137, 178).
edge(52, 137).
edge(9, 83).
edge(63, 137).
edge(52, 100).
edge(117, 191).
edge(148, 157).
edge(21, 45).
edge(105, 122).
edge(24, 97).
edge(49, 118).
edge(129, 134).
edge(80, 113).
edge(23, 94).
edge(19, 178).
edge(9, 94).
edge(30, 93).
edge(69, 115).
edge(19, 57).
edge(117, 146).
edge(121, 141).
edge(67, 102).
edge(79, 118).
edge(17, 41).
edge(63, 67).
edge(32, 57).
edge(36, 186).
edge(33, 59).
edge(118, 189).
edge(47, 87).
edge(21, 88).
edge(96, 120).
edge(171, 179).
edge(137, 171).
edge(97, 153).
edge(155, 158).
edge(88, 92).
edge(30, 149).
edge(166, 176).
edge(19, 187).
edge(93, 147).
edge(12, 164).
edge(46, 177).
edge(127, 154).
edge(29, 180).
edge(14, 158).
edge(150, 189).
edge(17, 92).
edge(52, 128).
edge(20, 41).
edge(27, 130).
edge(15, 144).
edge(50, 186).
edge(20, 92).
edge(100, 151).
edge(55, 162).
edge(124, 183).
edge(107, 146).
edge(52, 115).
edge(81, 179).
edge(68, 162).
edge(154, 165).
edge(36, 122).
edge(45, 61).
edge(20, 49).
edge(35, 97).
edge(44, 71).
edge(41, 73).
edge(11, 89).
edge(4, 118).
edge(157, 179).
edge(102, 187).
edge(57, 89).
edge(97, 131).
edge(39, 57).
edge(78, 92).
edge(47, 67).
edge(12, 78).
edge(123, 167).
edge(77, 122).
edge(154, 172).
edge(6, 58).
edge(47, 77).
edge(32, 175).
edge(109, 120).
edge(38, 164).
edge(87, 119).
edge(148, 186).
edge(20, 127).
edge(90, 166).
edge(45, 148).
edge(23, 140).
edge(83, 96).
edge(97, 129).
edge(54, 64).
edge(67, 177).
edge(91, 168).
edge(114, 174).
edge(15, 91).
edge(24, 153).
edge(79, 144).
edge(108, 179).
edge(80, 123).
edge(42, 148).
edge(75, 147).
edge(31, 123).
edge(26, 60).
edge(51, 80).
edge(30, 131).
edge(66, 74).
edge(4, 179).
edge(38, 111).
edge(16, 43).
edge(180, 191).
edge(8, 95).
edge(40, 57).
edge(33, 94).
edge(118, 167).
edge(105, 167).
edge(84, 86).
edge(53, 186).
edge(32, 69).
edge(61, 66).
edge(41, 90).
edge(72, 193).
edge(52, 127).
edge(65, 160).
edge(56, 95).
edge(37, 71).
edge(89, 183).
edge(31, 132).
edge(67, 70).
edge(30, 143).
edge(160, 172).
edge(2, 178).
edge(157, 165).
edge(11, 152).
edge(63, 149).
edge(0, 94).
edge(35, 141).
edge(129, 144).
edge(34, 143).
edge(43, 107).
edge(70, 139).
edge(75, 120).
edge(107, 166).
edge(65, 189).
edge(1, 83).
edge(3, 70).
edge(15, 112).
edge(7, 124).
edge(45, 83).
edge(40, 180).
edge(68, 144).
edge(76, 166).
edge(156, 165).
edge(100, 115).
edge(20, 125).
edge(44, 65).
edge(23, 165).
edge(100, 107).
edge(91, 166).
edge(8, 97).
edge(75, 117).
edge(98, 150).
edge(26, 89).
edge(5, 173).
edge(91, 132).
edge(34, 106).
edge(89, 130).
edge(52, 90).
edge(82, 185).
edge(44, 179).
edge(70, 91).
edge(7, 19).
edge(2, 159).
edge(89, 181).
edge(52, 103).
edge(64, 172).
edge(59, 94).
edge(2, 18).
edge(39, 108).
edge(4, 99).
edge(92, 96).
edge(31, 43).
edge(52, 69).
edge(31, 149).
edge(135, 180).
edge(18, 40).
edge(101, 144).
edge(105, 116).
edge(67, 180).
edge(141, 166).
edge(24, 70).
edge(123, 184).
edge(61, 187).
edge(49, 94).
edge(89, 129).
edge(46, 96).
edge(156, 191).
edge(43, 103).
edge(61, 71).
edge(116, 166).
edge(18, 31).
edge(4, 176).
edge(62, 87).
edge(93, 130).
edge(141, 169).
edge(122, 170).
edge(6, 83).
edge(0, 82).
edge(4, 177).
edge(60, 82).
edge(2, 184).
edge(36, 95).
edge(5, 34).
edge(72, 178).
edge(75, 182).
edge(42, 90).
edge(14, 181).
edge(99, 185).
edge(98, 179).
edge(33, 153).
edge(37, 79).
edge(28, 164).
edge(71, 83).
edge(48, 161).
edge(42, 171).
edge(62, 71).
edge(141, 142).
edge(43, 106).
edge(61, 65).
edge(146, 165).
edge(11, 37).
edge(73, 114).
edge(57, 120).
edge(29, 39).
edge(50, 103).
edge(35, 152).
edge(8, 17).
edge(127, 185).
edge(107, 135).
edge(6, 55).
edge(55, 174).
edge(5, 110).
edge(129, 189).
edge(57, 164).
edge(19, 65).
edge(27, 45).
edge(38, 63).
edge(85, 169).
edge(32, 51).
edge(90, 97).
edge(21, 46).
edge(47, 120).
edge(142, 168).
edge(120, 128).
edge(26, 172).
edge(163, 168).
edge(24, 116).
edge(151, 161).
edge(89, 182).
edge(46, 69).
edge(85, 119).
edge(94, 106).
edge(77, 184).
edge(63, 170).
edge(145, 156).
edge(19, 44).
edge(76, 174).
edge(27, 155).
edge(110, 138).
edge(75, 175).
edge(60, 62).
edge(67, 86).
edge(85, 184).
edge(85, 89).
edge(149, 161).
edge(46, 84).
edge(125, 155).
edge(2, 21).
edge(140, 190).
edge(76, 118).
edge(133, 137).
edge(13, 105).
edge(89, 164).
edge(68, 117).
edge(101, 115).
edge(149, 174).
edge(145, 183).
edge(113, 161).
edge(118, 139).
edge(21, 70).
edge(35, 123).
edge(55, 108).
edge(24, 173).
edge(111, 173).
edge(51, 65).
edge(118, 120).
edge(18, 103).
edge(72, 164).
edge(106, 188).
edge(66, 99).
edge(68, 168).
edge(104, 192).
edge(35, 135).
edge(117, 133).
edge(78, 122).
edge(70, 185).
edge(144, 156).
edge(26, 142).
edge(4, 37).
edge(98, 105).
edge(26, 191).
edge(13, 32).
edge(2, 168).
edge(84, 87).
edge(129, 188).
edge(60, 113).
edge(7, 77).
edge(6, 119).
edge(72, 146).
edge(78, 115).
edge(124, 127).
edge(8, 190).
edge(61, 101).
edge(13, 123).
edge(16, 35).
edge(58, 192).
edge(67, 80).
edge(97, 150).
edge(116, 171).
edge(96, 158).
edge(8, 134).
edge(4, 75).
edge(44, 76).
edge(96, 159).
edge(110, 152).
edge(45, 159).
edge(44, 58).
edge(71, 170).
edge(9, 50).
edge(102, 189).
edge(54, 154).
edge(18, 146).
edge(74, 77).
edge(45, 117).
edge(3, 36).
edge(100, 189).
edge(41, 94).
edge(60, 137).
edge(111, 134).
edge(131, 152).
edge(89, 108).
edge(23, 33).
edge(68, 113).
edge(114, 149).
edge(160, 168).
edge(44, 146).
edge(44, 137).
edge(94, 180).
edge(108, 161).
edge(20, 182).
edge(170, 193).
edge(30, 97).
edge(89, 138).
edge(97, 181).
edge(133, 135).
edge(116, 119).
edge(90, 119).
edge(69, 192).
edge(61, 111).
edge(38, 153).
edge(67, 132).
edge(30, 173).
edge(79, 151).
edge(34, 154).
edge(68, 139).
edge(45, 64).
edge(116, 176).
edge(38, 162).
edge(163, 164).
edge(25, 103).
edge(57, 131).
edge(94, 131).
edge(82, 187).
edge(27, 62).
edge(18, 130).
edge(124, 138).
edge(78, 134).
edge(14, 118).
edge(96, 112).
edge(25, 90).
edge(75, 190).
edge(141, 176).
edge(19, 159).
edge(104, 115).
edge(25, 143).
edge(30, 81).
edge(1, 45).
edge(21, 93).
edge(65, 182).
edge(54, 191).
edge(151, 152).
edge(17, 192).
edge(34, 130).
edge(3, 34).
edge(10, 83).
edge(72, 173).
edge(86, 125).
edge(29, 167).
edge(69, 117).
edge(78, 183).
edge(108, 187).
edge(75, 121).
edge(29, 66).
edge(121, 158).
edge(5, 128).
edge(85, 137).
edge(101, 105).
edge(68, 152).
edge(6, 174).
edge(20, 81).
edge(81, 113).
edge(71, 111).
edge(133, 166).
edge(99, 192).
edge(52, 163).
edge(82, 109).
edge(40, 63).
edge(39, 96).
edge(48, 82).
edge(55, 178).
edge(131, 192).
edge(76, 98).
edge(31, 51).
edge(89, 143).
edge(70, 188).
edge(140, 160).
edge(13, 74).
edge(105, 157).
edge(40, 80).
edge(92, 144).
edge(5, 175).
edge(187, 192).
edge(125, 160).
edge(147, 187).
edge(87, 88).
edge(79, 169).
edge(104, 173).
edge(46, 133).
edge(68, 125).
edge(68, 160).
edge(2, 129).
edge(75, 85).
edge(95, 123).
edge(42, 190).
edge(162, 167).
edge(93, 150).
edge(18, 80).
edge(33, 165).
edge(111, 156).
edge(41, 50).
edge(41, 62).
edge(107, 189).
edge(5, 74).
edge(90, 108).
edge(148, 153).
edge(37, 190).
edge(9, 166).
edge(2, 24).
edge(89, 139).
edge(15, 183).
edge(31, 87).
edge(21, 80).
edge(33, 68).
edge(107, 157).
edge(27, 188).
edge(168, 190).
edge(84, 123).
edge(78, 125).
edge(42, 83).
edge(79, 98).
edge(163, 169).
edge(59, 73).
edge(178, 181).
edge(125, 140).
edge(40, 187).
edge(14, 72).
edge(3, 180).
edge(124, 161).
edge(0, 1).
edge(86, 89).
edge(29, 140).
edge(63, 107).
edge(18, 75).
edge(74, 141).
edge(118, 132).
edge(83, 93).
edge(69, 105).
edge(63, 182).
edge(87, 105).
edge(42, 129).
edge(21, 106).
edge(8, 86).
edge(46, 94).
edge(79, 159).
edge(51, 177).
edge(0, 152).
edge(7, 72).
edge(0, 58).
edge(25, 84).
edge(8, 93).
edge(11, 75).
edge(61, 175).
edge(128, 166).
edge(32, 45).
edge(81, 136).
edge(94, 160).
edge(29, 73).
edge(22, 150).
edge(100, 128).
edge(24, 36).
edge(103, 106).
edge(114, 132).
edge(87, 142).
edge(8, 28).
edge(108, 126).
edge(48, 159).
edge(87, 126).
edge(28, 151).
edge(30, 73).
edge(11, 187).
edge(13, 34).
edge(97, 188).
edge(26, 62).
edge(19, 157).
edge(56, 77).
edge(4, 138).
edge(99, 172).
edge(83, 84).
edge(129, 177).
edge(99, 136).
edge(97, 99).
edge(9, 52).
edge(145, 189).
edge(39, 41).
edge(84, 150).
edge(0, 139).
edge(57, 156).
edge(7, 135).
edge(101, 112).
edge(10, 44).
edge(55, 118).
edge(47, 51).
edge(18, 178).
edge(122, 133).
edge(53, 56).
edge(3, 182).
edge(84, 159).
edge(37, 102).
edge(3, 89).
edge(21, 56).
edge(68, 100).
edge(19, 20).
edge(44, 168).
edge(101, 107).
edge(98, 146).
edge(122, 152).
edge(47, 107).
edge(61, 79).
edge(139, 156).
edge(115, 175).
edge(85, 126).
edge(74, 76).
edge(64, 171).
edge(85, 165).
edge(19, 40).
edge(65, 142).
edge(15, 66).
edge(33, 60).
edge(53, 118).
edge(1, 17).
edge(98, 139).
edge(103, 178).
edge(82, 104).
edge(157, 168).
edge(132, 193).
edge(106, 177).
edge(98, 142).
edge(67, 130).
edge(8, 133).
edge(97, 113).
edge(101, 187).
edge(164, 191).
edge(142, 159).
edge(180, 184).
edge(83, 150).
edge(112, 193).
edge(27, 148).
edge(4, 35).
edge(158, 174).
edge(80, 162).
edge(165, 192).
edge(16, 161).
edge(37, 89).
edge(14, 48).
edge(3, 49).
edge(18, 175).
edge(19, 144).
edge(35, 80).
edge(84, 107).
edge(68, 175).
edge(96, 142).
edge(51, 168).
edge(64, 140).
edge(26, 34).
edge(53, 159).
edge(36, 62).
edge(54, 124).
edge(6, 64).
edge(72, 109).
edge(126, 169).
edge(106, 137).
edge(127, 152).
edge(121, 127).
edge(8, 63).
edge(28, 82).
edge(32, 107).
edge(61, 167).
edge(59, 184).
edge(46, 115).
edge(131, 165).
edge(4, 95).
edge(71, 93).
edge(83, 89).
edge(83, 161).
edge(65, 175).
edge(115, 160).
edge(186, 192).
edge(32, 154).
edge(156, 183).
edge(28, 127).
edge(106, 139).
edge(35, 182).
edge(56, 93).
edge(20, 51).
edge(21, 28).
edge(146, 183).
edge(104, 161).
edge(9, 142).
edge(8, 146).
edge(54, 179).
edge(54, 148).
edge(56, 181).
edge(41, 189).
edge(21, 89).
edge(82, 137).
edge(63, 188).
edge(7, 49).
edge(27, 120).
edge(115, 166).
edge(101, 156).
edge(67, 97).
edge(58, 139).
edge(51, 63).
edge(48, 57).
edge(0, 84).
edge(0, 169).
edge(110, 175).
edge(160, 163).
edge(12, 137).
edge(102, 171).
edge(15, 170).
edge(120, 180).
edge(125, 178).
edge(118, 150).
edge(39, 133).
edge(5, 153).
edge(61, 81).
edge(97, 158).
edge(162, 169).
edge(41, 136).
edge(25, 68).
edge(182, 191).
edge(15, 175).
edge(119, 185).
edge(80, 83).
edge(24, 156).
edge(14, 171).
edge(127, 167).
edge(164, 184).
edge(57, 121).
edge(3, 86).
edge(114, 178).
edge(94, 146).
edge(51, 74).
edge(27, 28).
edge(155, 182).
edge(20, 141).
edge(58, 167).
edge(73, 80).
edge(51, 149).
edge(26, 48).
edge(25, 188).
edge(116, 122).
edge(17, 33).
edge(77, 139).
edge(71, 157).
edge(172, 189).
edge(37, 164).
edge(61, 121).
edge(173, 180).
edge(9, 131).
edge(114, 147).
edge(28, 30).
edge(149, 171).
edge(133, 154).
edge(29, 35).
edge(45, 127).
edge(55, 63).
edge(65, 155).
edge(35, 103).
edge(9, 157).
edge(56, 176).
edge(40, 181).
edge(60, 102).
edge(18, 112).
edge(45, 90).
edge(10, 13).
edge(18, 55).
edge(91, 184).
edge(99, 169).
edge(24, 154).
edge(2, 131).
edge(3, 192).
edge(3, 37).
edge(45, 125).
edge(52, 106).
edge(4, 121).
edge(17, 27).
edge(119, 135).
edge(95, 155).
edge(20, 47).
edge(18, 138).
edge(138, 164).
edge(66, 136).
edge(91, 134).
edge(105, 126).
edge(81, 157).
edge(46, 99).
edge(135, 191).
edge(43, 173).
edge(15, 126).
edge(133, 183).
edge(18, 192).
edge(62, 136).
edge(24, 151).
edge(103, 122).
edge(90, 109).
edge(74, 113).
edge(77, 93).
edge(35, 92).
edge(25, 192).
edge(14, 24).
edge(94, 155).
edge(134, 168).
edge(25, 89).
edge(48, 157).
edge(60, 61).
edge(140, 157).
edge(56, 92).
edge(160, 179).
edge(76, 169).
edge(0, 50).
edge(42, 131).
edge(24, 158).
edge(19, 91).
edge(185, 193).
edge(0, 2).
edge(101, 153).
edge(36, 163).
edge(46, 175).
edge(132, 173).
edge(179, 192).
edge(57, 106).
edge(88, 170).
edge(4, 92).
edge(66, 154).
edge(31, 69).
edge(50, 189).
edge(24, 59).
edge(8, 89).
edge(60, 145).
edge(31, 143).
edge(105, 145).
edge(60, 72).
edge(41, 135).
edge(7, 137).
edge(176, 184).
edge(97, 144).
edge(137, 173).
edge(26, 121).
edge(3, 184).
edge(25, 46).
edge(43, 142).
edge(123, 136).
edge(174, 190).
edge(13, 85).
edge(56, 148).
edge(27, 41).
edge(74, 148).
edge(6, 123).
edge(30, 43).
edge(19, 110).
edge(79, 186).
edge(67, 101).
edge(83, 108).
edge(38, 130).
edge(12, 158).
edge(75, 173).
edge(8, 11).
edge(38, 115).
edge(35, 74).
edge(58, 168).
edge(22, 192).
edge(27, 118).
edge(77, 168).
edge(77, 101).
edge(20, 61).
edge(54, 94).
edge(14, 112).
edge(156, 164).
edge(103, 142).
edge(14, 40).
edge(131, 149).
edge(101, 168).
edge(64, 155).
edge(181, 186).
edge(38, 129).
edge(62, 67).
edge(11, 85).
edge(74, 120).
edge(12, 157).
edge(25, 101).
edge(101, 116).
edge(6, 75).
edge(11, 155).
edge(49, 59).
edge(102, 184).
edge(80, 188).
edge(83, 142).
edge(173, 193).
edge(31, 36).
edge(1, 40).
edge(39, 126).
edge(86, 183).
edge(85, 135).
edge(97, 122).
edge(70, 179).
edge(111, 160).
edge(39, 40).
edge(21, 155).
edge(15, 173).
edge(95, 112).
edge(64, 180).
edge(28, 163).
edge(118, 178).
edge(76, 128).
edge(76, 79).
edge(3, 189).
edge(105, 181).
edge(60, 189).
edge(18, 142).
edge(94, 111).
edge(85, 139).
edge(31, 136).
edge(61, 133).
edge(85, 155).
edge(52, 117).
edge(59, 108).
edge(108, 153).
edge(72, 151).
edge(28, 141).
edge(121, 155).
edge(4, 93).
edge(140, 169).
edge(86, 173).
edge(47, 165).
edge(147, 156).
edge(74, 116).
edge(22, 115).
edge(138, 148).
edge(16, 131).
edge(0, 29).
edge(43, 88).
edge(74, 160).
edge(111, 189).
edge(3, 45).
edge(28, 78).
edge(28, 138).
edge(47, 179).
edge(157, 158).
edge(137, 160).
edge(116, 193).
edge(1, 190).
edge(76, 131).
edge(59, 104).
edge(76, 77).
edge(14, 121).
edge(102, 164).
edge(10, 184).
edge(10, 121).
edge(9, 51).
edge(68, 80).
edge(123, 180).
edge(78, 165).
edge(111, 192).
edge(5, 130).
edge(4, 36).
edge(123, 153).
edge(5, 71).
edge(52, 68).
edge(41, 77).
edge(95, 144).
edge(69, 103).
edge(62, 120).
edge(56, 90).
edge(28, 55).
edge(67, 165).
edge(2, 36).
edge(32, 148).
edge(90, 185).
edge(108, 154).
edge(129, 156).
edge(4, 192).
edge(40, 53).
edge(3, 122).
edge(115, 167).
edge(31, 172).
edge(106, 182).
edge(2, 42).
edge(104, 191).
edge(58, 153).
edge(23, 164).
edge(1, 24).
edge(34, 67).
edge(86, 108).
edge(9, 115).
edge(21, 148).
edge(20, 25).
edge(111, 127).
edge(89, 160).
edge(102, 182).
edge(110, 112).
edge(89, 185).
edge(99, 138).
edge(8, 184).
edge(39, 119).
edge(79, 174).
edge(25, 131).
edge(27, 133).
edge(132, 161).
edge(0, 89).
edge(8, 167).
edge(56, 122).
edge(114, 163).
edge(107, 164).
edge(34, 164).
edge(26, 74).
edge(29, 32).
edge(61, 139).
edge(58, 122).
edge(7, 185).
edge(57, 153).
edge(2, 123).
edge(63, 116).
edge(41, 176).
edge(133, 143).
edge(70, 156).
edge(85, 87).
edge(33, 96).
edge(28, 124).
edge(17, 71).
edge(122, 128).
edge(181, 191).
edge(113, 188).
edge(5, 64).
edge(40, 173).
edge(19, 95).
edge(115, 142).
edge(52, 62).
edge(49, 133).
edge(91, 178).
edge(121, 131).
edge(33, 50).
edge(54, 96).
edge(20, 27).
edge(17, 44).
edge(63, 97).
edge(30, 51).
edge(43, 64).
edge(4, 145).
edge(119, 171).
edge(9, 91).
edge(84, 188).
edge(25, 122).
edge(65, 120).
edge(91, 126).
edge(132, 162).
edge(59, 157).
edge(60, 172).
edge(18, 135).
edge(144, 177).
edge(146, 163).
edge(40, 148).
edge(71, 149).
edge(96, 150).
edge(80, 138).
edge(27, 125).
edge(15, 188).
edge(54, 180).
edge(94, 123).
edge(59, 103).
edge(24, 28).
edge(33, 84).
edge(16, 191).
edge(84, 106).
edge(121, 157).
edge(118, 143).
edge(55, 175).
edge(53, 109).
edge(17, 81).
edge(70, 84).
edge(44, 105).
edge(6, 158).
edge(7, 16).
edge(17, 65).
edge(119, 166).
edge(84, 139).
edge(54, 125).
edge(63, 148).
edge(93, 144).
edge(84, 180).
edge(79, 147).
edge(13, 185).
edge(64, 150).
edge(35, 100).
edge(24, 150).
edge(9, 163).
edge(87, 134).
edge(167, 175).
edge(135, 147).
edge(12, 92).
edge(18, 77).
edge(83, 160).
edge(110, 160).
edge(69, 149).
edge(146, 189).
edge(28, 51).
edge(50, 149).
edge(63, 123).
edge(44, 64).
edge(33, 185).
edge(18, 42).
edge(16, 128).
edge(75, 131).
edge(5, 12).
edge(29, 183).
edge(26, 71).
edge(88, 90).
edge(143, 149).
edge(58, 161).
edge(137, 138).
edge(87, 116).
edge(35, 118).
edge(13, 120).
edge(158, 188).
edge(85, 166).
edge(34, 138).
edge(69, 179).
edge(111, 157).
edge(113, 157).
edge(91, 176).
edge(171, 183).
edge(85, 92).
edge(162, 174).
edge(93, 169).
edge(88, 141).
edge(26, 155).
edge(48, 179).
edge(122, 189).
edge(41, 123).
edge(18, 117).
edge(110, 166).
edge(24, 61).
edge(50, 70).
edge(12, 123).
edge(73, 143).
edge(36, 177).
edge(83, 143).
edge(76, 144).
edge(26, 126).
edge(41, 118).
edge(72, 130).
edge(30, 168).
edge(183, 191).
edge(26, 167).
edge(96, 102).
edge(17, 38).
edge(84, 185).
edge(83, 121).
edge(34, 38).
edge(50, 109).
edge(113, 190).
edge(84, 164).
edge(177, 180).
edge(87, 173).
edge(126, 145).
edge(31, 45).
edge(13, 152).
edge(103, 188).
edge(100, 169).
edge(66, 110).
edge(31, 90).
edge(92, 128).
edge(4, 25).
edge(28, 190).
edge(25, 47).
edge(55, 75).
edge(41, 89).
edge(119, 126).
edge(4, 178).
edge(41, 88).
edge(16, 123).
edge(25, 106).
edge(31, 114).
edge(68, 119).
edge(176, 180).
edge(69, 142).
edge(85, 121).
edge(9, 140).
edge(99, 106).
edge(60, 130).
edge(30, 34).
edge(27, 61).
edge(105, 193).
edge(21, 140).
edge(93, 173).
edge(5, 45).
edge(39, 170).
edge(53, 85).
edge(30, 76).
edge(10, 52).
edge(56, 127).
edge(173, 192).
edge(14, 108).
edge(168, 188).
edge(93, 98).
edge(40, 185).
edge(133, 163).
edge(20, 189).
edge(1, 75).
edge(32, 133).
edge(158, 193).
edge(35, 161).
edge(112, 181).
edge(42, 92).
edge(6, 19).
edge(83, 112).
edge(26, 180).
edge(1, 132).
edge(149, 177).
edge(104, 146).
edge(24, 54).
edge(5, 57).
edge(57, 188).
edge(112, 179).
edge(85, 125).
edge(0, 63).
edge(14, 135).
edge(48, 107).
edge(130, 171).
edge(4, 94).
edge(106, 162).
edge(24, 118).
edge(126, 142).
edge(76, 81).
edge(149, 152).
edge(92, 175).
edge(120, 169).
edge(13, 170).
edge(51, 127).
edge(53, 90).
edge(100, 172).
edge(19, 37).
edge(16, 63).
edge(28, 181).
edge(16, 30).
edge(10, 125).
edge(52, 97).
edge(16, 130).
edge(77, 185).
edge(150, 188).
edge(18, 170).
edge(29, 47).
edge(109, 189).
edge(68, 158).
edge(134, 150).
edge(114, 179).
edge(164, 166).
edge(9, 10).
edge(132, 150).
edge(29, 59).
edge(21, 154).
edge(35, 158).
edge(115, 122).
edge(35, 153).
edge(72, 155).
edge(43, 91).
edge(123, 175).
edge(156, 185).
edge(86, 162).
edge(151, 182).
edge(11, 159).
edge(6, 127).
edge(53, 108).
edge(141, 192).
edge(154, 190).
edge(90, 113).
edge(30, 114).
edge(3, 162).
edge(13, 69).
edge(41, 93).
edge(6, 41).
edge(20, 96).
edge(77, 114).
edge(104, 135).
edge(129, 158).
edge(9, 169).
edge(46, 52).
edge(149, 191).
edge(63, 129).
edge(83, 119).
edge(21, 120).
edge(71, 130).
edge(2, 165).
edge(51, 113).
edge(22, 125).
edge(116, 165).
edge(21, 96).
edge(78, 103).
edge(74, 172).
edge(38, 81).
edge(37, 63).
edge(116, 141).
edge(10, 183).
edge(57, 157).
edge(37, 155).
edge(45, 98).
edge(75, 144).
edge(55, 68).
edge(54, 151).
edge(29, 44).
edge(57, 72).
edge(79, 126).
edge(27, 158).
edge(4, 110).
edge(39, 179).
edge(20, 83).
edge(156, 166).
edge(25, 99).
edge(73, 153).
edge(4, 106).
edge(84, 124).
edge(64, 175).
edge(52, 171).
edge(42, 139).
edge(166, 191).
edge(8, 35).
edge(136, 157).
edge(72, 161).
edge(139, 173).
edge(36, 99).
edge(96, 137).
edge(74, 103).
edge(3, 134).
edge(122, 172).
edge(131, 180).
edge(66, 86).
edge(47, 48).
edge(32, 103).
edge(56, 146).
edge(7, 85).
edge(167, 184).
edge(42, 158).
edge(112, 171).
edge(103, 117).
edge(3, 187).
edge(109, 110).
edge(96, 179).
edge(35, 86).
edge(98, 193).
edge(10, 66).
edge(111, 112).
edge(64, 109).
edge(42, 182).
edge(23, 56).
edge(101, 191).
edge(132, 138).
edge(79, 191).
edge(10, 41).
edge(97, 193).
edge(120, 186).
edge(145, 155).
edge(68, 163).
edge(72, 145).
edge(64, 73).
edge(39, 193).
edge(53, 166).
edge(43, 100).
edge(31, 108).
edge(24, 171).
edge(123, 148).
edge(46, 62).
edge(91, 106).
edge(148, 161).
edge(100, 171).
edge(26, 31).
edge(127, 146).
edge(10, 17).
edge(146, 180).
edge(27, 87).
edge(58, 150).
edge(26, 47).
edge(122, 154).
edge(80, 125).
edge(44, 86).
edge(109, 112).
edge(23, 71).
edge(13, 22).
edge(67, 161).
edge(77, 82).
edge(80, 99).
edge(97, 170).
edge(5, 99).
edge(70, 101).
edge(8, 78).
edge(120, 185).
edge(97, 133).
edge(53, 67).
edge(101, 157).
edge(159, 168).
edge(132, 144).
edge(111, 171).
edge(5, 55).
edge(159, 191).
edge(21, 136).
edge(98, 171).
edge(94, 120).
edge(65, 69).
edge(49, 140).
edge(66, 124).
edge(41, 54).
edge(21, 107).
edge(117, 179).
edge(101, 160).
edge(65, 168).
edge(152, 179).
edge(64, 89).
edge(54, 156).
edge(62, 77).
edge(85, 156).
edge(186, 191).
edge(155, 184).
edge(38, 74).
edge(31, 44).
edge(42, 118).
edge(10, 40).
edge(5, 63).
edge(83, 185).
edge(50, 176).
edge(48, 56).
edge(5, 86).
edge(8, 155).
edge(38, 104).
edge(131, 153).
edge(21, 38).
edge(89, 153).
edge(104, 136).
edge(13, 20).
edge(0, 88).
edge(143, 190).
edge(14, 64).
edge(95, 164).
edge(38, 163).
edge(95, 129).
edge(2, 158).
edge(140, 146).
edge(102, 117).
edge(65, 186).
edge(30, 162).
edge(5, 18).
edge(40, 90).
edge(41, 165).
edge(40, 54).
edge(20, 29).
edge(180, 183).
edge(35, 65).
edge(65, 146).
edge(4, 80).
edge(121, 143).
edge(12, 44).
edge(71, 148).
edge(21, 150).
edge(115, 190).
edge(180, 192).
edge(106, 180).
edge(56, 173).
edge(74, 132).
edge(73, 190).
edge(53, 105).
edge(64, 149).
edge(48, 118).
edge(56, 67).
edge(26, 93).
edge(63, 187).
edge(100, 139).
edge(84, 168).
edge(5, 10).
edge(41, 109).
edge(96, 99).
edge(77, 113).
edge(38, 40).
edge(177, 190).
edge(3, 150).
edge(75, 98).
edge(45, 179).
edge(11, 66).
edge(25, 113).
edge(104, 157).
edge(151, 187).
edge(68, 70).
edge(5, 192).
edge(48, 183).
edge(43, 143).
edge(70, 131).
edge(92, 183).
edge(41, 105).
edge(169, 192).
edge(164, 186).
edge(77, 180).
edge(8, 139).
edge(36, 43).
edge(161, 184).
edge(37, 55).
edge(101, 117).
edge(79, 143).
edge(126, 138).
edge(42, 66).
edge(4, 125).
edge(76, 95).
edge(58, 86).
edge(107, 110).
edge(48, 64).
edge(102, 142).
edge(122, 124).
edge(22, 63).
edge(96, 106).
edge(35, 115).
edge(21, 101).
edge(79, 187).
edge(150, 155).
edge(54, 71).
edge(1, 100).
edge(17, 129).
edge(13, 28).
edge(32, 70).
edge(128, 164).
edge(128, 193).
edge(46, 161).
edge(107, 142).
edge(126, 160).
edge(78, 179).
edge(117, 178).
edge(104, 162).
edge(21, 163).
edge(107, 187).
edge(13, 142).
edge(58, 106).
edge(68, 108).
edge(116, 125).
edge(92, 100).
edge(17, 54).
edge(117, 171).
edge(48, 95).
edge(114, 164).
edge(38, 97).
edge(94, 186).
edge(17, 83).
edge(93, 141).
edge(9, 122).
edge(105, 131).
edge(28, 158).
edge(126, 167).
edge(37, 38).
edge(83, 183).
edge(61, 77).
edge(111, 118).
edge(23, 161).
edge(87, 96).
edge(79, 117).
edge(60, 121).
edge(4, 143).
edge(13, 114).
edge(91, 116).
edge(53, 171).
edge(15, 176).
edge(80, 91).
edge(73, 191).
edge(51, 136).
edge(93, 186).
edge(48, 184).
edge(66, 127).
edge(72, 186).
edge(98, 148).
edge(39, 114).
edge(47, 56).
edge(83, 180).
edge(138, 170).
edge(74, 186).
edge(32, 48).
edge(72, 185).
edge(31, 80).
edge(122, 179).
edge(49, 141).
edge(61, 135).
edge(14, 141).
edge(59, 171).
edge(86, 101).
edge(138, 183).
edge(1, 37).
edge(8, 42).
edge(139, 141).
edge(19, 74).
edge(59, 156).
edge(66, 176).
edge(24, 68).
edge(43, 163).
edge(28, 169).
edge(40, 156).
edge(133, 165).
edge(123, 127).
edge(8, 13).
edge(25, 124).
edge(50, 165).
edge(109, 182).
edge(74, 127).
edge(100, 132).
edge(8, 163).
edge(37, 124).
edge(70, 132).
edge(25, 100).
edge(70, 109).
edge(26, 146).
edge(1, 179).
edge(40, 61).
edge(69, 128).
edge(110, 185).
edge(123, 160).
edge(4, 12).
edge(58, 193).
edge(30, 177).
edge(88, 146).
edge(48, 49).
edge(143, 179).
edge(17, 107).
edge(12, 49).
edge(120, 171).
edge(120, 130).
edge(42, 161).
edge(22, 121).
edge(21, 132).
edge(66, 174).
edge(84, 155).
edge(51, 169).
edge(131, 138).
edge(146, 161).
edge(93, 179).
edge(15, 161).
edge(36, 155).
edge(12, 189).
edge(16, 158).
edge(60, 167).
edge(165, 166).
edge(105, 117).
edge(96, 167).
edge(46, 49).
edge(60, 183).
edge(98, 115).
edge(11, 169).
edge(164, 170).
edge(93, 167).
edge(14, 65).
edge(45, 108).
edge(47, 135).
edge(14, 115).
edge(38, 58).
edge(20, 45).
edge(106, 157).
edge(103, 115).
edge(120, 141).
edge(33, 163).
edge(26, 113).
edge(13, 147).
edge(120, 154).
edge(145, 172).
edge(20, 66).
edge(47, 79).
edge(49, 106).
edge(26, 102).
edge(40, 95).
edge(27, 124).
edge(51, 101).
edge(88, 113).
edge(12, 85).
edge(129, 187).
edge(60, 93).
edge(104, 147).
edge(125, 138).
edge(115, 136).
edge(114, 175).
edge(83, 140).
edge(124, 191).
edge(120, 161).
edge(15, 164).
edge(45, 181).
edge(94, 110).
edge(7, 9).
edge(2, 10).
edge(73, 91).
edge(91, 115).
edge(105, 165).
edge(1, 170).
edge(30, 116).
edge(90, 144).
edge(19, 129).
edge(40, 104).
edge(8, 61).
edge(11, 86).
edge(104, 110).
edge(81, 127).
edge(28, 111).
edge(52, 166).
edge(7, 80).
edge(57, 141).
edge(32, 88).
edge(152, 192).
edge(74, 133).
edge(8, 77).
edge(46, 88).
edge(69, 143).
edge(7, 41).
edge(11, 114).
edge(63, 114).
edge(17, 154).
edge(89, 150).
edge(54, 81).
edge(113, 163).
edge(75, 111).
edge(114, 184).
edge(52, 176).
edge(104, 158).
edge(49, 181).
edge(115, 182).
edge(1, 153).
edge(38, 54).
edge(9, 139).
edge(35, 154).
edge(14, 26).
edge(38, 76).
edge(107, 188).
edge(49, 114).
edge(15, 166).
edge(79, 145).
edge(77, 181).
edge(70, 164).
edge(58, 131).
edge(44, 104).
edge(16, 190).
edge(44, 120).
edge(95, 124).
edge(56, 193).
edge(38, 165).
edge(46, 58).
edge(117, 144).
edge(72, 83).
edge(78, 139).
edge(64, 148).
edge(60, 119).
edge(97, 191).
edge(89, 177).
edge(17, 185).
edge(19, 160).
edge(152, 187).
edge(154, 166).
edge(56, 60).
edge(120, 193).
edge(29, 33).
edge(60, 80).
edge(15, 134).
edge(15, 37).
edge(83, 179).
edge(5, 174).
edge(46, 155).
edge(5, 105).
edge(50, 100).
edge(22, 103).
edge(58, 117).
edge(8, 70).
edge(33, 192).
edge(119, 172).
edge(117, 135).
edge(92, 150).
edge(2, 188).
edge(68, 186).
edge(18, 86).
edge(33, 124).
edge(11, 119).
edge(21, 60).
edge(66, 143).
edge(46, 191).
edge(55, 96).
edge(98, 190).
edge(87, 169).
edge(89, 137).
edge(49, 189).
edge(10, 12).
edge(31, 141).
edge(6, 107).
edge(33, 154).
edge(28, 133).
edge(10, 28).
edge(47, 88).
edge(44, 141).
edge(68, 193).
edge(71, 185).
edge(113, 135).
edge(81, 129).
edge(78, 168).
edge(40, 111).
edge(157, 169).
edge(64, 159).
edge(104, 128).
edge(162, 178).
edge(72, 93).
edge(7, 149).
edge(14, 130).
edge(57, 168).
edge(41, 84).
edge(185, 187).
edge(142, 154).
edge(14, 84).
edge(13, 180).
edge(26, 42).
edge(39, 132).
edge(21, 103).
edge(96, 166).
edge(56, 185).
edge(158, 184).
edge(142, 161).
edge(20, 43).
edge(34, 60).
edge(25, 83).
edge(39, 174).
edge(65, 66).
edge(181, 183).
edge(66, 138).
edge(85, 175).
edge(76, 193).
edge(1, 11).
edge(14, 96).
edge(44, 153).
edge(141, 171).
edge(77, 172).
edge(131, 178).
edge(50, 112).
edge(49, 172).
edge(117, 134).
edge(139, 142).
edge(62, 188).
edge(8, 69).
edge(96, 139).
edge(74, 104).
edge(48, 158).
edge(154, 189).
edge(18, 92).
edge(5, 149).
edge(40, 112).
edge(4, 141).
edge(23, 120).
edge(65, 180).
edge(42, 47).
edge(67, 160).
edge(41, 178).
edge(138, 171).
edge(17, 145).
edge(74, 93).
edge(25, 93).
edge(35, 120).
edge(42, 45).
edge(23, 154).
edge(3, 19).
edge(84, 110).
edge(15, 179).
edge(3, 68).
edge(4, 47).
edge(23, 157).
edge(105, 155).
edge(94, 95).
edge(116, 178).
edge(89, 92).
edge(10, 67).
edge(103, 135).
edge(20, 163).
edge(104, 122).
edge(46, 143).
edge(101, 189).
edge(15, 77).
edge(21, 47).
edge(26, 131).
edge(93, 153).
edge(90, 101).
edge(52, 104).
edge(55, 191).
edge(27, 177).
edge(140, 166).
edge(3, 41).
edge(53, 135).
edge(71, 175).
edge(30, 151).
edge(141, 193).
edge(28, 166).
edge(87, 135).
edge(52, 180).
edge(69, 92).
edge(82, 172).
edge(118, 183).
edge(84, 96).
edge(33, 72).
edge(34, 144).
edge(40, 50).
edge(25, 105).
edge(90, 154).
edge(75, 115).
edge(24, 66).
edge(41, 125).
edge(78, 127).
edge(19, 112).
edge(59, 152).
edge(142, 169).
edge(142, 144).
edge(83, 145).
edge(26, 156).
edge(15, 95).
edge(38, 78).
edge(79, 146).
edge(25, 40).
edge(21, 110).
edge(9, 53).
edge(51, 174).
edge(101, 182).
edge(6, 172).
edge(17, 122).
edge(71, 78).
edge(9, 161).
edge(16, 176).
edge(77, 125).
edge(26, 193).
edge(143, 147).
edge(40, 96).
edge(110, 187).
edge(69, 119).
edge(23, 162).
edge(32, 178).
edge(70, 181).
edge(103, 121).
edge(62, 111).
edge(90, 165).
edge(3, 140).
edge(54, 138).
edge(46, 168).
edge(64, 127).
edge(104, 120).
edge(98, 152).
edge(22, 41).
edge(19, 79).
edge(31, 170).
edge(8, 118).
edge(97, 163).
edge(114, 159).
edge(25, 115).
edge(70, 72).
edge(158, 163).
edge(41, 115).
edge(76, 124).
edge(1, 79).
edge(28, 98).
edge(140, 156).
edge(154, 158).
edge(8, 37).
edge(83, 133).
edge(26, 183).
edge(85, 180).
edge(134, 176).
edge(142, 193).
edge(66, 134).
edge(57, 60).
edge(64, 132).
edge(35, 131).
edge(124, 142).
edge(7, 20).
edge(23, 116).
edge(1, 138).
edge(26, 44).
edge(135, 150).
edge(111, 182).
edge(10, 110).
edge(19, 85).
edge(131, 163).
edge(8, 182).
edge(38, 138).
edge(87, 144).
edge(81, 188).
edge(5, 107).
edge(43, 189).
edge(1, 2).
edge(118, 131).
edge(129, 130).
edge(69, 160).
edge(60, 95).
edge(14, 41).
edge(129, 171).
edge(147, 193).
edge(17, 140).
edge(76, 171).
edge(105, 144).
edge(146, 159).
edge(51, 122).
edge(14, 167).
edge(111, 181).
edge(4, 9).
edge(14, 177).
edge(121, 123).
edge(11, 153).
edge(59, 192).
edge(72, 112).
edge(22, 135).
edge(23, 75).
edge(10, 154).
edge(112, 150).
edge(24, 40).
edge(92, 160).
edge(5, 30).
edge(92, 124).
edge(86, 88).
edge(7, 173).
edge(14, 125).
edge(112, 154).
edge(25, 45).
edge(116, 130).
edge(20, 136).
edge(18, 41).
edge(142, 176).
edge(120, 133).
edge(11, 122).
edge(61, 141).
edge(64, 78).
edge(17, 184).
edge(75, 138).
edge(147, 166).
edge(76, 168).
edge(26, 55).
edge(143, 163).
edge(16, 185).
edge(82, 132).
edge(0, 6).
edge(103, 110).
edge(59, 95).
edge(36, 74).
edge(74, 138).
edge(105, 171).
edge(60, 140).
edge(67, 108).
edge(38, 73).
edge(57, 84).
edge(8, 178).
edge(2, 117).
edge(28, 45).
edge(110, 122).
edge(84, 102).
edge(22, 173).
edge(98, 183).
edge(22, 51).
edge(65, 149).
edge(30, 124).
edge(29, 65).
edge(170, 192).
edge(92, 103).
edge(31, 85).
edge(5, 72).
edge(24, 46).
edge(161, 168).
edge(7, 14).
edge(70, 162).
edge(45, 141).
edge(67, 95).
edge(126, 156).
edge(154, 177).
edge(51, 87).
edge(1, 165).
edge(119, 142).
edge(69, 90).
edge(113, 116).
edge(42, 107).
edge(79, 99).
edge(12, 19).
edge(78, 132).
edge(20, 126).
edge(96, 141).
edge(91, 110).
edge(107, 137).
edge(75, 94).
edge(10, 104).
edge(107, 120).
edge(75, 113).
edge(108, 134).
edge(96, 186).
edge(153, 180).
edge(101, 178).
edge(24, 89).
edge(3, 10).
edge(7, 154).
edge(82, 148).
edge(69, 107).
edge(53, 147).
edge(175, 178).
edge(29, 102).
edge(107, 168).
edge(37, 140).
edge(52, 160).
edge(70, 134).
edge(2, 6).
edge(8, 164).
edge(5, 75).
edge(12, 71).
edge(144, 149).
edge(10, 132).
edge(45, 51).
edge(76, 92).
edge(100, 125).
edge(32, 125).
edge(148, 169).
edge(59, 60).
edge(40, 124).
edge(1, 52).
edge(10, 147).
edge(84, 90).
edge(78, 159).
edge(2, 145).
edge(20, 164).
edge(73, 98).
edge(43, 135).
edge(39, 97).
edge(32, 183).
edge(1, 68).
edge(27, 192).
edge(68, 177).
edge(77, 95).
edge(45, 185).
edge(62, 90).
edge(139, 193).
edge(48, 160).
edge(116, 142).
edge(90, 99).
edge(123, 166).
edge(19, 139).
edge(8, 175).
edge(2, 150).
edge(88, 122).
edge(13, 39).
edge(69, 152).
edge(7, 52).
edge(85, 134).
edge(23, 136).
edge(131, 184).
edge(164, 176).
edge(124, 131).
edge(81, 140).
edge(78, 120).
edge(92, 137).
edge(3, 156).
edge(22, 186).
edge(104, 186).
edge(107, 143).
edge(80, 108).
edge(35, 45).
edge(30, 36).
edge(4, 165).
edge(59, 107).
edge(101, 133).
edge(110, 123).
edge(125, 153).
edge(10, 137).
edge(34, 49).
edge(76, 164).
edge(110, 182).
edge(45, 104).
edge(50, 142).
edge(74, 163).
edge(26, 78).
edge(71, 106).
edge(10, 23).
edge(4, 142).
edge(116, 151).
edge(34, 41).
edge(65, 72).
edge(14, 172).
edge(52, 70).
edge(46, 51).
edge(3, 92).
edge(39, 128).
edge(85, 191).
edge(126, 159).
edge(60, 78).
edge(12, 124).
edge(34, 98).
edge(103, 112).
edge(36, 48).
edge(137, 157).
edge(96, 108).
edge(85, 91).
edge(5, 68).
edge(24, 183).
edge(94, 187).
edge(5, 162).
edge(25, 121).
edge(6, 87).
edge(90, 102).
edge(98, 185).
edge(51, 134).
edge(63, 179).
edge(2, 109).
edge(48, 140).
edge(139, 162).
edge(40, 167).
edge(56, 64).
edge(153, 164).
edge(33, 126).
edge(39, 112).
edge(16, 103).
edge(85, 193).
edge(53, 167).
edge(124, 136).
edge(10, 25).
edge(83, 86).
edge(95, 156).
edge(49, 84).
edge(14, 156).
edge(33, 155).
edge(69, 154).
edge(1, 178).
edge(11, 55).
edge(24, 193).
edge(1, 96).
edge(18, 27).
edge(17, 78).
edge(0, 92).
edge(25, 114).
edge(155, 170).
edge(16, 127).
edge(107, 111).
edge(61, 109).
edge(11, 80).
edge(16, 51).
edge(57, 189).
edge(8, 108).
edge(40, 66).
edge(169, 178).
edge(31, 190).
edge(75, 183).
edge(86, 139).
edge(82, 108).
edge(101, 164).
edge(2, 12).
edge(117, 143).
edge(82, 157).
edge(49, 76).
edge(1, 184).
edge(41, 83).
edge(61, 193).
edge(33, 52).
edge(9, 167).
edge(11, 94).
edge(132, 183).
edge(119, 161).
edge(131, 168).
edge(2, 135).
edge(96, 143).
edge(92, 192).
edge(87, 128).
edge(179, 182).
edge(21, 26).
edge(86, 178).
edge(96, 160).
edge(55, 189).
edge(16, 89).
edge(46, 190).
edge(3, 48).
edge(24, 71).
edge(78, 175).
edge(43, 56).
edge(47, 147).
edge(76, 83).
edge(20, 68).
edge(82, 116).
edge(75, 187).
edge(5, 186).
edge(17, 88).
edge(57, 99).
edge(18, 159).
edge(104, 134).
edge(27, 193).
edge(15, 129).
edge(2, 119).
edge(36, 174).
edge(68, 105).
edge(96, 175).
edge(98, 151).
edge(54, 115).
edge(152, 189).
edge(45, 93).
edge(9, 175).
edge(42, 159).
edge(94, 192).
edge(152, 157).
edge(141, 184).
edge(72, 104).
edge(34, 148).
edge(139, 163).
edge(42, 169).
edge(6, 57).
edge(139, 183).
edge(57, 130).
edge(33, 85).
edge(23, 67).
edge(81, 126).
edge(10, 27).
edge(102, 140).
edge(6, 88).
edge(108, 177).
edge(99, 107).
edge(79, 180).
edge(5, 58).
edge(22, 182).
edge(36, 148).
edge(12, 43).
edge(6, 92).
edge(69, 133).
edge(120, 162).
edge(25, 140).
edge(23, 139).
edge(92, 131).
edge(47, 115).
edge(62, 154).
edge(8, 26).
edge(29, 128).
edge(49, 174).
edge(132, 177).
edge(48, 93).
edge(81, 83).
edge(132, 153).
edge(98, 102).
edge(112, 172).
edge(107, 182).
edge(69, 104).
edge(112, 130).
edge(1, 46).
edge(26, 107).
edge(9, 151).
edge(5, 133).
edge(141, 161).
edge(26, 136).
edge(115, 146).
edge(17, 32).
edge(56, 104).
edge(32, 161).
edge(0, 106).
edge(84, 165).
edge(15, 116).
edge(19, 111).
edge(122, 145).
edge(76, 116).
edge(56, 78).
edge(95, 131).
edge(8, 151).
edge(162, 183).
edge(101, 131).
edge(32, 41).
edge(121, 178).
edge(115, 179).
edge(132, 184).
edge(1, 47).
edge(125, 172).
edge(154, 170).
edge(31, 184).
edge(94, 181).
edge(22, 172).
edge(10, 56).
edge(20, 175).
edge(32, 176).
edge(82, 171).
edge(136, 188).
edge(42, 86).
edge(28, 59).
edge(16, 19).
edge(84, 88).
edge(16, 188).
edge(66, 102).
edge(116, 174).
edge(72, 73).
edge(5, 185).
edge(104, 140).
edge(115, 192).
edge(22, 171).
edge(50, 151).
edge(7, 133).
edge(37, 178).
edge(55, 192).
edge(79, 152).
edge(30, 140).
edge(28, 142).
edge(49, 138).
edge(49, 129).
edge(144, 166).
edge(29, 55).
edge(56, 103).
edge(69, 110).
edge(48, 51).
edge(100, 136).
edge(83, 88).
edge(51, 154).
edge(187, 188).
edge(2, 83).
edge(0, 130).
edge(91, 151).
edge(19, 122).
edge(96, 111).
edge(69, 108).
edge(51, 71).
edge(69, 86).
edge(61, 129).
edge(126, 174).
edge(49, 87).
edge(43, 188).
edge(24, 140).
edge(24, 110).
edge(22, 27).
edge(62, 168).
edge(92, 151).
edge(16, 150).
edge(151, 179).
edge(57, 187).
edge(119, 184).
edge(129, 152).
edge(39, 189).
edge(59, 101).
edge(20, 52).
edge(23, 128).
edge(83, 174).
edge(66, 148).
edge(72, 148).
edge(136, 179).
edge(95, 150).
edge(14, 60).
edge(20, 111).
edge(22, 164).
edge(76, 165).
edge(30, 135).
edge(143, 173).
edge(48, 143).
edge(33, 45).
edge(27, 96).
edge(21, 184).
edge(26, 149).
edge(45, 78).
edge(21, 131).
edge(29, 178).
edge(145, 173).
edge(136, 178).
edge(54, 164).
edge(0, 117).
edge(34, 65).
edge(69, 135).
edge(133, 158).
edge(55, 117).
edge(76, 101).
edge(41, 187).
edge(166, 179).
edge(6, 52).
edge(15, 127).
edge(88, 100).
edge(8, 40).
edge(60, 157).
edge(12, 126).
edge(109, 176).
edge(27, 37).
edge(77, 121).
edge(67, 117).
edge(64, 110).
edge(109, 125).
edge(105, 132).
edge(30, 45).
edge(85, 110).
edge(175, 179).
edge(18, 38).
edge(126, 165).
edge(67, 158).
edge(108, 176).
edge(142, 188).
edge(81, 98).
edge(185, 188).
edge(33, 189).
edge(74, 130).
edge(3, 113).
edge(44, 46).
edge(73, 110).
edge(15, 169).
edge(38, 191).
edge(151, 181).
edge(43, 69).
edge(0, 127).
edge(86, 107).
edge(51, 180).
edge(128, 143).
edge(44, 158).
edge(59, 162).
edge(52, 167).
edge(15, 122).
edge(27, 73).
edge(76, 112).
edge(169, 188).
edge(7, 13).
edge(101, 150).
edge(159, 183).
edge(62, 122).
edge(84, 91).
edge(13, 129).
edge(98, 188).
edge(60, 90).
edge(106, 109).
edge(44, 92).
edge(100, 135).
edge(131, 134).
edge(11, 57).
edge(36, 90).
edge(80, 116).
edge(93, 121).
edge(125, 146).
edge(54, 86).
edge(13, 112).
edge(98, 180).
edge(44, 175).
edge(43, 98).
edge(50, 51).
edge(62, 130).
edge(41, 170).
edge(128, 137).
edge(103, 114).
edge(34, 73).
edge(43, 45).
edge(101, 123).
edge(81, 180).
edge(47, 52).
edge(59, 119).
edge(69, 171).
edge(78, 184).
edge(50, 166).
edge(82, 177).
edge(36, 162).
edge(92, 153).
edge(37, 129).
edge(83, 130).
edge(75, 124).
edge(45, 79).
edge(109, 163).
edge(32, 71).
edge(69, 88).
edge(92, 135).
edge(71, 173).
edge(80, 141).
edge(32, 84).
edge(82, 166).
edge(22, 69).
edge(13, 33).
edge(1, 186).
edge(146, 173).
edge(70, 99).
edge(14, 154).
edge(1, 33).
edge(128, 138).
edge(116, 152).
edge(87, 155).
edge(112, 137).
edge(48, 119).
edge(31, 99).
edge(79, 120).
edge(62, 117).
edge(160, 183).
edge(78, 187).
edge(16, 186).
edge(24, 49).
edge(38, 169).
edge(23, 132).
edge(16, 122).
edge(40, 62).
edge(21, 78).
edge(119, 147).
edge(44, 100).
edge(2, 136).
edge(63, 110).
edge(28, 83).
edge(56, 182).
edge(35, 181).
edge(137, 167).
edge(69, 79).
edge(72, 80).
edge(68, 184).
edge(7, 29).
edge(52, 172).
edge(15, 156).
edge(30, 56).
edge(132, 143).
edge(18, 179).
edge(87, 191).
edge(23, 90).
edge(27, 53).
edge(89, 169).
edge(32, 188).
edge(53, 62).
edge(80, 106).
edge(122, 181).
edge(7, 78).
edge(121, 147).
edge(146, 158).
edge(29, 110).
edge(20, 33).
edge(84, 117).
edge(13, 181).
edge(117, 152).
edge(0, 158).
edge(16, 96).
edge(87, 137).
edge(117, 176).
edge(63, 125).
edge(108, 133).
edge(10, 153).
edge(111, 174).
edge(41, 69).
edge(76, 91).
edge(147, 160).
edge(173, 176).
edge(48, 125).
edge(16, 27).
edge(15, 151).
edge(51, 172).
edge(23, 166).
edge(93, 181).
edge(102, 183).
edge(11, 15).
edge(71, 141).
edge(24, 137).
edge(43, 127).
edge(97, 155).
edge(13, 115).
edge(45, 87).
edge(30, 90).
edge(154, 163).
edge(85, 101).
edge(23, 177).
edge(28, 76).
edge(135, 182).
edge(119, 175).
edge(172, 188).
edge(86, 159).
edge(34, 71).
edge(57, 115).
edge(6, 155).
edge(21, 134).
edge(83, 135).
edge(108, 132).
edge(29, 137).
edge(57, 77).
edge(83, 107).
edge(75, 89).
edge(23, 58).
edge(63, 142).
edge(65, 144).
edge(79, 119).
edge(128, 133).
edge(33, 175).
edge(16, 29).
edge(5, 176).
edge(84, 153).
edge(176, 177).
edge(110, 159).
edge(82, 120).
edge(105, 123).
edge(51, 53).
edge(146, 181).
edge(50, 188).
edge(18, 102).
edge(131, 135).
edge(46, 101).
edge(1, 128).
edge(37, 139).
edge(107, 184).
edge(56, 57).
edge(4, 53).
edge(14, 155).
edge(109, 124).
edge(10, 95).
edge(62, 157).
edge(28, 136).
edge(161, 164).
edge(55, 137).
edge(129, 154).
edge(25, 162).
edge(80, 163).
edge(59, 80).
edge(66, 107).
edge(36, 108).
edge(60, 148).
edge(40, 169).
edge(51, 102).
edge(45, 190).
edge(12, 111).
edge(113, 160).
edge(26, 132).
edge(128, 176).
edge(21, 90).
edge(84, 192).
edge(149, 154).
edge(8, 152).
edge(67, 183).
edge(43, 90).
edge(90, 157).
edge(35, 105).
edge(46, 124).
edge(68, 106).
edge(53, 58).
edge(21, 185).
edge(14, 98).
edge(76, 94).
edge(113, 142).
edge(7, 90).
edge(48, 97).
edge(50, 180).
edge(128, 187).
edge(136, 186).
edge(89, 192).
edge(0, 34).
edge(76, 126).
edge(4, 31).
edge(165, 185).
edge(34, 110).
edge(76, 123).
edge(73, 92).
edge(116, 140).
edge(82, 119).
edge(153, 186).
edge(88, 116).
edge(145, 170).
edge(23, 190).
edge(72, 147).
edge(22, 97).
edge(181, 190).
edge(73, 188).
edge(177, 191).
edge(33, 191).
edge(109, 138).
edge(131, 175).
edge(76, 142).
edge(69, 80).
edge(9, 64).
edge(93, 104).
edge(66, 88).
edge(164, 172).
edge(129, 131).
edge(94, 138).
edge(51, 118).
edge(59, 150).
edge(163, 192).
edge(87, 90).
edge(82, 127).
edge(74, 126).
edge(34, 105).
edge(31, 79).
edge(108, 109).
edge(103, 132).
edge(50, 77).
edge(62, 143).
edge(100, 158).
edge(39, 191).
edge(24, 75).
edge(16, 41).
edge(42, 181).
edge(72, 79).
edge(55, 59).
edge(34, 59).
edge(28, 61).
edge(61, 185).
edge(79, 153).
edge(110, 131).
edge(34, 94).
edge(62, 126).
edge(101, 127).
edge(77, 110).
edge(109, 133).
edge(75, 143).
edge(138, 145).
edge(20, 160).
edge(137, 147).
edge(98, 158).
edge(34, 57).
edge(22, 152).
edge(52, 83).
edge(10, 63).
edge(45, 145).
edge(9, 82).
edge(94, 171).
edge(48, 52).
edge(107, 141).
edge(24, 139).
edge(25, 78).
edge(10, 141).
edge(28, 95).
edge(131, 154).
edge(106, 111).
edge(13, 119).
edge(127, 168).
edge(21, 64).
edge(8, 170).
edge(137, 141).
edge(162, 193).
edge(32, 75).
edge(43, 159).
edge(100, 123).
edge(29, 113).
edge(29, 81).
edge(110, 124).
edge(56, 187).
edge(75, 163).
edge(52, 192).
edge(21, 156).
edge(139, 166).
edge(51, 109).
edge(9, 73).
edge(56, 171).
edge(20, 107).
edge(48, 145).
edge(45, 66).
edge(0, 26).
edge(86, 176).
edge(114, 143).
edge(53, 170).
edge(117, 188).
edge(77, 111).
edge(84, 108).
edge(80, 105).
edge(25, 80).
edge(5, 40).
edge(32, 47).
edge(68, 116).
edge(22, 50).
edge(148, 166).
edge(97, 141).
edge(95, 98).
edge(57, 119).
edge(132, 192).
edge(126, 186).
edge(16, 112).
edge(71, 178).
edge(13, 182).
edge(139, 181).
edge(12, 61).
edge(31, 164).
edge(12, 86).
edge(12, 55).
edge(89, 105).
edge(47, 91).
edge(51, 83).
edge(17, 91).
edge(112, 115).
edge(25, 156).
edge(47, 66).
edge(89, 146).
edge(95, 135).
edge(25, 58).
edge(118, 130).
edge(129, 166).
edge(50, 72).
edge(10, 146).
edge(75, 101).
edge(122, 148).
edge(141, 153).
edge(140, 148).
edge(6, 67).
edge(40, 48).
edge(4, 146).
edge(14, 68).
edge(88, 130).
edge(104, 165).
edge(9, 63).
edge(70, 174).
edge(145, 193).
edge(45, 133).
edge(19, 30).
edge(7, 39).
edge(160, 178).
edge(83, 122).
edge(171, 187).
edge(44, 132).
edge(2, 29).
edge(73, 170).
edge(1, 117).
edge(4, 137).
edge(134, 164).
edge(38, 114).
edge(108, 129).
edge(145, 179).
edge(77, 88).
edge(25, 82).
edge(102, 146).
edge(14, 70).
edge(83, 186).
edge(0, 122).
edge(51, 58).
edge(99, 103).
edge(96, 148).
edge(188, 193).
edge(44, 102).
edge(29, 165).
edge(129, 139).
edge(62, 79).
edge(13, 155).
edge(43, 186).
edge(88, 132).
edge(4, 162).
edge(144, 162).
edge(49, 122).
edge(52, 86).
edge(100, 152).
edge(27, 147).
edge(13, 27).
edge(7, 117).
edge(115, 118).
edge(72, 162).
edge(50, 69).
edge(16, 22).
edge(71, 131).
edge(8, 21).
edge(44, 117).
edge(5, 70).
edge(69, 157).
edge(141, 159).
edge(150, 191).
edge(130, 132).
edge(4, 77).
edge(86, 106).
edge(115, 132).
edge(88, 123).
edge(2, 103).
edge(25, 55).
edge(89, 135).
edge(34, 133).
edge(68, 182).
edge(14, 187).
edge(157, 178).
edge(112, 175).
edge(69, 131).
edge(79, 190).
edge(90, 117).
edge(50, 122).
edge(166, 183).
edge(150, 161).
edge(109, 128).
edge(5, 82).
edge(21, 109).
edge(35, 88).
edge(6, 161).
edge(27, 85).
edge(50, 183).
edge(59, 125).
edge(1, 34).
edge(4, 7).
edge(129, 169).
edge(20, 80).
edge(115, 191).
edge(4, 90).
edge(62, 167).
edge(17, 151).
edge(4, 114).
edge(64, 103).
edge(56, 115).
edge(31, 140).
edge(110, 193).
edge(114, 168).
edge(14, 168).
edge(172, 193).
edge(47, 90).
edge(46, 71).
edge(19, 48).
edge(96, 103).
edge(10, 178).
edge(85, 86).
edge(112, 167).
edge(66, 104).
edge(12, 33).
edge(41, 139).
edge(69, 173).
edge(42, 187).
edge(47, 128).
edge(1, 115).
edge(29, 91).
edge(54, 178).
edge(43, 176).
edge(50, 175).
edge(6, 60).
edge(88, 136).
edge(43, 178).
edge(76, 153).
edge(90, 121).
edge(105, 119).
edge(72, 117).
edge(46, 159).
edge(78, 83).
edge(86, 180).
edge(54, 140).
edge(96, 122).
edge(66, 155).
edge(77, 126).
edge(99, 146).
edge(63, 191).
edge(65, 139).
edge(26, 133).
edge(70, 186).
edge(8, 25).
edge(47, 100).
edge(95, 142).
edge(86, 96).
edge(181, 192).
edge(93, 163).
edge(21, 108).
edge(80, 164).
edge(9, 38).
edge(67, 136).
edge(91, 161).
edge(82, 145).
edge(61, 64).
edge(130, 143).
edge(103, 128).
edge(77, 144).
edge(48, 117).
edge(4, 161).
edge(41, 59).
edge(10, 22).
edge(129, 164).
edge(103, 113).
edge(62, 63).
edge(120, 168).
edge(142, 184).
edge(188, 190).
edge(95, 121).
edge(134, 185).
edge(89, 116).
edge(88, 157).
edge(9, 67).
edge(62, 118).
edge(90, 153).
edge(93, 105).
edge(4, 103).
edge(68, 181).
edge(88, 139).
edge(16, 115).
edge(14, 50).
edge(29, 70).
edge(16, 38).
edge(38, 108).
edge(121, 136).
edge(27, 30).
edge(100, 155).
edge(103, 172).
edge(129, 137).
edge(122, 193).
edge(51, 106).
edge(72, 74).
edge(132, 174).
edge(61, 190).
edge(116, 160).
edge(110, 114).
edge(120, 124).
edge(93, 175).
edge(71, 86).
edge(52, 159).
edge(40, 89).
edge(14, 113).
edge(66, 193).
edge(115, 116).
edge(89, 101).
edge(49, 83).
edge(98, 143).
edge(67, 166).
edge(128, 180).
edge(40, 118).
edge(114, 121).
edge(27, 66).
edge(145, 151).
edge(92, 98).
edge(2, 27).
edge(112, 158).
edge(31, 165).
edge(92, 156).
edge(22, 193).
edge(78, 193).
edge(45, 119).
edge(108, 155).
edge(147, 155).
edge(43, 47).
edge(40, 121).
edge(3, 96).
edge(39, 82).
edge(119, 150).
edge(110, 120).
edge(62, 106).
edge(39, 138).
edge(148, 151).
edge(35, 63).
edge(138, 139).
edge(3, 152).
edge(8, 75).
edge(63, 127).
edge(126, 161).
edge(18, 62).
edge(102, 157).
edge(23, 91).
edge(141, 172).
edge(77, 162).
edge(5, 46).
edge(133, 146).
edge(101, 181).
edge(7, 35).
edge(51, 193).
edge(31, 94).
edge(24, 187).
edge(51, 70).
edge(142, 187).
edge(104, 148).
edge(191, 193).
edge(56, 168).
edge(16, 47).
edge(57, 186).
edge(7, 76).
edge(8, 102).
edge(97, 140).
edge(133, 179).
edge(15, 51).
edge(25, 125).
edge(23, 174).
edge(16, 159).
edge(135, 141).
edge(64, 161).
edge(32, 129).
edge(7, 182).
edge(32, 109).
edge(52, 148).
edge(48, 164).
edge(115, 156).
edge(46, 145).
edge(13, 84).
edge(5, 96).
edge(3, 13).
edge(67, 134).
edge(134, 184).
edge(28, 137).
edge(142, 178).
edge(30, 83).
edge(62, 181).
edge(24, 112).
edge(20, 108).
edge(41, 127).
edge(32, 99).
edge(121, 125).
edge(184, 187).
edge(100, 141).
edge(36, 85).
edge(32, 38).
edge(167, 179).
edge(19, 103).
edge(89, 179).
edge(50, 174).
edge(89, 131).
edge(35, 139).
edge(105, 179).
edge(130, 160).
edge(109, 173).
edge(82, 103).
edge(116, 149).
edge(78, 188).
edge(118, 140).
edge(82, 128).
edge(77, 153).
edge(27, 139).
edge(57, 149).
edge(163, 179).
edge(71, 191).
edge(21, 31).
edge(125, 171).
edge(41, 92).
edge(18, 83).
edge(96, 185).
edge(28, 32).
edge(119, 173).
edge(55, 188).
edge(55, 83).
edge(15, 72).
edge(2, 177).
edge(162, 185).
edge(60, 104).
edge(99, 137).
edge(98, 99).
edge(32, 155).
edge(97, 104).
edge(142, 158).
edge(71, 143).
edge(137, 143).
edge(126, 189).
edge(103, 171).
edge(28, 84).
edge(134, 165).
edge(8, 189).
edge(30, 193).
edge(6, 134).
edge(99, 160).
edge(10, 157).
edge(6, 143).
edge(123, 189).
edge(119, 192).
edge(3, 30).
edge(91, 190).
edge(152, 178).
edge(105, 143).
edge(41, 95).
edge(0, 154).
edge(123, 141).
edge(6, 139).
edge(54, 80).
edge(81, 160).
edge(171, 190).
edge(72, 132).
edge(32, 136).
edge(65, 147).
edge(3, 59).
edge(101, 124).
edge(41, 113).
edge(28, 41).
edge(11, 39).
edge(163, 176).
edge(171, 173).
edge(26, 137).
edge(67, 96).
edge(64, 181).
edge(34, 185).
edge(59, 173).
edge(131, 186).
edge(7, 140).
edge(31, 91).
edge(77, 78).
edge(86, 150).
edge(24, 85).
edge(75, 153).
edge(55, 62).
edge(129, 145).
edge(45, 84).
edge(80, 149).
edge(34, 72).
edge(133, 172).
edge(36, 93).
edge(1, 118).
edge(33, 128).
edge(34, 155).
edge(80, 143).
edge(59, 70).
edge(73, 100).
edge(7, 120).
edge(66, 180).
edge(28, 29).
edge(9, 105).
edge(2, 5).
edge(51, 82).
edge(84, 113).
edge(11, 154).
edge(114, 151).
edge(91, 186).
edge(18, 151).
edge(116, 167).
edge(23, 73).
edge(142, 149).
edge(4, 150).
edge(32, 132).
edge(77, 142).
edge(52, 170).
edge(67, 115).
edge(46, 125).
edge(13, 137).
edge(128, 141).
edge(82, 143).
edge(45, 67).
edge(0, 112).
edge(63, 186).
edge(161, 182).
edge(91, 112).
edge(39, 125).
edge(18, 143).
edge(28, 112).
edge(31, 137).
edge(103, 180).
edge(88, 193).
edge(2, 170).
edge(8, 149).
edge(33, 115).
edge(44, 67).
edge(92, 147).
edge(15, 58).
edge(144, 159).
edge(61, 113).
edge(120, 125).
edge(57, 95).
edge(114, 142).
edge(87, 159).
edge(22, 106).
edge(63, 134).
edge(82, 169).
edge(25, 173).
edge(12, 132).
edge(22, 45).
edge(110, 190).
edge(110, 188).
edge(117, 167).
edge(85, 141).
edge(111, 138).
edge(94, 109).
edge(93, 178).
edge(17, 148).
edge(94, 166).
edge(49, 124).
edge(93, 96).
edge(17, 108).
edge(6, 191).
edge(13, 47).
edge(115, 149).
edge(78, 178).
edge(103, 153).
edge(87, 124).
edge(36, 69).
edge(15, 104).
edge(85, 173).
edge(13, 177).
edge(56, 167).
edge(32, 65).
edge(64, 102).
edge(36, 55).
edge(1, 183).
edge(133, 178).
edge(52, 67).
edge(96, 151).
edge(31, 130).
edge(64, 143).
edge(34, 146).
edge(129, 138).
edge(62, 182).
edge(77, 192).
edge(95, 97).
edge(158, 192).
edge(34, 74).
edge(40, 84).
edge(72, 88).
edge(143, 181).
edge(6, 164).
edge(128, 182).
edge(72, 189).
edge(61, 126).
edge(95, 119).
edge(103, 139).
edge(81, 115).
edge(38, 75).
edge(12, 129).
edge(0, 100).
edge(73, 108).
edge(1, 124).
edge(143, 166).
edge(4, 43).
edge(31, 148).
edge(27, 117).
edge(5, 44).
edge(54, 165).
edge(17, 26).
edge(69, 145).
edge(58, 134).
edge(56, 157).
edge(24, 130).
edge(9, 79).
edge(109, 191).
edge(49, 134).
edge(148, 162).
edge(95, 159).
edge(40, 107).
edge(19, 189).
edge(16, 57).
edge(2, 54).
edge(102, 128).
edge(75, 169).
edge(14, 36).
edge(26, 120).
edge(16, 86).
edge(168, 179).
edge(48, 150).
edge(104, 181).
edge(118, 164).
edge(14, 58).
edge(34, 167).
edge(5, 23).
edge(44, 173).
edge(65, 141).
edge(113, 148).
edge(40, 60).
edge(62, 86).
edge(69, 178).
edge(12, 97).
edge(60, 188).
edge(83, 193).
edge(174, 181).
edge(11, 129).
edge(47, 117).
edge(104, 129).
edge(44, 134).
edge(48, 126).
edge(37, 180).
edge(64, 105).
edge(73, 126).
edge(110, 119).
edge(68, 191).
edge(4, 123).
edge(74, 155).
edge(24, 189).
edge(119, 189).
edge(95, 103).
edge(116, 135).
edge(88, 169).
edge(21, 30).
edge(5, 49).
edge(26, 178).
edge(27, 190).
edge(95, 101).
edge(30, 86).
edge(116, 133).
edge(99, 115).
edge(95, 154).
edge(58, 63).
edge(33, 186).
edge(90, 107).
edge(39, 49).
edge(88, 125).
edge(89, 93).
edge(83, 189).
edge(143, 158).
edge(114, 130).
edge(66, 190).
edge(86, 189).
edge(74, 83).
edge(43, 68).
edge(13, 144).
edge(27, 153).
edge(75, 99).
edge(13, 36).
edge(39, 115).
edge(130, 187).
edge(20, 128).
edge(44, 185).
edge(136, 151).
edge(70, 144).
edge(53, 96).
edge(6, 63).
edge(97, 189).
edge(101, 119).
edge(1, 146).
edge(112, 151).
edge(11, 63).
edge(37, 159).
edge(32, 82).
edge(108, 167).
edge(92, 148).
edge(62, 107).
edge(165, 186).
edge(35, 78).
edge(64, 163).
edge(54, 66).
edge(11, 13).
edge(72, 150).
edge(63, 71).
edge(51, 133).
edge(22, 68).
edge(27, 182).
edge(45, 189).
edge(62, 178).
edge(21, 171).
edge(1, 191).
edge(25, 95).
edge(13, 90).
edge(53, 125).
edge(42, 163).
edge(105, 107).
edge(106, 138).
edge(169, 186).
edge(92, 110).
edge(144, 190).
edge(11, 127).
edge(3, 170).
edge(4, 32).
edge(49, 85).
edge(25, 81).
edge(61, 181).
edge(70, 107).
edge(122, 127).
edge(136, 149).
edge(102, 176).
edge(41, 104).
edge(20, 150).
edge(60, 108).
edge(57, 155).
edge(136, 175).
edge(4, 136).
edge(73, 86).
edge(70, 148).
edge(21, 43).
edge(61, 106).
edge(87, 158).
edge(18, 184).
edge(20, 75).
edge(22, 105).
edge(89, 159).
edge(33, 140).
edge(41, 57).
edge(91, 99).
edge(45, 162).
edge(56, 166).
edge(75, 149).
edge(6, 111).
edge(39, 103).
edge(34, 103).
edge(127, 158).
edge(49, 77).
edge(5, 69).
edge(58, 95).
edge(130, 138).
edge(28, 149).
edge(68, 135).
edge(54, 109).
edge(36, 187).
edge(20, 140).
edge(105, 160).
edge(37, 184).
edge(103, 149).
edge(162, 192).
edge(126, 144).
edge(33, 43).
edge(11, 140).
edge(5, 161).
edge(47, 161).
edge(66, 167).
edge(33, 66).
edge(29, 122).
edge(15, 138).
edge(39, 160).
edge(29, 160).
edge(85, 111).
edge(35, 193).
edge(6, 193).
edge(46, 160).
edge(18, 129).
edge(67, 92).
edge(101, 171).
edge(29, 189).
edge(59, 111).
edge(30, 154).
edge(47, 153).
edge(22, 94).
edge(54, 98).
edge(32, 46).
edge(12, 139).
edge(77, 96).
edge(158, 170).
edge(42, 76).
edge(21, 115).
edge(47, 192).
edge(53, 83).
edge(24, 95).
edge(3, 67).
edge(24, 146).
edge(74, 139).
edge(95, 100).
edge(23, 183).
edge(99, 133).
edge(47, 131).
edge(144, 187).
edge(120, 163).
edge(38, 90).
edge(102, 130).
edge(31, 38).
edge(50, 136).
edge(66, 185).
edge(105, 141).
edge(134, 147).
edge(19, 181).
edge(124, 126).
edge(54, 78).
edge(27, 169).
edge(40, 154).
edge(4, 134).
edge(10, 119).
edge(99, 165).
edge(30, 49).
edge(95, 116).
edge(135, 170).
edge(36, 142).
edge(30, 159).
edge(25, 85).
edge(6, 125).
edge(4, 44).
edge(63, 158).
edge(117, 132).
edge(77, 81).
edge(28, 179).
edge(14, 128).
edge(24, 115).
edge(109, 144).
edge(67, 188).
edge(18, 182).
edge(124, 182).
edge(65, 162).
edge(120, 135).
edge(138, 176).
edge(0, 119).
edge(48, 84).
edge(90, 147).
edge(14, 153).
edge(65, 126).
edge(18, 189).
edge(2, 113).
edge(77, 91).
edge(63, 160).
edge(75, 83).
edge(62, 161).
edge(76, 161).
edge(55, 116).
edge(81, 91).
edge(11, 60).
edge(39, 81).
edge(56, 75).
edge(158, 186).
edge(65, 75).
edge(13, 134).
edge(149, 155).
edge(95, 163).
edge(14, 146).
edge(2, 19).
edge(1, 164).
edge(106, 149).
edge(40, 147).
edge(29, 83).
edge(29, 42).
edge(60, 184).
edge(43, 155).
edge(72, 128).
edge(3, 190).
edge(140, 188).
edge(7, 34).
edge(10, 115).
edge(37, 147).
edge(118, 162).
edge(71, 113).
edge(35, 102).
edge(28, 126).
edge(25, 65).
edge(22, 48).
edge(41, 183).
edge(105, 192).
edge(38, 64).
edge(97, 145).
edge(143, 178).
edge(146, 160).
edge(39, 168).
edge(21, 188).
edge(152, 183).
edge(42, 95).
edge(116, 146).
edge(0, 191).
edge(146, 169).
edge(121, 133).
edge(115, 128).
edge(53, 122).
edge(27, 89).
edge(154, 187).
edge(25, 109).
edge(76, 78).
edge(134, 178).
edge(0, 67).
edge(13, 48).
edge(143, 155).
edge(6, 95).
edge(36, 121).
edge(51, 156).
edge(41, 110).
edge(54, 105).
edge(1, 32).
edge(12, 95).
edge(62, 175).
edge(1, 19).
edge(73, 177).
edge(104, 139).
edge(159, 193).
edge(121, 156).
edge(21, 92).
edge(19, 94).
edge(127, 156).
edge(14, 119).
edge(80, 93).
edge(95, 102).
edge(113, 122).
edge(24, 44).
edge(53, 180).
edge(34, 176).
edge(20, 185).
edge(50, 104).
edge(42, 49).
edge(35, 62).
edge(21, 177).
edge(57, 59).
edge(48, 88).
edge(59, 76).
edge(77, 133).
edge(155, 159).
edge(113, 138).
edge(39, 80).
edge(153, 156).
edge(0, 164).
edge(8, 117).
edge(14, 75).
edge(63, 169).
edge(33, 176).
edge(7, 60).
edge(81, 152).
edge(110, 151).
edge(162, 164).
edge(186, 187).
edge(3, 111).
edge(131, 190).
edge(65, 104).
edge(68, 155).
edge(75, 150).
edge(114, 185).
edge(64, 100).
edge(117, 164).
edge(42, 73).
edge(17, 79).
edge(13, 73).
edge(17, 189).
edge(32, 187).
edge(74, 156).
edge(142, 183).
edge(79, 176).
edge(86, 157).
edge(24, 42).
edge(96, 130).
edge(108, 149).
edge(49, 100).
edge(43, 51).
edge(53, 168).
edge(54, 118).
edge(47, 189).
edge(47, 163).
edge(35, 127).
edge(18, 82).
edge(106, 136).
edge(10, 50).
edge(38, 118).
edge(153, 155).
edge(61, 69).
edge(50, 61).
edge(83, 128).
edge(148, 168).
edge(84, 127).
edge(87, 108).
edge(4, 100).
edge(150, 157).
edge(39, 155).
edge(106, 147).
edge(106, 131).
edge(78, 96).
edge(91, 131).
edge(29, 185).
edge(116, 163).
edge(76, 93).
edge(46, 50).
edge(56, 132).
edge(125, 189).
edge(124, 190).
edge(17, 73).
edge(21, 54).
edge(59, 176).
edge(63, 118).
edge(95, 172).
edge(89, 173).
edge(123, 191).
edge(21, 172).
edge(24, 72).
edge(45, 58).
edge(18, 180).
edge(76, 97).
edge(15, 43).
edge(25, 142).
edge(1, 67).
edge(25, 164).
edge(125, 131).
edge(100, 105).
edge(49, 116).
edge(7, 128).
edge(3, 130).
edge(9, 36).
edge(9, 20).
edge(43, 171).
edge(9, 117).
edge(153, 170).
edge(74, 152).
edge(82, 130).
edge(24, 64).
edge(76, 110).
edge(50, 60).
edge(22, 73).
edge(68, 134).
edge(110, 178).
edge(86, 169).
edge(68, 120).
edge(31, 124).
edge(16, 95).
edge(82, 155).
edge(111, 132).
edge(36, 165).
edge(48, 122).
edge(3, 98).
edge(24, 136).
edge(2, 125).
edge(128, 160).
edge(45, 193).
edge(0, 114).
edge(34, 70).
edge(99, 166).
edge(29, 173).
edge(150, 174).
edge(137, 179).
edge(9, 66).
edge(29, 130).
edge(123, 155).
edge(150, 192).
edge(59, 88).
edge(18, 165).
edge(91, 167).
edge(115, 152).
edge(97, 146).
edge(133, 150).
edge(37, 72).
edge(67, 171).
edge(59, 155).
edge(94, 100).
edge(62, 174).
edge(19, 76).
edge(127, 189).
edge(159, 172).
edge(11, 124).
edge(97, 109).
edge(138, 151).
edge(71, 165).
edge(40, 157).
edge(54, 132).
edge(22, 167).
edge(56, 91).
edge(55, 56).
edge(51, 75).
edge(63, 178).
edge(23, 28).
edge(104, 111).
edge(182, 189).
edge(61, 119).
edge(127, 128).
edge(108, 117).
edge(5, 59).
edge(46, 66).
edge(87, 176).
edge(56, 131).
edge(143, 161).
edge(95, 128).
edge(101, 120).
edge(51, 192).
edge(120, 165).
edge(127, 164).
edge(107, 179).
edge(103, 109).
edge(81, 178).
edge(9, 148).
edge(104, 187).
edge(84, 163).
edge(42, 140).
edge(77, 124).
edge(47, 140).
edge(20, 165).
edge(7, 83).
edge(98, 121).
edge(20, 190).
edge(24, 80).
edge(77, 188).
edge(71, 150).
edge(23, 141).
edge(73, 96).
edge(54, 157).
edge(81, 175).
edge(85, 159).
edge(52, 124).
edge(66, 192).
edge(67, 114).
edge(76, 157).
edge(22, 86).
edge(110, 191).
edge(117, 122).
edge(140, 186).
edge(17, 70).
edge(18, 171).
edge(74, 173).
edge(37, 119).
edge(8, 68).
edge(57, 170).
edge(20, 71).
edge(142, 173).
edge(56, 172).
edge(70, 147).
edge(53, 145).
edge(62, 101).
edge(6, 89).
edge(14, 175).
edge(170, 175).
edge(99, 155).
edge(32, 66).
edge(40, 82).
edge(80, 107).
edge(7, 106).
edge(10, 186).
edge(76, 143).
edge(113, 143).
edge(17, 84).
edge(69, 91).
edge(22, 47).
edge(80, 191).
edge(113, 140).
edge(93, 117).
edge(63, 168).
edge(128, 163).
edge(7, 115).
edge(141, 178).
edge(161, 174).
edge(63, 81).
edge(111, 179).
edge(49, 73).
edge(30, 165).
edge(15, 85).
edge(1, 126).
edge(8, 137).
edge(11, 189).
edge(34, 82).
edge(57, 150).
edge(62, 92).
edge(107, 190).
edge(68, 173).
edge(134, 190).
edge(52, 133).
edge(133, 192).
edge(159, 190).
edge(114, 192).
edge(96, 134).
edge(44, 125).
edge(24, 132).
edge(16, 193).
edge(48, 108).
edge(79, 101).
edge(77, 97).
edge(33, 149).
edge(21, 117).
edge(106, 132).
edge(67, 122).
edge(72, 101).
edge(139, 158).
edge(14, 150).
edge(5, 150).
edge(7, 32).
edge(4, 17).
edge(64, 66).
edge(6, 187).
edge(24, 131).
edge(145, 158).
edge(27, 70).
edge(90, 106).
edge(116, 181).
edge(9, 62).
edge(61, 159).
edge(96, 182).
edge(63, 80).
edge(114, 140).
edge(119, 124).
edge(69, 96).
edge(87, 113).
edge(6, 21).
edge(28, 87).
edge(21, 128).
edge(127, 133).
edge(39, 100).
edge(12, 40).
edge(68, 72).
edge(78, 128).
edge(81, 137).
edge(79, 156).
edge(14, 89).
edge(46, 154).
edge(97, 167).
edge(17, 163).
edge(46, 87).
edge(72, 113).
edge(100, 101).
edge(1, 163).
edge(102, 169).
edge(122, 163).
edge(74, 140).
edge(31, 32).
edge(42, 43).
edge(72, 84).
edge(1, 56).
edge(33, 88).
edge(100, 116).
edge(84, 193).
edge(113, 176).
edge(29, 93).
edge(130, 144).
edge(109, 187).
edge(77, 156).
edge(146, 193).
edge(38, 92).
edge(132, 159).
edge(1, 123).
edge(5, 38).
edge(13, 63).
edge(8, 85).
edge(23, 178).
edge(73, 155).
edge(30, 32).
edge(46, 97).
edge(64, 67).
edge(37, 154).
edge(7, 95).
edge(3, 125).
edge(32, 171).
edge(79, 189).
edge(154, 175).
edge(142, 171).
edge(61, 143).
edge(53, 119).
edge(103, 193).
edge(189, 191).
edge(3, 102).
edge(100, 144).
edge(80, 115).
edge(39, 93).
edge(101, 145).
edge(71, 103).
edge(115, 177).
edge(89, 121).
edge(93, 190).
edge(42, 142).
edge(53, 184).
edge(24, 111).
edge(123, 146).
edge(30, 99).
edge(68, 166).
edge(1, 9).
edge(97, 124).
edge(32, 168).
edge(155, 177).
edge(34, 171).
edge(62, 103).
edge(68, 136).
edge(39, 60).
edge(39, 149).
edge(70, 191).
edge(102, 110).
edge(110, 169).
edge(29, 120).
edge(111, 149).
edge(44, 114).
edge(52, 144).
edge(11, 108).
edge(84, 167).
edge(109, 157).
edge(3, 174).
edge(103, 144).
edge(88, 179).
edge(113, 159).
edge(33, 103).
edge(73, 171).
edge(34, 173).
edge(4, 180).
edge(20, 132).
edge(10, 131).
edge(25, 148).
edge(110, 158).
edge(60, 79).
edge(45, 173).
edge(60, 146).
edge(134, 140).
edge(54, 146).
edge(147, 176).
edge(93, 111).
edge(22, 120).
edge(74, 168).
edge(105, 106).
edge(138, 175).
edge(104, 188).
edge(15, 154).
edge(60, 131).
edge(45, 124).
edge(143, 171).
edge(4, 33).
edge(19, 31).
edge(171, 188).
edge(28, 171).
edge(52, 102).
edge(121, 160).
edge(106, 110).
edge(14, 152).
edge(60, 117).
edge(15, 159).
edge(135, 158).
edge(11, 128).
edge(48, 105).
edge(73, 106).
edge(53, 173).
edge(87, 186).
edge(121, 146).
edge(5, 20).
edge(13, 104).
edge(139, 167).
edge(25, 179).
edge(35, 114).
edge(104, 105).
edge(133, 136).
edge(102, 129).
edge(1, 139).
edge(52, 101).
edge(119, 182).
edge(44, 95).
edge(40, 72).
edge(92, 130).
edge(48, 86).
edge(62, 115).
edge(10, 76).
edge(92, 101).
edge(21, 159).
edge(95, 191).
edge(81, 184).
edge(15, 100).
edge(75, 132).
edge(84, 100).
edge(50, 52).
edge(19, 125).
edge(17, 152).
edge(128, 186).
edge(14, 15).
edge(42, 180).
edge(17, 111).
edge(41, 193).
edge(2, 84).
edge(33, 61).
edge(10, 152).
edge(35, 89).
edge(23, 121).
edge(61, 92).
edge(155, 160).
edge(61, 117).
edge(100, 186).
edge(161, 186).
edge(43, 44).
edge(18, 183).
edge(78, 158).
edge(4, 129).
edge(83, 123).
edge(32, 54).
edge(111, 191).
edge(5, 120).
edge(37, 192).
edge(36, 47).
edge(73, 151).
edge(111, 141).
edge(67, 191).
edge(35, 91).
edge(77, 109).
edge(35, 108).
edge(33, 135).
edge(42, 124).
edge(94, 124).
edge(88, 121).
edge(103, 165).
edge(5, 7).
edge(13, 172).
edge(79, 185).
edge(128, 190).
edge(57, 67).
edge(29, 95).
edge(141, 147).
edge(28, 37).
edge(158, 183).
edge(53, 107).
edge(46, 144).
edge(89, 149).
edge(65, 129).
edge(136, 176).
edge(12, 149).
edge(164, 185).
edge(38, 42).
edge(74, 131).
edge(41, 188).
edge(172, 176).
edge(48, 94).
edge(180, 185).
edge(27, 103).
edge(75, 127).
edge(56, 66).
edge(134, 154).
edge(136, 184).
edge(8, 62).
edge(74, 137).
edge(37, 42).
edge(91, 159).
edge(101, 167).
edge(149, 151).
edge(17, 64).
edge(27, 132).
edge(18, 44).
edge(40, 109).
edge(52, 130).
edge(110, 140).
edge(32, 163).
edge(138, 150).
edge(51, 89).
edge(22, 59).
edge(69, 188).
edge(56, 136).
edge(46, 156).
edge(37, 69).
edge(128, 148).
edge(104, 121).
edge(11, 125).
edge(78, 117).
edge(14, 62).
edge(47, 93).
edge(68, 78).
edge(62, 171).
edge(66, 175).
edge(72, 91).
edge(176, 188).
edge(36, 193).
edge(82, 190).
edge(70, 113).
edge(16, 62).
edge(18, 144).
edge(29, 97).
edge(4, 115).
edge(104, 138).
edge(63, 175).
edge(36, 182).
edge(58, 128).
edge(21, 125).
edge(15, 18).
edge(106, 165).
edge(36, 100).
edge(71, 179).
edge(18, 121).
edge(2, 107).
edge(109, 178).
edge(57, 144).
edge(89, 172).
edge(167, 171).
edge(16, 110).
edge(66, 135).
edge(89, 152).
edge(47, 180).
edge(9, 58).
edge(42, 168).
edge(8, 34).
edge(75, 193).
edge(179, 180).
edge(81, 193).
edge(0, 108).
edge(26, 168).
edge(131, 146).
edge(114, 176).
edge(123, 183).
edge(70, 76).
edge(10, 161).
edge(66, 71).
edge(13, 86).
edge(40, 159).
edge(69, 164).
edge(26, 67).
edge(70, 87).
edge(33, 123).
edge(136, 150).
edge(118, 146).
edge(27, 105).
edge(36, 111).
edge(68, 85).
edge(60, 109).
edge(35, 67).
edge(63, 77).
edge(68, 109).
edge(10, 158).
edge(55, 128).
edge(84, 92).
edge(65, 123).
edge(74, 181).
edge(20, 166).
edge(29, 174).
edge(76, 180).
edge(86, 115).
edge(63, 144).
edge(135, 189).
edge(50, 160).
edge(0, 44).
edge(48, 152).
edge(102, 132).
edge(79, 83).
edge(117, 155).
edge(5, 118).
edge(3, 148).
edge(92, 113).
edge(13, 146).
edge(28, 49).
edge(25, 57).
edge(130, 156).
edge(127, 161).
edge(126, 130).
edge(47, 112).
edge(61, 82).
edge(132, 154).
edge(55, 179).
edge(95, 143).
edge(34, 61).
edge(107, 112).
edge(54, 110).
edge(29, 56).
edge(58, 138).
edge(13, 72).
edge(126, 185).
edge(122, 162).
edge(113, 121).
edge(66, 89).
edge(35, 160).
edge(3, 73).
edge(156, 177).
edge(150, 165).
edge(15, 84).
edge(131, 156).
edge(115, 117).
edge(43, 78).
edge(12, 93).
edge(84, 151).
edge(102, 152).
edge(56, 63).
edge(88, 111).
edge(37, 122).
edge(14, 161).
edge(53, 117).
edge(39, 150).
edge(183, 188).
edge(6, 80).
edge(72, 89).
edge(89, 98).
edge(55, 94).
edge(19, 24).
edge(148, 173).
edge(96, 110).
edge(14, 189).
edge(46, 108).
edge(36, 180).
edge(81, 176).
edge(89, 178).
edge(136, 156).
edge(16, 36).
edge(78, 151).
edge(6, 178).
edge(145, 178).
edge(10, 18).
edge(59, 69).
edge(89, 106).
edge(165, 175).
edge(137, 164).
edge(75, 166).
edge(47, 170).
edge(29, 151).
edge(20, 103).
edge(71, 161).
edge(26, 170).
edge(123, 172).
edge(41, 51).
edge(40, 71).
edge(35, 55).
edge(148, 187).
edge(15, 118).
edge(151, 160).
edge(11, 53).
edge(142, 179).
edge(56, 58).
edge(52, 178).
edge(137, 170).
edge(91, 107).
edge(44, 49).
edge(147, 153).
edge(13, 186).
edge(23, 147).
edge(24, 185).
edge(41, 102).
edge(50, 62).
edge(43, 187).
edge(8, 96).
edge(120, 155).
edge(19, 52).
edge(17, 24).
edge(64, 87).
edge(81, 162).
edge(13, 101).
edge(6, 43).
edge(13, 141).
edge(118, 154).
edge(37, 112).
edge(132, 189).
edge(91, 93).
edge(125, 191).
edge(57, 101).
edge(12, 128).
edge(55, 73).
edge(42, 81).
edge(13, 98).
edge(13, 107).
edge(72, 159).
edge(114, 116).
edge(12, 144).
edge(20, 173).
edge(29, 50).
edge(81, 186).
edge(29, 142).
edge(25, 184).
edge(43, 65).
edge(179, 188).
edge(18, 71).
edge(117, 184).
edge(71, 168).
edge(118, 158).
edge(18, 118).
edge(106, 175).
edge(60, 111).
edge(7, 176).
edge(168, 184).
edge(71, 184).
edge(50, 81).
edge(50, 79).
edge(108, 139).
edge(9, 43).
edge(7, 180).
edge(90, 128).
edge(112, 164).
edge(50, 95).
edge(76, 179).
edge(143, 182).
edge(42, 162).
edge(9, 189).
edge(106, 187).
edge(95, 193).
edge(43, 57).
edge(2, 46).
edge(49, 145).
edge(106, 142).
edge(34, 121).
edge(22, 71).
edge(24, 141).
edge(137, 184).
edge(39, 164).
edge(71, 87).
edge(69, 144).
edge(98, 135).
edge(154, 171).
edge(127, 166).
edge(20, 119).
edge(60, 98).
edge(71, 147).
edge(133, 139).
edge(106, 107).
edge(61, 138).
edge(74, 180).
edge(9, 147).
edge(59, 191).
weight(0, 6).
weight(1, 10).
weight(2, 10).
weight(3, 4).
weight(4, 2).
weight(5, 2).
weight(6, 4).
weight(7, 3).
weight(8, 7).
weight(9, 3).
weight(10, 9).
weight(11, 11).
weight(12, 5).
weight(13, 11).
weight(14, 8).
weight(15, 11).
weight(16, 6).
weight(17, 7).
weight(18, 9).
weight(19, 5).
weight(20, 7).
weight(21, 1).
weight(22, 6).
weight(23, 11).
weight(24, 10).
weight(25, 1).
weight(26, 8).
weight(27, 10).
weight(28, 10).
weight(29, 1).
weight(30, 3).
weight(31, 2).
weight(32, 3).
weight(33, 6).
weight(34, 9).
weight(35, 8).
weight(36, 2).
weight(37, 11).
weight(38, 2).
weight(39, 9).
weight(40, 5).
weight(41, 10).
weight(42, 11).
weight(43, 9).
weight(44, 5).
weight(45, 9).
weight(46, 9).
weight(47, 6).
weight(48, 6).
weight(49, 2).
weight(50, 4).
weight(51, 8).
weight(52, 6).
weight(53, 11).
weight(54, 10).
weight(55, 4).
weight(56, 7).
weight(57, 3).
weight(58, 5).
weight(59, 6).
weight(60, 11).
weight(61, 8).
weight(62, 6).
weight(63, 1).
weight(64, 2).
weight(65, 1).
weight(66, 10).
weight(67, 8).
weight(68, 10).
weight(69, 3).
weight(70, 1).
weight(71, 6).
weight(72, 2).
weight(73, 11).
weight(74, 10).
weight(75, 7).
weight(76, 2).
weight(77, 10).
weight(78, 3).
weight(79, 2).
weight(80, 7).
weight(81, 2).
weight(82, 6).
weight(83, 11).
weight(84, 11).
weight(85, 1).
weight(86, 6).
weight(87, 11).
weight(88, 9).
weight(89, 6).
weight(90, 4).
weight(91, 3).
weight(92, 10).
weight(93, 3).
weight(94, 4).
weight(95, 10).
weight(96, 9).
weight(97, 4).
weight(98, 10).
weight(99, 9).
weight(100, 11).
weight(101, 2).
weight(102, 8).
weight(103, 7).
weight(104, 6).
weight(105, 2).
weight(106, 4).
weight(107, 8).
weight(108, 6).
weight(109, 1).
weight(110, 3).
weight(111, 6).
weight(112, 7).
weight(113, 11).
weight(114, 11).
weight(115, 7).
weight(116, 6).
weight(117, 11).
weight(118, 9).
weight(119, 3).
weight(120, 2).
weight(121, 3).
weight(122, 11).
weight(123, 1).
weight(124, 1).
weight(125, 1).
weight(126, 2).
weight(127, 1).
weight(128, 3).
weight(129, 8).
weight(130, 8).
weight(131, 8).
weight(132, 6).
weight(133, 2).
weight(134, 11).
weight(135, 11).
weight(136, 3).
weight(137, 7).
weight(138, 7).
weight(139, 4).
weight(140, 7).
weight(141, 9).
weight(142, 10).
weight(143, 11).
weight(144, 4).
weight(145, 2).
weight(146, 2).
weight(147, 11).
weight(148, 10).
weight(149, 5).
weight(150, 8).
weight(151, 5).
weight(152, 9).
weight(153, 4).
weight(154, 4).
weight(155, 6).
weight(156, 5).
weight(157, 6).
weight(158, 5).
weight(159, 1).
weight(160, 3).
weight(161, 2).
weight(162, 4).
weight(163, 9).
weight(164, 5).
weight(165, 2).
weight(166, 4).
weight(167, 4).
weight(168, 6).
weight(169, 8).
weight(170, 9).
weight(171, 7).
weight(172, 7).
weight(173, 5).
weight(174, 8).
weight(175, 5).
weight(176, 2).
weight(177, 7).
weight(178, 3).
weight(179, 4).
weight(180, 5).
weight(181, 11).
weight(182, 5).
weight(183, 10).
weight(184, 3).
weight(185, 9).
weight(186, 7).
weight(187, 7).
weight(188, 11).
weight(189, 9).
weight(190, 4).
weight(191, 3).
weight(192, 11).
weight(193, 8).
bound(134).

adj(U,V) :- edge(U,V).
adj(U,V) :- edge(V,U).
{in(V)} :- node(V).
dominated(V) :- in(V).
dominated(V) :- in(U), adj(U,V).
:- node(V), not dominated(V).
:- bound(B), #sum{W,V : in(V), weight(V,W)} > B.
:~ in(V), weight(V,W). [W@1,V]
