node(0..186).
edge(164, 166).
edge(1, 124).
edge(0, 154).
edge(65, 136).
edge(172, 180).
edge(4, 162).
edge(34, 120).
edge(41, 125).
edge(119, 157).
edge(5, 172).
edge(89, 119).
edge(10, 35).
edge(41, 50).
edge(115, 153).
edge(89, 162).
edge(8, 167).
edge(129, 177).
edge(160, 170).
edge(142, 151).
edge(46, 136).
edge(90, 133).
edge(10, 47).
edge(44, 92).
edge(38, 121).
edge(77, 178).
edge(42, 54).
edge(38, 100).
edge(16, 161).
edge(82, 165).
edge(16, 97).
edge(51, 95).
edge(52, 98).
edge(12, 26).
edge(62, 75).
edge(32, 180).
edge(153, 172).
edge(16, 36).
edge(27, 77).
edge(76, 186).
edge(45, 185).
edge(53, 89).
edge(148, 149).
edge(146, 161).
edge(68, 138).
edge(18, 143).
edge(62, 97).
edge(8, 130).
edge(15, 118).
edge(41, 69).
edge(23, 153).
edge(18, 135).
edge(36, 146).
edge(79, 181).
edge(47, 48).
edge(76, 133).
edge(93, 150).
edge(16, 94).
edge(15, 114).
edge(69, 96).
edge(54, 163).
edge(7, 44).
edge(97, 140).
edge(65, 98).
edge(59, 169).
edge(96, 118).
edge(44, 84).
edge(165, 183).
edge(98, 131).
edge(65, 97).
edge(2, 57).
edge(16, 119).
edge(17, 109).
edge(82, 173).
edge(15, 53).
edge(43, 164).
edge(89, 165).
edge(121, 141).
edge(19, 157).
edge(142, 152).
edge(49, 138).
edge(14, 134).
edge(60, 174).
edge(94, 141).
edge(88, 143).
edge(119, 128).
edge(38, 155).
edge(96, 140).
edge(103, 107).
edge(137, 149).
edge(14, 27).
edge(67, 175).
edge(140, 172).
edge(64, 166).
edge(72, 168).
edge(154, 173).
edge(18, 112).
edge(10, 120).
edge(67, 76).
edge(46, 115).
edge(7, 122).
edge(84, 136).
edge(14, 118).
edge(27, 48).
edge(41, 90).
edge(43, 84).
edge(42, 86).
edge(126, 147).
edge(44, 109).
edge(91, 93).
edge(35, 89).
edge(66, 70).
edge(64, 94).
edge(78, 120).
edge(22, 98).
edge(9, 138).
edge(28, 74).
edge(91, 129).
edge(119, 121).
edge(31, 178).
edge(13, 81).
edge(42, 94).
edge(101, 109).
edge(8, 89).
edge(76, 166).
edge(41, 95).
edge(31, 186).
edge(56, 61).
edge(155, 168).
edge(93, 133).
edge(101, 147).
edge(20, 71).
edge(44, 184).
edge(122, 176).
edge(10, 24).
edge(55, 104).
edge(14, 114).
edge(18, 43).
edge(29, 138).
edge(48, 153).
edge(119, 181).
edge(113, 157).
edge(94, 105).
edge(62, 139).
edge(154, 172).
edge(83, 106).
edge(20, 49).
edge(157, 162).
edge(5, 97).
edge(67, 90).
edge(7, 92).
edge(14, 38).
edge(16, 98).
edge(5, 175).
edge(35, 105).
edge(39, 72).
edge(98, 149).
edge(28, 128).
edge(33, 136).
edge(117, 123).
edge(12, 13).
edge(29, 94).
edge(22, 27).
edge(69, 130).
edge(105, 108).
edge(74, 75).
edge(19, 76).
edge(17, 112).
edge(36, 148).
edge(16, 27).
edge(128, 173).
edge(92, 122).
edge(29, 36).
edge(58, 72).
edge(108, 143).
edge(137, 138).
edge(12, 74).
edge(11, 106).
edge(94, 150).
edge(97, 106).
edge(53, 84).
edge(27, 51).
edge(48, 174).
edge(24, 183).
edge(1, 10).
edge(149, 181).
edge(104, 162).
edge(35, 101).
edge(133, 137).
edge(89, 139).
edge(5, 61).
edge(8, 79).
edge(18, 123).
edge(16, 30).
edge(67, 176).
edge(12, 84).
edge(85, 162).
edge(81, 162).
edge(173, 183).
edge(10, 68).
edge(100, 180).
edge(65, 71).
edge(17, 167).
edge(106, 159).
edge(67, 164).
edge(22, 89).
edge(73, 180).
edge(64, 145).
edge(15, 109).
edge(36, 70).
edge(38, 176).
edge(5, 55).
edge(63, 151).
edge(127, 170).
edge(51, 133).
edge(65, 161).
edge(94, 113).
edge(4, 130).
edge(1, 130).
edge(24, 64).
edge(61, 173).
edge(171, 186).
edge(0, 89).
edge(10, 143).
edge(0, 180).
edge(122, 160).
edge(62, 185).
edge(131, 162).
edge(4, 12).
edge(64, 149).
edge(12, 16).
edge(8, 106).
edge(8, 153).
edge(29, 30).
edge(165, 179).
edge(30, 181).
edge(10, 46).
edge(42, 118).
edge(167, 185).
edge(5, 170).
edge(106, 165).
edge(24, 62).
edge(37, 117).
edge(38, 57).
edge(143, 166).
edge(142, 181).
edge(98, 135).
edge(86, 132).
edge(29, 114).
edge(23, 126).
edge(47, 179).
edge(39, 95).
edge(100, 154).
edge(1, 143).
edge(75, 80).
edge(15, 78).
edge(18, 101).
edge(103, 126).
edge(12, 171).
edge(67, 149).
edge(15, 145).
edge(9, 55).
edge(91, 163).
edge(6, 130).
edge(46, 75).
edge(8, 25).
edge(62, 128).
edge(106, 134).
edge(46, 130).
edge(14, 41).
edge(177, 184).
edge(39, 142).
edge(16, 35).
edge(134, 139).
edge(27, 102).
edge(40, 167).
edge(136, 162).
edge(29, 50).
edge(60, 105).
edge(56, 182).
edge(54, 161).
edge(129, 151).
edge(27, 82).
edge(90, 91).
edge(95, 153).
edge(115, 170).
edge(102, 124).
edge(0, 109).
edge(123, 137).
edge(41, 156).
edge(44, 172).
edge(30, 186).
edge(47, 140).
edge(108, 183).
edge(133, 172).
edge(35, 73).
edge(23, 164).
edge(150, 163).
edge(131, 164).
edge(13, 57).
edge(72, 145).
edge(92, 182).
edge(126, 168).
edge(34, 175).
edge(148, 182).
edge(19, 130).
edge(13, 90).
edge(10, 114).
edge(26, 144).
edge(123, 159).
edge(11, 20).
edge(58, 90).
edge(49, 108).
edge(124, 133).
edge(25, 158).
edge(9, 143).
edge(52, 139).
edge(25, 87).
edge(62, 112).
edge(94, 161).
edge(38, 115).
edge(47, 86).
edge(53, 93).
edge(87, 89).
edge(163, 169).
edge(21, 124).
edge(79, 156).
edge(0, 63).
edge(92, 148).
edge(106, 173).
edge(57, 149).
edge(75, 87).
edge(132, 156).
edge(46, 52).
edge(14, 25).
edge(52, 80).
edge(14, 147).
edge(13, 155).
edge(82, 142).
edge(97, 150).
edge(125, 148).
edge(19, 94).
edge(60, 88).
edge(93, 113).
edge(75, 83).
edge(11, 28).
edge(126, 131).
edge(88, 118).
edge(32, 124).
edge(53, 80).
edge(81, 182).
edge(72, 174).
edge(50, 182).
edge(19, 90).
edge(67, 134).
edge(57, 167).
edge(175, 186).
edge(24, 184).
edge(62, 111).
edge(35, 179).
edge(25, 41).
edge(49, 145).
edge(84, 119).
edge(104, 123).
edge(92, 129).
edge(68, 148).
edge(69, 97).
edge(6, 101).
edge(2, 147).
edge(0, 67).
edge(38, 44).
edge(44, 168).
edge(57, 143).
edge(14, 139).
edge(6, 79).
edge(67, 181).
edge(11, 15).
edge(95, 168).
edge(32, 160).
edge(23, 104).
edge(7, 100).
edge(93, 136).
edge(88, 105).
edge(163, 182).
edge(42, 77).
edge(35, 97).
edge(101, 135).
edge(33, 48).
edge(8, 109).
edge(83, 140).
edge(27, 120).
edge(163, 175).
edge(109, 115).
edge(23, 161).
edge(75, 99).
edge(115, 151).
edge(11, 161).
edge(134, 181).
edge(42, 83).
edge(8, 87).
edge(21, 85).
edge(103, 105).
edge(19, 30).
edge(29, 58).
edge(3, 13).
edge(62, 88).
edge(155, 162).
edge(48, 162).
edge(42, 178).
edge(28, 92).
edge(117, 143).
edge(18, 70).
edge(55, 153).
edge(111, 145).
edge(14, 137).
edge(40, 135).
edge(93, 110).
edge(110, 168).
edge(16, 20).
edge(125, 155).
edge(0, 175).
edge(27, 154).
edge(61, 73).
edge(33, 37).
edge(28, 180).
edge(119, 129).
edge(28, 129).
edge(102, 172).
edge(37, 172).
edge(72, 88).
edge(18, 68).
edge(28, 35).
edge(109, 112).
edge(56, 184).
edge(20, 103).
edge(1, 46).
edge(38, 53).
edge(11, 46).
edge(27, 74).
edge(33, 71).
edge(1, 129).
edge(57, 148).
edge(45, 146).
edge(50, 152).
edge(60, 158).
edge(15, 90).
edge(95, 96).
edge(1, 163).
edge(23, 78).
edge(64, 95).
edge(16, 24).
edge(12, 113).
edge(3, 169).
edge(72, 134).
edge(34, 75).
edge(143, 145).
edge(22, 57).
edge(58, 84).
edge(54, 93).
edge(76, 147).
edge(79, 87).
edge(6, 99).
edge(151, 166).
edge(21, 84).
edge(31, 38).
edge(102, 162).
edge(102, 125).
edge(138, 176).
edge(56, 71).
edge(23, 79).
edge(104, 132).
edge(32, 87).
edge(156, 184).
edge(51, 125).
edge(32, 48).
edge(54, 95).
edge(45, 47).
edge(67, 124).
edge(46, 157).
edge(74, 145).
edge(32, 152).
edge(104, 144).
edge(23, 114).
edge(14, 154).
edge(97, 186).
edge(102, 175).
edge(70, 76).
edge(87, 182).
edge(7, 88).
edge(20, 54).
edge(41, 112).
edge(25, 181).
edge(69, 144).
edge(44, 157).
edge(85, 185).
edge(23, 106).
edge(65, 178).
edge(121, 171).
edge(42, 78).
edge(32, 42).
edge(72, 179).
edge(84, 171).
edge(51, 84).
edge(43, 95).
edge(10, 51).
edge(112, 136).
edge(167, 171).
edge(69, 185).
edge(54, 135).
edge(60, 134).
edge(1, 166).
edge(44, 155).
edge(77, 98).
edge(69, 162).
edge(33, 52).
edge(75, 186).
edge(149, 175).
edge(52, 160).
edge(7, 27).
edge(12, 112).
edge(91, 109).
edge(14, 146).
edge(81, 178).
edge(111, 138).
edge(154, 179).
edge(148, 152).
edge(64, 128).
edge(23, 86).
edge(2, 81).
edge(23, 150).
edge(12, 65).
edge(72, 177).
edge(43, 142).
edge(117, 128).
edge(6, 75).
edge(27, 135).
edge(170, 175).
edge(111, 150).
edge(51, 177).
edge(38, 129).
edge(19, 35).
edge(5, 59).
edge(80, 95).
edge(0, 85).
edge(121, 145).
edge(56, 78).
edge(75, 76).
edge(30, 106).
edge(74, 101).
edge(18, 23).
edge(21, 40).
edge(62, 140).
edge(133, 149).
edge(105, 182).
edge(50, 138).
edge(62, 93).
edge(51, 166).
edge(52, 126).
edge(20, 88).
edge(40, 122).
edge(39, 146).
edge(29, 74).
edge(41, 160).
edge(12, 119).
edge(9, 42).
edge(152, 176).
edge(95, 160).
edge(72, 130).
edge(150, 151).
edge(46, 184).
edge(4, 160).
edge(12, 107).
edge(30, 44).
edge(109, 154).
edge(59, 129).
edge(49, 64).
edge(109, 111).
edge(126, 174).
edge(67, 165).
edge(86, 91).
edge(100, 164).
edge(6, 61).
edge(59, 156).
edge(20, 116).
edge(70, 169).
edge(65, 87).
edge(7, 135).
edge(39, 141).
edge(31, 59).
edge(135, 153).
edge(51, 145).
edge(74, 127).
edge(134, 136).
edge(79, 86).
edge(79, 106).
edge(69, 132).
edge(21, 58).
edge(116, 122).
edge(15, 106).
edge(142, 143).
edge(5, 38).
edge(36, 167).
edge(17, 34).
edge(85, 102).
edge(121, 163).
edge(2, 126).
edge(97, 155).
edge(24, 173).
edge(12, 77).
edge(115, 179).
edge(122, 181).
edge(126, 186).
edge(108, 109).
edge(55, 162).
edge(6, 114).
edge(91, 102).
edge(59, 162).
edge(148, 162).
edge(61, 110).
edge(0, 41).
edge(60, 87).
edge(16, 78).
edge(148, 184).
edge(10, 32).
edge(86, 162).
edge(1, 114).
edge(6, 80).
edge(49, 165).
edge(8, 37).
edge(3, 138).
edge(26, 156).
edge(44, 176).
edge(124, 174).
edge(91, 161).
edge(80, 104).
edge(88, 150).
edge(22, 66).
edge(7, 145).
edge(37, 118).
edge(30, 46).
edge(58, 76).
edge(91, 131).
edge(127, 138).
edge(37, 145).
edge(15, 49).
edge(20, 32).
edge(152, 175).
edge(20, 85).
edge(96, 110).
edge(56, 60).
edge(49, 53).
edge(92, 123).
edge(35, 46).
edge(107, 130).
edge(8, 39).
edge(136, 160).
edge(1, 169).
edge(37, 103).
edge(10, 183).
edge(45, 55).
edge(41, 168).
edge(37, 141).
edge(166, 185).
edge(81, 143).
edge(40, 45).
edge(43, 158).
edge(40, 47).
edge(101, 152).
edge(75, 183).
edge(84, 155).
edge(11, 18).
edge(83, 163).
edge(77, 172).
edge(18, 75).
edge(68, 182).
edge(6, 166).
edge(77, 173).
edge(102, 151).
edge(126, 181).
edge(121, 153).
edge(102, 165).
edge(17, 72).
edge(16, 148).
edge(37, 50).
edge(36, 91).
edge(42, 51).
edge(53, 112).
edge(39, 88).
edge(70, 154).
edge(46, 183).
edge(144, 158).
edge(2, 46).
edge(12, 14).
edge(9, 103).
edge(12, 90).
edge(26, 143).
edge(80, 97).
edge(59, 101).
edge(27, 68).
edge(70, 167).
edge(127, 169).
edge(23, 47).
edge(46, 165).
edge(87, 160).
edge(24, 75).
edge(37, 64).
edge(28, 148).
edge(12, 48).
edge(54, 184).
edge(19, 27).
edge(150, 178).
edge(23, 53).
edge(150, 152).
edge(87, 167).
edge(159, 175).
edge(86, 171).
edge(61, 178).
edge(94, 121).
edge(68, 134).
edge(170, 171).
edge(117, 132).
edge(136, 150).
edge(113, 179).
edge(16, 141).
edge(4, 35).
edge(93, 114).
edge(58, 92).
edge(25, 75).
edge(72, 92).
edge(53, 184).
edge(36, 153).
edge(16, 104).
edge(67, 113).
edge(18, 27).
edge(110, 113).
edge(86, 160).
edge(67, 121).
edge(72, 186).
edge(13, 21).
edge(63, 169).
edge(67, 74).
edge(117, 139).
edge(49, 169).
edge(149, 186).
edge(91, 98).
edge(16, 73).
edge(19, 23).
edge(13, 76).
edge(50, 148).
edge(92, 140).
edge(158, 176).
edge(59, 134).
edge(7, 169).
edge(130, 176).
edge(70, 165).
edge(38, 74).
edge(1, 179).
edge(131, 153).
edge(81, 109).
edge(36, 104).
edge(12, 167).
edge(28, 91).
edge(70, 168).
edge(45, 97).
edge(118, 155).
edge(47, 105).
edge(6, 32).
edge(57, 113).
edge(129, 133).
edge(60, 168).
edge(33, 153).
edge(6, 43).
edge(19, 72).
edge(23, 184).
edge(12, 129).
edge(97, 119).
edge(81, 181).
edge(123, 157).
edge(13, 124).
edge(32, 99).
edge(14, 183).
edge(53, 111).
edge(72, 110).
edge(162, 181).
edge(51, 92).
edge(34, 133).
edge(17, 64).
edge(49, 81).
edge(64, 161).
edge(54, 65).
edge(100, 122).
edge(80, 99).
edge(34, 47).
edge(77, 123).
edge(115, 176).
edge(18, 53).
edge(35, 90).
edge(63, 95).
edge(50, 169).
edge(7, 107).
edge(43, 170).
edge(6, 17).
edge(27, 168).
edge(150, 157).
edge(26, 127).
edge(17, 44).
edge(131, 170).
edge(118, 119).
edge(25, 126).
edge(39, 137).
edge(69, 149).
edge(130, 152).
edge(88, 162).
edge(22, 44).
edge(84, 104).
edge(122, 151).
edge(39, 75).
edge(121, 148).
edge(65, 67).
edge(68, 177).
edge(81, 168).
edge(51, 104).
edge(10, 81).
edge(57, 111).
edge(66, 134).
edge(107, 157).
edge(99, 119).
edge(147, 150).
edge(41, 149).
edge(51, 186).
edge(38, 83).
edge(22, 106).
edge(43, 114).
edge(150, 165).
edge(5, 24).
edge(35, 92).
edge(8, 10).
edge(88, 94).
edge(18, 146).
edge(45, 57).
edge(62, 68).
edge(74, 142).
edge(40, 100).
edge(46, 161).
edge(71, 184).
edge(33, 107).
edge(142, 164).
edge(44, 150).
edge(66, 178).
edge(30, 52).
edge(6, 133).
edge(98, 118).
edge(5, 104).
edge(17, 70).
edge(17, 173).
edge(91, 114).
edge(60, 123).
edge(16, 38).
edge(47, 78).
edge(83, 102).
edge(33, 94).
edge(19, 159).
edge(66, 186).
edge(19, 57).
edge(110, 112).
edge(30, 105).
edge(102, 132).
edge(124, 171).
edge(86, 154).
edge(128, 147).
edge(138, 160).
edge(82, 103).
edge(14, 161).
edge(154, 165).
edge(126, 157).
edge(121, 154).
edge(13, 170).
edge(71, 153).
edge(22, 79).
edge(59, 158).
edge(99, 139).
edge(12, 79).
edge(4, 71).
edge(30, 179).
edge(3, 180).
edge(64, 152).
edge(31, 185).
edge(4, 150).
edge(115, 175).
edge(134, 148).
edge(17, 54).
edge(31, 45).
edge(108, 127).
edge(71, 173).
edge(72, 144).
edge(96, 180).
edge(77, 168).
edge(6, 36).
edge(25, 83).
edge(82, 91).
edge(12, 153).
edge(86, 166).
edge(61, 182).
edge(79, 173).
edge(30, 149).
edge(31, 83).
edge(32, 128).
edge(10, 156).
edge(43, 87).
edge(128, 161).
edge(76, 178).
edge(39, 182).
edge(8, 155).
edge(58, 136).
edge(82, 153).
edge(19, 89).
edge(13, 119).
edge(27, 110).
edge(70, 135).
edge(156, 170).
edge(56, 115).
edge(22, 37).
edge(48, 148).
edge(70, 182).
edge(106, 166).
edge(49, 95).
edge(79, 115).
edge(35, 77).
edge(54, 118).
edge(23, 113).
edge(148, 179).
edge(153, 178).
edge(36, 97).
edge(7, 34).
edge(102, 133).
edge(40, 89).
edge(19, 62).
edge(27, 119).
edge(121, 174).
edge(111, 181).
edge(2, 9).
edge(34, 64).
edge(14, 82).
edge(88, 136).
edge(52, 61).
edge(2, 185).
edge(130, 142).
edge(35, 153).
edge(21, 185).
edge(113, 167).
edge(137, 155).
edge(126, 166).
edge(48, 80).
edge(89, 183).
edge(72, 94).
edge(27, 92).
edge(55, 183).
edge(53, 162).
edge(27, 35).
edge(38, 138).
edge(13, 121).
edge(48, 133).
edge(44, 119).
edge(40, 150).
edge(60, 177).
edge(50, 168).
edge(82, 118).
edge(82, 121).
edge(45, 64).
edge(20, 30).
edge(78, 169).
edge(6, 57).
edge(53, 105).
edge(62, 166).
edge(49, 67).
edge(39, 114).
edge(135, 175).
edge(14, 68).
edge(25, 176).
edge(11, 90).
edge(90, 113).
edge(99, 186).
edge(37, 41).
edge(64, 180).
edge(2, 149).
edge(125, 151).
edge(67, 169).
edge(93, 122).
edge(57, 76).
edge(9, 83).
edge(151, 156).
edge(28, 126).
edge(87, 139).
edge(100, 143).
edge(44, 114).
edge(18, 106).
edge(31, 128).
edge(105, 157).
edge(92, 144).
edge(124, 166).
edge(46, 99).
edge(180, 182).
edge(78, 102).
edge(32, 170).
edge(49, 173).
edge(15, 108).
edge(56, 92).
edge(9, 34).
edge(17, 165).
edge(25, 27).
edge(67, 127).
edge(91, 178).
edge(116, 165).
edge(62, 174).
edge(109, 177).
edge(57, 178).
edge(41, 85).
edge(165, 175).
edge(88, 165).
edge(59, 175).
edge(154, 160).
edge(27, 140).
edge(57, 109).
edge(169, 176).
edge(133, 166).
edge(67, 93).
edge(93, 111).
edge(3, 79).
edge(41, 82).
edge(28, 108).
edge(75, 123).
edge(75, 108).
edge(70, 104).
edge(32, 108).
edge(56, 94).
edge(23, 169).
edge(9, 35).
edge(32, 80).
edge(95, 170).
edge(60, 91).
edge(83, 89).
edge(163, 172).
edge(57, 177).
edge(23, 71).
edge(113, 159).
edge(68, 70).
edge(47, 141).
edge(81, 135).
edge(8, 18).
edge(111, 148).
edge(44, 130).
edge(67, 87).
edge(17, 88).
edge(74, 114).
edge(102, 158).
edge(51, 108).
edge(83, 94).
edge(144, 179).
edge(11, 69).
edge(179, 185).
edge(39, 144).
edge(4, 31).
edge(3, 173).
edge(50, 92).
edge(44, 82).
edge(2, 32).
edge(4, 70).
edge(6, 180).
edge(102, 127).
edge(149, 150).
edge(116, 174).
edge(27, 28).
edge(29, 63).
edge(9, 88).
edge(93, 170).
edge(38, 45).
edge(109, 118).
edge(47, 135).
edge(35, 96).
edge(129, 142).
edge(132, 155).
edge(74, 162).
edge(16, 136).
edge(5, 47).
edge(101, 151).
edge(83, 176).
edge(4, 85).
edge(30, 128).
edge(81, 179).
edge(75, 160).
edge(29, 142).
edge(97, 116).
edge(21, 122).
edge(44, 164).
edge(100, 163).
edge(0, 38).
edge(74, 121).
edge(16, 100).
edge(17, 33).
edge(41, 133).
edge(13, 107).
edge(91, 96).
edge(94, 180).
edge(31, 72).
edge(29, 96).
edge(96, 125).
edge(110, 128).
edge(29, 86).
edge(40, 166).
edge(77, 81).
edge(74, 95).
edge(132, 150).
edge(23, 171).
edge(40, 159).
edge(70, 186).
edge(53, 74).
edge(49, 63).
edge(52, 91).
edge(7, 128).
edge(100, 124).
edge(4, 116).
edge(92, 138).
edge(36, 118).
edge(6, 164).
edge(30, 166).
edge(78, 148).
edge(0, 12).
edge(103, 153).
edge(29, 53).
edge(104, 173).
edge(158, 186).
edge(21, 29).
edge(22, 104).
edge(69, 70).
edge(16, 144).
edge(4, 120).
edge(67, 108).
edge(115, 172).
edge(108, 118).
edge(44, 115).
edge(112, 186).
edge(63, 150).
edge(11, 183).
edge(143, 172).
edge(63, 97).
edge(7, 112).
edge(58, 128).
edge(8, 77).
edge(89, 104).
edge(63, 132).
edge(27, 183).
edge(51, 179).
edge(102, 126).
edge(41, 96).
edge(48, 186).
edge(133, 159).
edge(2, 54).
edge(57, 174).
edge(14, 19).
edge(16, 41).
edge(104, 185).
edge(30, 95).
edge(49, 168).
edge(113, 150).
edge(142, 175).
edge(100, 112).
edge(79, 135).
edge(34, 136).
edge(55, 180).
edge(46, 171).
edge(147, 153).
edge(11, 40).
edge(65, 160).
edge(28, 82).
edge(151, 171).
edge(134, 162).
edge(88, 119).
edge(97, 166).
edge(82, 171).
edge(16, 151).
edge(21, 148).
edge(140, 176).
edge(84, 184).
edge(98, 167).
edge(70, 110).
edge(69, 115).
edge(52, 153).
edge(62, 114).
edge(150, 172).
edge(108, 131).
edge(72, 178).
edge(32, 101).
edge(135, 159).
edge(7, 38).
edge(3, 30).
edge(46, 67).
edge(124, 185).
edge(89, 177).
edge(36, 80).
edge(5, 63).
edge(109, 134).
edge(17, 94).
edge(48, 75).
edge(91, 186).
edge(61, 142).
edge(74, 152).
edge(26, 133).
edge(30, 147).
edge(10, 40).
edge(32, 114).
edge(36, 117).
edge(81, 92).
edge(92, 94).
edge(13, 140).
edge(2, 167).
edge(94, 181).
edge(53, 153).
edge(16, 138).
edge(46, 151).
edge(11, 48).
edge(37, 146).
edge(112, 160).
edge(130, 141).
edge(69, 80).
edge(58, 88).
edge(92, 100).
edge(130, 162).
edge(84, 183).
edge(28, 181).
edge(5, 145).
edge(36, 136).
edge(6, 71).
edge(48, 76).
edge(40, 49).
edge(51, 80).
edge(148, 164).
edge(141, 173).
edge(97, 182).
edge(9, 173).
edge(135, 162).
edge(86, 175).
edge(23, 168).
edge(33, 108).
edge(87, 151).
edge(7, 109).
edge(42, 136).
edge(13, 74).
edge(88, 101).
edge(99, 152).
edge(103, 114).
edge(31, 49).
edge(46, 154).
edge(49, 113).
edge(26, 117).
edge(57, 108).
edge(12, 125).
edge(129, 146).
edge(18, 41).
edge(89, 127).
edge(28, 184).
edge(12, 19).
edge(145, 171).
edge(65, 69).
edge(87, 173).
edge(33, 66).
edge(139, 151).
edge(112, 124).
edge(66, 97).
edge(9, 151).
edge(5, 151).
edge(48, 69).
edge(97, 146).
edge(4, 161).
edge(117, 182).
edge(73, 151).
edge(11, 41).
edge(72, 85).
edge(33, 132).
edge(103, 115).
edge(91, 173).
edge(47, 64).
edge(3, 41).
edge(49, 83).
edge(13, 70).
edge(32, 174).
edge(85, 126).
edge(91, 152).
edge(136, 179).
edge(117, 170).
edge(146, 155).
edge(54, 179).
edge(76, 172).
edge(92, 112).
edge(95, 159).
edge(130, 174).
edge(29, 123).
edge(103, 139).
edge(51, 115).
edge(22, 100).
edge(106, 172).
edge(13, 55).
edge(7, 13).
edge(65, 120).
edge(73, 102).
edge(11, 97).
edge(87, 120).
edge(33, 170).
edge(24, 31).
edge(4, 46).
edge(110, 126).
edge(32, 76).
edge(9, 148).
edge(34, 118).
edge(126, 177).
edge(8, 19).
edge(13, 104).
edge(109, 121).
edge(12, 37).
edge(15, 66).
edge(31, 47).
edge(27, 128).
edge(41, 162).
edge(99, 135).
edge(97, 153).
edge(7, 86).
edge(66, 136).
edge(39, 119).
edge(32, 120).
edge(21, 82).
edge(60, 61).
edge(9, 60).
edge(124, 161).
edge(98, 183).
edge(72, 182).
edge(85, 181).
edge(91, 139).
edge(92, 161).
edge(34, 129).
edge(3, 63).
edge(63, 173).
edge(139, 183).
edge(23, 155).
edge(90, 131).
edge(0, 120).
edge(5, 9).
edge(76, 85).
edge(8, 98).
edge(26, 78).
edge(23, 92).
edge(38, 47).
edge(11, 56).
edge(54, 138).
edge(178, 179).
edge(17, 185).
edge(18, 93).
edge(138, 171).
edge(41, 122).
edge(83, 184).
edge(32, 83).
edge(104, 134).
edge(0, 77).
edge(16, 90).
edge(67, 82).
edge(55, 64).
edge(29, 112).
edge(21, 97).
edge(16, 181).
edge(4, 18).
edge(97, 113).
edge(19, 52).
edge(45, 95).
edge(81, 160).
edge(104, 171).
edge(87, 102).
edge(120, 184).
edge(34, 149).
edge(35, 138).
edge(50, 160).
edge(7, 172).
edge(19, 171).
edge(128, 152).
edge(88, 95).
edge(4, 52).
edge(139, 155).
edge(36, 59).
edge(91, 183).
edge(52, 127).
edge(83, 131).
edge(11, 34).
edge(104, 140).
edge(4, 96).
edge(35, 129).
edge(174, 176).
edge(82, 105).
edge(116, 150).
edge(93, 182).
edge(12, 156).
edge(108, 169).
edge(23, 159).
edge(64, 77).
edge(49, 132).
edge(13, 132).
edge(142, 186).
edge(110, 145).
edge(33, 158).
edge(73, 126).
edge(28, 160).
edge(24, 77).
edge(47, 92).
edge(15, 22).
edge(31, 123).
edge(128, 151).
edge(52, 185).
edge(121, 151).
edge(7, 146).
edge(109, 148).
edge(67, 136).
edge(10, 36).
edge(79, 145).
edge(114, 136).
edge(88, 120).
edge(167, 184).
edge(142, 180).
edge(39, 42).
edge(71, 102).
edge(142, 183).
edge(61, 81).
edge(79, 125).
edge(69, 99).
edge(6, 112).
edge(95, 114).
edge(92, 150).
edge(36, 69).
edge(18, 140).
edge(41, 164).
edge(43, 98).
edge(113, 175).
edge(137, 178).
edge(17, 159).
edge(19, 163).
edge(52, 76).
edge(17, 177).
edge(43, 130).
edge(20, 158).
edge(36, 108).
edge(90, 93).
edge(90, 129).
edge(43, 63).
edge(12, 124).
edge(113, 176).
edge(145, 152).
edge(38, 168).
edge(129, 145).
edge(23, 57).
edge(136, 143).
edge(113, 133).
edge(63, 90).
edge(59, 185).
edge(2, 108).
edge(175, 176).
edge(40, 177).
edge(108, 182).
edge(71, 116).
edge(54, 110).
edge(104, 143).
edge(8, 55).
edge(47, 68).
edge(43, 146).
edge(3, 150).
edge(18, 47).
edge(89, 112).
edge(77, 158).
edge(0, 99).
edge(57, 153).
edge(90, 121).
edge(127, 158).
edge(41, 103).
edge(141, 142).
edge(11, 173).
edge(60, 95).
edge(50, 113).
edge(32, 89).
edge(107, 179).
edge(27, 72).
edge(54, 122).
edge(39, 155).
edge(122, 132).
edge(31, 142).
edge(8, 104).
edge(100, 101).
edge(44, 120).
edge(87, 128).
edge(28, 146).
edge(28, 117).
edge(81, 151).
edge(102, 142).
edge(130, 177).
edge(26, 89).
edge(24, 105).
edge(24, 83).
edge(66, 93).
edge(80, 122).
edge(47, 127).
edge(14, 103).
edge(69, 95).
edge(19, 36).
edge(41, 129).
edge(36, 38).
edge(43, 53).
edge(56, 158).
edge(102, 129).
edge(66, 142).
edge(37, 120).
edge(83, 156).
edge(102, 138).
edge(31, 65).
edge(4, 127).
edge(101, 161).
edge(173, 179).
edge(149, 165).
edge(49, 127).
edge(21, 65).
edge(39, 133).
edge(29, 122).
edge(5, 130).
edge(20, 163).
edge(34, 145).
edge(6, 132).
edge(134, 171).
edge(137, 159).
edge(12, 70).
edge(90, 161).
edge(28, 172).
edge(114, 169).
edge(44, 112).
edge(7, 124).
edge(26, 73).
edge(15, 110).
edge(39, 117).
edge(158, 162).
edge(68, 133).
edge(64, 100).
edge(61, 88).
edge(74, 158).
edge(122, 127).
edge(38, 116).
edge(151, 164).
edge(33, 172).
edge(69, 143).
edge(109, 186).
edge(101, 132).
edge(92, 164).
edge(174, 183).
edge(5, 110).
edge(108, 181).
edge(180, 184).
edge(18, 147).
edge(13, 36).
edge(29, 130).
edge(5, 153).
edge(76, 128).
edge(59, 102).
edge(9, 25).
edge(25, 37).
edge(42, 132).
edge(18, 130).
edge(71, 79).
edge(60, 104).
edge(65, 183).
edge(86, 144).
edge(54, 77).
edge(32, 91).
edge(83, 183).
edge(55, 115).
edge(44, 167).
edge(2, 83).
edge(41, 148).
edge(44, 61).
edge(55, 106).
edge(126, 162).
edge(31, 60).
edge(79, 131).
edge(75, 100).
edge(46, 167).
edge(124, 180).
edge(15, 161).
edge(56, 109).
edge(151, 158).
edge(15, 100).
edge(136, 172).
edge(11, 87).
edge(6, 69).
edge(10, 53).
edge(11, 124).
edge(93, 100).
edge(63, 83).
edge(20, 91).
edge(20, 40).
edge(159, 179).
edge(61, 130).
edge(39, 178).
edge(104, 163).
edge(84, 122).
edge(88, 149).
edge(52, 92).
edge(145, 186).
edge(56, 111).
edge(103, 135).
edge(51, 135).
edge(101, 168).
edge(53, 100).
edge(53, 104).
edge(4, 16).
edge(51, 161).
edge(29, 87).
edge(32, 113).
edge(127, 150).
edge(124, 134).
edge(23, 120).
edge(27, 109).
edge(18, 144).
edge(26, 102).
edge(105, 138).
edge(27, 50).
edge(36, 129).
edge(63, 149).
edge(70, 172).
edge(60, 93).
edge(21, 169).
edge(45, 94).
edge(74, 94).
edge(37, 155).
edge(23, 88).
edge(80, 155).
edge(36, 144).
edge(26, 64).
edge(13, 125).
edge(65, 72).
edge(39, 91).
edge(59, 186).
edge(87, 134).
edge(23, 125).
edge(142, 173).
edge(132, 137).
edge(53, 141).
edge(97, 123).
edge(31, 124).
edge(5, 91).
edge(49, 75).
edge(156, 159).
edge(51, 159).
edge(77, 148).
edge(139, 145).
edge(86, 133).
edge(141, 176).
edge(49, 180).
edge(112, 169).
edge(15, 112).
edge(90, 95).
edge(173, 181).
edge(27, 85).
edge(99, 147).
edge(54, 148).
edge(4, 154).
edge(139, 170).
edge(44, 175).
edge(133, 163).
edge(62, 144).
edge(71, 126).
edge(106, 137).
edge(31, 161).
edge(98, 123).
edge(44, 74).
edge(56, 170).
edge(7, 105).
edge(38, 130).
edge(20, 27).
edge(21, 100).
edge(14, 21).
edge(25, 166).
edge(94, 112).
edge(85, 160).
edge(99, 160).
edge(70, 139).
edge(121, 140).
edge(63, 148).
edge(62, 150).
edge(123, 183).
edge(60, 79).
edge(12, 185).
edge(86, 107).
edge(63, 114).
edge(26, 33).
edge(113, 151).
edge(3, 94).
edge(9, 176).
edge(70, 98).
edge(52, 53).
edge(87, 115).
edge(19, 131).
edge(105, 147).
edge(25, 112).
edge(63, 69).
edge(48, 71).
edge(71, 110).
edge(55, 136).
edge(25, 110).
edge(108, 142).
edge(12, 121).
edge(134, 160).
edge(103, 184).
edge(81, 172).
edge(168, 183).
edge(14, 148).
edge(11, 178).
edge(92, 141).
edge(48, 171).
edge(73, 136).
edge(17, 71).
edge(16, 53).
edge(46, 132).
edge(14, 153).
edge(6, 85).
edge(116, 120).
edge(60, 171).
edge(129, 140).
edge(51, 98).
edge(6, 144).
edge(112, 182).
edge(56, 131).
edge(49, 128).
edge(35, 171).
edge(20, 64).
edge(65, 133).
edge(52, 152).
edge(84, 181).
edge(18, 46).
edge(44, 47).
edge(9, 114).
edge(104, 182).
edge(1, 160).
edge(7, 140).
edge(117, 153).
edge(15, 75).
edge(114, 146).
edge(50, 62).
edge(34, 125).
edge(96, 175).
edge(108, 111).
edge(4, 89).
edge(132, 168).
edge(23, 108).
edge(79, 159).
edge(68, 124).
edge(11, 149).
edge(6, 141).
edge(123, 162).
edge(135, 172).
edge(87, 114).
edge(50, 118).
edge(3, 132).
edge(77, 184).
edge(10, 82).
edge(80, 136).
edge(75, 78).
edge(12, 63).
edge(145, 149).
edge(41, 93).
edge(96, 181).
edge(49, 151).
edge(49, 126).
edge(18, 114).
edge(128, 132).
edge(8, 14).
edge(2, 109).
edge(96, 148).
edge(83, 93).
edge(124, 155).
edge(138, 144).
edge(54, 85).
edge(116, 133).
edge(56, 91).
edge(11, 22).
edge(30, 60).
edge(7, 35).
edge(2, 117).
edge(6, 65).
edge(154, 186).
edge(86, 92).
edge(88, 154).
edge(76, 86).
edge(29, 170).
edge(11, 109).
edge(79, 116).
edge(0, 184).
edge(43, 64).
edge(76, 176).
edge(103, 169).
edge(59, 167).
edge(164, 180).
edge(118, 162).
edge(25, 92).
edge(54, 144).
edge(53, 113).
edge(16, 105).
edge(94, 162).
edge(104, 106).
edge(140, 170).
edge(18, 171).
edge(120, 147).
edge(31, 163).
edge(109, 173).
edge(10, 138).
edge(25, 116).
edge(70, 170).
edge(32, 142).
edge(17, 157).
edge(23, 35).
edge(178, 183).
edge(34, 123).
edge(34, 159).
edge(46, 166).
edge(12, 102).
edge(85, 119).
edge(116, 124).
edge(119, 141).
edge(24, 161).
edge(64, 117).
edge(119, 156).
edge(142, 167).
edge(14, 165).
edge(73, 162).
edge(80, 84).
edge(76, 180).
edge(128, 185).
edge(65, 125).
edge(116, 134).
edge(104, 124).
edge(95, 132).
edge(110, 156).
edge(100, 177).
edge(22, 87).
edge(21, 60).
edge(100, 139).
edge(111, 116).
edge(180, 181).
edge(0, 147).
edge(5, 33).
edge(49, 79).
edge(78, 105).
edge(30, 35).
edge(106, 163).
edge(72, 104).
edge(127, 171).
edge(65, 92).
edge(135, 177).
edge(67, 85).
edge(33, 106).
edge(23, 97).
edge(92, 176).
edge(84, 186).
edge(79, 137).
edge(30, 48).
edge(13, 100).
edge(22, 48).
edge(1, 159).
edge(51, 56).
edge(49, 99).
edge(16, 99).
edge(90, 149).
edge(14, 58).
edge(115, 122).
edge(59, 109).
edge(61, 102).
edge(137, 151).
edge(45, 180).
edge(31, 57).
edge(14, 31).
edge(9, 64).
edge(2, 87).
edge(143, 150).
edge(57, 118).
edge(62, 119).
edge(141, 180).
edge(82, 156).
edge(13, 47).
edge(54, 133).
edge(65, 179).
edge(62, 110).
edge(64, 110).
edge(1, 14).
edge(68, 87).
edge(77, 125).
edge(87, 95).
edge(69, 157).
edge(114, 122).
edge(57, 144).
edge(11, 62).
edge(9, 117).
edge(40, 77).
edge(135, 183).
edge(103, 140).
edge(38, 174).
edge(34, 177).
edge(29, 61).
edge(57, 176).
edge(22, 95).
edge(38, 158).
edge(9, 27).
edge(35, 166).
edge(19, 168).
edge(10, 14).
edge(19, 42).
edge(13, 17).
edge(18, 148).
edge(55, 177).
edge(106, 170).
edge(26, 55).
edge(181, 186).
edge(1, 63).
edge(74, 136).
edge(12, 46).
edge(166, 167).
edge(98, 129).
edge(33, 123).
edge(133, 141).
edge(11, 176).
edge(6, 50).
edge(33, 39).
edge(8, 115).
edge(146, 153).
edge(5, 34).
edge(44, 54).
edge(28, 141).
edge(38, 88).
edge(26, 110).
edge(22, 138).
edge(6, 72).
edge(176, 179).
edge(146, 151).
edge(66, 108).
edge(72, 138).
edge(17, 113).
edge(9, 94).
edge(35, 83).
edge(10, 52).
edge(79, 103).
edge(18, 169).
edge(87, 97).
edge(45, 107).
edge(156, 186).
edge(80, 102).
edge(70, 118).
edge(41, 120).
edge(136, 166).
edge(18, 170).
edge(85, 173).
edge(76, 99).
edge(15, 27).
edge(42, 46).
edge(102, 122).
edge(44, 75).
edge(18, 80).
edge(39, 71).
edge(11, 142).
edge(65, 151).
edge(84, 148).
edge(1, 100).
edge(6, 104).
edge(83, 142).
edge(89, 115).
edge(42, 92).
edge(38, 84).
edge(130, 182).
edge(85, 149).
edge(52, 78).
edge(69, 183).
edge(65, 163).
edge(31, 97).
edge(53, 60).
edge(76, 77).
edge(100, 150).
edge(118, 172).
edge(16, 150).
edge(73, 110).
edge(2, 176).
edge(92, 171).
edge(68, 137).
edge(64, 126).
edge(76, 118).
edge(34, 50).
edge(39, 48).
edge(113, 170).
edge(77, 79).
edge(88, 110).
edge(37, 72).
edge(86, 151).
edge(43, 77).
edge(111, 171).
edge(86, 138).
edge(49, 80).
edge(127, 157).
edge(99, 173).
edge(43, 177).
edge(6, 94).
edge(3, 118).
edge(22, 75).
edge(67, 81).
edge(41, 175).
edge(48, 170).
edge(134, 149).
edge(127, 152).
edge(25, 57).
edge(91, 169).
edge(106, 144).
edge(70, 122).
edge(159, 173).
edge(65, 142).
edge(147, 157).
edge(34, 93).
edge(6, 26).
edge(152, 164).
edge(64, 147).
edge(65, 113).
edge(75, 157).
edge(129, 163).
edge(2, 8).
edge(39, 87).
edge(47, 107).
edge(47, 63).
edge(92, 173).
edge(11, 111).
edge(143, 162).
edge(86, 149).
edge(148, 157).
edge(53, 143).
edge(108, 149).
edge(112, 159).
edge(64, 144).
edge(73, 91).
edge(157, 175).
edge(50, 185).
edge(74, 185).
edge(154, 155).
edge(17, 154).
edge(108, 157).
edge(78, 85).
edge(15, 34).
edge(42, 52).
edge(156, 161).
edge(63, 102).
edge(13, 96).
edge(31, 101).
edge(28, 107).
edge(8, 112).
edge(13, 29).
edge(126, 180).
edge(121, 130).
edge(28, 137).
edge(13, 115).
edge(35, 172).
edge(63, 115).
edge(43, 91).
edge(60, 120).
edge(86, 104).
edge(129, 159).
edge(49, 93).
edge(110, 150).
edge(43, 70).
edge(64, 76).
edge(134, 167).
edge(81, 175).
edge(41, 70).
edge(7, 114).
edge(103, 170).
edge(59, 86).
edge(25, 165).
edge(56, 137).
edge(2, 184).
edge(101, 175).
edge(120, 141).
edge(17, 85).
edge(146, 184).
edge(69, 173).
edge(43, 55).
edge(52, 165).
edge(146, 154).
edge(42, 112).
edge(60, 175).
edge(38, 66).
edge(34, 41).
edge(65, 157).
edge(14, 182).
edge(23, 130).
edge(114, 127).
edge(1, 32).
edge(75, 90).
edge(25, 50).
edge(10, 79).
edge(18, 44).
edge(37, 93).
edge(33, 122).
edge(73, 107).
edge(81, 171).
edge(121, 131).
edge(129, 178).
edge(52, 85).
edge(21, 157).
edge(88, 147).
edge(15, 115).
edge(60, 142).
edge(19, 49).
edge(38, 86).
edge(60, 94).
edge(87, 145).
edge(136, 152).
edge(105, 179).
edge(163, 178).
edge(37, 46).
edge(69, 93).
edge(88, 178).
edge(6, 34).
edge(70, 115).
edge(85, 174).
edge(39, 129).
edge(6, 116).
edge(89, 126).
edge(28, 71).
edge(32, 126).
edge(79, 94).
edge(104, 172).
edge(19, 40).
edge(110, 175).
edge(63, 161).
edge(135, 136).
edge(35, 54).
edge(31, 102).
edge(15, 97).
edge(8, 173).
edge(15, 166).
edge(86, 98).
edge(40, 139).
edge(104, 130).
edge(144, 148).
edge(98, 165).
edge(14, 152).
edge(135, 169).
edge(73, 152).
edge(50, 184).
edge(50, 100).
edge(79, 152).
edge(74, 122).
edge(55, 88).
edge(130, 132).
edge(27, 158).
edge(48, 164).
edge(10, 176).
edge(103, 174).
edge(148, 165).
edge(104, 119).
edge(4, 61).
edge(69, 140).
edge(35, 108).
edge(13, 101).
edge(50, 99).
edge(23, 28).
edge(10, 185).
edge(83, 105).
edge(145, 169).
edge(34, 144).
edge(41, 65).
edge(20, 119).
edge(29, 118).
edge(75, 124).
edge(106, 107).
edge(13, 44).
edge(49, 85).
edge(18, 56).
edge(0, 59).
edge(93, 171).
edge(0, 87).
edge(95, 137).
edge(3, 50).
edge(36, 151).
edge(37, 106).
edge(65, 168).
edge(160, 165).
edge(31, 66).
edge(1, 28).
edge(92, 175).
edge(53, 164).
edge(63, 170).
edge(16, 26).
edge(2, 14).
edge(69, 138).
edge(29, 139).
edge(109, 162).
edge(66, 177).
edge(4, 73).
edge(29, 159).
edge(27, 86).
edge(80, 149).
edge(49, 129).
edge(89, 137).
edge(10, 89).
edge(155, 157).
edge(48, 182).
edge(28, 36).
edge(30, 157).
edge(61, 92).
edge(92, 135).
edge(44, 94).
edge(24, 50).
edge(25, 45).
edge(37, 63).
edge(115, 134).
edge(106, 148).
edge(11, 116).
edge(44, 154).
edge(103, 119).
edge(80, 179).
edge(94, 154).
edge(70, 146).
edge(7, 72).
edge(15, 25).
edge(39, 99).
edge(38, 139).
edge(99, 169).
edge(101, 102).
edge(75, 86).
edge(60, 100).
edge(17, 99).
edge(31, 106).
edge(58, 166).
edge(19, 87).
edge(14, 175).
edge(8, 50).
edge(30, 97).
edge(87, 121).
edge(0, 76).
edge(77, 113).
edge(18, 166).
edge(99, 131).
edge(144, 186).
edge(4, 131).
edge(115, 185).
edge(4, 118).
edge(84, 165).
edge(102, 147).
edge(97, 168).
edge(102, 118).
edge(76, 134).
edge(80, 128).
edge(132, 169).
edge(102, 159).
edge(61, 97).
edge(137, 183).
edge(92, 117).
edge(38, 142).
edge(19, 29).
edge(37, 151).
edge(90, 166).
edge(123, 176).
edge(50, 115).
edge(6, 175).
edge(60, 107).
edge(90, 130).
edge(107, 183).
edge(20, 110).
edge(127, 148).
edge(82, 146).
edge(32, 143).
edge(34, 76).
edge(132, 177).
edge(59, 150).
edge(79, 99).
edge(133, 135).
edge(140, 152).
edge(34, 153).
edge(57, 115).
edge(122, 124).
edge(42, 177).
edge(59, 172).
edge(58, 85).
edge(64, 98).
edge(98, 112).
edge(136, 157).
edge(10, 144).
edge(55, 111).
edge(77, 169).
edge(40, 111).
edge(41, 84).
edge(53, 73).
edge(24, 60).
edge(39, 100).
edge(11, 163).
edge(33, 150).
edge(13, 28).
edge(3, 4).
edge(93, 129).
edge(26, 92).
edge(15, 169).
edge(9, 141).
edge(107, 119).
edge(127, 156).
edge(6, 55).
edge(66, 92).
edge(27, 80).
edge(24, 153).
edge(65, 66).
edge(155, 180).
edge(21, 55).
edge(59, 119).
edge(23, 76).
edge(146, 166).
edge(129, 171).
edge(5, 152).
edge(84, 145).
edge(48, 82).
edge(46, 78).
edge(106, 160).
edge(26, 157).
edge(18, 131).
edge(40, 136).
edge(9, 67).
edge(68, 123).
edge(78, 81).
edge(71, 115).
edge(22, 97).
edge(59, 111).
edge(123, 180).
edge(162, 166).
edge(43, 121).
edge(59, 114).
edge(71, 180).
edge(39, 86).
edge(87, 90).
edge(3, 71).
edge(85, 154).
edge(54, 177).
edge(13, 67).
edge(119, 135).
edge(45, 181).
edge(32, 36).
edge(9, 150).
edge(97, 104).
edge(54, 98).
edge(40, 117).
edge(64, 172).
edge(128, 135).
edge(20, 92).
edge(9, 154).
edge(37, 58).
edge(70, 158).
edge(83, 170).
edge(106, 133).
edge(47, 159).
edge(47, 186).
edge(27, 58).
edge(120, 176).
edge(0, 148).
edge(65, 118).
edge(143, 177).
edge(155, 160).
edge(82, 138).
edge(154, 162).
edge(80, 174).
edge(31, 130).
edge(37, 89).
edge(50, 73).
edge(22, 107).
edge(12, 76).
edge(70, 117).
edge(136, 148).
edge(12, 93).
edge(55, 174).
edge(38, 124).
edge(48, 154).
edge(33, 145).
edge(68, 150).
edge(8, 97).
edge(40, 61).
edge(152, 155).
edge(13, 126).
edge(114, 166).
edge(30, 163).
edge(9, 95).
edge(12, 170).
edge(77, 138).
edge(173, 184).
edge(16, 33).
edge(179, 181).
edge(23, 166).
edge(19, 24).
edge(96, 157).
edge(46, 168).
edge(95, 150).
edge(116, 145).
edge(17, 19).
edge(3, 137).
edge(78, 98).
edge(121, 147).
edge(86, 111).
edge(35, 144).
edge(101, 170).
edge(15, 122).
edge(28, 93).
edge(37, 71).
edge(107, 151).
edge(4, 87).
edge(60, 68).
edge(17, 153).
edge(18, 182).
edge(71, 166).
edge(28, 39).
edge(82, 111).
edge(132, 174).
edge(76, 158).
edge(20, 146).
edge(35, 130).
edge(41, 182).
edge(78, 94).
edge(45, 61).
edge(2, 84).
edge(44, 97).
edge(47, 85).
edge(86, 90).
edge(104, 176).
edge(101, 126).
edge(114, 174).
edge(82, 177).
edge(17, 127).
edge(140, 163).
edge(29, 34).
edge(8, 85).
edge(26, 77).
edge(87, 155).
edge(72, 156).
edge(88, 114).
edge(77, 171).
edge(82, 139).
edge(48, 167).
edge(36, 57).
edge(38, 107).
edge(71, 96).
edge(68, 76).
edge(87, 107).
edge(92, 119).
edge(112, 173).
edge(8, 84).
edge(66, 102).
edge(27, 148).
edge(66, 112).
edge(40, 121).
edge(39, 89).
edge(32, 39).
edge(102, 113).
edge(18, 164).
edge(60, 163).
edge(43, 153).
edge(129, 147).
edge(16, 108).
edge(163, 181).
edge(64, 129).
edge(5, 44).
edge(13, 178).
edge(99, 184).
edge(51, 182).
edge(48, 121).
edge(8, 62).
edge(54, 96).
edge(101, 125).
edge(152, 157).
edge(11, 113).
edge(31, 98).
edge(42, 84).
edge(14, 56).
edge(14, 173).
edge(35, 41).
edge(8, 88).
edge(132, 157).
edge(60, 69).
edge(24, 90).
edge(0, 179).
edge(5, 18).
edge(12, 174).
edge(41, 104).
edge(80, 137).
edge(6, 159).
edge(28, 183).
edge(13, 173).
edge(29, 67).
edge(80, 135).
edge(63, 130).
edge(2, 137).
edge(62, 63).
edge(113, 134).
edge(154, 171).
edge(91, 154).
edge(51, 124).
edge(55, 125).
edge(65, 169).
edge(11, 120).
edge(61, 104).
edge(168, 177).
edge(27, 123).
edge(149, 157).
edge(56, 176).
edge(61, 116).
edge(61, 183).
edge(4, 37).
edge(84, 121).
edge(1, 153).
edge(27, 84).
edge(105, 141).
edge(68, 147).
edge(12, 34).
edge(20, 76).
edge(95, 112).
edge(87, 113).
edge(12, 159).
edge(39, 74).
edge(37, 161).
edge(49, 110).
edge(49, 70).
edge(149, 168).
edge(44, 134).
edge(142, 154).
edge(79, 83).
edge(48, 51).
edge(41, 179).
edge(127, 186).
edge(98, 141).
edge(169, 172).
edge(68, 107).
edge(122, 161).
edge(175, 184).
edge(78, 144).
edge(123, 160).
edge(22, 166).
edge(43, 59).
edge(12, 25).
edge(7, 137).
edge(22, 167).
edge(28, 58).
edge(123, 182).
edge(46, 141).
edge(120, 177).
edge(21, 120).
edge(138, 181).
edge(28, 134).
edge(25, 65).
edge(48, 53).
edge(8, 165).
edge(9, 162).
edge(6, 165).
edge(114, 140).
edge(34, 74).
edge(46, 181).
edge(39, 52).
edge(102, 143).
edge(94, 122).
edge(43, 119).
edge(16, 120).
edge(95, 125).
edge(21, 31).
edge(52, 125).
edge(59, 145).
edge(71, 141).
edge(37, 42).
edge(22, 67).
edge(71, 109).
edge(47, 143).
edge(21, 119).
edge(6, 7).
edge(37, 122).
edge(26, 42).
edge(54, 151).
edge(26, 34).
edge(71, 138).
edge(168, 180).
edge(83, 161).
edge(1, 68).
edge(58, 112).
edge(40, 63).
edge(88, 138).
edge(58, 80).
edge(125, 156).
edge(96, 143).
edge(76, 162).
edge(109, 168).
edge(51, 79).
edge(8, 74).
edge(61, 151).
edge(111, 131).
edge(49, 146).
edge(122, 134).
edge(32, 147).
edge(23, 50).
edge(162, 170).
edge(30, 41).
edge(9, 13).
edge(55, 82).
edge(29, 153).
edge(76, 125).
edge(28, 56).
edge(93, 124).
edge(75, 118).
edge(89, 118).
edge(55, 60).
edge(76, 135).
edge(120, 165).
edge(2, 99).
edge(22, 168).
edge(39, 126).
edge(151, 182).
edge(66, 98).
edge(95, 145).
edge(131, 179).
edge(60, 86).
edge(41, 137).
edge(156, 177).
edge(111, 184).
edge(2, 160).
edge(82, 159).
edge(106, 116).
edge(65, 129).
edge(23, 162).
edge(0, 5).
edge(38, 183).
edge(102, 182).
edge(97, 120).
edge(54, 60).
edge(56, 70).
edge(42, 157).
edge(3, 102).
edge(39, 125).
edge(157, 180).
edge(29, 133).
edge(41, 77).
edge(8, 156).
edge(29, 128).
edge(55, 91).
edge(26, 123).
edge(140, 169).
edge(33, 67).
edge(14, 39).
edge(84, 88).
edge(7, 12).
edge(116, 135).
edge(123, 136).
edge(68, 105).
edge(49, 52).
edge(77, 174).
edge(1, 19).
edge(69, 164).
edge(23, 77).
edge(62, 67).
edge(128, 153).
edge(15, 116).
edge(104, 184).
edge(151, 155).
edge(65, 186).
edge(72, 146).
edge(34, 105).
edge(131, 141).
edge(59, 97).
edge(39, 112).
edge(62, 165).
edge(33, 114).
edge(5, 150).
edge(49, 89).
edge(49, 77).
edge(137, 169).
edge(56, 177).
edge(66, 159).
edge(34, 158).
edge(118, 140).
edge(27, 91).
edge(22, 173).
edge(17, 77).
edge(86, 110).
edge(78, 130).
edge(41, 170).
edge(48, 59).
edge(53, 157).
edge(170, 181).
edge(12, 100).
edge(10, 18).
edge(28, 75).
edge(81, 120).
edge(137, 166).
edge(30, 103).
edge(37, 51).
edge(110, 174).
edge(41, 99).
edge(71, 147).
edge(82, 155).
edge(80, 111).
edge(156, 157).
edge(155, 161).
edge(49, 66).
edge(23, 107).
edge(97, 107).
edge(59, 62).
edge(112, 156).
edge(48, 118).
edge(63, 121).
edge(93, 127).
edge(50, 163).
edge(54, 116).
edge(115, 143).
edge(61, 63).
edge(72, 91).
edge(27, 46).
edge(74, 177).
edge(33, 60).
edge(168, 184).
edge(78, 145).
edge(81, 136).
edge(0, 132).
edge(26, 107).
edge(86, 130).
edge(13, 20).
edge(17, 166).
edge(45, 98).
edge(139, 172).
edge(154, 167).
edge(80, 148).
edge(46, 68).
edge(15, 56).
edge(146, 171).
edge(116, 166).
edge(111, 132).
edge(36, 138).
edge(132, 173).
edge(13, 136).
edge(20, 156).
edge(65, 100).
edge(16, 68).
edge(105, 175).
edge(32, 133).
edge(3, 97).
edge(62, 82).
edge(78, 141).
edge(153, 167).
edge(114, 157).
edge(77, 111).
edge(77, 122).
edge(67, 111).
edge(72, 131).
edge(65, 83).
edge(36, 170).
edge(49, 54).
edge(45, 89).
edge(44, 73).
edge(90, 111).
edge(51, 148).
edge(105, 160).
edge(181, 182).
edge(9, 165).
edge(88, 186).
edge(68, 73).
edge(43, 179).
edge(2, 86).
edge(16, 149).
edge(49, 61).
edge(73, 127).
edge(31, 76).
edge(30, 90).
edge(11, 12).
edge(68, 97).
edge(66, 80).
edge(93, 126).
edge(39, 158).
edge(110, 130).
edge(14, 48).
edge(63, 158).
edge(51, 82).
edge(19, 154).
edge(111, 172).
edge(70, 97).
edge(38, 136).
edge(11, 184).
edge(153, 164).
edge(103, 127).
edge(118, 122).
edge(27, 67).
edge(9, 159).
edge(119, 147).
edge(104, 105).
edge(91, 124).
edge(83, 98).
edge(57, 93).
edge(29, 60).
edge(135, 181).
edge(43, 44).
edge(134, 135).
edge(37, 105).
edge(75, 132).
edge(114, 165).
edge(54, 115).
edge(45, 48).
edge(138, 166).
edge(54, 157).
edge(49, 156).
edge(75, 126).
edge(139, 168).
edge(36, 127).
edge(43, 131).
edge(45, 65).
edge(78, 106).
edge(85, 112).
edge(55, 131).
edge(89, 144).
edge(150, 173).
edge(17, 149).
edge(17, 128).
edge(79, 128).
edge(141, 177).
edge(34, 126).
edge(89, 114).
edge(75, 139).
edge(53, 79).
edge(56, 57).
edge(21, 161).
edge(22, 84).
edge(126, 140).
edge(76, 98).
edge(124, 179).
edge(7, 184).
edge(5, 160).
edge(177, 181).
edge(127, 133).
edge(8, 102).
edge(147, 184).
edge(74, 139).
edge(30, 151).
edge(43, 176).
edge(58, 89).
edge(4, 78).
edge(64, 168).
edge(88, 92).
edge(112, 117).
edge(46, 79).
edge(75, 103).
edge(27, 60).
edge(17, 150).
edge(54, 150).
edge(14, 60).
edge(24, 42).
edge(119, 169).
edge(123, 131).
edge(36, 173).
edge(148, 175).
edge(112, 144).
edge(68, 82).
edge(65, 150).
edge(81, 111).
edge(105, 122).
edge(46, 70).
edge(65, 156).
edge(27, 129).
edge(65, 77).
edge(10, 48).
edge(43, 174).
edge(3, 161).
edge(73, 140).
edge(10, 38).
edge(64, 156).
edge(66, 175).
edge(105, 136).
edge(52, 87).
edge(105, 166).
edge(53, 88).
edge(101, 165).
edge(144, 176).
edge(75, 138).
edge(4, 159).
edge(4, 121).
edge(138, 178).
edge(7, 58).
edge(44, 125).
edge(135, 158).
edge(43, 185).
edge(58, 91).
edge(7, 46).
edge(95, 128).
edge(6, 115).
edge(106, 175).
edge(59, 103).
edge(129, 134).
edge(36, 171).
edge(9, 29).
edge(24, 48).
edge(5, 182).
edge(20, 140).
edge(29, 145).
edge(48, 99).
edge(40, 118).
edge(119, 166).
edge(150, 158).
edge(73, 145).
edge(75, 134).
edge(144, 150).
edge(10, 119).
edge(153, 177).
edge(84, 174).
edge(55, 157).
edge(53, 110).
edge(52, 151).
edge(9, 181).
edge(40, 56).
edge(55, 169).
edge(94, 126).
edge(101, 150).
edge(16, 137).
edge(32, 34).
edge(51, 66).
edge(16, 118).
edge(44, 177).
edge(80, 109).
edge(36, 60).
edge(43, 144).
edge(23, 58).
edge(121, 162).
edge(129, 158).
edge(68, 122).
edge(50, 122).
edge(22, 152).
edge(54, 131).
edge(132, 153).
edge(41, 177).
edge(52, 140).
edge(99, 144).
edge(34, 85).
edge(70, 177).
edge(79, 109).
edge(83, 168).
edge(85, 107).
edge(34, 92).
edge(46, 47).
edge(12, 55).
edge(166, 175).
edge(34, 52).
edge(3, 112).
edge(117, 176).
edge(110, 114).
edge(91, 148).
edge(88, 107).
edge(80, 82).
edge(55, 171).
edge(43, 57).
edge(4, 168).
edge(40, 186).
edge(103, 183).
edge(117, 138).
edge(63, 179).
edge(127, 141).
edge(91, 113).
edge(6, 184).
edge(108, 171).
edge(116, 121).
edge(32, 183).
edge(21, 173).
edge(116, 172).
edge(35, 119).
edge(93, 180).
edge(20, 147).
edge(23, 40).
edge(70, 157).
edge(27, 69).
edge(110, 165).
edge(53, 165).
edge(0, 137).
edge(37, 69).
edge(27, 181).
edge(14, 35).
edge(74, 123).
edge(10, 21).
edge(83, 186).
edge(24, 38).
edge(17, 176).
edge(9, 123).
edge(14, 128).
edge(89, 133).
edge(29, 115).
edge(51, 105).
edge(51, 157).
edge(7, 106).
edge(43, 150).
edge(102, 170).
edge(18, 160).
edge(104, 120).
edge(36, 99).
edge(6, 143).
edge(118, 148).
edge(139, 166).
edge(27, 163).
edge(28, 119).
edge(90, 92).
edge(85, 157).
edge(79, 157).
edge(162, 182).
edge(14, 141).
edge(34, 181).
edge(68, 167).
edge(49, 130).
edge(6, 182).
edge(41, 75).
edge(37, 87).
edge(40, 76).
edge(111, 126).
edge(21, 186).
edge(0, 23).
edge(107, 167).
edge(100, 132).
edge(24, 81).
edge(98, 99).
edge(23, 116).
edge(120, 169).
edge(127, 167).
edge(58, 126).
edge(27, 45).
edge(2, 162).
edge(39, 51).
edge(11, 58).
edge(164, 186).
edge(103, 146).
edge(32, 45).
edge(137, 156).
edge(21, 143).
edge(51, 160).
edge(62, 100).
edge(18, 137).
edge(3, 143).
edge(74, 106).
edge(0, 48).
edge(86, 115).
edge(96, 144).
edge(85, 158).
edge(97, 180).
edge(144, 157).
edge(2, 38).
edge(88, 90).
edge(2, 155).
edge(8, 168).
edge(57, 161).
edge(54, 107).
edge(31, 104).
edge(52, 135).
edge(21, 184).
edge(37, 142).
edge(22, 105).
edge(44, 170).
edge(26, 180).
edge(56, 183).
edge(125, 144).
edge(106, 185).
edge(7, 26).
edge(132, 163).
edge(12, 143).
edge(40, 160).
edge(44, 87).
edge(39, 77).
edge(79, 160).
edge(51, 87).
edge(30, 174).
edge(90, 182).
edge(17, 114).
edge(51, 119).
edge(88, 163).
edge(65, 121).
edge(133, 156).
edge(87, 140).
edge(95, 171).
edge(35, 162).
edge(31, 136).
edge(83, 109).
edge(59, 91).
edge(30, 124).
edge(36, 101).
edge(95, 133).
edge(36, 116).
edge(49, 176).
edge(31, 58).
edge(96, 111).
edge(38, 104).
edge(23, 175).
edge(10, 78).
edge(151, 186).
edge(64, 184).
edge(89, 97).
edge(75, 171).
edge(84, 103).
edge(57, 122).
edge(87, 96).
edge(24, 132).
edge(17, 40).
edge(102, 169).
edge(28, 86).
edge(10, 77).
edge(23, 179).
edge(10, 87).
edge(112, 161).
edge(139, 159).
edge(46, 156).
edge(71, 93).
edge(37, 169).
edge(161, 182).
edge(6, 9).
edge(38, 157).
edge(156, 164).
edge(82, 175).
edge(13, 108).
edge(42, 96).
edge(26, 134).
edge(178, 186).
edge(96, 134).
edge(17, 69).
edge(142, 159).
edge(99, 149).
edge(12, 61).
edge(136, 155).
edge(7, 101).
edge(84, 98).
edge(74, 186).
edge(75, 175).
edge(165, 171).
edge(52, 70).
edge(82, 89).
edge(45, 173).
edge(67, 71).
edge(49, 158).
edge(46, 128).
edge(64, 106).
edge(36, 150).
edge(40, 41).
edge(47, 133).
edge(46, 64).
edge(10, 181).
edge(63, 163).
edge(15, 143).
edge(44, 147).
edge(33, 120).
edge(117, 180).
edge(66, 167).
edge(105, 109).
edge(23, 60).
edge(128, 134).
edge(122, 126).
edge(0, 185).
edge(149, 170).
edge(115, 140).
edge(46, 163).
edge(29, 167).
edge(68, 160).
edge(17, 49).
edge(12, 50).
edge(18, 149).
edge(78, 158).
edge(54, 73).
edge(10, 49).
edge(54, 106).
edge(5, 86).
edge(40, 97).
edge(72, 78).
edge(63, 89).
edge(106, 161).
edge(40, 152).
edge(48, 127).
edge(19, 108).
edge(138, 143).
edge(68, 111).
edge(3, 57).
edge(100, 116).
edge(77, 164).
edge(14, 180).
edge(81, 167).
edge(101, 149).
edge(21, 89).
edge(44, 123).
edge(42, 148).
edge(9, 172).
edge(161, 169).
edge(28, 40).
edge(36, 66).
edge(10, 28).
edge(22, 176).
edge(58, 113).
edge(82, 174).
edge(57, 150).
edge(38, 137).
edge(10, 61).
edge(144, 163).
edge(2, 78).
edge(129, 160).
edge(115, 119).
edge(39, 102).
edge(24, 88).
edge(3, 171).
edge(4, 40).
edge(4, 167).
edge(127, 173).
edge(119, 182).
edge(81, 137).
edge(10, 158).
edge(86, 180).
edge(146, 174).
edge(91, 153).
edge(51, 170).
edge(126, 139).
edge(64, 139).
edge(105, 180).
edge(10, 107).
edge(79, 80).
edge(144, 159).
edge(60, 157).
edge(16, 44).
edge(19, 97).
edge(39, 106).
edge(0, 150).
edge(38, 126).
edge(39, 103).
edge(35, 125).
edge(73, 116).
edge(89, 131).
edge(15, 30).
edge(0, 16).
edge(48, 63).
edge(38, 135).
edge(37, 90).
edge(26, 98).
edge(136, 146).
edge(124, 157).
edge(80, 92).
edge(7, 63).
edge(112, 154).
edge(76, 145).
edge(91, 181).
edge(39, 56).
edge(96, 172).
edge(24, 129).
edge(134, 178).
edge(76, 168).
edge(69, 177).
edge(112, 164).
edge(59, 140).
edge(40, 120).
edge(156, 169).
edge(35, 81).
edge(22, 177).
edge(15, 170).
edge(1, 86).
edge(34, 178).
edge(15, 68).
edge(43, 52).
edge(138, 170).
edge(2, 76).
edge(8, 174).
edge(58, 107).
edge(0, 119).
edge(15, 171).
edge(27, 161).
edge(11, 155).
edge(49, 69).
edge(71, 136).
edge(69, 161).
edge(90, 135).
edge(22, 58).
edge(61, 115).
edge(38, 102).
edge(47, 55).
edge(51, 77).
edge(92, 130).
edge(62, 147).
edge(43, 134).
edge(87, 98).
edge(14, 179).
edge(1, 165).
edge(80, 145).
edge(64, 86).
edge(17, 97).
edge(61, 91).
edge(117, 129).
edge(116, 149).
edge(26, 129).
edge(101, 143).
edge(4, 76).
edge(157, 168).
edge(6, 98).
edge(21, 116).
edge(110, 176).
edge(55, 138).
edge(67, 78).
edge(0, 178).
edge(142, 177).
edge(26, 82).
edge(24, 99).
edge(8, 177).
edge(13, 159).
edge(55, 127).
edge(5, 23).
edge(68, 78).
edge(67, 139).
edge(150, 162).
edge(77, 157).
edge(12, 96).
edge(96, 152).
edge(59, 174).
edge(71, 176).
edge(87, 157).
edge(109, 116).
edge(30, 102).
edge(160, 183).
edge(32, 68).
edge(17, 56).
edge(98, 164).
edge(140, 180).
edge(35, 185).
edge(15, 77).
edge(15, 58).
edge(10, 67).
edge(10, 22).
edge(26, 152).
edge(16, 45).
edge(154, 175).
edge(0, 107).
edge(30, 63).
edge(101, 180).
edge(142, 170).
edge(36, 179).
edge(37, 59).
edge(30, 146).
edge(44, 162).
edge(13, 75).
edge(57, 87).
edge(133, 148).
edge(92, 106).
edge(40, 161).
edge(124, 172).
edge(84, 102).
edge(130, 156).
edge(45, 150).
edge(134, 185).
edge(6, 110).
edge(129, 143).
edge(36, 154).
edge(1, 177).
edge(63, 75).
edge(112, 122).
edge(19, 123).
edge(47, 162).
edge(71, 154).
edge(36, 142).
edge(106, 139).
edge(17, 83).
edge(73, 154).
edge(33, 157).
edge(44, 126).
edge(48, 97).
edge(24, 43).
edge(116, 160).
edge(46, 152).
edge(33, 117).
edge(76, 80).
edge(40, 123).
edge(1, 185).
edge(26, 120).
edge(26, 67).
edge(83, 175).
edge(20, 65).
edge(112, 181).
edge(35, 56).
edge(6, 169).
edge(7, 15).
edge(28, 147).
edge(15, 177).
edge(43, 168).
edge(8, 127).
edge(103, 110).
edge(72, 129).
edge(24, 116).
edge(83, 115).
edge(5, 90).
edge(148, 167).
edge(0, 135).
edge(82, 152).
edge(56, 141).
edge(63, 135).
edge(135, 165).
edge(99, 161).
edge(168, 172).
edge(25, 26).
edge(173, 175).
edge(12, 151).
edge(162, 165).
edge(68, 154).
edge(87, 154).
edge(61, 136).
edge(40, 151).
edge(74, 133).
edge(107, 166).
edge(134, 158).
edge(54, 168).
edge(90, 185).
edge(61, 69).
edge(65, 146).
edge(52, 141).
edge(3, 135).
edge(6, 15).
edge(25, 127).
edge(72, 162).
edge(153, 169).
edge(13, 150).
edge(10, 146).
edge(96, 119).
edge(24, 95).
edge(28, 53).
edge(93, 101).
edge(82, 102).
edge(100, 114).
edge(124, 154).
edge(115, 184).
edge(8, 38).
edge(154, 166).
edge(4, 62).
edge(98, 101).
edge(154, 177).
edge(6, 13).
edge(143, 157).
edge(9, 119).
edge(145, 172).
edge(73, 131).
edge(51, 127).
edge(70, 73).
edge(10, 97).
edge(115, 150).
edge(79, 170).
edge(59, 108).
edge(2, 7).
edge(45, 90).
edge(146, 165).
edge(7, 28).
edge(123, 173).
edge(36, 82).
edge(35, 149).
edge(45, 123).
edge(42, 108).
edge(125, 166).
edge(57, 117).
edge(28, 87).
edge(20, 90).
edge(122, 164).
edge(89, 91).
edge(22, 119).
edge(57, 169).
edge(117, 147).
edge(40, 88).
edge(77, 128).
edge(12, 32).
edge(58, 94).
edge(13, 34).
edge(95, 154).
edge(3, 70).
edge(4, 22).
edge(32, 97).
edge(111, 127).
edge(59, 79).
edge(58, 133).
edge(98, 125).
edge(148, 155).
edge(167, 178).
edge(8, 140).
edge(89, 106).
edge(15, 96).
edge(11, 179).
edge(101, 164).
edge(93, 106).
edge(45, 82).
edge(86, 119).
edge(54, 129).
edge(11, 123).
edge(48, 175).
edge(38, 172).
edge(112, 133).
edge(6, 152).
edge(63, 85).
edge(140, 177).
edge(91, 159).
edge(0, 34).
edge(66, 79).
edge(42, 45).
edge(108, 132).
edge(9, 46).
edge(71, 101).
edge(3, 165).
edge(179, 184).
edge(49, 178).
edge(149, 169).
edge(37, 136).
edge(59, 99).
edge(149, 185).
edge(19, 63).
edge(38, 54).
edge(31, 73).
edge(50, 176).
edge(155, 158).
edge(30, 88).
edge(30, 81).
edge(17, 59).
edge(6, 16).
edge(48, 112).
edge(79, 104).
edge(117, 177).
edge(23, 55).
edge(53, 126).
edge(18, 127).
edge(92, 113).
edge(46, 129).
edge(152, 178).
edge(43, 68).
edge(117, 131).
edge(1, 157).
edge(14, 140).
edge(12, 150).
edge(150, 185).
edge(158, 184).
edge(101, 120).
edge(48, 181).
edge(16, 86).
edge(159, 183).
edge(31, 134).
edge(29, 32).
edge(63, 134).
edge(88, 141).
edge(51, 76).
edge(50, 134).
edge(5, 76).
edge(42, 65).
edge(29, 75).
edge(70, 159).
edge(0, 144).
edge(131, 171).
edge(72, 87).
edge(24, 118).
edge(8, 29).
edge(117, 161).
edge(33, 144).
edge(114, 129).
edge(53, 148).
edge(16, 55).
edge(30, 127).
edge(127, 166).
edge(7, 177).
edge(144, 149).
edge(20, 104).
edge(65, 128).
edge(77, 176).
edge(25, 52).
edge(145, 154).
edge(8, 46).
edge(118, 165).
edge(160, 163).
edge(94, 120).
edge(50, 102).
edge(157, 186).
edge(141, 144).
edge(36, 109).
edge(43, 117).
edge(51, 68).
edge(170, 177).
edge(148, 158).
edge(145, 163).
edge(139, 141).
edge(56, 83).
edge(81, 99).
edge(141, 165).
edge(103, 163).
edge(27, 107).
edge(21, 170).
edge(47, 75).
edge(106, 169).
edge(42, 98).
edge(73, 160).
edge(119, 171).
edge(37, 79).
edge(90, 146).
edge(64, 127).
edge(37, 135).
edge(19, 31).
edge(59, 183).
edge(75, 89).
edge(165, 169).
edge(134, 159).
edge(5, 85).
edge(76, 144).
edge(30, 71).
edge(132, 165).
edge(2, 163).
edge(95, 169).
edge(21, 133).
edge(108, 152).
edge(100, 149).
edge(42, 150).
edge(80, 157).
edge(61, 153).
edge(111, 163).
edge(55, 63).
edge(153, 168).
edge(177, 186).
edge(56, 155).
edge(111, 165).
edge(94, 108).
edge(21, 77).
edge(3, 163).
edge(47, 73).
edge(20, 118).
edge(65, 117).
edge(108, 112).
edge(50, 167).
edge(4, 74).
edge(67, 135).
edge(6, 70).
edge(29, 106).
edge(79, 149).
edge(12, 136).
edge(61, 185).
edge(59, 176).
edge(31, 170).
edge(63, 72).
edge(1, 172).
edge(150, 161).
edge(48, 140).
edge(37, 127).
edge(5, 137).
edge(104, 174).
edge(115, 158).
edge(40, 164).
edge(57, 101).
edge(58, 180).
edge(26, 48).
edge(123, 158).
edge(120, 167).
edge(10, 160).
edge(16, 54).
edge(15, 105).
edge(46, 74).
edge(53, 91).
edge(108, 134).
edge(86, 153).
edge(45, 46).
edge(69, 98).
edge(78, 153).
edge(28, 154).
edge(137, 176).
edge(12, 30).
edge(69, 178).
edge(139, 152).
edge(97, 108).
edge(71, 119).
edge(161, 163).
edge(13, 153).
edge(38, 141).
edge(53, 125).
edge(12, 141).
edge(153, 171).
edge(111, 133).
edge(13, 49).
edge(91, 136).
edge(44, 151).
edge(87, 122).
edge(56, 178).
edge(43, 82).
edge(79, 95).
edge(9, 142).
edge(6, 171).
edge(91, 100).
edge(118, 153).
edge(55, 139).
edge(34, 62).
edge(18, 89).
edge(152, 167).
edge(56, 169).
edge(21, 44).
edge(0, 128).
edge(43, 101).
edge(104, 108).
edge(108, 133).
edge(73, 130).
edge(136, 154).
edge(75, 146).
edge(151, 184).
edge(47, 119).
edge(24, 93).
edge(70, 166).
edge(120, 140).
edge(110, 124).
edge(34, 106).
edge(70, 84).
edge(134, 153).
edge(34, 174).
edge(95, 185).
edge(137, 160).
edge(56, 120).
edge(120, 142).
edge(4, 138).
edge(70, 89).
edge(106, 177).
edge(12, 166).
edge(68, 81).
edge(106, 132).
edge(12, 128).
edge(125, 162).
edge(116, 138).
edge(25, 132).
edge(57, 96).
edge(77, 86).
edge(118, 149).
edge(124, 178).
edge(30, 65).
edge(126, 142).
edge(73, 120).
edge(46, 134).
edge(14, 42).
edge(129, 136).
edge(113, 184).
edge(74, 115).
edge(41, 174).
edge(90, 177).
edge(119, 168).
edge(134, 151).
edge(83, 144).
edge(3, 128).
edge(24, 144).
edge(14, 133).
edge(66, 67).
edge(98, 110).
edge(70, 137).
edge(158, 164).
edge(50, 84).
edge(43, 75).
edge(57, 78).
edge(26, 94).
edge(13, 85).
edge(70, 155).
edge(35, 53).
edge(33, 182).
edge(95, 134).
edge(41, 157).
edge(105, 158).
edge(28, 178).
edge(94, 130).
edge(117, 163).
edge(51, 113).
edge(114, 141).
edge(72, 152).
edge(17, 121).
edge(60, 165).
edge(151, 180).
edge(125, 180).
edge(125, 141).
edge(54, 89).
edge(54, 58).
edge(15, 137).
edge(57, 184).
edge(44, 90).
edge(46, 125).
edge(121, 127).
edge(7, 134).
edge(63, 177).
edge(36, 77).
edge(55, 128).
edge(28, 50).
edge(93, 168).
edge(50, 105).
edge(11, 65).
edge(4, 112).
edge(17, 58).
edge(54, 159).
edge(111, 124).
edge(100, 140).
edge(46, 112).
edge(98, 108).
edge(126, 144).
edge(145, 157).
edge(79, 127).
edge(99, 121).
edge(83, 107).
edge(38, 106).
edge(20, 150).
edge(30, 108).
edge(39, 149).
edge(9, 170).
edge(93, 155).
edge(133, 145).
edge(111, 143).
edge(133, 176).
edge(79, 141).
edge(33, 186).
edge(36, 155).
edge(80, 153).
edge(30, 85).
edge(13, 177).
edge(59, 106).
edge(1, 94).
edge(7, 82).
edge(40, 179).
edge(74, 109).
edge(135, 144).
edge(103, 159).
edge(86, 165).
edge(88, 157).
edge(122, 133).
edge(91, 105).
edge(24, 106).
edge(14, 127).
edge(20, 131).
edge(90, 136).
edge(62, 86).
edge(73, 79).
edge(167, 174).
edge(14, 30).
edge(87, 169).
edge(1, 99).
edge(82, 109).
edge(84, 154).
edge(63, 119).
edge(49, 120).
edge(19, 178).
edge(91, 182).
edge(157, 182).
edge(86, 176).
edge(142, 165).
edge(19, 179).
edge(38, 55).
edge(9, 120).
edge(29, 136).
edge(155, 166).
edge(75, 150).
edge(48, 141).
edge(40, 158).
edge(20, 120).
edge(92, 178).
edge(74, 151).
edge(101, 156).
edge(3, 14).
edge(15, 101).
edge(35, 43).
edge(29, 117).
edge(61, 172).
edge(34, 162).
edge(113, 131).
edge(14, 64).
edge(114, 128).
edge(13, 175).
edge(101, 176).
edge(32, 125).
edge(136, 139).
edge(93, 163).
edge(51, 168).
edge(24, 63).
edge(67, 86).
edge(31, 140).
edge(38, 156).
edge(0, 171).
edge(33, 143).
edge(55, 66).
edge(42, 125).
edge(0, 169).
edge(11, 107).
edge(58, 141).
edge(115, 182).
edge(36, 93).
edge(92, 146).
edge(7, 154).
edge(48, 158).
edge(43, 45).
edge(38, 128).
edge(47, 70).
edge(50, 156).
edge(43, 129).
edge(33, 55).
edge(125, 182).
edge(91, 119).
edge(148, 151).
edge(33, 160).
edge(42, 122).
edge(105, 164).
edge(82, 164).
edge(44, 57).
edge(78, 142).
edge(13, 179).
edge(20, 36).
edge(77, 91).
edge(109, 159).
edge(11, 134).
edge(113, 123).
edge(45, 177).
edge(122, 144).
edge(124, 175).
edge(19, 174).
edge(1, 85).
edge(28, 112).
edge(87, 177).
edge(4, 56).
edge(45, 145).
edge(29, 156).
edge(94, 139).
edge(74, 170).
edge(4, 79).
edge(37, 70).
edge(40, 67).
edge(18, 99).
edge(117, 146).
edge(14, 151).
edge(21, 42).
edge(80, 182).
edge(78, 86).
edge(92, 118).
edge(123, 171).
edge(48, 56).
edge(13, 141).
edge(19, 182).
edge(20, 177).
edge(34, 173).
edge(83, 95).
edge(70, 173).
edge(55, 72).
edge(120, 180).
edge(1, 15).
edge(50, 164).
edge(66, 181).
edge(67, 72).
edge(65, 182).
edge(69, 73).
edge(102, 184).
edge(132, 162).
edge(159, 161).
edge(108, 168).
edge(51, 65).
edge(129, 168).
edge(5, 37).
edge(14, 32).
edge(80, 100).
edge(94, 97).
edge(110, 170).
edge(13, 172).
edge(86, 118).
edge(114, 145).
edge(80, 156).
edge(171, 180).
edge(44, 50).
edge(67, 68).
edge(42, 79).
edge(92, 172).
edge(152, 162).
edge(13, 146).
edge(53, 181).
edge(88, 177).
edge(80, 164).
edge(100, 183).
edge(99, 175).
edge(3, 38).
edge(91, 185).
edge(76, 136).
edge(117, 181).
edge(25, 154).
edge(125, 186).
edge(94, 96).
edge(60, 146).
edge(8, 113).
edge(52, 65).
edge(95, 186).
edge(15, 158).
edge(118, 163).
edge(107, 146).
edge(109, 156).
edge(133, 177).
edge(57, 65).
edge(73, 125).
edge(77, 116).
edge(47, 106).
edge(103, 143).
edge(28, 150).
edge(34, 121).
edge(9, 38).
edge(20, 166).
edge(155, 170).
edge(83, 110).
edge(94, 99).
edge(27, 143).
edge(49, 96).
edge(104, 139).
edge(120, 159).
edge(40, 78).
edge(72, 139).
edge(10, 45).
edge(37, 101).
edge(27, 59).
edge(70, 160).
edge(73, 113).
edge(101, 129).
edge(30, 74).
edge(58, 75).
edge(99, 110).
edge(50, 171).
edge(34, 109).
edge(149, 183).
edge(114, 117).
edge(46, 80).
edge(28, 177).
edge(116, 182).
edge(37, 186).
edge(134, 140).
edge(24, 71).
edge(70, 133).
edge(140, 173).
edge(74, 146).
edge(104, 142).
edge(120, 139).
edge(118, 128).
edge(33, 138).
edge(10, 155).
edge(52, 105).
edge(13, 160).
edge(115, 186).
edge(65, 171).
edge(5, 111).
edge(86, 123).
edge(78, 180).
edge(31, 119).
edge(32, 129).
edge(84, 166).
edge(27, 147).
edge(77, 139).
edge(36, 75).
edge(91, 122).
edge(106, 138).
edge(74, 131).
edge(6, 81).
edge(42, 139).
edge(75, 116).
edge(57, 131).
edge(13, 186).
edge(147, 164).
edge(138, 184).
edge(43, 109).
edge(81, 170).
edge(30, 86).
edge(121, 182).
edge(107, 153).
edge(75, 166).
edge(55, 156).
edge(78, 185).
edge(57, 123).
edge(25, 56).
edge(93, 94).
edge(49, 150).
edge(21, 144).
edge(100, 147).
edge(134, 180).
edge(18, 163).
edge(95, 177).
edge(27, 105).
edge(38, 52).
edge(8, 186).
edge(8, 146).
edge(13, 163).
edge(132, 140).
edge(9, 28).
edge(42, 143).
edge(66, 165).
edge(65, 70).
edge(30, 153).
edge(39, 132).
edge(39, 49).
edge(112, 123).
edge(28, 143).
edge(53, 156).
edge(20, 176).
edge(6, 172).
edge(101, 173).
edge(91, 92).
edge(38, 182).
edge(94, 171).
edge(55, 78).
edge(164, 165).
edge(73, 155).
edge(44, 186).
edge(105, 116).
edge(84, 178).
edge(68, 178).
edge(31, 165).
edge(10, 148).
edge(86, 134).
edge(43, 157).
edge(37, 173).
edge(56, 93).
edge(72, 86).
edge(22, 77).
edge(48, 57).
edge(150, 168).
edge(6, 131).
edge(58, 120).
edge(58, 139).
edge(9, 80).
edge(89, 149).
edge(89, 98).
edge(47, 171).
edge(79, 91).
edge(94, 147).
edge(90, 145).
edge(10, 159).
edge(7, 30).
edge(4, 132).
edge(73, 135).
edge(160, 180).
edge(21, 63).
edge(161, 179).
edge(42, 100).
edge(1, 83).
edge(32, 75).
edge(167, 172).
edge(139, 186).
edge(111, 137).
edge(25, 172).
edge(107, 172).
edge(105, 139).
edge(85, 98).
edge(49, 76).
edge(84, 97).
edge(17, 43).
edge(37, 176).
edge(112, 150).
edge(94, 158).
edge(108, 185).
edge(122, 136).
edge(81, 90).
edge(162, 186).
edge(41, 184).
edge(60, 109).
edge(16, 23).
edge(39, 140).
edge(15, 142).
edge(24, 125).
edge(113, 164).
edge(47, 62).
edge(28, 37).
edge(170, 176).
edge(142, 147).
edge(105, 114).
edge(61, 117).
edge(113, 155).
edge(130, 144).
edge(46, 176).
edge(151, 168).
edge(60, 81).
edge(4, 7).
edge(4, 86).
edge(30, 94).
edge(95, 108).
edge(88, 89).
edge(34, 156).
edge(25, 96).
edge(82, 97).
edge(138, 155).
edge(66, 85).
edge(107, 175).
edge(97, 167).
edge(56, 67).
edge(42, 97).
edge(104, 170).
edge(41, 76).
edge(96, 171).
edge(17, 82).
edge(82, 124).
edge(169, 179).
edge(39, 108).
edge(183, 184).
edge(19, 120).
edge(93, 158).
edge(70, 175).
edge(111, 161).
edge(146, 162).
edge(58, 98).
edge(41, 55).
edge(0, 13).
edge(38, 95).
edge(163, 184).
edge(16, 168).
edge(69, 148).
edge(32, 95).
edge(10, 71).
edge(103, 177).
edge(6, 119).
edge(21, 23).
edge(21, 105).
edge(69, 160).
edge(98, 100).
edge(98, 182).
edge(124, 184).
edge(33, 167).
edge(50, 81).
edge(8, 111).
edge(89, 111).
edge(139, 174).
edge(118, 126).
edge(0, 57).
edge(92, 98).
edge(141, 153).
edge(46, 90).
edge(65, 172).
edge(56, 118).
edge(73, 93).
edge(26, 62).
edge(107, 165).
edge(104, 148).
edge(82, 167).
edge(6, 156).
edge(94, 137).
edge(6, 145).
edge(9, 125).
edge(39, 93).
edge(130, 151).
edge(93, 172).
edge(63, 147).
edge(79, 184).
edge(49, 88).
edge(82, 157).
edge(88, 137).
edge(131, 174).
edge(101, 186).
edge(109, 119).
edge(62, 129).
edge(14, 70).
edge(11, 171).
edge(50, 70).
edge(8, 66).
edge(107, 159).
edge(39, 85).
edge(111, 168).
edge(95, 121).
edge(7, 65).
edge(88, 181).
edge(107, 178).
edge(120, 158).
edge(41, 181).
edge(58, 143).
edge(84, 147).
edge(108, 113).
edge(5, 6).
edge(61, 138).
edge(166, 178).
edge(135, 173).
edge(103, 111).
edge(17, 50).
edge(36, 130).
edge(7, 155).
edge(79, 108).
edge(68, 115).
edge(57, 60).
edge(149, 178).
edge(35, 94).
edge(102, 155).
edge(24, 117).
edge(4, 128).
edge(86, 124).
edge(44, 163).
edge(67, 130).
edge(60, 183).
edge(44, 138).
edge(40, 81).
edge(14, 150).
edge(118, 132).
edge(25, 86).
edge(1, 25).
edge(131, 184).
edge(2, 61).
edge(51, 167).
edge(102, 163).
edge(51, 155).
edge(74, 148).
edge(149, 176).
edge(114, 138).
edge(97, 110).
edge(85, 100).
edge(10, 186).
edge(5, 12).
edge(95, 103).
edge(107, 128).
edge(84, 126).
edge(43, 141).
edge(126, 169).
edge(123, 177).
edge(72, 157).
edge(80, 85).
edge(27, 29).
edge(99, 143).
edge(43, 132).
edge(46, 91).
edge(12, 147).
edge(78, 159).
edge(62, 146).
edge(127, 161).
edge(24, 150).
edge(0, 15).
edge(120, 182).
edge(95, 113).
edge(12, 49).
edge(110, 139).
edge(0, 130).
edge(50, 132).
edge(25, 88).
edge(48, 89).
edge(55, 58).
edge(76, 174).
edge(63, 77).
edge(68, 174).
edge(11, 42).
edge(3, 37).
edge(20, 28).
edge(8, 13).
edge(25, 70).
edge(6, 10).
edge(43, 140).
edge(34, 71).
edge(97, 177).
edge(87, 127).
edge(60, 83).
edge(21, 50).
edge(43, 73).
edge(15, 31).
edge(7, 43).
edge(11, 39).
edge(131, 186).
edge(51, 70).
edge(77, 153).
edge(41, 119).
edge(31, 46).
edge(59, 84).
edge(64, 177).
edge(37, 183).
edge(117, 186).
edge(11, 182).
edge(77, 165).
edge(112, 145).
edge(91, 142).
edge(7, 152).
edge(29, 157).
edge(55, 141).
edge(31, 174).
edge(17, 110).
edge(159, 182).
edge(2, 59).
edge(11, 99).
edge(89, 170).
edge(86, 128).
edge(44, 121).
edge(6, 138).
edge(147, 179).
edge(92, 156).
edge(77, 105).
edge(1, 23).
edge(29, 125).
edge(48, 151).
edge(89, 110).
edge(26, 137).
edge(118, 185).
edge(10, 50).
edge(2, 103).
edge(72, 151).
edge(108, 148).
edge(167, 176).
edge(40, 92).
edge(123, 143).
edge(90, 143).
edge(53, 77).
edge(38, 77).
edge(3, 8).
edge(72, 142).
edge(146, 169).
edge(68, 169).
edge(22, 112).
edge(14, 91).
edge(135, 137).
edge(41, 98).
edge(62, 104).
edge(21, 132).
edge(103, 172).
edge(69, 101).
edge(71, 146).
edge(3, 34).
edge(40, 154).
edge(98, 105).
edge(42, 66).
edge(69, 124).
edge(146, 167).
edge(83, 143).
edge(51, 101).
edge(35, 167).
edge(121, 158).
edge(0, 123).
edge(32, 119).
edge(63, 100).
edge(37, 171).
edge(7, 57).
edge(25, 139).
edge(78, 83).
edge(38, 148).
edge(113, 135).
edge(87, 148).
edge(63, 98).
edge(92, 97).
edge(7, 125).
edge(83, 130).
edge(71, 129).
edge(12, 145).
edge(13, 45).
edge(64, 85).
edge(42, 101).
edge(164, 170).
edge(63, 137).
edge(50, 124).
edge(10, 172).
edge(61, 146).
edge(140, 164).
edge(72, 103).
edge(111, 176).
edge(110, 169).
edge(12, 173).
edge(39, 127).
edge(1, 62).
edge(58, 83).
edge(52, 154).
edge(64, 120).
edge(4, 29).
edge(20, 154).
edge(48, 134).
edge(86, 161).
edge(94, 186).
edge(3, 88).
edge(40, 99).
edge(83, 174).
edge(32, 166).
edge(29, 93).
edge(163, 183).
edge(36, 166).
edge(42, 172).
edge(111, 158).
edge(68, 74).
edge(145, 167).
edge(107, 141).
edge(97, 124).
edge(60, 154).
edge(10, 56).
edge(30, 104).
edge(7, 162).
edge(39, 111).
edge(63, 152).
edge(53, 87).
edge(1, 103).
edge(105, 119).
edge(109, 146).
edge(16, 159).
edge(1, 29).
edge(10, 43).
edge(68, 98).
edge(114, 175).
edge(3, 59).
edge(32, 105).
edge(11, 185).
edge(68, 114).
edge(43, 107).
edge(100, 170).
edge(119, 139).
edge(34, 147).
edge(19, 135).
edge(114, 147).
edge(99, 150).
edge(52, 144).
edge(87, 136).
edge(2, 3).
edge(85, 175).
edge(37, 144).
edge(66, 84).
edge(107, 150).
edge(9, 39).
edge(53, 168).
edge(26, 38).
edge(110, 132).
edge(124, 132).
edge(74, 92).
edge(65, 105).
edge(72, 82).
edge(25, 119).
edge(117, 148).
edge(136, 161).
edge(112, 153).
edge(38, 49).
edge(141, 155).
edge(95, 176).
edge(109, 122).
edge(70, 178).
edge(73, 112).
edge(29, 72).
edge(88, 106).
edge(39, 170).
edge(19, 28).
edge(55, 71).
edge(27, 182).
edge(62, 80).
edge(0, 6).
edge(134, 183).
edge(6, 118).
edge(35, 140).
edge(14, 62).
edge(76, 82).
edge(66, 120).
edge(10, 85).
edge(45, 100).
edge(1, 54).
edge(165, 170).
edge(49, 186).
edge(37, 62).
edge(31, 135).
edge(58, 154).
edge(6, 97).
edge(119, 164).
edge(68, 130).
edge(24, 100).
edge(154, 183).
edge(82, 135).
edge(66, 153).
edge(4, 147).
edge(117, 159).
edge(4, 80).
edge(40, 94).
edge(42, 160).
edge(144, 170).
edge(21, 98).
edge(62, 137).
edge(60, 129).
edge(9, 105).
edge(36, 90).
edge(75, 130).
edge(153, 180).
edge(9, 79).
edge(82, 145).
edge(19, 122).
edge(5, 124).
edge(45, 166).
edge(94, 102).
edge(15, 168).
edge(8, 134).
edge(29, 108).
edge(60, 84).
edge(7, 129).
edge(148, 181).
edge(78, 123).
edge(1, 38).
edge(83, 116).
edge(59, 164).
edge(94, 179).
edge(90, 108).
edge(168, 173).
edge(18, 124).
edge(12, 52).
edge(34, 166).
edge(107, 163).
edge(83, 124).
edge(47, 131).
edge(103, 154).
edge(113, 169).
edge(73, 104).
edge(104, 125).
edge(174, 180).
edge(111, 140).
edge(48, 124).
edge(107, 125).
edge(3, 73).
edge(54, 155).
edge(130, 184).
edge(19, 48).
edge(21, 91).
edge(164, 168).
edge(115, 144).
edge(74, 117).
edge(2, 171).
edge(59, 65).
edge(137, 165).
edge(75, 137).
edge(67, 160).
edge(64, 167).
edge(76, 107).
edge(2, 89).
edge(29, 104).
edge(51, 106).
edge(77, 114).
edge(55, 113).
edge(61, 112).
edge(64, 68).
edge(81, 150).
edge(39, 66).
edge(46, 54).
edge(113, 177).
edge(63, 185).
edge(22, 171).
edge(69, 103).
edge(21, 156).
edge(24, 138).
edge(73, 122).
edge(101, 119).
edge(123, 135).
edge(23, 65).
edge(97, 174).
edge(130, 135).
edge(48, 122).
edge(13, 97).
edge(87, 141).
edge(111, 155).
edge(3, 9).
edge(28, 95).
edge(28, 174).
edge(67, 157).
edge(91, 157).
edge(112, 183).
edge(74, 116).
edge(25, 163).
edge(20, 167).
edge(32, 57).
edge(24, 66).
edge(16, 63).
edge(53, 106).
edge(100, 157).
edge(19, 138).
edge(32, 154).
edge(22, 186).
edge(89, 159).
edge(8, 35).
edge(23, 75).
edge(11, 82).
edge(2, 34).
edge(49, 148).
edge(19, 125).
edge(73, 121).
edge(24, 175).
edge(82, 92).
edge(47, 66).
edge(108, 122).
edge(106, 141).
edge(89, 135).
edge(51, 150).
edge(39, 45).
edge(108, 115).
edge(81, 146).
edge(161, 176).
edge(20, 75).
edge(29, 107).
edge(60, 132).
edge(112, 168).
edge(76, 114).
edge(90, 128).
edge(66, 87).
edge(54, 109).
edge(8, 70).
edge(124, 136).
edge(145, 161).
edge(83, 151).
edge(94, 114).
edge(48, 102).
edge(97, 129).
edge(16, 93).
edge(134, 154).
edge(11, 79).
edge(168, 186).
edge(79, 120).
edge(87, 130).
edge(13, 15).
edge(42, 116).
edge(93, 135).
edge(53, 133).
edge(20, 77).
edge(8, 161).
edge(39, 165).
edge(50, 153).
edge(29, 162).
edge(34, 72).
edge(3, 120).
edge(143, 164).
edge(2, 19).
edge(15, 62).
edge(163, 180).
edge(27, 47).
edge(31, 36).
edge(69, 171).
edge(43, 151).
edge(45, 72).
edge(23, 25).
edge(37, 170).
edge(29, 120).
edge(24, 146).
edge(0, 4).
edge(38, 93).
edge(84, 167).
edge(33, 74).
edge(32, 158).
edge(85, 105).
edge(14, 15).
edge(36, 48).
edge(1, 97).
edge(22, 85).
edge(105, 178).
edge(94, 110).
edge(90, 98).
edge(10, 20).
edge(27, 70).
edge(143, 159).
edge(25, 149).
edge(6, 151).
edge(128, 129).
edge(43, 99).
edge(84, 168).
edge(127, 139).
edge(9, 20).
edge(85, 186).
edge(170, 182).
edge(23, 136).
edge(1, 78).
edge(0, 115).
edge(18, 60).
edge(106, 123).
edge(6, 88).
edge(38, 94).
edge(150, 182).
edge(47, 87).
edge(74, 179).
edge(18, 165).
edge(49, 167).
edge(140, 171).
edge(130, 136).
edge(67, 154).
edge(80, 162).
edge(172, 178).
edge(43, 163).
edge(123, 139).
edge(4, 48).
edge(129, 157).
edge(64, 109).
edge(43, 106).
edge(89, 123).
edge(107, 136).
edge(17, 116).
edge(10, 129).
edge(43, 160).
edge(43, 104).
edge(1, 95).
edge(6, 51).
edge(12, 57).
edge(0, 69).
edge(118, 174).
edge(23, 103).
edge(33, 36).
edge(115, 174).
edge(32, 88).
edge(13, 145).
edge(11, 177).
edge(144, 181).
edge(12, 83).
edge(17, 123).
edge(83, 138).
edge(85, 184).
edge(108, 170).
edge(20, 99).
edge(18, 162).
edge(45, 104).
edge(74, 129).
edge(69, 151).
edge(28, 81).
edge(126, 132).
edge(33, 92).
edge(135, 148).
edge(148, 161).
edge(23, 112).
edge(117, 141).
edge(0, 79).
edge(125, 159).
edge(72, 89).
edge(74, 141).
edge(72, 184).
edge(31, 143).
edge(3, 58).
edge(5, 173).
edge(7, 14).
edge(44, 142).
edge(37, 125).
edge(54, 57).
edge(81, 106).
edge(72, 83).
edge(149, 161).
edge(125, 169).
edge(0, 24).
edge(62, 87).
edge(13, 169).
edge(125, 171).
edge(128, 144).
edge(85, 176).
edge(59, 104).
edge(141, 159).
edge(42, 184).
edge(111, 130).
edge(70, 96).
edge(14, 166).
edge(101, 157).
edge(34, 116).
edge(25, 85).
edge(13, 174).
edge(25, 36).
edge(33, 166).
edge(107, 149).
edge(0, 3).
edge(8, 86).
edge(89, 132).
edge(8, 52).
edge(117, 158).
edge(62, 85).
edge(13, 59).
edge(77, 150).
edge(55, 92).
edge(36, 37).
edge(28, 69).
edge(23, 27).
edge(2, 69).
edge(31, 37).
edge(1, 183).
edge(17, 52).
edge(50, 126).
edge(47, 137).
edge(0, 22).
edge(140, 147).
edge(18, 185).
edge(12, 162).
edge(54, 79).
edge(21, 168).
edge(28, 55).
edge(76, 151).
edge(23, 61).
edge(24, 167).
edge(50, 97).
edge(75, 184).
edge(28, 44).
edge(88, 103).
edge(30, 162).
edge(106, 119).
edge(102, 112).
edge(87, 184).
edge(103, 186).
edge(129, 154).
edge(55, 186).
edge(47, 142).
edge(113, 140).
edge(54, 181).
edge(39, 63).
edge(102, 123).
edge(89, 185).
edge(13, 24).
edge(82, 186).
edge(42, 185).
edge(17, 144).
edge(62, 148).
edge(3, 176).
edge(2, 16).
edge(89, 129).
edge(13, 50).
edge(55, 137).
edge(57, 106).
edge(54, 113).
edge(16, 158).
edge(135, 147).
edge(0, 174).
edge(23, 81).
edge(126, 149).
edge(31, 150).
edge(7, 91).
edge(10, 115).
edge(55, 123).
edge(33, 162).
edge(12, 177).
edge(101, 181).
edge(61, 167).
edge(106, 121).
edge(14, 106).
edge(42, 69).
edge(91, 115).
edge(72, 185).
edge(5, 54).
edge(12, 108).
edge(62, 66).
edge(38, 112).
edge(29, 140).
edge(81, 105).
edge(58, 134).
edge(110, 117).
edge(19, 141).
edge(56, 100).
edge(48, 61).
edge(28, 157).
edge(67, 167).
edge(119, 183).
edge(140, 167).
edge(28, 46).
edge(66, 128).
edge(98, 103).
edge(44, 70).
edge(2, 88).
edge(28, 90).
edge(10, 157).
edge(56, 127).
edge(83, 135).
edge(74, 102).
edge(20, 129).
edge(7, 69).
edge(10, 72).
edge(77, 96).
edge(125, 176).
edge(47, 104).
edge(13, 95).
edge(79, 111).
edge(18, 66).
edge(126, 146).
edge(24, 166).
edge(45, 87).
edge(88, 130).
edge(21, 48).
edge(64, 90).
edge(30, 54).
edge(19, 181).
edge(27, 65).
edge(11, 91).
edge(101, 167).
edge(43, 80).
edge(113, 163).
edge(134, 177).
edge(103, 129).
edge(87, 101).
edge(39, 136).
edge(77, 166).
edge(113, 145).
edge(26, 186).
edge(33, 119).
edge(47, 95).
edge(71, 81).
edge(113, 160).
edge(17, 156).
edge(24, 92).
edge(57, 119).
edge(29, 172).
edge(50, 178).
edge(86, 182).
edge(76, 150).
edge(52, 180).
edge(95, 143).
edge(20, 22).
edge(91, 162).
edge(43, 90).
edge(7, 18).
edge(28, 31).
edge(64, 108).
edge(75, 143).
edge(23, 102).
edge(67, 91).
edge(74, 81).
edge(139, 171).
edge(87, 150).
edge(118, 183).
edge(12, 184).
edge(159, 176).
edge(28, 151).
edge(10, 69).
edge(23, 73).
edge(100, 158).
edge(55, 112).
edge(88, 132).
edge(79, 165).
edge(37, 61).
edge(25, 77).
edge(35, 120).
edge(8, 135).
edge(27, 132).
edge(106, 131).
edge(22, 92).
edge(60, 115).
edge(39, 152).
edge(69, 91).
edge(33, 42).
edge(34, 137).
edge(156, 168).
edge(63, 174).
edge(70, 77).
edge(59, 105).
edge(77, 142).
edge(84, 125).
edge(34, 168).
edge(43, 88).
edge(17, 60).
edge(31, 33).
edge(75, 156).
edge(53, 151).
edge(154, 170).
edge(62, 91).
edge(26, 126).
edge(120, 129).
edge(124, 127).
edge(41, 147).
edge(17, 41).
edge(83, 172).
edge(55, 143).
edge(19, 112).
edge(50, 145).
edge(30, 79).
edge(14, 73).
edge(145, 168).
edge(115, 163).
edge(60, 121).
edge(36, 140).
edge(92, 153).
edge(38, 178).
edge(31, 87).
edge(139, 147).
edge(73, 98).
edge(128, 159).
edge(123, 175).
edge(5, 64).
edge(35, 186).
edge(57, 107).
edge(126, 170).
edge(105, 155).
edge(21, 118).
edge(134, 179).
edge(57, 116).
edge(16, 75).
edge(2, 45).
edge(82, 158).
edge(116, 171).
edge(80, 108).
edge(90, 147).
edge(57, 133).
edge(42, 68).
edge(118, 158).
edge(69, 110).
edge(105, 163).
edge(26, 32).
edge(21, 145).
edge(1, 45).
edge(98, 178).
edge(20, 113).
edge(131, 148).
edge(60, 85).
edge(0, 136).
edge(61, 95).
edge(35, 163).
edge(66, 160).
edge(28, 83).
edge(25, 53).
edge(88, 148).
edge(93, 132).
edge(25, 117).
edge(31, 182).
edge(26, 125).
edge(29, 35).
edge(57, 186).
edge(13, 94).
edge(116, 180).
edge(111, 153).
edge(67, 153).
edge(15, 179).
edge(74, 176).
edge(112, 132).
edge(33, 44).
edge(133, 165).
edge(39, 128).
edge(140, 157).
edge(10, 164).
edge(133, 161).
edge(97, 118).
edge(19, 61).
edge(104, 138).
edge(64, 82).
edge(47, 83).
edge(30, 75).
edge(102, 157).
edge(149, 156).
edge(119, 131).
edge(86, 125).
edge(52, 83).
edge(145, 174).
edge(141, 160).
edge(61, 126).
edge(75, 133).
edge(15, 163).
edge(47, 53).
edge(111, 162).
edge(84, 152).
edge(7, 139).
edge(175, 182).
edge(136, 163).
edge(16, 140).
edge(39, 139).
edge(80, 170).
edge(60, 172).
edge(150, 171).
edge(126, 141).
edge(73, 179).
edge(9, 184).
edge(19, 74).
edge(22, 63).
edge(76, 159).
edge(37, 166).
edge(61, 152).
edge(127, 140).
edge(73, 74).
edge(106, 182).
edge(67, 148).
edge(79, 140).
edge(74, 80).
edge(86, 101).
edge(94, 148).
edge(81, 153).
edge(93, 167).
edge(70, 144).
edge(7, 181).
edge(72, 137).
edge(11, 140).
edge(18, 178).
edge(73, 114).
edge(69, 174).
edge(39, 104).
edge(129, 172).
edge(80, 114).
edge(44, 67).
edge(10, 137).
edge(59, 110).
edge(68, 161).
edge(72, 119).
edge(45, 54).
edge(89, 150).
edge(41, 116).
edge(19, 92).
edge(54, 164).
edge(13, 92).
edge(11, 31).
edge(40, 112).
edge(86, 102).
edge(27, 185).
edge(124, 165).
edge(83, 100).
edge(69, 131).
edge(49, 162).
edge(100, 109).
edge(25, 150).
edge(25, 164).
edge(42, 175).
edge(49, 159).
edge(60, 62).
edge(36, 128).
edge(95, 100).
edge(9, 41).
edge(30, 114).
edge(53, 71).
edge(13, 26).
edge(140, 148).
edge(42, 63).
edge(66, 161).
edge(78, 140).
edge(83, 91).
edge(8, 30).
edge(7, 70).
edge(4, 53).
edge(54, 158).
edge(35, 82).
edge(100, 181).
edge(17, 42).
edge(62, 121).
edge(69, 163).
edge(35, 50).
edge(55, 155).
edge(162, 168).
edge(37, 98).
edge(22, 183).
edge(0, 20).
edge(121, 143).
edge(168, 181).
edge(95, 151).
edge(104, 180).
edge(115, 168).
edge(2, 63).
edge(63, 64).
edge(50, 54).
edge(48, 104).
edge(1, 171).
edge(45, 84).
edge(2, 77).
edge(2, 53).
edge(58, 165).
edge(53, 177).
edge(21, 83).
edge(22, 93).
edge(49, 134).
edge(2, 60).
edge(72, 147).
edge(50, 180).
edge(6, 181).
edge(82, 148).
edge(24, 72).
edge(26, 121).
edge(57, 180).
edge(19, 121).
edge(26, 53).
edge(135, 156).
edge(59, 120).
edge(2, 115).
edge(45, 149).
edge(133, 150).
edge(60, 122).
edge(15, 20).
edge(118, 166).
edge(19, 180).
edge(63, 109).
edge(3, 125).
edge(55, 67).
edge(2, 182).
edge(66, 145).
edge(45, 139).
edge(49, 58).
edge(37, 82).
edge(61, 87).
edge(18, 153).
edge(20, 173).
edge(57, 64).
edge(16, 61).
edge(66, 140).
edge(24, 98).
edge(10, 110).
edge(5, 122).
edge(95, 175).
edge(5, 29).
edge(78, 178).
edge(16, 162).
edge(62, 89).
edge(72, 128).
edge(83, 123).
edge(125, 164).
edge(53, 138).
edge(56, 134).
edge(19, 176).
edge(22, 159).
edge(17, 73).
edge(55, 114).
edge(137, 142).
edge(44, 102).
edge(61, 89).
edge(41, 153).
edge(39, 61).
edge(123, 142).
edge(105, 174).
edge(161, 174).
edge(81, 159).
edge(94, 145).
edge(71, 174).
edge(157, 174).
edge(46, 85).
edge(8, 139).
edge(104, 129).
edge(43, 136).
edge(31, 169).
edge(27, 133).
edge(55, 140).
edge(31, 34).
edge(35, 145).
edge(93, 147).
edge(60, 152).
edge(14, 51).
edge(33, 62).
edge(0, 162).
edge(10, 59).
edge(110, 144).
edge(4, 135).
edge(135, 145).
edge(2, 5).
edge(57, 163).
edge(96, 147).
edge(16, 127).
edge(0, 167).
edge(37, 150).
edge(51, 83).
edge(167, 175).
edge(84, 91).
edge(50, 112).
edge(33, 85).
edge(10, 70).
edge(118, 137).
edge(130, 165).
edge(20, 142).
edge(57, 114).
edge(27, 79).
edge(123, 153).
edge(12, 180).
edge(42, 156).
edge(116, 139).
edge(54, 87).
edge(92, 152).
edge(78, 138).
edge(108, 160).
edge(8, 60).
edge(3, 40).
edge(22, 60).
edge(101, 158).
edge(107, 131).
edge(98, 126).
edge(9, 129).
edge(77, 147).
edge(75, 148).
edge(60, 108).
edge(145, 176).
edge(108, 155).
edge(6, 170).
edge(127, 168).
edge(46, 169).
edge(86, 183).
edge(125, 163).
edge(11, 30).
edge(131, 135).
edge(90, 157).
edge(136, 178).
edge(6, 120).
edge(133, 144).
edge(9, 56).
edge(109, 125).
edge(159, 163).
edge(65, 166).
edge(4, 6).
edge(64, 99).
edge(24, 182).
edge(36, 121).
edge(107, 140).
edge(4, 41).
edge(23, 118).
edge(79, 186).
edge(88, 134).
edge(7, 47).
edge(37, 184).
edge(52, 108).
edge(14, 76).
edge(145, 146).
edge(76, 146).
edge(48, 172).
edge(128, 177).
edge(6, 176).
edge(45, 160).
edge(22, 127).
edge(89, 122).
edge(73, 83).
edge(172, 174).
edge(48, 144).
edge(48, 157).
edge(57, 98).
edge(13, 27).
edge(9, 115).
edge(78, 163).
edge(13, 152).
edge(81, 157).
edge(17, 37).
edge(174, 181).
edge(79, 124).
edge(67, 152).
edge(77, 97).
edge(57, 157).
edge(107, 121).
edge(23, 183).
edge(131, 154).
edge(67, 117).
edge(12, 43).
edge(61, 149).
edge(126, 133).
edge(123, 140).
edge(65, 123).
edge(38, 163).
edge(135, 150).
edge(135, 151).
edge(123, 147).
edge(70, 99).
edge(73, 147).
edge(104, 117).
edge(26, 164).
edge(79, 158).
edge(25, 147).
edge(18, 51).
edge(66, 141).
edge(70, 136).
edge(73, 178).
edge(21, 26).
edge(102, 116).
edge(83, 146).
edge(75, 95).
edge(95, 117).
edge(103, 175).
edge(26, 65).
edge(100, 179).
edge(32, 169).
edge(44, 52).
edge(60, 151).
edge(41, 71).
edge(23, 134).
edge(2, 47).
edge(57, 110).
edge(158, 178).
edge(76, 79).
edge(107, 147).
edge(58, 69).
edge(79, 175).
edge(39, 122).
edge(31, 99).
edge(19, 70).
edge(102, 168).
edge(66, 77).
edge(73, 100).
edge(22, 28).
edge(1, 18).
edge(37, 148).
edge(13, 79).
edge(14, 33).
edge(89, 141).
edge(19, 51).
edge(12, 148).
edge(41, 141).
edge(0, 32).
edge(143, 181).
edge(41, 64).
edge(107, 137).
edge(102, 128).
edge(45, 128).
edge(52, 142).
edge(43, 169).
edge(75, 117).
edge(27, 94).
edge(43, 149).
edge(42, 64).
edge(21, 49).
edge(60, 101).
edge(116, 167).
edge(27, 162).
edge(2, 41).
edge(9, 87).
edge(10, 121).
edge(72, 172).
edge(56, 164).
edge(30, 172).
edge(18, 25).
edge(47, 157).
edge(80, 140).
edge(77, 83).
edge(50, 161).
edge(113, 161).
edge(56, 68).
edge(19, 173).
edge(63, 117).
edge(9, 84).
edge(60, 78).
edge(61, 174).
edge(24, 130).
edge(80, 113).
edge(29, 132).
edge(39, 179).
edge(134, 168).
edge(7, 64).
edge(7, 182).
edge(89, 95).
edge(78, 168).
edge(95, 179).
edge(31, 172).
edge(32, 122).
edge(78, 184).
edge(70, 105).
edge(1, 35).
edge(21, 117).
edge(10, 177).
edge(131, 185).
edge(103, 166).
edge(90, 153).
edge(104, 177).
edge(74, 180).
edge(58, 60).
edge(87, 170).
edge(123, 154).
edge(85, 103).
edge(95, 181).
edge(168, 178).
edge(129, 132).
edge(100, 105).
edge(119, 123).
edge(16, 91).
edge(2, 138).
edge(17, 51).
edge(65, 119).
edge(34, 108).
edge(67, 170).
edge(60, 153).
edge(64, 81).
edge(158, 183).
edge(9, 70).
edge(18, 138).
edge(69, 181).
edge(52, 64).
edge(102, 111).
edge(176, 184).
edge(10, 128).
edge(8, 160).
edge(71, 99).
edge(86, 174).
edge(101, 185).
edge(21, 64).
edge(45, 126).
edge(54, 108).
edge(146, 163).
edge(52, 77).
edge(24, 162).
edge(66, 109).
edge(98, 175).
edge(3, 54).
edge(33, 46).
edge(1, 79).
edge(118, 164).
edge(97, 135).
edge(5, 117).
edge(104, 109).
edge(11, 156).
edge(7, 148).
edge(28, 77).
edge(4, 43).
edge(50, 65).
edge(42, 43).
edge(53, 152).
edge(35, 142).
edge(51, 132).
edge(49, 170).
edge(109, 179).
edge(78, 166).
edge(62, 84).
edge(119, 186).
edge(51, 134).
edge(100, 104).
edge(45, 103).
edge(115, 116).
edge(26, 170).
edge(99, 142).
edge(7, 183).
edge(26, 40).
edge(40, 110).
edge(57, 85).
edge(124, 176).
edge(133, 181).
edge(58, 62).
edge(51, 128).
edge(82, 182).
edge(85, 159).
edge(18, 40).
edge(39, 171).
edge(87, 131).
edge(50, 150).
edge(110, 183).
edge(46, 50).
edge(12, 91).
edge(8, 151).
edge(88, 127).
edge(55, 77).
edge(35, 68).
edge(60, 125).
edge(44, 103).
edge(113, 128).
edge(50, 120).
edge(142, 163).
edge(79, 119).
edge(70, 86).
edge(12, 95).
edge(74, 134).
edge(11, 53).
edge(34, 38).
edge(103, 132).
edge(46, 131).
edge(132, 158).
edge(101, 104).
edge(38, 85).
edge(69, 121).
edge(93, 117).
edge(59, 98).
edge(141, 179).
edge(0, 83).
edge(105, 145).
edge(21, 30).
edge(96, 136).
edge(0, 62).
edge(61, 122).
edge(32, 94).
edge(73, 84).
edge(84, 87).
edge(65, 152).
edge(73, 129).
edge(89, 99).
edge(2, 180).
edge(29, 95).
edge(53, 101).
edge(167, 182).
edge(10, 76).
edge(20, 94).
edge(121, 168).
edge(93, 148).
edge(96, 107).
edge(131, 149).
edge(36, 132).
edge(6, 96).
edge(60, 169).
edge(42, 104).
edge(74, 108).
edge(22, 83).
edge(81, 119).
edge(69, 167).
edge(31, 44).
edge(116, 173).
edge(32, 159).
edge(19, 59).
edge(0, 55).
edge(52, 162).
edge(38, 82).
edge(148, 180).
edge(71, 75).
edge(28, 63).
edge(123, 138).
edge(96, 151).
edge(115, 129).
edge(21, 96).
edge(56, 181).
edge(64, 143).
edge(124, 144).
edge(104, 149).
edge(61, 114).
edge(15, 94).
edge(14, 16).
edge(14, 145).
edge(76, 112).
edge(50, 174).
edge(98, 153).
edge(0, 145).
edge(31, 151).
edge(18, 85).
edge(128, 172).
edge(25, 43).
edge(111, 166).
edge(3, 109).
edge(101, 153).
edge(83, 112).
edge(76, 167).
edge(95, 172).
edge(70, 184).
edge(26, 136).
edge(63, 166).
edge(46, 83).
edge(52, 173).
edge(3, 111).
edge(43, 180).
edge(31, 55).
edge(69, 179).
edge(3, 27).
edge(108, 146).
edge(27, 126).
edge(53, 173).
edge(98, 148).
edge(69, 79).
edge(91, 107).
edge(21, 24).
edge(4, 13).
edge(163, 166).
edge(74, 169).
edge(128, 157).
edge(101, 159).
edge(2, 11).
edge(52, 155).
edge(80, 101).
edge(29, 73).
edge(134, 144).
edge(39, 134).
edge(115, 154).
edge(3, 87).
edge(143, 184).
edge(149, 160).
edge(69, 182).
edge(97, 143).
edge(106, 167).
edge(32, 163).
edge(7, 56).
edge(117, 122).
edge(152, 179).
edge(110, 185).
edge(87, 149).
edge(2, 159).
edge(17, 140).
edge(81, 185).
edge(130, 164).
edge(96, 128).
edge(143, 153).
edge(62, 168).
edge(38, 92).
edge(25, 33).
edge(83, 181).
edge(35, 181).
edge(4, 136).
edge(32, 52).
edge(9, 89).
edge(44, 104).
edge(23, 148).
edge(156, 182).
edge(45, 63).
edge(99, 123).
edge(56, 86).
edge(90, 110).
edge(23, 62).
edge(56, 143).
edge(96, 114).
edge(25, 108).
edge(141, 168).
edge(98, 104).
edge(63, 182).
edge(55, 163).
edge(127, 172).
edge(85, 93).
edge(75, 127).
edge(5, 43).
edge(51, 153).
edge(117, 175).
edge(21, 28).
edge(75, 111).
edge(11, 186).
edge(35, 159).
edge(34, 165).
edge(141, 186).
edge(42, 81).
edge(17, 20).
edge(78, 182).
edge(131, 182).
edge(13, 91).
edge(159, 177).
edge(26, 69).
edge(5, 27).
edge(46, 49).
edge(87, 159).
edge(46, 59).
edge(121, 135).
edge(58, 137).
edge(127, 144).
edge(24, 113).
edge(96, 166).
edge(5, 60).
edge(155, 176).
edge(126, 154).
edge(45, 152).
edge(105, 107).
edge(75, 121).
edge(108, 178).
edge(51, 69).
edge(34, 110).
edge(100, 151).
edge(6, 52).
edge(107, 174).
edge(14, 89).
edge(55, 108).
edge(77, 185).
edge(54, 123).
edge(6, 28).
edge(59, 159).
edge(76, 89).
edge(48, 135).
edge(41, 44).
edge(53, 175).
edge(136, 153).
edge(23, 185).
edge(20, 89).
edge(16, 152).
edge(98, 159).
edge(15, 119).
edge(52, 166).
edge(27, 172).
edge(15, 72).
edge(70, 162).
edge(4, 50).
edge(27, 112).
edge(4, 58).
edge(36, 102).
edge(89, 160).
edge(52, 57).
edge(98, 106).
edge(119, 144).
edge(12, 114).
edge(14, 104).
edge(31, 137).
edge(17, 108).
edge(7, 168).
edge(66, 173).
edge(54, 71).
edge(131, 147).
edge(5, 78).
edge(43, 92).
edge(114, 131).
edge(146, 180).
edge(82, 87).
edge(49, 143).
edge(118, 124).
edge(29, 180).
edge(60, 136).
edge(21, 72).
edge(1, 49).
edge(45, 81).
edge(130, 158).
edge(77, 136).
edge(147, 165).
edge(58, 163).
edge(153, 173).
edge(131, 169).
edge(26, 97).
edge(59, 153).
edge(0, 95).
edge(2, 27).
edge(30, 38).
edge(2, 37).
edge(28, 59).
edge(32, 112).
edge(166, 179).
edge(142, 149).
edge(49, 153).
edge(44, 63).
edge(69, 184).
edge(83, 85).
edge(74, 165).
edge(21, 174).
edge(12, 158).
edge(106, 146).
edge(92, 185).
edge(52, 84).
edge(19, 148).
edge(159, 165).
edge(58, 135).
edge(64, 185).
edge(5, 53).
edge(138, 186).
edge(72, 160).
edge(2, 125).
edge(7, 67).
edge(25, 72).
edge(25, 58).
edge(121, 134).
edge(34, 65).
edge(80, 177).
edge(6, 19).
edge(18, 67).
edge(95, 123).
edge(30, 89).
edge(69, 81).
edge(63, 120).
edge(4, 8).
edge(100, 146).
edge(56, 80).
edge(27, 134).
edge(21, 177).
edge(58, 186).
edge(113, 121).
edge(152, 154).
edge(78, 155).
edge(112, 184).
edge(34, 91).
edge(8, 107).
edge(176, 180).
edge(53, 145).
edge(89, 96).
edge(71, 104).
edge(55, 129).
edge(53, 131).
edge(115, 137).
edge(51, 162).
edge(37, 159).
edge(14, 43).
edge(102, 130).
edge(28, 171).
edge(32, 102).
edge(9, 12).
edge(7, 171).
edge(119, 133).
edge(4, 17).
edge(73, 171).
edge(84, 109).
edge(11, 154).
edge(54, 169).
edge(30, 113).
edge(119, 160).
edge(94, 174).
edge(118, 143).
edge(61, 119).
edge(38, 140).
edge(8, 145).
edge(54, 147).
edge(152, 183).
edge(60, 155).
edge(138, 161).
edge(68, 88).
edge(137, 167).
edge(27, 89).
edge(102, 154).
edge(46, 71).
edge(9, 110).
edge(40, 131).
edge(68, 149).
edge(15, 134).
edge(33, 38).
edge(41, 54).
edge(156, 171).
edge(9, 62).
edge(48, 178).
edge(11, 146).
edge(98, 177).
edge(33, 121).
edge(21, 76).
edge(31, 108).
edge(143, 154).
edge(41, 74).
edge(65, 184).
edge(157, 181).
edge(20, 126).
edge(39, 162).
edge(152, 161).
edge(40, 155).
edge(132, 172).
edge(43, 115).
edge(2, 92).
edge(13, 82).
edge(19, 82).
edge(34, 112).
edge(48, 177).
edge(46, 100).
edge(133, 140).
edge(0, 117).
edge(12, 68).
edge(92, 128).
edge(51, 175).
edge(99, 103).
edge(1, 168).
edge(76, 142).
edge(7, 173).
edge(69, 176).
edge(85, 147).
edge(15, 146).
edge(158, 179).
edge(40, 182).
edge(20, 127).
edge(51, 151).
edge(90, 167).
edge(74, 103).
edge(44, 99).
edge(66, 106).
edge(73, 95).
edge(2, 133).
edge(5, 112).
edge(85, 134).
edge(28, 145).
edge(17, 74).
edge(75, 77).
edge(76, 88).
edge(33, 104).
edge(4, 94).
edge(58, 74).
edge(97, 136).
edge(4, 75).
edge(15, 147).
edge(101, 139).
edge(66, 150).
edge(39, 143).
edge(81, 131).
edge(92, 104).
edge(81, 161).
edge(12, 82).
edge(23, 145).
edge(16, 85).
edge(61, 164).
edge(57, 90).
edge(2, 128).
edge(3, 46).
edge(126, 145).
edge(9, 23).
edge(8, 159).
edge(28, 84).
edge(75, 84).
edge(23, 135).
edge(115, 162).
edge(122, 166).
edge(128, 165).
edge(61, 168).
edge(154, 184).
edge(123, 151).
edge(88, 112).
edge(3, 95).
edge(103, 128).
edge(152, 156).
edge(31, 138).
edge(97, 154).
edge(24, 44).
edge(106, 149).
edge(129, 173).
edge(145, 153).
edge(13, 41).
edge(89, 151).
edge(88, 146).
edge(24, 165).
edge(30, 139).
edge(72, 118).
edge(32, 107).
edge(28, 159).
edge(82, 141).
edge(13, 80).
edge(81, 87).
edge(25, 49).
edge(53, 132).
edge(123, 174).
edge(84, 138).
edge(108, 125).
edge(15, 156).
edge(159, 184).
edge(72, 102).
edge(64, 97).
edge(143, 175).
edge(3, 127).
edge(18, 45).
edge(16, 67).
edge(121, 184).
edge(88, 96).
edge(0, 163).
edge(59, 60).
edge(78, 93).
edge(115, 164).
edge(9, 128).
edge(8, 9).
edge(71, 131).
edge(53, 76).
edge(135, 139).
edge(6, 158).
edge(3, 107).
edge(108, 135).
edge(142, 155).
edge(91, 140).
edge(39, 57).
edge(54, 67).
edge(63, 108).
edge(96, 159).
edge(47, 173).
edge(110, 125).
edge(118, 123).
edge(11, 84).
edge(93, 162).
edge(8, 147).
edge(35, 135).
edge(59, 82).
edge(8, 133).
edge(32, 43).
weight(0, 8).
weight(1, 4).
weight(2, 4).
weight(3, 11).
weight(4, 6).
weight(5, 9).
weight(6, 11).
weight(7, 5).
weight(8, 7).
weight(9, 8).
weight(10, 9).
weight(11, 1).
weight(12, 11).
weight(13, 3).
weight(14, 1).
weight(15, 1).
weight(16, 4).
weight(17, 11).
weight(18, 9).
weight(19, 8).
weight(20, 9).
weight(21, 1).
weight(22, 10).
weight(23, 7).
weight(24, 6).
weight(25, 6).
weight(26, 4).
weight(27, 2).
weight(28, 7).
weight(29, 7).
weight(30, 10).
weight(31, 1).
weight(32, 3).
weight(33, 8).
weight(34, 11).
weight(35, 7).
weight(36, 2).
weight(37, 2).
weight(38, 10).
weight(39, 4).
weight(40, 11).
weight(41, 4).
weight(42, 2).
weight(43, 5).
weight(44, 5).
weight(45, 7).
weight(46, 11).
weight(47, 8).
weight(48, 11).
weight(49, 5).
weight(50, 6).
weight(51, 1).
weight(52, 5).
weight(53, 10).
weight(54, 8).
weight(55, 5).
weight(56, 10).
weight(57, 10).
weight(58, 4).
weight(59, 2).
weight(60, 3).
weight(61, 4).
weight(62, 4).
weight(63, 2).
weight(64, 9).
weight(65, 1).
weight(66, 7).
weight(67, 1).
weight(68, 7).
weight(69, 1).
weight(70, 5).
weight(71, 9).
weight(72, 2).
weight(73, 4).
weight(74, 5).
weight(75, 4).
weight(76, 2).
weight(77, 2).
weight(78, 10).
weight(79, 10).
weight(80, 4).
weight(81, 7).
weight(82, 7).
weight(83, 10).
weight(84, 9).
weight(85, 3).
weight(86, 8).
weight(87, 2).
weight(88, 7).
weight(89, 5).
weight(90, 6).
weight(91, 4).
weight(92, 4).
weight(93, 8).
weight(94, 1).
weight(95, 4).
weight(96, 5).
weight(97, 8).
weight(98, 3).
weight(99, 4).
weight(100, 9).
weight(101, 3).
weight(102, 3).
weight(103, 9).
weight(104, 11).
weight(105, 7).
weight(106, 2).
weight(107, 3).
weight(108, 1).
weight(109, 3).
weight(110, 11).
weight(111, 2).
weight(112, 6).
weight(113, 8).
weight(114, 3).
weight(115, 7).
weight(116, 3).
weight(117, 2).
weight(118, 9).
weight(119, 10).
weight(120, 6).
weight(121, 4).
weight(122, 7).
weight(123, 5).
weight(124, 10).
weight(125, 8).
weight(126, 8).
weight(127, 4).
weight(128, 8).
weight(129, 4).
weight(130, 9).
weight(131, 5).
weight(132, 4).
weight(133, 3).
weight(134, 10).
weight(135, 9).
weight(136, 2).
weight(137, 4).
weight(138, 2).
weight(139, 4).
weight(140, 2).
weight(141, 1).
weight(142, 2).
weight(143, 8).
weight(144, 2).
weight(145, 7).
weight(146, 9).
weight(147, 2).
weight(148, 8).
weight(149, 10).
weight(150, 9).
weight(151, 5).
weight(152, 10).
weight(153, 5).
weight(154, 3).
weight(155, 7).
weight(156, 7).
weight(157, 2).
weight(158, 7).
weight(159, 4).
weight(160, 6).
weight(161, 11).
weight(162, 10).
weight(163, 9).
weight(164, 3).
weight(165, 3).
weight(166, 10).
weight(167, 4).
weight(168, 2).
weight(169, 10).
weight(170, 5).
weight(171, 2).
weight(172, 7).
weight(173, 1).
weight(174, 8).
weight(175, 6).
weight(176, 3).
weight(177, 5).
weight(178, 5).
weight(179, 3).
weight(180, 11).
weight(181, 6).
weight(182, 4).
weight(183, 1).
weight(184, 1).
weight(185, 7).
weight(186, 7).
bound(121).

adj(U,V) :- edge(U,V).
adj(U,V) :- edge(V,U).
{in(V)} :- node(V).
dominated(V) :- in(V).
dominated(V) :- in(U), adj(U,V).
:- node(V), not dominated(V).
:- bound(B), #sum{W,V : in(V), weight(V,W)} > B.
:~ in(V), weight(V,W). [W@1,V]
