node(0..181).
edge(39, 145).
edge(23, 106).
edge(124, 181).
edge(57, 171).
edge(5, 6).
edge(20, 130).
edge(32, 174).
edge(5, 41).
edge(16, 158).
edge(26, 138).
edge(3, 71).
edge(44, 101).
edge(15, 146).
edge(111, 173).
edge(24, 139).
edge(96, 152).
edge(8, 96).
edge(73, 103).
edge(105, 126).
edge(66, 107).
edge(94, 125).
edge(51, 88).
edge(17, 93).
edge(110, 122).
edge(56, 143).
edge(35, 142).
edge(49, 149).
edge(82, 165).
edge(15, 139).
edge(28, 78).
edge(117, 167).
edge(32, 168).
edge(21, 82).
edge(73, 118).
edge(17, 99).
edge(60, 109).
edge(55, 80).
edge(10, 127).
edge(58, 140).
edge(111, 152).
edge(71, 114).
edge(32, 136).
edge(0, 163).
edge(53, 114).
edge(63, 101).
edge(127, 156).
edge(11, 89).
edge(131, 148).
edge(46, 152).
edge(113, 176).
edge(13, 47).
edge(64, 118).
edge(144, 162).
edge(106, 160).
edge(100, 117).
edge(44, 167).
edge(88, 140).
edge(101, 162).
edge(66, 172).
edge(55, 117).
edge(70, 166).
edge(30, 105).
edge(42, 164).
edge(35, 74).
edge(2, 13).
edge(10, 17).
edge(24, 158).
edge(24, 39).
edge(32, 96).
edge(108, 116).
edge(48, 102).
edge(59, 68).
edge(73, 152).
edge(2, 163).
edge(42, 135).
edge(14, 134).
edge(88, 107).
edge(50, 126).
edge(98, 176).
edge(75, 121).
edge(36, 114).
edge(100, 133).
edge(98, 122).
edge(5, 35).
edge(37, 152).
edge(1, 106).
edge(106, 141).
edge(4, 83).
edge(26, 122).
edge(35, 141).
edge(52, 118).
edge(75, 108).
edge(81, 135).
edge(105, 178).
edge(104, 175).
edge(75, 173).
edge(73, 120).
edge(20, 59).
edge(128, 165).
edge(1, 98).
edge(11, 85).
edge(69, 165).
edge(55, 94).
edge(80, 150).
edge(115, 134).
edge(134, 147).
edge(37, 116).
edge(47, 90).
edge(24, 128).
edge(12, 37).
edge(87, 121).
edge(36, 37).
edge(8, 21).
edge(28, 169).
edge(52, 171).
edge(74, 160).
edge(49, 77).
edge(40, 144).
edge(13, 162).
edge(22, 88).
edge(38, 130).
edge(16, 60).
edge(14, 133).
edge(51, 174).
edge(10, 123).
edge(24, 131).
edge(126, 167).
edge(7, 157).
edge(22, 98).
edge(25, 145).
edge(43, 130).
edge(103, 139).
edge(88, 92).
edge(10, 18).
edge(91, 93).
edge(34, 79).
edge(60, 106).
edge(36, 70).
edge(125, 152).
edge(7, 106).
edge(22, 110).
edge(103, 140).
edge(70, 160).
edge(25, 115).
edge(118, 156).
edge(94, 114).
edge(8, 99).
edge(66, 140).
edge(32, 51).
edge(111, 144).
edge(4, 135).
edge(30, 147).
edge(147, 180).
edge(27, 149).
edge(111, 116).
edge(41, 159).
edge(52, 139).
edge(24, 45).
edge(150, 154).
edge(40, 177).
edge(13, 113).
edge(75, 111).
edge(79, 97).
edge(17, 65).
edge(71, 141).
edge(92, 101).
edge(138, 176).
edge(47, 156).
edge(10, 79).
edge(5, 32).
edge(4, 90).
edge(93, 150).
edge(18, 87).
edge(4, 79).
edge(6, 95).
edge(34, 156).
edge(54, 66).
edge(0, 167).
edge(133, 135).
edge(35, 82).
edge(11, 173).
edge(2, 151).
edge(89, 156).
edge(40, 147).
edge(12, 124).
edge(58, 119).
edge(122, 141).
edge(45, 81).
edge(26, 90).
edge(2, 118).
edge(36, 173).
edge(80, 127).
edge(38, 39).
edge(76, 91).
edge(162, 171).
edge(65, 173).
edge(68, 167).
edge(141, 146).
edge(21, 145).
edge(16, 96).
edge(125, 174).
edge(5, 164).
edge(97, 148).
edge(28, 80).
edge(25, 122).
edge(21, 125).
edge(9, 60).
edge(68, 171).
edge(38, 55).
edge(52, 153).
edge(2, 114).
edge(110, 144).
edge(45, 155).
edge(97, 166).
edge(20, 32).
edge(102, 151).
edge(82, 120).
edge(86, 98).
edge(40, 109).
edge(130, 140).
edge(81, 128).
edge(56, 90).
edge(89, 94).
edge(40, 79).
edge(104, 138).
edge(51, 69).
edge(28, 37).
edge(17, 179).
edge(42, 149).
edge(6, 100).
edge(31, 56).
edge(106, 123).
edge(120, 156).
edge(125, 163).
edge(86, 114).
edge(74, 102).
edge(1, 21).
edge(30, 148).
edge(95, 111).
edge(24, 116).
edge(55, 147).
edge(96, 125).
edge(8, 134).
edge(80, 102).
edge(27, 78).
edge(58, 86).
edge(113, 157).
edge(5, 167).
edge(113, 126).
edge(3, 59).
edge(48, 97).
edge(41, 80).
edge(35, 107).
edge(50, 115).
edge(55, 78).
edge(15, 165).
edge(57, 67).
edge(34, 119).
edge(128, 141).
edge(143, 146).
edge(42, 144).
edge(42, 124).
edge(8, 160).
edge(101, 116).
edge(1, 145).
edge(66, 137).
edge(40, 45).
edge(46, 79).
edge(2, 99).
edge(23, 173).
edge(90, 133).
edge(3, 124).
edge(33, 163).
edge(41, 129).
edge(51, 55).
edge(54, 181).
edge(28, 47).
edge(20, 127).
edge(67, 128).
edge(22, 74).
edge(23, 113).
edge(27, 142).
edge(90, 112).
edge(6, 163).
edge(73, 159).
edge(35, 145).
edge(4, 144).
edge(57, 80).
edge(37, 137).
edge(86, 144).
edge(2, 129).
edge(71, 91).
edge(113, 163).
edge(56, 82).
edge(90, 178).
edge(25, 54).
edge(61, 134).
edge(119, 122).
edge(1, 149).
edge(15, 82).
edge(114, 145).
edge(42, 129).
edge(85, 125).
edge(157, 165).
edge(50, 85).
edge(53, 60).
edge(149, 153).
edge(27, 153).
edge(56, 64).
edge(94, 163).
edge(38, 181).
edge(84, 162).
edge(80, 105).
edge(90, 150).
edge(86, 170).
edge(46, 81).
edge(3, 91).
edge(47, 147).
edge(106, 167).
edge(67, 159).
edge(10, 181).
edge(27, 102).
edge(50, 176).
edge(11, 111).
edge(110, 137).
edge(56, 152).
edge(22, 180).
edge(13, 107).
edge(25, 102).
edge(85, 162).
edge(125, 132).
edge(9, 48).
edge(37, 82).
edge(93, 97).
edge(53, 139).
edge(19, 105).
edge(71, 153).
edge(65, 88).
edge(116, 166).
edge(18, 72).
edge(1, 122).
edge(7, 53).
edge(21, 96).
edge(68, 177).
edge(81, 131).
edge(91, 180).
edge(69, 70).
edge(24, 178).
edge(37, 147).
edge(134, 135).
edge(76, 124).
edge(16, 134).
edge(15, 72).
edge(12, 55).
edge(33, 50).
edge(13, 177).
edge(111, 148).
edge(43, 63).
edge(80, 133).
edge(66, 87).
edge(96, 141).
edge(75, 125).
edge(52, 63).
edge(68, 69).
edge(125, 140).
edge(31, 81).
edge(172, 178).
edge(74, 163).
edge(78, 109).
edge(42, 82).
edge(7, 59).
edge(77, 105).
edge(57, 104).
edge(109, 155).
edge(93, 131).
edge(63, 141).
edge(157, 167).
edge(74, 90).
edge(57, 122).
edge(23, 25).
edge(75, 79).
edge(55, 134).
edge(95, 181).
edge(62, 177).
edge(17, 137).
edge(84, 90).
edge(65, 131).
edge(65, 134).
edge(128, 164).
edge(91, 118).
edge(167, 170).
edge(58, 179).
edge(38, 90).
edge(20, 28).
edge(6, 86).
edge(9, 132).
edge(58, 170).
edge(34, 49).
edge(73, 136).
edge(93, 130).
edge(8, 155).
edge(36, 112).
edge(111, 130).
edge(87, 99).
edge(83, 112).
edge(39, 70).
edge(13, 31).
edge(166, 181).
edge(16, 125).
edge(116, 156).
edge(121, 150).
edge(63, 117).
edge(13, 34).
edge(55, 60).
edge(113, 167).
edge(24, 70).
edge(100, 109).
edge(126, 160).
edge(83, 118).
edge(74, 167).
edge(4, 167).
edge(11, 83).
edge(100, 161).
edge(100, 119).
edge(8, 81).
edge(133, 145).
edge(57, 176).
edge(72, 130).
edge(34, 59).
edge(67, 154).
edge(10, 76).
edge(66, 92).
edge(138, 154).
edge(47, 124).
edge(162, 167).
edge(51, 137).
edge(124, 137).
edge(39, 129).
edge(5, 141).
edge(16, 171).
edge(103, 120).
edge(146, 155).
edge(54, 177).
edge(72, 175).
edge(76, 81).
edge(15, 121).
edge(26, 173).
edge(62, 115).
edge(80, 83).
edge(103, 168).
edge(50, 147).
edge(23, 109).
edge(83, 131).
edge(11, 58).
edge(90, 151).
edge(61, 137).
edge(166, 180).
edge(58, 84).
edge(96, 124).
edge(14, 64).
edge(2, 4).
edge(32, 142).
edge(75, 168).
edge(19, 37).
edge(105, 168).
edge(64, 86).
edge(57, 149).
edge(23, 134).
edge(84, 154).
edge(83, 104).
edge(89, 169).
edge(21, 114).
edge(108, 177).
edge(69, 162).
edge(108, 120).
edge(13, 71).
edge(38, 160).
edge(8, 115).
edge(69, 146).
edge(52, 57).
edge(17, 118).
edge(112, 141).
edge(94, 159).
edge(135, 161).
edge(91, 147).
edge(17, 40).
edge(53, 75).
edge(15, 76).
edge(8, 40).
edge(108, 160).
edge(13, 98).
edge(129, 135).
edge(47, 51).
edge(17, 37).
edge(75, 163).
edge(24, 32).
edge(120, 132).
edge(95, 154).
edge(62, 119).
edge(9, 96).
edge(53, 94).
edge(40, 90).
edge(4, 160).
edge(6, 162).
edge(147, 175).
edge(97, 120).
edge(27, 119).
edge(85, 154).
edge(90, 176).
edge(96, 134).
edge(57, 74).
edge(10, 165).
edge(40, 115).
edge(6, 103).
edge(149, 175).
edge(68, 137).
edge(17, 21).
edge(60, 153).
edge(63, 97).
edge(63, 106).
edge(84, 89).
edge(139, 152).
edge(90, 111).
edge(49, 85).
edge(52, 68).
edge(100, 159).
edge(17, 46).
edge(150, 152).
edge(29, 97).
edge(63, 91).
edge(10, 100).
edge(97, 108).
edge(49, 135).
edge(29, 68).
edge(42, 138).
edge(50, 162).
edge(5, 178).
edge(108, 150).
edge(47, 68).
edge(30, 170).
edge(42, 93).
edge(97, 128).
edge(8, 14).
edge(63, 82).
edge(112, 171).
edge(8, 67).
edge(154, 168).
edge(9, 88).
edge(128, 146).
edge(44, 145).
edge(9, 142).
edge(91, 121).
edge(9, 65).
edge(128, 171).
edge(76, 156).
edge(9, 100).
edge(72, 112).
edge(41, 106).
edge(137, 157).
edge(127, 169).
edge(29, 129).
edge(59, 116).
edge(22, 68).
edge(28, 131).
edge(63, 171).
edge(35, 146).
edge(13, 72).
edge(10, 124).
edge(56, 125).
edge(11, 68).
edge(113, 144).
edge(28, 96).
edge(168, 177).
edge(146, 169).
edge(92, 160).
edge(21, 43).
edge(146, 161).
edge(20, 45).
edge(7, 70).
edge(42, 88).
edge(102, 162).
edge(5, 126).
edge(70, 85).
edge(31, 172).
edge(37, 65).
edge(87, 106).
edge(28, 72).
edge(30, 73).
edge(0, 39).
edge(32, 103).
edge(2, 45).
edge(12, 113).
edge(38, 56).
edge(11, 144).
edge(113, 115).
edge(2, 171).
edge(14, 156).
edge(74, 89).
edge(100, 136).
edge(32, 99).
edge(135, 144).
edge(27, 169).
edge(112, 164).
edge(120, 123).
edge(3, 83).
edge(58, 129).
edge(26, 150).
edge(4, 142).
edge(93, 179).
edge(31, 58).
edge(60, 80).
edge(58, 71).
edge(73, 85).
edge(90, 152).
edge(102, 150).
edge(41, 172).
edge(1, 18).
edge(16, 128).
edge(134, 181).
edge(103, 169).
edge(10, 54).
edge(18, 70).
edge(164, 179).
edge(129, 180).
edge(8, 18).
edge(123, 176).
edge(48, 70).
edge(62, 158).
edge(45, 151).
edge(100, 120).
edge(65, 80).
edge(49, 169).
edge(92, 166).
edge(72, 128).
edge(23, 45).
edge(28, 181).
edge(111, 178).
edge(131, 163).
edge(55, 100).
edge(106, 145).
edge(56, 168).
edge(128, 154).
edge(31, 171).
edge(60, 175).
edge(3, 115).
edge(31, 93).
edge(7, 10).
edge(17, 139).
edge(110, 161).
edge(134, 161).
edge(127, 159).
edge(49, 83).
edge(59, 96).
edge(26, 158).
edge(29, 30).
edge(118, 134).
edge(100, 134).
edge(90, 105).
edge(36, 48).
edge(23, 131).
edge(74, 158).
edge(75, 169).
edge(71, 138).
edge(145, 153).
edge(1, 86).
edge(22, 156).
edge(71, 113).
edge(92, 118).
edge(77, 149).
edge(112, 180).
edge(109, 162).
edge(58, 128).
edge(14, 120).
edge(9, 171).
edge(99, 123).
edge(94, 170).
edge(103, 156).
edge(31, 47).
edge(67, 89).
edge(25, 61).
edge(17, 112).
edge(133, 152).
edge(169, 175).
edge(92, 155).
edge(115, 152).
edge(30, 180).
edge(36, 178).
edge(73, 139).
edge(6, 148).
edge(97, 123).
edge(47, 169).
edge(51, 68).
edge(25, 38).
edge(1, 7).
edge(53, 142).
edge(63, 88).
edge(15, 124).
edge(118, 160).
edge(55, 108).
edge(101, 129).
edge(70, 77).
edge(25, 110).
edge(155, 174).
edge(54, 157).
edge(116, 147).
edge(124, 140).
edge(77, 117).
edge(161, 181).
edge(56, 135).
edge(2, 76).
edge(26, 114).
edge(153, 167).
edge(123, 136).
edge(54, 165).
edge(22, 63).
edge(2, 113).
edge(102, 119).
edge(31, 75).
edge(27, 72).
edge(100, 181).
edge(25, 137).
edge(35, 64).
edge(50, 55).
edge(28, 145).
edge(21, 148).
edge(31, 99).
edge(68, 99).
edge(30, 42).
edge(14, 96).
edge(50, 154).
edge(76, 167).
edge(55, 140).
edge(32, 110).
edge(40, 41).
edge(12, 106).
edge(148, 166).
edge(135, 170).
edge(37, 109).
edge(109, 143).
edge(37, 114).
edge(28, 46).
edge(87, 173).
edge(39, 84).
edge(77, 145).
edge(89, 121).
edge(97, 153).
edge(76, 165).
edge(21, 61).
edge(40, 165).
edge(37, 178).
edge(11, 84).
edge(46, 72).
edge(26, 102).
edge(123, 178).
edge(58, 117).
edge(19, 69).
edge(58, 61).
edge(79, 179).
edge(14, 137).
edge(21, 120).
edge(37, 129).
edge(71, 104).
edge(2, 38).
edge(33, 127).
edge(61, 101).
edge(2, 53).
edge(40, 96).
edge(11, 62).
edge(13, 152).
edge(21, 100).
edge(9, 129).
edge(48, 59).
edge(100, 104).
edge(106, 124).
edge(36, 119).
edge(152, 169).
edge(87, 133).
edge(62, 149).
edge(18, 153).
edge(28, 177).
edge(35, 144).
edge(115, 130).
edge(36, 75).
edge(73, 145).
edge(74, 161).
edge(88, 176).
edge(25, 109).
edge(114, 181).
edge(35, 121).
edge(165, 173).
edge(25, 104).
edge(37, 84).
edge(88, 119).
edge(62, 147).
edge(114, 165).
edge(95, 153).
edge(73, 160).
edge(18, 114).
edge(79, 138).
edge(71, 171).
edge(27, 165).
edge(106, 109).
edge(12, 27).
edge(60, 77).
edge(15, 99).
edge(31, 91).
edge(1, 119).
edge(69, 148).
edge(101, 108).
edge(55, 170).
edge(1, 170).
edge(122, 130).
edge(131, 134).
edge(0, 24).
edge(85, 124).
edge(162, 170).
edge(2, 41).
edge(26, 131).
edge(82, 143).
edge(52, 121).
edge(108, 137).
edge(42, 95).
edge(26, 27).
edge(76, 119).
edge(149, 179).
edge(69, 126).
edge(14, 154).
edge(147, 172).
edge(29, 171).
edge(56, 88).
edge(98, 150).
edge(3, 159).
edge(165, 177).
edge(83, 98).
edge(162, 179).
edge(41, 66).
edge(32, 105).
edge(129, 179).
edge(113, 159).
edge(124, 160).
edge(152, 176).
edge(46, 135).
edge(7, 133).
edge(33, 42).
edge(10, 174).
edge(68, 91).
edge(41, 72).
edge(67, 79).
edge(16, 40).
edge(10, 81).
edge(115, 126).
edge(14, 54).
edge(41, 52).
edge(37, 78).
edge(138, 160).
edge(52, 146).
edge(31, 130).
edge(10, 149).
edge(101, 175).
edge(157, 169).
edge(7, 152).
edge(34, 163).
edge(3, 14).
edge(33, 54).
edge(78, 106).
edge(41, 157).
edge(66, 174).
edge(99, 110).
edge(87, 128).
edge(34, 48).
edge(76, 138).
edge(61, 89).
edge(4, 149).
edge(3, 51).
edge(59, 132).
edge(21, 155).
edge(56, 154).
edge(100, 152).
edge(116, 124).
edge(116, 117).
edge(49, 168).
edge(101, 168).
edge(18, 176).
edge(134, 150).
edge(62, 89).
edge(15, 51).
edge(57, 114).
edge(43, 90).
edge(67, 120).
edge(118, 138).
edge(39, 138).
edge(46, 117).
edge(69, 79).
edge(30, 162).
edge(51, 143).
edge(37, 72).
edge(106, 152).
edge(63, 143).
edge(66, 146).
edge(35, 106).
edge(2, 34).
edge(43, 93).
edge(48, 159).
edge(111, 147).
edge(64, 174).
edge(37, 121).
edge(139, 181).
edge(55, 169).
edge(135, 138).
edge(32, 135).
edge(76, 168).
edge(86, 93).
edge(5, 154).
edge(14, 152).
edge(12, 65).
edge(133, 163).
edge(57, 59).
edge(17, 42).
edge(68, 82).
edge(38, 149).
edge(0, 149).
edge(140, 173).
edge(7, 162).
edge(79, 131).
edge(9, 123).
edge(12, 23).
edge(31, 147).
edge(74, 126).
edge(144, 164).
edge(43, 81).
edge(61, 179).
edge(28, 138).
edge(7, 29).
edge(51, 151).
edge(50, 160).
edge(146, 178).
edge(58, 122).
edge(73, 96).
edge(134, 167).
edge(21, 118).
edge(36, 59).
edge(47, 116).
edge(48, 65).
edge(24, 176).
edge(22, 119).
edge(65, 127).
edge(82, 116).
edge(52, 71).
edge(21, 99).
edge(70, 150).
edge(8, 26).
edge(68, 111).
edge(105, 176).
edge(36, 93).
edge(60, 145).
edge(17, 69).
edge(106, 143).
edge(143, 163).
edge(28, 111).
edge(89, 115).
edge(123, 161).
edge(29, 111).
edge(46, 108).
edge(49, 73).
edge(30, 155).
edge(23, 59).
edge(53, 172).
edge(73, 148).
edge(38, 152).
edge(127, 174).
edge(7, 127).
edge(49, 173).
edge(37, 80).
edge(127, 143).
edge(49, 74).
edge(19, 90).
edge(26, 69).
edge(82, 138).
edge(113, 179).
edge(59, 157).
edge(60, 73).
edge(67, 150).
edge(50, 108).
edge(93, 98).
edge(25, 165).
edge(41, 90).
edge(5, 24).
edge(69, 88).
edge(137, 140).
edge(81, 150).
edge(113, 116).
edge(14, 169).
edge(46, 64).
edge(54, 131).
edge(2, 131).
edge(49, 109).
edge(1, 112).
edge(74, 152).
edge(63, 74).
edge(76, 135).
edge(34, 110).
edge(5, 111).
edge(25, 164).
edge(13, 17).
edge(156, 164).
edge(83, 132).
edge(113, 156).
edge(65, 129).
edge(89, 154).
edge(48, 82).
edge(65, 125).
edge(45, 156).
edge(6, 82).
edge(26, 98).
edge(34, 38).
edge(117, 122).
edge(144, 150).
edge(30, 143).
edge(84, 96).
edge(9, 33).
edge(17, 63).
edge(64, 119).
edge(10, 139).
edge(57, 131).
edge(6, 94).
edge(9, 50).
edge(5, 39).
edge(105, 108).
edge(52, 167).
edge(127, 180).
edge(149, 168).
edge(18, 109).
edge(17, 26).
edge(41, 95).
edge(93, 121).
edge(6, 159).
edge(23, 55).
edge(50, 144).
edge(166, 179).
edge(68, 133).
edge(80, 108).
edge(31, 36).
edge(4, 137).
edge(16, 33).
edge(2, 26).
edge(67, 119).
edge(126, 151).
edge(76, 170).
edge(60, 121).
edge(28, 162).
edge(60, 169).
edge(149, 157).
edge(12, 131).
edge(92, 157).
edge(94, 108).
edge(52, 169).
edge(18, 95).
edge(13, 158).
edge(89, 164).
edge(73, 126).
edge(73, 88).
edge(49, 84).
edge(105, 156).
edge(27, 55).
edge(81, 110).
edge(104, 181).
edge(106, 122).
edge(76, 134).
edge(119, 166).
edge(72, 133).
edge(39, 113).
edge(95, 159).
edge(72, 117).
edge(80, 155).
edge(50, 120).
edge(69, 164).
edge(58, 180).
edge(45, 138).
edge(58, 152).
edge(66, 90).
edge(77, 146).
edge(19, 78).
edge(35, 171).
edge(85, 175).
edge(103, 133).
edge(33, 149).
edge(79, 162).
edge(60, 69).
edge(6, 68).
edge(135, 151).
edge(44, 139).
edge(11, 81).
edge(3, 131).
edge(65, 123).
edge(17, 173).
edge(2, 111).
edge(95, 105).
edge(124, 163).
edge(69, 180).
edge(59, 149).
edge(34, 92).
edge(5, 64).
edge(46, 51).
edge(0, 38).
edge(0, 100).
edge(74, 133).
edge(48, 154).
edge(27, 137).
edge(47, 77).
edge(14, 74).
edge(142, 166).
edge(44, 67).
edge(29, 60).
edge(43, 64).
edge(46, 50).
edge(75, 113).
edge(0, 23).
edge(65, 163).
edge(88, 135).
edge(130, 137).
edge(41, 53).
edge(26, 168).
edge(6, 174).
edge(107, 131).
edge(26, 39).
edge(151, 158).
edge(38, 92).
edge(130, 163).
edge(15, 116).
edge(69, 176).
edge(102, 141).
edge(21, 54).
edge(76, 166).
edge(5, 50).
edge(58, 104).
edge(100, 145).
edge(115, 178).
edge(104, 151).
edge(140, 167).
edge(13, 58).
edge(76, 120).
edge(32, 130).
edge(66, 176).
edge(81, 107).
edge(97, 119).
edge(119, 163).
edge(42, 134).
edge(139, 172).
edge(24, 151).
edge(26, 101).
edge(115, 150).
edge(1, 108).
edge(49, 141).
edge(91, 116).
edge(121, 135).
edge(128, 130).
edge(96, 168).
edge(139, 155).
edge(112, 163).
edge(11, 157).
edge(28, 103).
edge(0, 73).
edge(83, 173).
edge(111, 117).
edge(43, 111).
edge(33, 157).
edge(6, 77).
edge(20, 148).
edge(2, 12).
edge(50, 134).
edge(82, 137).
edge(38, 49).
edge(171, 173).
edge(33, 89).
edge(102, 163).
edge(27, 75).
edge(29, 157).
edge(154, 180).
edge(99, 163).
edge(78, 156).
edge(42, 106).
edge(22, 109).
edge(146, 147).
edge(42, 117).
edge(31, 180).
edge(47, 67).
edge(66, 159).
edge(1, 156).
edge(29, 96).
edge(14, 98).
edge(14, 55).
edge(2, 121).
edge(88, 131).
edge(35, 147).
edge(40, 181).
edge(27, 34).
edge(70, 179).
edge(64, 85).
edge(23, 83).
edge(114, 174).
edge(134, 168).
edge(110, 132).
edge(26, 125).
edge(29, 73).
edge(25, 96).
edge(71, 148).
edge(100, 169).
edge(20, 75).
edge(93, 108).
edge(151, 173).
edge(14, 28).
edge(133, 172).
edge(22, 144).
edge(12, 51).
edge(20, 39).
edge(136, 162).
edge(86, 122).
edge(10, 37).
edge(102, 138).
edge(64, 90).
edge(58, 173).
edge(75, 93).
edge(68, 135).
edge(49, 150).
edge(26, 119).
edge(49, 172).
edge(71, 174).
edge(69, 175).
edge(100, 180).
edge(48, 160).
edge(100, 139).
edge(55, 82).
edge(93, 146).
edge(6, 112).
edge(8, 93).
edge(63, 153).
edge(95, 101).
edge(46, 138).
edge(4, 153).
edge(70, 87).
edge(101, 154).
edge(115, 145).
edge(30, 140).
edge(71, 123).
edge(21, 134).
edge(131, 161).
edge(135, 155).
edge(125, 133).
edge(140, 174).
edge(19, 82).
edge(45, 124).
edge(80, 159).
edge(28, 52).
edge(42, 53).
edge(30, 131).
edge(153, 171).
edge(17, 78).
edge(34, 130).
edge(10, 90).
edge(46, 181).
edge(9, 82).
edge(3, 78).
edge(64, 148).
edge(42, 50).
edge(44, 147).
edge(24, 99).
edge(129, 152).
edge(171, 172).
edge(39, 165).
edge(105, 123).
edge(113, 146).
edge(29, 74).
edge(138, 167).
edge(32, 92).
edge(154, 163).
edge(11, 77).
edge(2, 84).
edge(135, 160).
edge(39, 40).
edge(4, 117).
edge(89, 90).
edge(19, 181).
edge(12, 154).
edge(9, 105).
edge(29, 39).
edge(142, 158).
edge(42, 66).
edge(6, 31).
edge(65, 180).
edge(154, 169).
edge(94, 156).
edge(131, 164).
edge(19, 47).
edge(15, 140).
edge(40, 142).
edge(127, 172).
edge(72, 114).
edge(87, 137).
edge(24, 149).
edge(133, 164).
edge(50, 170).
edge(58, 168).
edge(41, 85).
edge(7, 134).
edge(163, 166).
edge(45, 149).
edge(29, 175).
edge(6, 22).
edge(67, 88).
edge(46, 93).
edge(11, 146).
edge(81, 163).
edge(31, 49).
edge(70, 73).
edge(66, 156).
edge(57, 163).
edge(21, 161).
edge(35, 177).
edge(111, 157).
edge(47, 152).
edge(3, 74).
edge(92, 112).
edge(0, 70).
edge(2, 40).
edge(63, 129).
edge(15, 63).
edge(79, 116).
edge(33, 170).
edge(57, 96).
edge(23, 76).
edge(3, 9).
edge(14, 86).
edge(24, 107).
edge(17, 79).
edge(63, 96).
edge(81, 85).
edge(10, 170).
edge(59, 106).
edge(9, 98).
edge(35, 108).
edge(158, 177).
edge(88, 149).
edge(121, 124).
edge(109, 147).
edge(6, 116).
edge(70, 164).
edge(52, 104).
edge(25, 73).
edge(26, 59).
edge(124, 128).
edge(148, 180).
edge(27, 48).
edge(25, 82).
edge(92, 128).
edge(126, 132).
edge(26, 163).
edge(106, 139).
edge(60, 173).
edge(26, 134).
edge(38, 104).
edge(33, 51).
edge(9, 114).
edge(17, 170).
edge(110, 159).
edge(54, 79).
edge(89, 170).
edge(169, 172).
edge(127, 177).
edge(62, 103).
edge(108, 123).
edge(87, 152).
edge(143, 151).
edge(38, 114).
edge(31, 57).
edge(11, 160).
edge(83, 162).
edge(80, 99).
edge(118, 146).
edge(140, 161).
edge(93, 114).
edge(82, 100).
edge(111, 133).
edge(33, 73).
edge(37, 75).
edge(6, 61).
edge(22, 61).
edge(82, 175).
edge(119, 145).
edge(7, 74).
edge(128, 140).
edge(20, 121).
edge(9, 11).
edge(129, 172).
edge(12, 161).
edge(4, 162).
edge(132, 173).
edge(39, 52).
edge(42, 161).
edge(33, 56).
edge(67, 146).
edge(18, 42).
edge(17, 74).
edge(22, 46).
edge(3, 118).
edge(7, 76).
edge(0, 143).
edge(76, 115).
edge(16, 117).
edge(51, 119).
edge(137, 141).
edge(32, 131).
edge(125, 139).
edge(82, 125).
edge(44, 106).
edge(53, 141).
edge(170, 177).
edge(40, 63).
edge(116, 163).
edge(54, 104).
edge(19, 179).
edge(61, 105).
edge(8, 149).
edge(4, 8).
edge(54, 176).
edge(3, 165).
edge(63, 136).
edge(80, 180).
edge(160, 171).
edge(28, 100).
edge(23, 145).
edge(35, 87).
edge(95, 151).
edge(23, 164).
edge(34, 112).
edge(20, 40).
edge(27, 154).
edge(0, 181).
edge(42, 133).
edge(20, 80).
edge(49, 60).
edge(136, 142).
edge(70, 131).
edge(66, 167).
edge(143, 170).
edge(2, 101).
edge(66, 164).
edge(3, 119).
edge(77, 179).
edge(80, 145).
edge(24, 96).
edge(65, 109).
edge(19, 22).
edge(115, 143).
edge(48, 162).
edge(74, 92).
edge(64, 108).
edge(45, 49).
edge(153, 166).
edge(16, 139).
edge(22, 172).
edge(22, 28).
edge(94, 149).
edge(14, 60).
edge(17, 129).
edge(97, 118).
edge(85, 131).
edge(10, 138).
edge(44, 86).
edge(7, 129).
edge(51, 81).
edge(40, 128).
edge(33, 161).
edge(84, 104).
edge(11, 79).
edge(35, 180).
edge(76, 176).
edge(96, 162).
edge(30, 122).
edge(5, 147).
edge(120, 177).
edge(119, 169).
edge(39, 155).
edge(134, 174).
edge(71, 96).
edge(120, 180).
edge(28, 134).
edge(45, 180).
edge(43, 65).
edge(154, 178).
edge(38, 180).
edge(67, 137).
edge(55, 99).
edge(77, 161).
edge(0, 9).
edge(69, 147).
edge(101, 159).
edge(157, 170).
edge(4, 146).
edge(79, 101).
edge(63, 164).
edge(163, 172).
edge(112, 144).
edge(1, 115).
edge(70, 133).
edge(83, 117).
edge(22, 152).
edge(6, 20).
edge(92, 102).
edge(91, 124).
edge(62, 148).
edge(99, 146).
edge(76, 178).
edge(94, 161).
edge(62, 83).
edge(15, 143).
edge(54, 118).
edge(1, 179).
edge(7, 93).
edge(30, 103).
edge(25, 36).
edge(135, 165).
edge(16, 83).
edge(125, 167).
edge(77, 168).
edge(60, 127).
edge(88, 164).
edge(54, 147).
edge(16, 129).
edge(42, 89).
edge(5, 7).
edge(109, 174).
edge(168, 179).
edge(102, 165).
edge(28, 114).
edge(118, 141).
edge(79, 165).
edge(63, 159).
edge(122, 151).
edge(40, 50).
edge(66, 97).
edge(131, 180).
edge(48, 116).
edge(171, 176).
edge(31, 177).
edge(91, 179).
edge(41, 176).
edge(26, 82).
edge(70, 80).
edge(57, 141).
edge(8, 95).
edge(20, 118).
edge(143, 158).
edge(86, 168).
edge(5, 94).
edge(1, 27).
edge(156, 169).
edge(61, 92).
edge(35, 115).
edge(60, 68).
edge(3, 148).
edge(127, 129).
edge(80, 177).
edge(66, 86).
edge(8, 104).
edge(82, 168).
edge(7, 36).
edge(92, 103).
edge(108, 115).
edge(31, 102).
edge(79, 127).
edge(94, 151).
edge(118, 151).
edge(54, 154).
edge(10, 62).
edge(44, 137).
edge(54, 93).
edge(1, 162).
edge(22, 124).
edge(129, 136).
edge(164, 176).
edge(26, 157).
edge(4, 115).
edge(6, 90).
edge(11, 36).
edge(1, 55).
edge(47, 154).
edge(178, 179).
edge(15, 129).
edge(118, 135).
edge(32, 150).
edge(81, 147).
edge(135, 171).
edge(75, 117).
edge(97, 102).
edge(81, 133).
edge(49, 104).
edge(5, 29).
edge(23, 104).
edge(89, 141).
edge(122, 172).
edge(56, 158).
edge(91, 96).
edge(43, 146).
edge(15, 64).
edge(35, 50).
edge(31, 80).
edge(12, 159).
edge(45, 92).
edge(44, 96).
edge(143, 156).
edge(16, 104).
edge(4, 20).
edge(8, 24).
edge(75, 147).
edge(129, 138).
edge(34, 77).
edge(62, 110).
edge(93, 117).
edge(23, 32).
edge(90, 99).
edge(62, 105).
edge(100, 144).
edge(4, 65).
edge(38, 84).
edge(26, 89).
edge(53, 56).
edge(106, 164).
edge(85, 158).
edge(55, 131).
edge(5, 8).
edge(6, 45).
edge(24, 51).
edge(94, 175).
edge(26, 31).
edge(5, 158).
edge(74, 173).
edge(87, 112).
edge(33, 120).
edge(8, 122).
edge(65, 78).
edge(18, 22).
edge(39, 181).
edge(50, 105).
edge(88, 175).
edge(17, 19).
edge(86, 138).
edge(70, 137).
edge(144, 154).
edge(151, 167).
edge(150, 151).
edge(31, 51).
edge(13, 115).
edge(41, 149).
edge(56, 98).
edge(61, 160).
edge(29, 161).
edge(102, 127).
edge(125, 162).
edge(127, 171).
edge(50, 97).
edge(9, 161).
edge(16, 113).
edge(166, 173).
edge(114, 119).
edge(13, 118).
edge(37, 117).
edge(52, 174).
edge(61, 121).
edge(56, 97).
edge(155, 159).
edge(31, 65).
edge(66, 144).
edge(33, 128).
edge(138, 181).
edge(20, 151).
edge(63, 137).
edge(17, 90).
edge(93, 96).
edge(122, 167).
edge(2, 11).
edge(132, 163).
edge(65, 92).
edge(83, 108).
edge(132, 181).
edge(20, 97).
edge(19, 146).
edge(62, 109).
edge(51, 72).
edge(24, 163).
edge(134, 144).
edge(50, 86).
edge(118, 149).
edge(69, 171).
edge(55, 112).
edge(142, 176).
edge(4, 123).
edge(121, 151).
edge(95, 114).
edge(40, 103).
edge(64, 124).
edge(4, 67).
edge(56, 134).
edge(11, 61).
edge(53, 72).
edge(56, 72).
edge(35, 138).
edge(57, 138).
edge(31, 83).
edge(83, 137).
edge(60, 159).
edge(30, 112).
edge(133, 170).
edge(71, 129).
edge(87, 169).
edge(46, 146).
edge(71, 85).
edge(30, 171).
edge(51, 73).
edge(160, 170).
edge(11, 78).
edge(16, 141).
edge(9, 111).
edge(64, 153).
edge(105, 140).
edge(93, 139).
edge(65, 85).
edge(67, 171).
edge(88, 113).
edge(45, 85).
edge(11, 13).
edge(77, 121).
edge(137, 152).
edge(50, 171).
edge(0, 46).
edge(106, 169).
edge(57, 58).
edge(28, 147).
edge(88, 91).
edge(28, 54).
edge(17, 33).
edge(38, 165).
edge(20, 136).
edge(124, 139).
edge(60, 122).
edge(57, 63).
edge(49, 133).
edge(73, 133).
edge(2, 177).
edge(97, 176).
edge(47, 107).
edge(113, 173).
edge(29, 50).
edge(76, 96).
edge(80, 160).
edge(36, 45).
edge(135, 158).
edge(6, 166).
edge(42, 101).
edge(130, 168).
edge(100, 102).
edge(56, 106).
edge(32, 176).
edge(17, 18).
edge(11, 125).
edge(50, 136).
edge(4, 28).
edge(68, 81).
edge(10, 89).
edge(78, 178).
edge(90, 122).
edge(107, 181).
edge(142, 164).
edge(147, 149).
edge(32, 100).
edge(115, 131).
edge(85, 129).
edge(19, 64).
edge(65, 133).
edge(7, 107).
edge(11, 155).
edge(114, 156).
edge(1, 73).
edge(78, 119).
edge(25, 48).
edge(131, 174).
edge(71, 99).
edge(32, 115).
edge(120, 141).
edge(47, 162).
edge(53, 126).
edge(14, 175).
edge(4, 30).
edge(108, 166).
edge(94, 126).
edge(139, 156).
edge(99, 119).
edge(113, 138).
edge(40, 136).
edge(129, 174).
edge(33, 109).
edge(19, 95).
edge(2, 138).
edge(50, 177).
edge(57, 93).
edge(79, 122).
edge(49, 50).
edge(31, 77).
edge(97, 114).
edge(78, 133).
edge(40, 80).
edge(31, 110).
edge(78, 114).
edge(77, 154).
edge(51, 159).
edge(7, 131).
edge(38, 95).
edge(117, 178).
edge(31, 101).
edge(126, 164).
edge(43, 108).
edge(142, 150).
edge(166, 170).
edge(63, 81).
edge(45, 104).
edge(111, 128).
edge(99, 121).
edge(44, 115).
edge(37, 173).
edge(7, 180).
edge(14, 15).
edge(74, 98).
edge(1, 87).
edge(29, 76).
edge(3, 36).
edge(80, 134).
edge(54, 62).
edge(134, 166).
edge(75, 137).
edge(152, 154).
edge(38, 98).
edge(80, 169).
edge(114, 115).
edge(0, 74).
edge(5, 74).
edge(119, 150).
edge(16, 153).
edge(144, 181).
edge(11, 107).
edge(16, 110).
edge(22, 162).
edge(101, 179).
edge(2, 82).
edge(86, 104).
edge(7, 47).
edge(55, 149).
edge(50, 82).
edge(17, 101).
edge(105, 150).
edge(46, 177).
edge(17, 59).
edge(91, 169).
edge(7, 99).
edge(59, 61).
edge(105, 129).
edge(55, 73).
edge(1, 114).
edge(35, 140).
edge(87, 163).
edge(113, 140).
edge(24, 165).
edge(39, 175).
edge(60, 78).
edge(106, 134).
edge(79, 149).
edge(68, 156).
edge(54, 117).
edge(14, 48).
edge(31, 128).
edge(8, 138).
edge(83, 181).
edge(80, 139).
edge(89, 163).
edge(16, 142).
edge(115, 118).
edge(18, 63).
edge(124, 159).
edge(45, 90).
edge(10, 52).
edge(130, 166).
edge(151, 156).
edge(38, 157).
edge(137, 177).
edge(52, 132).
edge(118, 157).
edge(46, 74).
edge(12, 73).
edge(8, 58).
edge(128, 177).
edge(91, 157).
edge(139, 179).
edge(129, 178).
edge(73, 97).
edge(34, 47).
edge(39, 119).
edge(72, 170).
edge(5, 177).
edge(139, 174).
edge(104, 125).
edge(12, 82).
edge(98, 112).
edge(40, 176).
edge(59, 69).
edge(12, 45).
edge(86, 146).
edge(15, 103).
edge(22, 33).
edge(68, 71).
edge(120, 173).
edge(55, 142).
edge(99, 126).
edge(144, 180).
edge(107, 172).
edge(21, 40).
edge(24, 93).
edge(44, 148).
edge(59, 107).
edge(36, 98).
edge(70, 106).
edge(24, 175).
edge(3, 142).
edge(2, 162).
edge(109, 173).
edge(97, 142).
edge(8, 130).
edge(13, 27).
edge(112, 119).
edge(59, 171).
edge(55, 141).
edge(10, 38).
edge(46, 48).
edge(3, 10).
edge(27, 36).
edge(37, 107).
edge(57, 111).
edge(90, 161).
edge(38, 137).
edge(67, 94).
edge(20, 104).
edge(91, 135).
edge(148, 152).
edge(142, 178).
edge(83, 133).
edge(36, 150).
edge(22, 44).
edge(102, 125).
edge(79, 146).
edge(8, 143).
edge(103, 167).
edge(88, 152).
edge(31, 149).
edge(2, 8).
edge(88, 148).
edge(25, 33).
edge(12, 100).
edge(12, 49).
edge(127, 145).
edge(101, 104).
edge(16, 70).
edge(104, 157).
edge(26, 46).
edge(112, 159).
edge(48, 113).
edge(15, 154).
edge(121, 133).
edge(27, 92).
edge(62, 104).
edge(5, 48).
edge(155, 176).
edge(18, 76).
edge(147, 179).
edge(80, 125).
edge(2, 130).
edge(118, 132).
edge(5, 14).
edge(79, 167).
edge(80, 94).
edge(26, 137).
edge(1, 47).
edge(59, 120).
edge(168, 171).
edge(42, 79).
edge(68, 84).
edge(85, 106).
edge(12, 139).
edge(28, 62).
edge(46, 176).
edge(6, 71).
edge(26, 38).
edge(42, 77).
edge(22, 40).
edge(45, 113).
edge(22, 121).
edge(11, 168).
edge(15, 53).
edge(80, 142).
edge(23, 42).
edge(15, 66).
edge(22, 138).
edge(33, 173).
edge(54, 170).
edge(29, 128).
edge(139, 158).
edge(66, 101).
edge(13, 30).
edge(89, 126).
edge(72, 79).
edge(49, 114).
edge(37, 157).
edge(46, 112).
edge(104, 149).
edge(94, 95).
edge(2, 85).
edge(27, 106).
edge(16, 62).
edge(29, 35).
edge(35, 158).
edge(52, 160).
edge(3, 109).
edge(11, 121).
edge(94, 127).
edge(29, 153).
edge(64, 175).
edge(136, 144).
edge(95, 143).
edge(44, 50).
edge(9, 14).
edge(30, 129).
edge(53, 147).
edge(0, 118).
edge(56, 122).
edge(34, 150).
edge(19, 158).
edge(161, 168).
edge(83, 106).
edge(70, 81).
edge(142, 144).
edge(81, 96).
edge(4, 174).
edge(83, 95).
edge(10, 68).
edge(41, 70).
edge(50, 96).
edge(85, 116).
edge(73, 170).
edge(22, 42).
edge(76, 86).
edge(62, 86).
edge(84, 136).
edge(9, 13).
edge(62, 113).
edge(96, 140).
edge(12, 127).
edge(118, 145).
edge(2, 148).
edge(92, 179).
edge(120, 133).
edge(23, 77).
edge(27, 176).
edge(26, 177).
edge(19, 38).
edge(23, 161).
edge(114, 146).
edge(112, 137).
edge(54, 172).
edge(39, 115).
edge(9, 45).
edge(23, 177).
edge(30, 121).
edge(26, 154).
edge(85, 119).
edge(157, 162).
edge(40, 131).
edge(46, 141).
edge(31, 73).
edge(47, 135).
edge(12, 84).
edge(115, 116).
edge(41, 49).
edge(78, 148).
edge(119, 159).
edge(39, 124).
edge(34, 136).
edge(27, 50).
edge(87, 138).
edge(134, 155).
edge(15, 141).
edge(14, 116).
edge(110, 176).
edge(29, 162).
edge(123, 144).
edge(117, 130).
edge(18, 92).
edge(41, 105).
edge(14, 145).
edge(34, 56).
edge(59, 109).
edge(28, 125).
edge(44, 54).
edge(102, 167).
edge(62, 120).
edge(44, 131).
edge(83, 99).
edge(126, 146).
edge(34, 86).
edge(8, 170).
edge(158, 181).
edge(95, 152).
edge(7, 104).
edge(13, 76).
edge(23, 135).
edge(65, 108).
edge(81, 113).
edge(70, 109).
edge(154, 165).
edge(151, 172).
edge(44, 135).
edge(67, 104).
edge(13, 87).
edge(51, 135).
edge(34, 169).
edge(16, 76).
edge(8, 164).
edge(110, 156).
edge(46, 170).
edge(31, 37).
edge(31, 94).
edge(99, 141).
edge(170, 171).
edge(53, 179).
edge(154, 156).
edge(34, 154).
edge(41, 45).
edge(23, 115).
edge(62, 144).
edge(6, 62).
edge(100, 142).
edge(54, 139).
edge(158, 173).
edge(144, 179).
edge(71, 100).
edge(112, 173).
edge(5, 38).
edge(52, 94).
edge(115, 174).
edge(72, 131).
edge(43, 133).
edge(37, 103).
edge(48, 140).
edge(50, 161).
edge(53, 144).
edge(29, 90).
edge(51, 121).
edge(131, 167).
edge(7, 112).
edge(78, 179).
edge(112, 118).
edge(57, 79).
edge(149, 174).
edge(91, 111).
edge(24, 30).
edge(146, 181).
edge(69, 84).
edge(120, 163).
edge(6, 9).
edge(119, 139).
edge(1, 150).
edge(105, 127).
edge(3, 38).
edge(127, 166).
edge(52, 158).
edge(88, 98).
edge(160, 162).
edge(124, 172).
edge(136, 153).
edge(19, 92).
edge(77, 107).
edge(93, 149).
edge(57, 134).
edge(75, 126).
edge(120, 139).
edge(14, 41).
edge(95, 148).
edge(22, 108).
edge(53, 119).
edge(47, 104).
edge(18, 34).
edge(0, 49).
edge(37, 61).
edge(117, 155).
edge(13, 128).
edge(9, 120).
edge(97, 157).
edge(32, 35).
edge(33, 155).
edge(47, 74).
edge(170, 181).
edge(107, 178).
edge(46, 85).
edge(53, 157).
edge(5, 115).
edge(69, 76).
edge(44, 116).
edge(133, 158).
edge(3, 55).
edge(9, 125).
edge(54, 83).
edge(5, 31).
edge(11, 67).
edge(126, 169).
edge(91, 122).
edge(132, 152).
edge(10, 70).
edge(89, 123).
edge(77, 85).
edge(91, 101).
edge(0, 77).
edge(39, 166).
edge(36, 73).
edge(8, 22).
edge(37, 134).
edge(5, 121).
edge(28, 122).
edge(79, 91).
edge(60, 79).
edge(76, 137).
edge(79, 84).
edge(150, 162).
edge(35, 97).
edge(4, 60).
edge(14, 77).
edge(110, 148).
edge(77, 96).
edge(45, 110).
edge(86, 158).
edge(55, 83).
edge(6, 107).
edge(10, 117).
edge(16, 69).
edge(9, 21).
edge(65, 69).
edge(27, 128).
edge(24, 144).
edge(35, 61).
edge(104, 129).
edge(143, 164).
edge(23, 124).
edge(52, 115).
edge(100, 122).
edge(99, 164).
edge(16, 35).
edge(106, 133).
edge(148, 161).
edge(48, 163).
edge(68, 136).
edge(5, 87).
edge(65, 82).
edge(71, 145).
edge(105, 160).
edge(38, 112).
edge(8, 82).
edge(6, 161).
edge(20, 108).
edge(58, 164).
edge(18, 30).
edge(22, 90).
edge(7, 80).
edge(36, 154).
edge(75, 172).
edge(46, 65).
edge(103, 162).
edge(160, 177).
edge(13, 19).
edge(137, 165).
edge(9, 176).
edge(94, 147).
edge(122, 179).
edge(21, 173).
edge(89, 173).
edge(9, 169).
edge(30, 136).
edge(30, 168).
edge(99, 124).
edge(112, 178).
edge(56, 86).
edge(12, 116).
edge(52, 67).
edge(16, 144).
edge(13, 154).
edge(0, 111).
edge(5, 73).
edge(110, 127).
edge(37, 64).
edge(93, 145).
edge(45, 58).
edge(108, 169).
edge(114, 148).
edge(64, 84).
edge(172, 176).
edge(13, 123).
edge(66, 147).
edge(145, 174).
edge(19, 79).
edge(77, 126).
edge(20, 116).
edge(120, 158).
edge(84, 95).
edge(88, 105).
edge(3, 150).
edge(39, 125).
edge(3, 24).
edge(120, 140).
edge(6, 124).
edge(52, 120).
edge(140, 178).
edge(104, 180).
edge(162, 172).
edge(107, 177).
edge(107, 179).
edge(54, 71).
edge(67, 74).
edge(43, 99).
edge(97, 112).
edge(99, 153).
edge(89, 167).
edge(110, 121).
edge(146, 175).
edge(153, 169).
edge(33, 35).
edge(118, 119).
edge(8, 159).
edge(40, 146).
edge(26, 84).
edge(23, 180).
edge(20, 38).
edge(34, 55).
edge(19, 155).
edge(24, 121).
edge(74, 150).
edge(53, 129).
edge(76, 152).
edge(35, 94).
edge(126, 171).
edge(13, 144).
edge(8, 70).
edge(116, 154).
edge(61, 94).
edge(14, 44).
edge(127, 151).
edge(68, 98).
edge(16, 146).
edge(2, 160).
edge(75, 88).
edge(35, 154).
edge(64, 101).
edge(6, 51).
edge(39, 170).
edge(156, 163).
edge(56, 121).
edge(60, 97).
edge(76, 159).
edge(140, 177).
edge(22, 25).
edge(6, 7).
edge(31, 100).
edge(27, 109).
edge(17, 50).
edge(43, 110).
edge(145, 146).
edge(79, 137).
edge(21, 122).
edge(64, 131).
edge(71, 173).
edge(14, 84).
edge(82, 88).
edge(115, 119).
edge(49, 118).
edge(34, 173).
edge(17, 146).
edge(52, 134).
edge(104, 116).
edge(62, 88).
edge(92, 100).
edge(1, 10).
edge(15, 41).
edge(81, 116).
edge(105, 112).
edge(115, 136).
edge(3, 43).
edge(36, 133).
edge(5, 155).
edge(29, 125).
edge(1, 48).
edge(59, 175).
edge(16, 78).
edge(89, 113).
edge(132, 175).
edge(24, 132).
edge(42, 170).
edge(40, 130).
edge(136, 176).
edge(92, 175).
edge(102, 181).
edge(11, 27).
edge(21, 78).
edge(10, 47).
edge(90, 139).
edge(40, 83).
edge(2, 28).
edge(89, 112).
edge(88, 144).
edge(111, 127).
edge(138, 169).
edge(25, 175).
edge(98, 131).
edge(45, 173).
edge(16, 20).
edge(90, 95).
edge(41, 77).
edge(139, 153).
edge(66, 142).
edge(0, 99).
edge(159, 179).
edge(21, 63).
edge(49, 132).
edge(64, 159).
edge(40, 112).
edge(12, 62).
edge(99, 179).
edge(30, 160).
edge(77, 124).
edge(86, 117).
edge(102, 131).
edge(10, 147).
edge(5, 57).
edge(12, 132).
edge(96, 107).
edge(32, 158).
edge(67, 179).
edge(76, 118).
edge(96, 97).
edge(41, 166).
edge(83, 142).
edge(43, 120).
edge(22, 94).
edge(86, 150).
edge(3, 62).
edge(34, 174).
edge(79, 96).
edge(54, 169).
edge(8, 23).
edge(7, 142).
edge(101, 166).
edge(9, 39).
edge(82, 112).
edge(28, 79).
edge(82, 110).
edge(73, 102).
edge(20, 26).
edge(20, 179).
edge(28, 108).
edge(95, 179).
edge(106, 132).
edge(46, 131).
edge(86, 141).
edge(103, 175).
edge(26, 104).
edge(53, 87).
edge(11, 119).
edge(36, 168).
edge(133, 136).
edge(22, 45).
edge(141, 149).
edge(26, 51).
edge(127, 138).
edge(62, 82).
edge(4, 81).
edge(53, 79).
edge(39, 94).
edge(17, 28).
edge(25, 98).
edge(59, 128).
edge(133, 162).
edge(90, 180).
edge(2, 154).
edge(29, 173).
edge(136, 159).
edge(52, 60).
edge(11, 123).
edge(163, 169).
edge(33, 105).
edge(51, 100).
edge(35, 160).
edge(54, 94).
edge(77, 101).
edge(34, 127).
edge(92, 132).
edge(59, 81).
edge(156, 157).
edge(65, 147).
edge(123, 174).
edge(17, 25).
edge(47, 58).
edge(41, 181).
edge(71, 151).
edge(16, 181).
edge(108, 142).
edge(64, 93).
edge(70, 151).
edge(100, 164).
edge(70, 142).
edge(118, 124).
edge(113, 172).
edge(47, 69).
edge(49, 162).
edge(19, 142).
edge(59, 179).
edge(31, 165).
edge(130, 176).
edge(121, 178).
edge(80, 162).
edge(6, 158).
edge(52, 58).
edge(21, 160).
edge(2, 96).
edge(34, 83).
edge(111, 150).
edge(17, 53).
edge(36, 46).
edge(67, 177).
edge(25, 56).
edge(54, 59).
edge(36, 126).
edge(76, 147).
edge(138, 165).
edge(127, 173).
edge(44, 130).
edge(42, 73).
edge(77, 144).
edge(1, 2).
edge(6, 109).
edge(77, 159).
edge(140, 160).
edge(92, 104).
edge(60, 166).
edge(30, 31).
edge(125, 155).
edge(25, 143).
edge(81, 84).
edge(114, 140).
edge(118, 163).
edge(20, 41).
edge(151, 165).
edge(76, 105).
edge(122, 169).
edge(84, 139).
edge(78, 127).
edge(14, 92).
edge(12, 30).
edge(16, 121).
edge(17, 175).
edge(39, 108).
edge(71, 172).
edge(0, 50).
edge(64, 87).
edge(146, 152).
edge(67, 149).
edge(30, 107).
edge(12, 140).
edge(77, 130).
edge(54, 85).
edge(13, 160).
edge(25, 84).
edge(143, 160).
edge(24, 135).
edge(4, 178).
edge(145, 170).
edge(73, 181).
edge(2, 159).
edge(161, 172).
edge(14, 102).
edge(26, 73).
edge(33, 95).
edge(8, 78).
edge(116, 139).
edge(52, 66).
edge(57, 159).
edge(36, 104).
edge(151, 154).
edge(159, 170).
edge(15, 147).
edge(158, 162).
edge(136, 175).
edge(101, 173).
edge(38, 101).
edge(21, 150).
edge(75, 122).
edge(83, 179).
edge(86, 148).
edge(49, 153).
edge(125, 177).
edge(101, 172).
edge(116, 141).
edge(38, 170).
edge(99, 150).
edge(19, 30).
edge(10, 137).
edge(75, 145).
edge(35, 143).
edge(119, 147).
edge(2, 122).
edge(16, 34).
edge(80, 118).
edge(6, 130).
edge(60, 168).
edge(27, 84).
edge(121, 134).
edge(92, 152).
edge(126, 175).
edge(47, 161).
edge(75, 123).
edge(103, 165).
edge(5, 60).
edge(34, 176).
edge(83, 176).
edge(37, 162).
edge(55, 165).
edge(75, 157).
edge(11, 32).
edge(4, 128).
edge(38, 172).
edge(38, 42).
edge(58, 125).
edge(16, 71).
edge(17, 124).
edge(95, 156).
edge(33, 70).
edge(47, 155).
edge(53, 143).
edge(41, 113).
edge(26, 78).
edge(166, 167).
edge(38, 46).
edge(108, 118).
edge(8, 56).
edge(72, 89).
edge(1, 99).
edge(55, 167).
edge(34, 122).
edge(143, 169).
edge(54, 61).
edge(149, 176).
edge(43, 125).
edge(130, 135).
edge(76, 84).
edge(37, 86).
edge(29, 109).
edge(154, 176).
edge(23, 92).
edge(27, 45).
edge(69, 81).
edge(123, 166).
edge(35, 62).
edge(99, 107).
edge(5, 140).
edge(44, 47).
edge(40, 73).
edge(24, 164).
edge(57, 113).
edge(109, 154).
edge(102, 158).
edge(8, 158).
edge(70, 152).
edge(39, 71).
edge(71, 142).
edge(72, 159).
edge(12, 70).
edge(101, 103).
edge(6, 168).
edge(76, 89).
edge(106, 107).
edge(25, 78).
edge(28, 97).
edge(105, 109).
edge(0, 55).
edge(39, 121).
edge(94, 119).
edge(52, 159).
edge(88, 122).
edge(48, 125).
edge(137, 162).
edge(38, 167).
edge(141, 154).
edge(88, 156).
edge(64, 145).
edge(60, 83).
edge(57, 97).
edge(13, 84).
edge(44, 156).
edge(16, 114).
edge(71, 130).
edge(74, 162).
edge(132, 154).
edge(50, 173).
edge(7, 91).
edge(116, 175).
edge(126, 153).
edge(27, 107).
edge(159, 173).
edge(74, 166).
edge(45, 50).
edge(50, 178).
edge(9, 104).
edge(64, 152).
edge(36, 43).
edge(33, 53).
edge(14, 45).
edge(97, 101).
edge(24, 53).
edge(58, 158).
edge(61, 88).
edge(2, 68).
edge(16, 47).
edge(38, 40).
edge(74, 164).
edge(89, 119).
edge(143, 179).
edge(26, 148).
edge(79, 159).
edge(63, 121).
edge(96, 164).
edge(96, 115).
edge(81, 123).
edge(140, 153).
edge(83, 150).
edge(42, 147).
edge(135, 162).
edge(77, 127).
edge(106, 142).
edge(40, 101).
edge(35, 81).
edge(1, 74).
edge(101, 125).
edge(83, 157).
edge(136, 170).
edge(91, 164).
edge(72, 96).
edge(19, 71).
edge(22, 101).
edge(75, 94).
edge(56, 173).
edge(74, 143).
edge(4, 112).
edge(57, 151).
edge(62, 133).
edge(15, 142).
edge(119, 140).
edge(118, 177).
edge(99, 151).
edge(12, 74).
edge(138, 141).
edge(73, 116).
edge(65, 160).
edge(36, 179).
edge(11, 130).
edge(123, 180).
edge(23, 170).
edge(12, 168).
edge(139, 178).
edge(120, 155).
edge(130, 169).
edge(3, 48).
edge(32, 37).
edge(42, 125).
edge(36, 146).
edge(62, 170).
edge(134, 156).
edge(3, 99).
edge(21, 121).
edge(17, 88).
edge(81, 175).
edge(57, 161).
edge(10, 143).
edge(86, 113).
edge(35, 80).
edge(133, 143).
edge(99, 159).
edge(22, 157).
edge(12, 36).
edge(72, 73).
edge(39, 177).
edge(35, 136).
edge(11, 54).
edge(64, 156).
edge(61, 162).
edge(19, 167).
edge(13, 92).
edge(77, 103).
edge(94, 111).
edge(93, 144).
edge(24, 65).
edge(60, 65).
edge(30, 63).
edge(68, 169).
edge(35, 124).
edge(31, 175).
edge(116, 153).
edge(79, 172).
edge(171, 175).
edge(146, 171).
edge(79, 118).
edge(132, 158).
edge(15, 160).
edge(7, 87).
edge(92, 105).
edge(6, 33).
edge(51, 154).
edge(89, 116).
edge(17, 102).
edge(41, 173).
edge(18, 46).
edge(40, 106).
edge(19, 156).
edge(52, 109).
edge(50, 104).
edge(40, 62).
edge(49, 51).
edge(98, 152).
edge(13, 116).
edge(92, 122).
edge(63, 167).
edge(28, 67).
edge(114, 177).
edge(10, 156).
edge(39, 110).
edge(102, 180).
edge(6, 17).
edge(8, 30).
edge(45, 169).
edge(34, 116).
edge(57, 168).
edge(11, 136).
edge(32, 79).
edge(56, 61).
edge(43, 178).
edge(31, 164).
edge(91, 139).
edge(8, 34).
edge(7, 55).
edge(36, 121).
edge(128, 157).
edge(76, 110).
edge(125, 151).
edge(104, 118).
edge(90, 147).
edge(57, 181).
edge(122, 153).
edge(90, 143).
edge(21, 154).
edge(106, 178).
edge(68, 78).
edge(128, 179).
edge(30, 44).
edge(17, 54).
edge(59, 125).
edge(118, 130).
edge(92, 176).
edge(14, 161).
edge(74, 110).
edge(40, 95).
edge(38, 66).
edge(85, 168).
edge(50, 169).
edge(129, 169).
edge(84, 164).
edge(1, 41).
edge(45, 165).
edge(30, 141).
edge(46, 89).
edge(108, 165).
edge(114, 135).
edge(41, 170).
edge(84, 156).
edge(13, 22).
edge(36, 38).
edge(134, 164).
edge(49, 87).
edge(57, 81).
edge(3, 113).
edge(37, 149).
edge(93, 115).
edge(78, 175).
edge(80, 110).
edge(63, 92).
edge(51, 104).
edge(17, 121).
edge(71, 180).
edge(42, 143).
edge(172, 177).
edge(90, 115).
edge(105, 158).
edge(105, 110).
edge(43, 155).
edge(20, 51).
edge(122, 129).
edge(19, 145).
edge(28, 149).
edge(171, 174).
edge(154, 162).
edge(146, 170).
edge(22, 70).
edge(34, 58).
edge(51, 94).
edge(167, 171).
edge(2, 124).
edge(50, 180).
edge(32, 164).
edge(11, 56).
edge(93, 138).
edge(79, 111).
edge(84, 99).
edge(50, 137).
edge(88, 115).
edge(35, 105).
edge(59, 121).
edge(76, 83).
edge(57, 64).
edge(53, 97).
edge(53, 65).
edge(15, 94).
edge(22, 87).
edge(28, 115).
edge(119, 167).
edge(81, 171).
edge(84, 163).
edge(45, 101).
edge(60, 88).
edge(72, 115).
edge(147, 162).
edge(43, 147).
edge(46, 57).
edge(83, 136).
edge(77, 137).
edge(23, 142).
edge(93, 162).
edge(136, 146).
edge(28, 58).
edge(132, 178).
edge(175, 178).
edge(31, 67).
edge(28, 89).
edge(0, 13).
edge(126, 161).
edge(40, 43).
edge(19, 20).
edge(36, 106).
edge(140, 171).
edge(17, 119).
edge(59, 78).
edge(127, 157).
edge(52, 92).
edge(43, 173).
edge(34, 148).
edge(81, 152).
edge(36, 64).
edge(21, 140).
edge(55, 166).
edge(149, 156).
edge(158, 159).
edge(80, 84).
edge(137, 171).
edge(129, 142).
edge(15, 56).
edge(109, 172).
edge(82, 114).
edge(22, 134).
edge(103, 174).
edge(9, 47).
edge(122, 158).
edge(101, 120).
edge(115, 123).
edge(134, 175).
edge(59, 144).
edge(26, 147).
edge(5, 128).
edge(65, 86).
edge(15, 156).
edge(19, 125).
edge(25, 178).
edge(97, 156).
edge(52, 116).
edge(134, 149).
edge(48, 101).
edge(73, 151).
edge(50, 181).
edge(103, 110).
edge(40, 127).
edge(78, 103).
edge(11, 127).
edge(49, 112).
edge(16, 29).
edge(175, 180).
edge(114, 172).
edge(125, 129).
edge(74, 119).
edge(22, 178).
edge(11, 38).
edge(58, 147).
edge(2, 67).
edge(17, 45).
edge(155, 180).
edge(35, 67).
edge(1, 172).
edge(43, 68).
edge(11, 64).
edge(1, 22).
edge(28, 130).
edge(4, 29).
edge(31, 44).
edge(126, 159).
edge(77, 118).
edge(97, 131).
edge(29, 86).
edge(137, 148).
edge(21, 46).
edge(140, 150).
edge(147, 151).
edge(83, 96).
edge(52, 70).
edge(36, 140).
edge(51, 93).
edge(52, 156).
edge(121, 181).
edge(74, 91).
edge(42, 130).
edge(36, 122).
edge(46, 129).
edge(65, 139).
edge(16, 127).
edge(40, 104).
edge(125, 145).
edge(122, 144).
edge(26, 48).
edge(8, 165).
edge(106, 121).
edge(28, 82).
edge(92, 116).
edge(29, 92).
edge(101, 115).
edge(161, 173).
edge(49, 171).
edge(19, 66).
edge(67, 163).
edge(40, 75).
edge(38, 118).
edge(55, 163).
edge(55, 171).
edge(9, 95).
edge(36, 109).
edge(45, 68).
edge(33, 169).
edge(14, 81).
edge(98, 153).
edge(97, 159).
edge(0, 15).
edge(0, 104).
edge(11, 91).
edge(93, 152).
edge(100, 158).
edge(12, 32).
edge(26, 100).
edge(99, 120).
edge(41, 177).
edge(137, 147).
edge(3, 89).
edge(30, 126).
edge(126, 166).
edge(40, 48).
edge(81, 142).
edge(8, 69).
edge(47, 109).
edge(41, 151).
edge(14, 52).
edge(107, 173).
edge(103, 164).
edge(7, 122).
edge(68, 126).
edge(150, 180).
edge(17, 159).
edge(53, 177).
edge(43, 169).
edge(49, 130).
edge(82, 136).
edge(53, 92).
edge(122, 133).
edge(2, 95).
edge(104, 128).
edge(17, 32).
edge(62, 129).
edge(5, 16).
edge(64, 180).
edge(82, 146).
edge(76, 111).
edge(3, 32).
edge(15, 48).
edge(0, 109).
edge(125, 131).
edge(74, 117).
edge(16, 115).
edge(10, 12).
edge(8, 28).
edge(40, 46).
edge(52, 163).
edge(71, 154).
edge(34, 68).
edge(40, 161).
edge(145, 162).
edge(37, 148).
edge(58, 112).
edge(50, 138).
edge(31, 98).
edge(154, 161).
edge(4, 172).
edge(3, 114).
edge(143, 166).
edge(14, 153).
edge(90, 160).
edge(6, 118).
edge(116, 164).
edge(115, 171).
edge(86, 135).
edge(7, 153).
edge(69, 102).
edge(110, 126).
edge(0, 134).
edge(7, 113).
edge(90, 127).
edge(145, 165).
edge(48, 138).
edge(43, 149).
edge(53, 132).
edge(37, 181).
edge(26, 79).
edge(100, 154).
edge(30, 108).
edge(86, 128).
edge(71, 167).
edge(38, 153).
edge(36, 181).
edge(56, 141).
edge(93, 101).
edge(134, 140).
edge(9, 118).
edge(39, 58).
edge(13, 18).
edge(75, 87).
edge(6, 75).
edge(85, 170).
edge(61, 111).
edge(96, 113).
edge(100, 103).
edge(99, 162).
edge(148, 159).
edge(70, 97).
edge(9, 103).
edge(85, 117).
edge(14, 127).
edge(79, 156).
edge(52, 123).
edge(51, 124).
edge(27, 44).
edge(125, 166).
edge(99, 165).
edge(144, 145).
edge(91, 158).
edge(4, 26).
edge(73, 112).
edge(3, 41).
edge(70, 132).
edge(28, 158).
edge(43, 59).
edge(48, 180).
edge(82, 162).
edge(39, 62).
edge(111, 141).
edge(29, 105).
edge(14, 38).
edge(65, 102).
edge(48, 146).
edge(63, 103).
edge(121, 148).
edge(18, 33).
edge(72, 141).
edge(82, 128).
edge(68, 140).
edge(47, 53).
edge(41, 109).
edge(86, 156).
edge(55, 135).
edge(32, 45).
edge(124, 161).
edge(91, 144).
edge(10, 133).
edge(75, 80).
edge(58, 174).
edge(56, 170).
edge(112, 167).
edge(18, 112).
edge(47, 175).
edge(42, 91).
edge(42, 180).
edge(60, 103).
edge(81, 112).
edge(13, 169).
edge(60, 62).
edge(52, 95).
edge(77, 104).
edge(63, 119).
edge(98, 121).
edge(19, 172).
edge(22, 54).
edge(137, 156).
edge(44, 123).
edge(124, 152).
edge(89, 160).
edge(55, 178).
edge(38, 87).
edge(98, 127).
edge(13, 35).
edge(8, 19).
edge(88, 109).
edge(37, 112).
edge(121, 137).
edge(0, 130).
edge(39, 180).
edge(113, 177).
edge(48, 122).
edge(28, 120).
edge(22, 143).
edge(109, 110).
edge(61, 175).
edge(162, 176).
edge(69, 113).
edge(66, 117).
edge(15, 150).
edge(65, 126).
edge(143, 162).
edge(54, 98).
edge(135, 174).
edge(0, 68).
edge(4, 6).
edge(51, 162).
edge(36, 159).
edge(18, 85).
edge(50, 152).
edge(66, 149).
edge(3, 22).
edge(0, 41).
edge(150, 155).
edge(56, 94).
edge(21, 30).
edge(84, 87).
edge(19, 60).
edge(31, 161).
edge(27, 114).
edge(5, 105).
edge(70, 158).
edge(91, 143).
edge(54, 132).
edge(21, 174).
edge(79, 94).
edge(67, 84).
edge(9, 54).
edge(48, 157).
edge(125, 179).
edge(112, 149).
edge(57, 76).
edge(1, 38).
edge(83, 138).
edge(41, 71).
edge(40, 164).
edge(55, 152).
edge(105, 106).
edge(62, 164).
edge(92, 140).
edge(12, 98).
edge(26, 61).
edge(97, 132).
edge(71, 155).
edge(103, 160).
edge(68, 162).
edge(47, 149).
edge(84, 172).
edge(119, 125).
edge(52, 90).
edge(103, 132).
edge(26, 56).
edge(40, 58).
edge(50, 131).
edge(40, 94).
edge(34, 100).
edge(85, 138).
edge(52, 89).
edge(19, 109).
edge(98, 169).
edge(91, 94).
edge(75, 133).
edge(10, 77).
edge(10, 74).
edge(45, 77).
edge(0, 148).
edge(55, 103).
edge(43, 150).
edge(48, 170).
edge(6, 72).
edge(135, 167).
edge(74, 115).
edge(164, 166).
edge(74, 159).
edge(54, 75).
edge(74, 124).
edge(79, 113).
edge(95, 172).
edge(38, 50).
edge(7, 143).
edge(123, 155).
edge(34, 180).
edge(9, 170).
edge(71, 146).
edge(53, 110).
edge(159, 160).
edge(34, 89).
edge(124, 157).
edge(8, 114).
edge(106, 150).
edge(50, 66).
edge(80, 178).
edge(46, 96).
edge(43, 180).
edge(62, 166).
edge(115, 173).
edge(42, 75).
edge(116, 134).
edge(8, 80).
edge(39, 76).
edge(41, 143).
edge(123, 165).
edge(78, 118).
edge(124, 125).
edge(17, 135).
edge(28, 61).
edge(37, 102).
edge(124, 156).
edge(153, 175).
edge(66, 104).
edge(0, 75).
edge(41, 131).
edge(8, 46).
edge(15, 28).
edge(40, 141).
edge(122, 150).
edge(72, 153).
edge(63, 173).
edge(7, 137).
edge(115, 125).
edge(17, 71).
edge(20, 65).
edge(60, 141).
edge(11, 169).
edge(57, 147).
edge(113, 137).
edge(51, 157).
edge(53, 74).
edge(10, 84).
edge(65, 165).
edge(43, 174).
edge(117, 154).
edge(70, 100).
edge(35, 76).
edge(40, 77).
edge(60, 99).
edge(58, 82).
edge(15, 162).
edge(28, 31).
edge(17, 177).
edge(84, 166).
edge(155, 158).
edge(65, 159).
edge(19, 53).
edge(67, 69).
edge(52, 101).
edge(89, 110).
edge(19, 34).
edge(23, 121).
edge(56, 128).
edge(140, 156).
edge(35, 56).
edge(39, 86).
edge(24, 86).
edge(10, 15).
edge(86, 88).
edge(88, 94).
edge(123, 128).
edge(4, 7).
edge(29, 180).
edge(22, 79).
edge(9, 149).
edge(15, 180).
edge(70, 75).
edge(23, 139).
edge(94, 143).
edge(34, 164).
edge(71, 109).
edge(73, 147).
edge(2, 78).
edge(135, 175).
edge(8, 90).
edge(23, 85).
edge(3, 143).
edge(71, 110).
edge(7, 32).
edge(11, 174).
edge(130, 152).
edge(55, 119).
edge(94, 168).
edge(41, 111).
edge(52, 138).
edge(38, 59).
edge(0, 44).
edge(115, 149).
edge(99, 116).
edge(150, 179).
edge(15, 175).
edge(85, 147).
edge(87, 179).
edge(27, 38).
edge(97, 99).
edge(14, 33).
edge(67, 133).
edge(85, 137).
edge(47, 110).
edge(142, 146).
edge(24, 69).
edge(163, 176).
edge(4, 44).
edge(18, 177).
edge(45, 154).
edge(41, 145).
edge(54, 95).
edge(9, 34).
edge(14, 105).
edge(139, 168).
edge(25, 58).
edge(89, 96).
edge(64, 149).
edge(71, 116).
edge(45, 153).
edge(50, 74).
edge(38, 133).
edge(116, 131).
edge(90, 91).
edge(33, 174).
edge(42, 172).
edge(23, 88).
edge(107, 139).
edge(75, 166).
edge(127, 165).
edge(44, 162).
edge(7, 86).
edge(108, 144).
edge(69, 163).
edge(30, 84).
edge(5, 113).
edge(80, 116).
edge(111, 181).
edge(149, 173).
edge(18, 68).
edge(110, 171).
edge(50, 139).
edge(158, 176).
edge(46, 84).
edge(74, 174).
edge(28, 165).
edge(4, 97).
edge(35, 38).
edge(92, 126).
edge(4, 31).
edge(50, 53).
edge(62, 91).
edge(44, 83).
edge(85, 140).
edge(4, 139).
edge(48, 55).
edge(110, 112).
edge(10, 11).
edge(106, 171).
edge(18, 173).
edge(117, 159).
edge(75, 139).
edge(37, 179).
edge(54, 99).
edge(61, 64).
edge(21, 123).
edge(36, 165).
edge(33, 78).
edge(83, 145).
edge(137, 166).
edge(5, 34).
edge(48, 71).
edge(123, 150).
edge(148, 153).
edge(20, 82).
edge(63, 157).
edge(39, 55).
edge(54, 164).
edge(32, 147).
edge(107, 113).
edge(109, 159).
edge(47, 62).
edge(26, 115).
edge(37, 88).
edge(119, 171).
edge(69, 129).
edge(61, 83).
edge(25, 151).
edge(71, 140).
edge(110, 164).
edge(46, 168).
edge(13, 157).
edge(55, 64).
edge(1, 107).
edge(121, 163).
edge(13, 23).
edge(97, 133).
edge(94, 129).
edge(66, 91).
edge(34, 126).
edge(119, 160).
edge(72, 149).
edge(91, 142).
edge(94, 109).
edge(9, 172).
edge(1, 43).
edge(37, 81).
edge(38, 76).
edge(52, 82).
edge(7, 13).
edge(1, 25).
edge(40, 118).
edge(69, 166).
edge(27, 152).
edge(50, 130).
edge(60, 158).
edge(158, 175).
edge(67, 126).
edge(156, 177).
edge(77, 162).
edge(123, 163).
edge(2, 108).
edge(109, 131).
edge(8, 128).
edge(79, 80).
edge(40, 120).
edge(25, 140).
edge(0, 21).
edge(21, 38).
edge(151, 174).
edge(1, 153).
edge(67, 176).
edge(99, 166).
edge(31, 156).
edge(71, 107).
edge(77, 136).
edge(135, 141).
edge(103, 151).
edge(23, 67).
edge(48, 56).
edge(173, 178).
edge(76, 164).
edge(126, 139).
edge(39, 173).
edge(36, 171).
edge(46, 153).
edge(103, 166).
edge(50, 175).
edge(55, 69).
edge(30, 99).
edge(67, 170).
edge(93, 157).
edge(48, 98).
edge(29, 51).
edge(20, 154).
edge(43, 115).
edge(85, 91).
edge(0, 144).
edge(54, 171).
edge(131, 149).
edge(132, 133).
edge(41, 124).
edge(37, 165).
edge(163, 170).
edge(79, 132).
edge(5, 148).
edge(134, 157).
edge(111, 166).
edge(86, 175).
edge(25, 42).
edge(88, 180).
edge(48, 131).
edge(37, 131).
edge(114, 127).
edge(29, 52).
edge(10, 110).
edge(9, 177).
edge(45, 157).
edge(8, 135).
edge(87, 100).
edge(1, 9).
edge(113, 149).
edge(104, 135).
edge(23, 60).
edge(42, 122).
edge(78, 144).
edge(34, 135).
edge(121, 174).
edge(10, 175).
edge(23, 141).
edge(24, 141).
edge(3, 137).
edge(13, 46).
edge(124, 143).
edge(13, 166).
edge(21, 163).
edge(44, 90).
edge(26, 105).
edge(3, 52).
edge(39, 171).
edge(124, 151).
edge(129, 181).
edge(40, 113).
edge(13, 83).
edge(74, 95).
edge(93, 135).
edge(50, 76).
edge(140, 141).
edge(61, 142).
edge(87, 92).
edge(162, 173).
edge(4, 173).
edge(12, 41).
edge(113, 117).
edge(98, 101).
edge(119, 120).
edge(7, 130).
edge(10, 141).
edge(2, 39).
edge(2, 56).
edge(9, 165).
edge(158, 163).
edge(83, 114).
edge(89, 140).
edge(87, 161).
edge(54, 129).
edge(21, 172).
edge(125, 154).
edge(93, 136).
edge(57, 169).
edge(113, 151).
edge(11, 145).
edge(27, 90).
edge(0, 147).
edge(71, 179).
edge(92, 98).
edge(123, 179).
edge(12, 25).
edge(70, 156).
edge(136, 166).
edge(103, 122).
edge(138, 171).
edge(67, 122).
edge(52, 179).
edge(24, 88).
edge(0, 161).
edge(0, 142).
edge(2, 181).
edge(65, 124).
edge(174, 181).
edge(82, 109).
edge(128, 155).
edge(7, 171).
edge(63, 148).
edge(0, 114).
edge(18, 143).
edge(8, 17).
edge(111, 143).
edge(12, 164).
edge(10, 122).
edge(16, 122).
edge(42, 156).
edge(86, 99).
edge(87, 122).
edge(34, 40).
edge(30, 133).
edge(69, 168).
edge(142, 152).
edge(13, 114).
edge(53, 181).
edge(152, 180).
edge(55, 154).
edge(104, 141).
edge(87, 156).
edge(22, 52).
edge(119, 129).
edge(77, 125).
edge(0, 97).
edge(27, 93).
edge(3, 33).
edge(75, 83).
edge(106, 151).
edge(48, 68).
edge(47, 86).
edge(19, 67).
edge(157, 168).
edge(32, 121).
edge(23, 53).
edge(77, 157).
edge(141, 167).
edge(55, 151).
edge(43, 172).
edge(8, 121).
edge(164, 174).
edge(16, 179).
edge(8, 148).
edge(44, 110).
edge(29, 108).
edge(144, 157).
edge(62, 157).
edge(102, 121).
edge(62, 90).
edge(41, 56).
edge(118, 152).
edge(23, 72).
edge(15, 68).
edge(70, 123).
edge(94, 130).
edge(20, 46).
edge(30, 165).
edge(94, 141).
edge(82, 123).
edge(5, 20).
edge(51, 164).
edge(137, 145).
edge(53, 145).
edge(126, 133).
edge(68, 94).
edge(84, 105).
edge(168, 180).
edge(17, 51).
edge(20, 44).
edge(41, 108).
edge(39, 131).
edge(6, 156).
edge(66, 82).
edge(14, 144).
edge(57, 95).
edge(146, 177).
edge(51, 178).
edge(4, 156).
edge(122, 181).
edge(29, 48).
edge(155, 157).
edge(75, 114).
edge(57, 99).
edge(22, 60).
edge(130, 131).
edge(27, 32).
edge(15, 174).
edge(99, 108).
edge(123, 164).
edge(47, 122).
edge(12, 122).
edge(77, 79).
edge(22, 83).
edge(53, 85).
edge(20, 109).
edge(66, 74).
edge(4, 102).
edge(7, 23).
edge(4, 175).
edge(17, 140).
edge(53, 146).
edge(78, 116).
edge(56, 59).
edge(66, 67).
edge(3, 11).
edge(104, 121).
edge(85, 156).
edge(42, 154).
edge(28, 45).
edge(113, 134).
edge(15, 119).
edge(102, 174).
edge(72, 147).
edge(58, 94).
edge(113, 161).
edge(18, 166).
edge(53, 165).
edge(68, 105).
edge(20, 143).
edge(66, 160).
edge(43, 154).
edge(53, 170).
edge(142, 169).
edge(9, 162).
edge(55, 104).
edge(27, 98).
edge(16, 162).
edge(23, 69).
edge(83, 115).
edge(62, 172).
edge(23, 73).
edge(38, 67).
edge(124, 167).
edge(51, 158).
edge(56, 113).
edge(12, 89).
edge(166, 168).
edge(125, 138).
edge(137, 159).
edge(37, 170).
edge(24, 85).
edge(89, 117).
edge(60, 90).
edge(63, 87).
edge(165, 176).
edge(89, 142).
edge(112, 175).
edge(3, 79).
edge(63, 109).
edge(17, 89).
edge(72, 103).
edge(87, 95).
edge(23, 95).
edge(87, 96).
edge(79, 143).
edge(86, 131).
edge(22, 72).
edge(6, 123).
edge(13, 78).
edge(21, 137).
edge(101, 164).
edge(47, 157).
edge(94, 134).
edge(26, 49).
edge(53, 95).
edge(91, 153).
edge(124, 133).
edge(115, 164).
edge(36, 139).
edge(44, 107).
edge(7, 72).
edge(65, 164).
edge(0, 168).
edge(45, 102).
edge(58, 148).
edge(105, 162).
edge(102, 105).
edge(27, 51).
edge(106, 147).
edge(14, 71).
edge(83, 149).
edge(24, 37).
edge(11, 156).
edge(5, 160).
edge(23, 57).
edge(101, 142).
edge(36, 53).
edge(63, 150).
edge(34, 41).
edge(61, 131).
edge(2, 48).
edge(95, 163).
edge(126, 155).
edge(64, 78).
edge(8, 33).
edge(1, 102).
edge(44, 57).
edge(56, 109).
edge(20, 63).
edge(72, 140).
edge(102, 159).
edge(4, 45).
edge(6, 175).
edge(113, 170).
edge(84, 144).
edge(36, 155).
edge(71, 112).
edge(92, 121).
edge(12, 155).
edge(91, 136).
edge(119, 126).
edge(82, 144).
edge(102, 135).
edge(74, 94).
edge(66, 83).
edge(119, 165).
edge(27, 104).
edge(97, 130).
edge(106, 148).
edge(84, 107).
edge(27, 97).
edge(97, 125).
edge(26, 118).
edge(26, 126).
edge(20, 141).
edge(51, 62).
edge(1, 166).
edge(123, 135).
edge(78, 121).
edge(36, 83).
edge(37, 38).
edge(19, 54).
edge(14, 179).
edge(1, 81).
edge(104, 164).
edge(100, 172).
edge(138, 164).
edge(15, 91).
edge(46, 119).
edge(31, 139).
edge(102, 160).
edge(131, 152).
edge(22, 167).
edge(32, 88).
edge(148, 155).
edge(16, 150).
edge(114, 131).
edge(12, 129).
edge(86, 173).
edge(1, 164).
edge(143, 152).
edge(30, 81).
edge(135, 164).
edge(0, 56).
edge(27, 175).
edge(32, 54).
edge(72, 100).
edge(12, 144).
edge(85, 178).
edge(68, 139).
edge(51, 97).
edge(19, 97).
edge(73, 95).
edge(27, 73).
edge(59, 98).
edge(68, 166).
edge(86, 152).
edge(55, 138).
edge(53, 152).
edge(47, 89).
edge(166, 177).
edge(108, 152).
edge(54, 166).
edge(82, 133).
edge(30, 45).
edge(22, 151).
edge(102, 122).
edge(39, 179).
edge(111, 135).
edge(105, 132).
edge(69, 124).
edge(6, 60).
edge(91, 165).
edge(65, 151).
edge(60, 81).
edge(26, 32).
edge(78, 172).
edge(32, 98).
edge(50, 78).
edge(36, 56).
edge(144, 146).
edge(73, 91).
edge(66, 125).
edge(102, 137).
edge(8, 94).
edge(40, 81).
edge(18, 97).
edge(4, 69).
edge(44, 104).
edge(153, 164).
edge(70, 175).
edge(10, 111).
edge(88, 89).
edge(28, 112).
edge(66, 102).
edge(27, 140).
edge(29, 107).
edge(88, 130).
edge(122, 166).
edge(127, 147).
edge(89, 127).
edge(114, 164).
edge(84, 175).
edge(103, 149).
edge(33, 68).
edge(15, 159).
edge(69, 110).
edge(101, 134).
edge(70, 157).
edge(42, 116).
edge(27, 42).
edge(98, 156).
edge(106, 110).
edge(32, 87).
edge(87, 132).
edge(79, 103).
edge(37, 151).
edge(96, 178).
edge(89, 178).
edge(31, 43).
edge(129, 150).
edge(104, 166).
edge(31, 112).
edge(121, 138).
edge(79, 124).
edge(19, 98).
edge(56, 77).
edge(106, 177).
edge(48, 78).
edge(128, 162).
edge(11, 115).
edge(25, 113).
edge(23, 102).
edge(28, 129).
edge(41, 65).
edge(49, 143).
edge(10, 87).
edge(41, 165).
edge(27, 127).
edge(16, 23).
edge(96, 158).
edge(22, 128).
edge(43, 53).
edge(100, 171).
edge(4, 58).
edge(143, 149).
edge(139, 177).
edge(2, 149).
edge(36, 147).
edge(6, 43).
edge(155, 160).
edge(69, 137).
edge(108, 151).
edge(87, 127).
edge(8, 111).
edge(75, 85).
edge(98, 166).
edge(34, 95).
edge(110, 114).
edge(157, 178).
edge(33, 81).
edge(41, 58).
edge(63, 93).
edge(73, 162).
edge(82, 167).
edge(123, 134).
edge(16, 152).
edge(107, 159).
edge(64, 130).
edge(11, 102).
edge(19, 106).
edge(29, 112).
edge(97, 145).
edge(106, 126).
edge(19, 171).
edge(63, 127).
edge(60, 118).
edge(1, 110).
edge(31, 179).
edge(1, 78).
edge(40, 105).
edge(57, 72).
edge(51, 105).
edge(56, 79).
edge(32, 39).
edge(30, 82).
edge(31, 53).
edge(112, 160).
edge(23, 116).
edge(14, 36).
edge(2, 77).
edge(16, 54).
edge(2, 80).
edge(8, 89).
edge(16, 19).
edge(1, 147).
edge(73, 179).
edge(41, 147).
edge(75, 131).
edge(67, 93).
edge(5, 47).
edge(38, 106).
edge(4, 70).
edge(10, 180).
edge(37, 68).
edge(25, 155).
edge(57, 177).
edge(55, 153).
edge(24, 133).
edge(142, 160).
edge(84, 170).
edge(78, 142).
edge(32, 166).
edge(45, 125).
edge(1, 151).
edge(53, 76).
edge(131, 138).
edge(35, 43).
edge(42, 65).
edge(81, 138).
edge(85, 141).
edge(111, 153).
edge(8, 163).
edge(119, 151).
edge(37, 56).
edge(15, 181).
edge(3, 68).
edge(63, 128).
edge(35, 164).
edge(92, 110).
edge(73, 115).
edge(38, 121).
edge(15, 151).
edge(59, 137).
edge(42, 119).
edge(30, 62).
edge(67, 117).
edge(47, 54).
edge(17, 91).
edge(30, 110).
edge(112, 138).
edge(8, 153).
edge(99, 101).
edge(69, 112).
edge(145, 181).
edge(31, 120).
edge(17, 52).
edge(24, 119).
edge(40, 84).
edge(42, 171).
edge(3, 45).
edge(82, 86).
edge(21, 69).
edge(34, 98).
edge(29, 148).
edge(124, 176).
edge(109, 123).
edge(61, 70).
edge(72, 116).
edge(115, 132).
edge(148, 154).
edge(128, 172).
edge(15, 92).
edge(70, 113).
edge(72, 129).
edge(6, 52).
edge(4, 64).
edge(34, 70).
edge(126, 144).
edge(153, 173).
edge(124, 155).
edge(27, 94).
edge(113, 141).
edge(145, 155).
edge(34, 165).
edge(108, 109).
edge(18, 35).
edge(109, 111).
edge(44, 105).
edge(69, 133).
edge(99, 127).
edge(64, 157).
edge(123, 143).
edge(65, 90).
edge(4, 46).
edge(29, 95).
edge(29, 55).
edge(45, 83).
edge(14, 149).
edge(102, 178).
edge(84, 174).
edge(17, 97).
edge(30, 34).
edge(3, 93).
edge(78, 104).
edge(126, 163).
edge(58, 130).
edge(4, 93).
edge(153, 156).
edge(20, 77).
edge(94, 167).
edge(35, 167).
edge(9, 90).
edge(66, 153).
edge(27, 79).
edge(18, 99).
edge(28, 95).
edge(158, 161).
edge(20, 175).
edge(7, 71).
edge(32, 127).
edge(43, 132).
edge(136, 139).
edge(74, 82).
edge(89, 131).
edge(23, 159).
edge(38, 120).
edge(100, 111).
edge(20, 25).
edge(25, 136).
edge(143, 157).
edge(12, 141).
edge(136, 145).
edge(101, 150).
edge(13, 56).
edge(84, 88).
edge(64, 138).
edge(163, 167).
edge(53, 118).
edge(105, 119).
edge(65, 91).
edge(71, 163).
edge(1, 121).
edge(0, 153).
edge(29, 99).
edge(48, 124).
edge(86, 119).
edge(77, 170).
edge(5, 45).
edge(156, 161).
edge(10, 24).
edge(62, 152).
edge(65, 113).
edge(3, 133).
edge(60, 147).
edge(132, 156).
edge(21, 146).
edge(112, 155).
edge(22, 139).
edge(134, 141).
edge(8, 177).
edge(69, 97).
edge(57, 83).
edge(106, 117).
edge(67, 167).
edge(129, 157).
edge(89, 130).
edge(4, 163).
edge(96, 110).
edge(49, 137).
edge(107, 138).
edge(122, 145).
edge(100, 135).
edge(66, 85).
edge(113, 125).
edge(93, 119).
edge(13, 103).
edge(33, 100).
edge(72, 88).
edge(84, 94).
edge(47, 137).
edge(59, 141).
edge(1, 142).
edge(3, 130).
edge(67, 103).
edge(40, 170).
edge(78, 164).
edge(100, 123).
edge(102, 107).
edge(19, 21).
edge(53, 178).
edge(69, 161).
edge(130, 165).
edge(32, 159).
edge(130, 155).
edge(104, 143).
edge(136, 168).
edge(0, 157).
edge(149, 178).
edge(93, 153).
edge(131, 181).
edge(131, 132).
edge(34, 78).
edge(53, 70).
edge(81, 121).
edge(18, 136).
edge(113, 147).
edge(96, 149).
edge(73, 76).
edge(50, 109).
edge(32, 112).
edge(24, 84).
edge(112, 123).
edge(39, 174).
edge(9, 136).
edge(28, 148).
edge(89, 132).
edge(73, 142).
edge(30, 94).
edge(28, 55).
edge(34, 149).
edge(66, 151).
edge(127, 158).
edge(43, 103).
edge(8, 41).
edge(75, 92).
edge(40, 51).
edge(61, 95).
edge(108, 155).
edge(85, 169).
edge(71, 157).
edge(109, 136).
edge(147, 161).
edge(49, 54).
edge(69, 123).
edge(81, 176).
edge(123, 151).
edge(19, 152).
edge(0, 107).
edge(150, 174).
edge(38, 143).
edge(147, 177).
edge(3, 172).
edge(26, 133).
edge(132, 136).
edge(6, 16).
edge(111, 114).
edge(161, 177).
edge(64, 144).
edge(95, 134).
edge(11, 21).
edge(129, 148).
edge(48, 151).
edge(9, 164).
edge(35, 99).
edge(5, 63).
edge(71, 165).
edge(59, 163).
edge(131, 169).
edge(28, 102).
edge(12, 72).
edge(15, 179).
edge(49, 176).
edge(77, 143).
edge(98, 137).
edge(41, 57).
edge(173, 175).
edge(46, 62).
edge(18, 88).
edge(141, 178).
edge(44, 152).
edge(159, 180).
edge(11, 147).
edge(36, 95).
edge(9, 144).
edge(135, 173).
edge(29, 58).
edge(95, 142).
edge(8, 44).
edge(0, 28).
edge(4, 116).
edge(4, 92).
edge(31, 133).
edge(53, 174).
edge(2, 86).
edge(145, 161).
edge(15, 161).
edge(180, 181).
edge(87, 130).
edge(41, 48).
edge(101, 141).
edge(32, 146).
edge(160, 173).
edge(53, 164).
edge(59, 127).
edge(64, 178).
edge(68, 144).
edge(154, 175).
edge(34, 139).
edge(35, 54).
edge(134, 138).
edge(49, 156).
edge(2, 142).
edge(21, 92).
edge(25, 176).
edge(101, 144).
edge(49, 170).
edge(102, 176).
edge(36, 129).
edge(145, 159).
edge(94, 104).
edge(21, 175).
edge(93, 181).
edge(6, 125).
edge(89, 137).
edge(55, 148).
edge(41, 92).
edge(86, 92).
edge(58, 88).
edge(138, 143).
edge(61, 113).
edge(43, 79).
edge(70, 136).
edge(4, 151).
edge(38, 86).
edge(41, 125).
edge(172, 174).
edge(21, 95).
edge(78, 82).
edge(94, 106).
edge(27, 139).
edge(16, 77).
edge(53, 168).
edge(22, 104).
edge(85, 109).
edge(62, 65).
edge(20, 160).
edge(37, 124).
edge(16, 80).
edge(13, 28).
edge(75, 107).
edge(83, 123).
edge(10, 164).
edge(38, 148).
edge(4, 94).
edge(59, 75).
edge(3, 178).
edge(75, 116).
edge(9, 133).
edge(12, 69).
edge(45, 158).
edge(79, 108).
edge(18, 132).
edge(60, 115).
edge(94, 169).
edge(32, 173).
edge(52, 124).
edge(2, 170).
edge(58, 59).
edge(56, 130).
edge(6, 152).
edge(98, 113).
edge(138, 147).
edge(0, 178).
edge(19, 23).
edge(77, 128).
edge(104, 107).
edge(135, 147).
edge(107, 140).
edge(64, 129).
edge(5, 163).
edge(80, 126).
edge(15, 168).
edge(31, 178).
edge(67, 164).
edge(63, 76).
edge(29, 164).
edge(120, 125).
edge(23, 79).
edge(26, 160).
edge(91, 150).
edge(83, 174).
edge(158, 170).
edge(29, 98).
edge(33, 62).
edge(27, 141).
edge(42, 181).
edge(70, 169).
edge(55, 128).
edge(46, 166).
edge(47, 91).
edge(123, 124).
edge(115, 142).
edge(13, 110).
edge(1, 123).
edge(43, 91).
edge(117, 140).
edge(35, 89).
edge(32, 67).
edge(22, 65).
edge(122, 160).
edge(88, 174).
edge(84, 141).
edge(43, 70).
edge(0, 31).
edge(117, 174).
edge(75, 105).
edge(109, 137).
edge(28, 161).
edge(25, 139).
edge(64, 96).
edge(40, 180).
edge(38, 117).
edge(99, 112).
edge(98, 149).
edge(17, 43).
edge(12, 17).
edge(12, 13).
edge(96, 104).
edge(9, 56).
edge(42, 90).
edge(79, 123).
edge(19, 57).
edge(56, 138).
edge(0, 25).
edge(108, 174).
edge(80, 113).
edge(100, 108).
edge(55, 116).
edge(45, 70).
edge(85, 153).
edge(14, 170).
edge(31, 85).
edge(13, 50).
edge(16, 48).
edge(164, 171).
edge(17, 178).
edge(153, 163).
edge(7, 176).
edge(125, 141).
edge(35, 156).
edge(72, 121).
edge(148, 164).
edge(28, 50).
edge(13, 40).
edge(14, 143).
edge(65, 136).
edge(7, 118).
edge(99, 147).
edge(83, 122).
edge(22, 41).
edge(82, 105).
edge(11, 17).
edge(116, 178).
edge(101, 169).
edge(10, 145).
edge(105, 174).
edge(61, 106).
edge(25, 51).
edge(151, 169).
edge(59, 64).
edge(20, 111).
edge(1, 120).
edge(79, 173).
edge(30, 166).
edge(3, 16).
edge(67, 77).
edge(12, 26).
edge(20, 140).
edge(87, 118).
edge(129, 139).
edge(109, 145).
edge(154, 158).
edge(80, 81).
edge(87, 101).
edge(30, 161).
edge(70, 171).
edge(80, 161).
edge(63, 131).
edge(109, 181).
edge(16, 41).
edge(83, 159).
edge(37, 115).
edge(126, 148).
edge(19, 85).
edge(96, 150).
edge(48, 57).
edge(90, 165).
edge(1, 157).
edge(126, 179).
edge(98, 138).
edge(9, 135).
edge(38, 113).
edge(118, 143).
edge(137, 155).
edge(67, 70).
edge(8, 15).
edge(14, 168).
edge(7, 35).
edge(87, 166).
edge(154, 159).
edge(93, 160).
edge(99, 176).
edge(32, 172).
edge(70, 159).
edge(47, 70).
edge(103, 177).
edge(102, 112).
edge(103, 134).
edge(6, 157).
edge(10, 59).
edge(107, 111).
edge(65, 111).
edge(79, 160).
edge(122, 136).
edge(69, 153).
edge(4, 25).
edge(7, 94).
edge(16, 176).
edge(15, 24).
edge(28, 51).
edge(27, 133).
edge(16, 126).
edge(14, 100).
edge(99, 158).
edge(24, 50).
edge(12, 170).
edge(4, 78).
edge(73, 119).
edge(85, 132).
edge(151, 176).
edge(105, 146).
edge(56, 163).
edge(8, 72).
edge(110, 167).
edge(56, 160).
edge(9, 66).
edge(87, 167).
edge(86, 181).
edge(109, 132).
edge(103, 109).
edge(74, 83).
edge(7, 67).
edge(150, 156).
edge(58, 108).
edge(93, 142).
edge(13, 93).
edge(121, 140).
edge(46, 127).
edge(41, 155).
edge(76, 160).
edge(11, 37).
edge(128, 151).
edge(87, 108).
edge(19, 49).
edge(32, 71).
edge(77, 100).
edge(176, 180).
edge(62, 94).
edge(118, 125).
edge(6, 133).
edge(75, 119).
edge(24, 125).
edge(17, 106).
edge(106, 149).
edge(78, 132).
edge(37, 104).
edge(69, 109).
edge(11, 153).
edge(90, 171).
edge(6, 21).
edge(103, 142).
edge(19, 130).
edge(48, 135).
edge(6, 47).
edge(1, 103).
edge(74, 138).
edge(116, 172).
edge(55, 127).
edge(68, 176).
edge(122, 139).
edge(2, 158).
edge(43, 171).
edge(34, 42).
edge(45, 82).
edge(34, 161).
edge(30, 75).
edge(52, 91).
edge(3, 17).
edge(13, 45).
edge(39, 53).
edge(78, 180).
edge(6, 169).
edge(67, 118).
edge(62, 154).
edge(86, 102).
edge(4, 18).
edge(1, 42).
edge(94, 135).
edge(75, 141).
edge(107, 144).
edge(3, 35).
edge(14, 109).
edge(35, 110).
edge(15, 127).
edge(139, 163).
edge(21, 67).
edge(50, 114).
edge(4, 36).
edge(106, 136).
edge(80, 131).
edge(134, 176).
edge(53, 135).
edge(68, 152).
edge(33, 94).
edge(50, 127).
edge(97, 170).
edge(40, 93).
edge(42, 43).
edge(59, 82).
edge(101, 176).
edge(71, 95).
edge(85, 144).
edge(74, 128).
edge(35, 100).
edge(18, 52).
edge(0, 54).
edge(143, 172).
edge(112, 150).
edge(70, 177).
edge(56, 108).
edge(118, 129).
edge(133, 168).
edge(156, 172).
edge(121, 160).
edge(65, 120).
edge(11, 47).
edge(12, 31).
edge(11, 112).
edge(19, 147).
edge(85, 159).
edge(30, 158).
edge(122, 137).
edge(72, 126).
edge(81, 87).
edge(10, 177).
edge(111, 115).
edge(24, 26).
edge(13, 74).
edge(43, 142).
edge(41, 46).
edge(61, 72).
edge(13, 181).
edge(74, 155).
edge(73, 117).
edge(14, 24).
edge(54, 123).
edge(64, 163).
edge(61, 158).
edge(122, 128).
edge(96, 116).
edge(30, 90).
edge(117, 179).
edge(119, 161).
edge(9, 124).
edge(26, 153).
edge(23, 108).
edge(7, 159).
edge(129, 147).
edge(38, 125).
edge(97, 179).
edge(25, 65).
edge(64, 172).
edge(21, 138).
edge(76, 148).
edge(26, 91).
edge(57, 107).
edge(2, 152).
edge(70, 88).
edge(28, 150).
edge(127, 133).
edge(13, 79).
edge(7, 96).
edge(111, 138).
edge(105, 179).
edge(18, 55).
edge(170, 179).
edge(74, 176).
edge(36, 99).
edge(9, 91).
edge(96, 155).
edge(105, 121).
edge(67, 134).
edge(115, 172).
edge(47, 181).
edge(99, 134).
edge(24, 181).
edge(153, 165).
edge(61, 74).
edge(17, 143).
edge(80, 86).
edge(47, 148).
edge(66, 152).
edge(25, 39).
edge(27, 76).
edge(123, 137).
edge(18, 150).
edge(22, 66).
edge(54, 135).
edge(126, 172).
edge(14, 32).
edge(37, 97).
edge(119, 146).
edge(141, 176).
edge(45, 66).
edge(57, 153).
edge(29, 38).
edge(17, 86).
edge(70, 141).
edge(33, 40).
edge(28, 135).
edge(25, 75).
edge(12, 175).
edge(148, 179).
edge(73, 87).
edge(66, 108).
edge(19, 43).
edge(43, 86).
edge(4, 27).
edge(88, 138).
edge(57, 75).
edge(53, 159).
edge(131, 162).
edge(134, 177).
edge(19, 100).
edge(24, 146).
edge(12, 178).
edge(114, 133).
edge(1, 100).
edge(37, 55).
edge(4, 111).
edge(60, 149).
edge(30, 54).
edge(27, 99).
edge(2, 137).
edge(50, 79).
edge(35, 39).
edge(145, 150).
edge(90, 173).
edge(36, 58).
edge(101, 143).
edge(77, 102).
edge(60, 180).
edge(9, 44).
edge(36, 161).
edge(37, 128).
edge(138, 157).
edge(73, 171).
edge(33, 117).
edge(106, 159).
edge(109, 117).
edge(51, 116).
edge(92, 149).
edge(26, 108).
edge(3, 56).
edge(115, 179).
edge(1, 139).
edge(57, 173).
edge(103, 108).
edge(24, 38).
edge(94, 177).
edge(34, 159).
edge(1, 175).
edge(103, 130).
edge(4, 126).
edge(83, 97).
edge(125, 173).
edge(115, 177).
edge(51, 77).
edge(12, 177).
edge(104, 173).
edge(89, 122).
edge(116, 173).
edge(132, 166).
edge(58, 141).
edge(112, 134).
edge(38, 138).
edge(102, 108).
edge(110, 165).
edge(10, 44).
edge(104, 156).
edge(73, 166).
edge(10, 125).
edge(0, 60).
edge(37, 161).
edge(108, 136).
edge(90, 110).
edge(52, 62).
edge(77, 113).
edge(46, 59).
edge(132, 176).
edge(120, 149).
edge(82, 130).
edge(33, 34).
edge(91, 131).
edge(23, 51).
edge(13, 102).
edge(52, 178).
edge(149, 150).
edge(47, 102).
edge(75, 104).
edge(8, 36).
edge(63, 161).
edge(47, 158).
edge(36, 148).
edge(88, 165).
edge(11, 158).
edge(57, 180).
edge(165, 174).
edge(32, 129).
edge(10, 158).
edge(16, 133).
edge(48, 84).
edge(37, 91).
edge(26, 77).
edge(68, 100).
edge(65, 146).
edge(26, 110).
edge(84, 100).
edge(55, 57).
edge(81, 89).
edge(29, 40).
edge(61, 63).
edge(92, 144).
edge(12, 104).
edge(86, 97).
edge(45, 115).
edge(110, 130).
edge(47, 164).
edge(35, 130).
edge(123, 154).
edge(20, 161).
edge(7, 15).
edge(64, 161).
edge(105, 128).
edge(65, 71).
edge(25, 49).
edge(9, 20).
edge(145, 177).
edge(31, 72).
edge(94, 131).
edge(48, 117).
edge(93, 104).
edge(82, 171).
edge(45, 61).
edge(52, 98).
edge(62, 181).
edge(106, 174).
edge(108, 112).
edge(3, 64).
edge(101, 181).
edge(26, 44).
edge(15, 132).
edge(56, 151).
edge(59, 90).
edge(68, 143).
edge(60, 105).
edge(81, 153).
edge(130, 161).
edge(101, 170).
edge(104, 134).
edge(58, 65).
edge(64, 65).
edge(131, 157).
edge(12, 126).
edge(87, 160).
edge(9, 163).
edge(21, 36).
edge(64, 92).
edge(23, 90).
edge(8, 32).
edge(93, 180).
edge(89, 171).
edge(54, 175).
edge(9, 109).
edge(1, 29).
edge(21, 57).
edge(63, 126).
edge(139, 166).
edge(112, 120).
edge(10, 61).
edge(106, 162).
edge(47, 115).
edge(4, 129).
edge(99, 128).
edge(44, 136).
edge(99, 170).
edge(88, 132).
edge(0, 169).
edge(15, 170).
edge(13, 86).
edge(61, 168).
edge(13, 142).
edge(12, 99).
edge(21, 56).
edge(143, 167).
edge(46, 160).
edge(24, 157).
edge(32, 104).
edge(60, 172).
edge(7, 19).
edge(110, 141).
edge(102, 149).
edge(75, 90).
edge(76, 123).
edge(24, 114).
edge(104, 159).
edge(99, 118).
edge(15, 31).
edge(76, 163).
edge(74, 85).
edge(17, 176).
edge(99, 135).
edge(55, 65).
edge(28, 40).
edge(53, 91).
edge(1, 6).
edge(130, 150).
edge(25, 142).
edge(68, 79).
edge(153, 155).
edge(89, 166).
edge(88, 168).
edge(29, 47).
edge(68, 121).
edge(76, 136).
edge(127, 150).
edge(58, 136).
edge(64, 106).
edge(109, 176).
edge(14, 82).
edge(74, 157).
edge(34, 44).
edge(109, 156).
edge(1, 59).
edge(96, 129).
edge(124, 178).
edge(46, 154).
edge(95, 103).
edge(137, 150).
edge(112, 140).
edge(26, 162).
edge(24, 152).
edge(71, 132).
edge(82, 148).
edge(11, 25).
edge(123, 147).
edge(57, 109).
edge(96, 137).
edge(74, 88).
edge(95, 108).
edge(146, 158).
edge(12, 71).
edge(14, 80).
edge(179, 180).
edge(39, 91).
edge(116, 177).
edge(31, 138).
edge(7, 117).
edge(4, 168).
edge(99, 144).
edge(81, 169).
edge(104, 167).
edge(129, 151).
edge(90, 102).
edge(39, 127).
edge(50, 149).
edge(81, 95).
edge(18, 29).
edge(57, 71).
edge(14, 118).
edge(39, 160).
edge(124, 149).
edge(40, 132).
edge(34, 84).
edge(59, 169).
edge(70, 96).
edge(41, 84).
edge(48, 175).
edge(104, 168).
edge(62, 100).
edge(95, 145).
edge(102, 134).
edge(41, 79).
edge(13, 82).
edge(21, 124).
edge(7, 31).
edge(121, 168).
edge(23, 107).
edge(60, 157).
edge(13, 138).
edge(18, 23).
edge(26, 170).
edge(46, 179).
edge(23, 66).
edge(132, 157).
edge(0, 6).
edge(89, 114).
edge(20, 67).
edge(102, 126).
edge(10, 120).
edge(138, 155).
edge(29, 93).
edge(26, 151).
edge(4, 158).
edge(125, 172).
edge(25, 90).
edge(58, 106).
edge(27, 86).
edge(36, 65).
edge(37, 44).
edge(114, 129).
edge(104, 142).
edge(62, 64).
edge(42, 67).
edge(15, 25).
edge(49, 108).
edge(142, 143).
edge(9, 22).
edge(40, 71).
edge(3, 180).
edge(24, 68).
edge(93, 175).
edge(21, 34).
edge(56, 81).
edge(117, 143).
edge(42, 153).
edge(53, 80).
edge(2, 35).
edge(25, 45).
edge(61, 86).
edge(16, 131).
edge(8, 107).
edge(67, 156).
edge(32, 64).
edge(4, 87).
edge(61, 108).
edge(45, 128).
edge(56, 124).
edge(14, 111).
edge(64, 170).
edge(53, 88).
edge(71, 134).
edge(80, 136).
edge(44, 124).
edge(11, 137).
edge(9, 24).
edge(9, 130).
edge(93, 158).
edge(151, 181).
edge(102, 166).
edge(33, 93).
edge(83, 167).
edge(57, 60).
edge(18, 122).
edge(58, 93).
edge(65, 137).
edge(105, 107).
edge(26, 42).
edge(38, 164).
edge(81, 86).
edge(107, 130).
edge(47, 87).
edge(11, 18).
edge(152, 159).
edge(69, 131).
edge(56, 131).
edge(18, 131).
edge(78, 140).
edge(84, 128).
edge(29, 75).
edge(78, 101).
edge(37, 94).
edge(25, 117).
edge(57, 90).
edge(113, 128).
edge(66, 134).
edge(51, 59).
edge(172, 179).
edge(82, 127).
edge(61, 107).
edge(6, 30).
edge(132, 155).
edge(10, 46).
edge(52, 110).
edge(3, 146).
edge(65, 117).
edge(30, 145).
edge(28, 173).
edge(98, 119).
edge(9, 64).
edge(33, 115).
edge(62, 112).
edge(9, 97).
edge(63, 84).
edge(119, 131).
edge(27, 132).
edge(99, 114).
edge(26, 63).
edge(109, 122).
edge(27, 177).
edge(44, 66).
edge(33, 118).
edge(59, 138).
edge(94, 164).
edge(93, 132).
edge(19, 28).
edge(94, 178).
edge(90, 177).
edge(36, 110).
edge(97, 116).
edge(36, 141).
edge(36, 157).
edge(70, 153).
edge(31, 78).
edge(55, 114).
edge(6, 57).
edge(19, 121).
edge(125, 135).
edge(33, 77).
edge(24, 124).
edge(13, 136).
edge(37, 126).
edge(127, 137).
edge(122, 132).
edge(165, 179).
edge(164, 178).
edge(107, 135).
edge(69, 159).
edge(1, 30).
edge(4, 164).
edge(49, 116).
edge(74, 144).
edge(21, 108).
edge(107, 123).
edge(77, 95).
edge(5, 91).
edge(93, 168).
edge(101, 147).
edge(72, 86).
edge(22, 80).
edge(23, 129).
edge(8, 169).
edge(132, 134).
edge(140, 170).
edge(95, 129).
edge(68, 158).
edge(153, 172).
edge(7, 65).
edge(11, 80).
edge(11, 118).
edge(58, 143).
edge(107, 124).
edge(121, 147).
edge(59, 153).
edge(48, 133).
edge(73, 138).
edge(15, 171).
edge(30, 52).
edge(160, 161).
edge(63, 162).
edge(41, 138).
edge(60, 119).
edge(55, 71).
edge(87, 158).
edge(111, 134).
edge(33, 145).
edge(29, 32).
edge(17, 75).
edge(53, 123).
edge(29, 85).
edge(72, 178).
edge(6, 141).
edge(98, 179).
edge(109, 121).
edge(33, 80).
edge(64, 95).
edge(38, 136).
edge(89, 118).
edge(12, 95).
edge(58, 74).
edge(54, 136).
edge(68, 77).
edge(42, 51).
edge(89, 151).
edge(76, 173).
edge(29, 54).
edge(46, 132).
edge(98, 165).
edge(10, 42).
edge(96, 98).
edge(162, 163).
edge(63, 65).
edge(44, 98).
edge(78, 181).
edge(42, 81).
edge(67, 135).
edge(11, 39).
edge(90, 140).
edge(91, 103).
edge(67, 116).
edge(49, 160).
edge(131, 146).
edge(49, 76).
edge(0, 171).
edge(104, 174).
edge(64, 158).
edge(44, 154).
edge(1, 46).
edge(29, 59).
edge(84, 179).
edge(36, 60).
edge(84, 134).
edge(130, 139).
edge(45, 129).
edge(11, 46).
edge(6, 87).
edge(31, 160).
edge(54, 111).
edge(110, 120).
edge(71, 162).
edge(43, 139).
edge(44, 45).
edge(37, 156).
edge(16, 79).
edge(80, 149).
edge(117, 145).
edge(17, 38).
edge(28, 83).
edge(52, 165).
edge(7, 140).
edge(14, 25).
edge(133, 178).
edge(19, 170).
edge(39, 96).
edge(92, 139).
edge(54, 113).
edge(79, 95).
edge(103, 118).
edge(57, 148).
edge(77, 87).
edge(78, 162).
edge(143, 145).
edge(19, 41).
edge(7, 88).
edge(38, 159).
edge(26, 174).
edge(36, 41).
edge(26, 159).
edge(53, 100).
edge(150, 173).
edge(118, 181).
edge(78, 147).
edge(46, 61).
edge(10, 86).
edge(85, 113).
edge(7, 144).
edge(3, 135).
edge(26, 34).
edge(123, 169).
edge(36, 92).
edge(12, 118).
edge(42, 80).
edge(108, 163).
edge(58, 68).
edge(154, 171).
edge(30, 174).
edge(39, 67).
edge(44, 92).
edge(26, 155).
edge(28, 155).
edge(31, 97).
edge(49, 113).
edge(11, 30).
edge(45, 103).
edge(70, 176).
edge(112, 122).
edge(77, 99).
edge(38, 107).
edge(2, 133).
edge(8, 16).
edge(29, 37).
edge(24, 156).
edge(28, 104).
edge(76, 129).
edge(62, 106).
edge(17, 39).
edge(8, 54).
edge(18, 148).
edge(152, 174).
edge(57, 70).
edge(24, 44).
edge(81, 108).
edge(72, 165).
edge(46, 58).
edge(167, 181).
edge(55, 107).
edge(73, 106).
edge(135, 166).
edge(10, 33).
edge(67, 147).
edge(40, 174).
edge(54, 160).
edge(155, 156).
edge(47, 95).
edge(121, 173).
edge(84, 138).
edge(24, 162).
edge(8, 141).
edge(103, 121).
edge(116, 125).
edge(9, 49).
edge(47, 113).
edge(89, 180).
edge(116, 149).
edge(93, 118).
edge(2, 156).
edge(132, 174).
edge(59, 65).
edge(50, 121).
edge(117, 133).
edge(68, 170).
edge(3, 60).
edge(14, 83).
edge(116, 157).
edge(44, 89).
edge(43, 143).
edge(134, 178).
edge(26, 43).
edge(58, 161).
edge(140, 151).
edge(92, 136).
edge(52, 147).
edge(70, 124).
edge(145, 158).
edge(45, 105).
edge(43, 119).
edge(87, 104).
edge(60, 95).
edge(117, 177).
edge(124, 138).
edge(141, 145).
edge(52, 61).
edge(77, 141).
edge(15, 21).
edge(128, 181).
edge(161, 178).
edge(31, 63).
edge(27, 145).
edge(45, 69).
edge(59, 129).
edge(125, 147).
edge(28, 121).
edge(63, 102).
edge(2, 51).
edge(59, 84).
edge(54, 72).
edge(76, 158).
edge(30, 77).
edge(14, 181).
edge(12, 115).
edge(34, 102).
edge(3, 179).
edge(29, 62).
edge(7, 82).
edge(28, 170).
edge(126, 145).
edge(34, 46).
edge(11, 29).
edge(23, 35).
edge(82, 102).
edge(108, 161).
edge(97, 165).
edge(147, 170).
edge(73, 101).
edge(117, 173).
edge(3, 27).
edge(118, 136).
edge(79, 158).
edge(130, 180).
edge(11, 103).
edge(68, 155).
edge(9, 145).
edge(60, 120).
edge(76, 151).
edge(5, 90).
edge(1, 129).
edge(78, 95).
edge(17, 130).
edge(9, 143).
edge(50, 72).
edge(91, 172).
edge(84, 133).
edge(58, 101).
edge(94, 100).
edge(107, 149).
edge(65, 144).
edge(106, 116).
edge(15, 112).
edge(7, 68).
edge(37, 160).
edge(4, 177).
edge(136, 160).
edge(78, 171).
edge(27, 148).
edge(102, 179).
edge(8, 124).
edge(92, 123).
edge(107, 118).
edge(64, 110).
edge(71, 181).
edge(43, 82).
edge(7, 138).
edge(32, 155).
edge(53, 96).
edge(4, 143).
edge(39, 137).
edge(100, 107).
edge(53, 107).
edge(89, 181).
edge(160, 164).
edge(31, 105).
edge(29, 63).
edge(1, 65).
edge(49, 164).
edge(80, 121).
edge(66, 88).
edge(44, 72).
edge(6, 154).
edge(4, 86).
edge(39, 63).
edge(18, 104).
edge(32, 144).
edge(17, 56).
edge(107, 162).
edge(96, 102).
edge(52, 149).
edge(46, 104).
edge(7, 102).
edge(173, 177).
edge(62, 81).
edge(1, 39).
edge(98, 163).
edge(111, 171).
edge(98, 135).
edge(7, 90).
edge(148, 157).
edge(2, 60).
edge(15, 34).
edge(35, 95).
edge(46, 118).
edge(21, 132).
edge(115, 146).
edge(166, 178).
edge(68, 115).
edge(68, 147).
edge(29, 64).
edge(3, 8).
edge(112, 124).
edge(79, 180).
edge(98, 115).
edge(57, 110).
edge(63, 112).
edge(16, 58).
edge(144, 166).
edge(40, 143).
edge(58, 181).
edge(39, 47).
edge(80, 98).
edge(92, 124).
edge(141, 158).
edge(55, 89).
edge(76, 117).
edge(24, 48).
edge(97, 151).
edge(56, 65).
edge(91, 149).
edge(117, 135).
edge(40, 149).
edge(53, 180).
edge(100, 106).
edge(56, 156).
edge(0, 175).
edge(33, 140).
edge(97, 175).
edge(125, 160).
edge(26, 129).
edge(37, 87).
edge(64, 97).
edge(59, 136).
edge(81, 143).
edge(38, 140).
edge(32, 76).
edge(58, 116).
edge(8, 65).
edge(25, 63).
edge(12, 149).
edge(8, 75).
edge(7, 54).
edge(75, 174).
edge(12, 110).
edge(25, 181).
edge(69, 91).
edge(89, 103).
edge(28, 166).
edge(2, 105).
edge(38, 105).
edge(34, 131).
edge(43, 76).
edge(82, 119).
edge(43, 126).
edge(90, 169).
edge(22, 106).
edge(6, 48).
edge(171, 179).
edge(4, 39).
edge(30, 43).
edge(42, 169).
edge(78, 151).
edge(129, 170).
edge(130, 147).
edge(97, 121).
edge(69, 149).
edge(55, 125).
edge(24, 118).
edge(12, 90).
edge(111, 140).
edge(29, 136).
edge(33, 103).
edge(7, 42).
edge(87, 157).
edge(67, 153).
edge(16, 37).
edge(72, 119).
edge(90, 108).
edge(16, 28).
edge(6, 128).
edge(93, 155).
edge(7, 168).
edge(15, 22).
edge(73, 110).
edge(156, 167).
edge(148, 156).
edge(141, 180).
edge(86, 177).
edge(1, 64).
edge(34, 81).
edge(84, 152).
edge(103, 111).
edge(121, 165).
edge(89, 102).
edge(51, 70).
edge(26, 107).
edge(70, 114).
edge(17, 70).
edge(141, 172).
edge(7, 89).
edge(90, 174).
edge(120, 124).
edge(50, 140).
edge(3, 49).
edge(78, 122).
edge(124, 141).
edge(3, 108).
edge(13, 112).
edge(132, 161).
edge(129, 141).
edge(96, 169).
edge(20, 99).
edge(128, 170).
edge(14, 115).
edge(168, 169).
edge(87, 139).
edge(54, 134).
edge(57, 98).
edge(163, 180).
edge(96, 181).
edge(14, 101).
edge(27, 170).
edge(10, 150).
edge(10, 101).
edge(92, 145).
edge(35, 148).
edge(86, 137).
edge(152, 153).
edge(75, 130).
edge(30, 65).
edge(34, 123).
edge(27, 157).
edge(33, 102).
edge(98, 109).
edge(58, 133).
edge(107, 167).
edge(121, 161).
edge(69, 116).
edge(110, 163).
edge(27, 81).
edge(46, 54).
edge(5, 15).
edge(145, 151).
edge(49, 98).
edge(81, 180).
edge(33, 37).
edge(79, 174).
edge(114, 134).
edge(11, 55).
edge(41, 51).
edge(41, 116).
edge(12, 22).
edge(0, 119).
edge(47, 120).
edge(134, 169).
edge(35, 58).
edge(45, 91).
edge(74, 131).
edge(20, 146).
edge(17, 115).
edge(87, 159).
edge(13, 127).
edge(107, 180).
edge(79, 141).
edge(72, 139).
edge(40, 89).
edge(85, 136).
edge(76, 122).
edge(20, 76).
edge(58, 175).
edge(57, 91).
edge(20, 78).
edge(36, 127).
edge(26, 116).
edge(26, 28).
edge(118, 121).
edge(12, 58).
weight(0, 6).
weight(1, 3).
weight(2, 5).
weight(3, 5).
weight(4, 4).
weight(5, 2).
weight(6, 4).
weight(7, 1).
weight(8, 10).
weight(9, 10).
weight(10, 6).
weight(11, 9).
weight(12, 7).
weight(13, 7).
weight(14, 8).
weight(15, 11).
weight(16, 1).
weight(17, 2).
weight(18, 9).
weight(19, 10).
weight(20, 9).
weight(21, 11).
weight(22, 5).
weight(23, 7).
weight(24, 4).
weight(25, 1).
weight(26, 9).
weight(27, 1).
weight(28, 8).
weight(29, 6).
weight(30, 4).
weight(31, 9).
weight(32, 6).
weight(33, 6).
weight(34, 3).
weight(35, 2).
weight(36, 6).
weight(37, 8).
weight(38, 6).
weight(39, 1).
weight(40, 4).
weight(41, 10).
weight(42, 3).
weight(43, 4).
weight(44, 6).
weight(45, 2).
weight(46, 9).
weight(47, 2).
weight(48, 8).
weight(49, 8).
weight(50, 10).
weight(51, 10).
weight(52, 9).
weight(53, 4).
weight(54, 10).
weight(55, 8).
weight(56, 11).
weight(57, 10).
weight(58, 11).
weight(59, 10).
weight(60, 6).
weight(61, 5).
weight(62, 8).
weight(63, 9).
weight(64, 6).
weight(65, 10).
weight(66, 1).
weight(67, 10).
weight(68, 4).
weight(69, 7).
weight(70, 3).
weight(71, 9).
weight(72, 3).
weight(73, 2).
weight(74, 6).
weight(75, 7).
weight(76, 2).
weight(77, 10).
weight(78, 5).
weight(79, 2).
weight(80, 11).
weight(81, 6).
weight(82, 1).
weight(83, 8).
weight(84, 10).
weight(85, 1).
weight(86, 1).
weight(87, 7).
weight(88, 7).
weight(89, 11).
weight(90, 4).
weight(91, 1).
weight(92, 2).
weight(93, 8).
weight(94, 3).
weight(95, 9).
weight(96, 11).
weight(97, 9).
weight(98, 2).
weight(99, 4).
weight(100, 4).
weight(101, 3).
weight(102, 4).
weight(103, 1).
weight(104, 10).
weight(105, 1).
weight(106, 7).
weight(107, 2).
weight(108, 1).
weight(109, 2).
weight(110, 4).
weight(111, 1).
weight(112, 4).
weight(113, 2).
weight(114, 6).
weight(115, 1).
weight(116, 3).
weight(117, 7).
weight(118, 8).
weight(119, 4).
weight(120, 1).
weight(121, 2).
weight(122, 4).
weight(123, 3).
weight(124, 3).
weight(125, 9).
weight(126, 9).
weight(127, 6).
weight(128, 9).
weight(129, 1).
weight(130, 10).
weight(131, 9).
weight(132, 1).
weight(133, 11).
weight(134, 3).
weight(135, 6).
weight(136, 6).
weight(137, 7).
weight(138, 3).
weight(139, 10).
weight(140, 5).
weight(141, 10).
weight(142, 6).
weight(143, 1).
weight(144, 7).
weight(145, 2).
weight(146, 4).
weight(147, 2).
weight(148, 10).
weight(149, 10).
weight(150, 5).
weight(151, 8).
weight(152, 8).
weight(153, 8).
weight(154, 10).
weight(155, 3).
weight(156, 2).
weight(157, 4).
weight(158, 6).
weight(159, 5).
weight(160, 8).
weight(161, 7).
weight(162, 2).
weight(163, 4).
weight(164, 7).
weight(165, 2).
weight(166, 10).
weight(167, 8).
weight(168, 8).
weight(169, 8).
weight(170, 10).
weight(171, 7).
weight(172, 1).
weight(173, 3).
weight(174, 11).
weight(175, 11).
weight(176, 7).
weight(177, 7).
weight(178, 4).
weight(179, 11).
weight(180, 6).
weight(181, 6).
bound(97).

adj(U,V) :- edge(U,V).
adj(U,V) :- edge(V,U).
{in(V)} :- node(V).
dominated(V) :- in(V).
dominated(V) :- in(U), adj(U,V).
:- node(V), not dominated(V).
:- bound(B), #sum{W,V : in(V), weight(V,W)} > B.
:~ in(V), weight(V,W). [W@1,V]
