node(0..166).
edge(63, 82).
edge(53, 162).
edge(17, 107).
edge(69, 153).
edge(70, 141).
edge(144, 150).
edge(49, 56).
edge(89, 100).
edge(15, 31).
edge(39, 61).
edge(46, 152).
edge(89, 164).
edge(41, 161).
edge(70, 79).
edge(64, 120).
edge(37, 71).
edge(11, 144).
edge(30, 116).
edge(42, 158).
edge(33, 89).
edge(137, 154).
edge(65, 87).
edge(66, 107).
edge(57, 93).
edge(77, 96).
edge(26, 131).
edge(69, 132).
edge(93, 107).
edge(98, 125).
edge(78, 145).
edge(78, 158).
edge(45, 135).
edge(91, 143).
edge(77, 79).
edge(67, 113).
edge(26, 98).
edge(22, 58).
edge(100, 147).
edge(16, 145).
edge(2, 91).
edge(34, 118).
edge(5, 27).
edge(31, 166).
edge(80, 136).
edge(44, 131).
edge(27, 32).
edge(22, 56).
edge(100, 156).
edge(122, 132).
edge(30, 44).
edge(74, 156).
edge(2, 148).
edge(81, 92).
edge(0, 165).
edge(105, 148).
edge(8, 109).
edge(76, 158).
edge(43, 140).
edge(46, 157).
edge(14, 17).
edge(98, 160).
edge(44, 145).
edge(28, 119).
edge(86, 161).
edge(110, 143).
edge(15, 49).
edge(48, 62).
edge(2, 47).
edge(27, 89).
edge(34, 126).
edge(94, 132).
edge(107, 125).
edge(10, 131).
edge(87, 99).
edge(13, 61).
edge(64, 164).
edge(8, 50).
edge(39, 56).
edge(22, 87).
edge(121, 155).
edge(35, 151).
edge(113, 134).
edge(39, 71).
edge(17, 96).
edge(9, 65).
edge(94, 117).
edge(136, 155).
edge(125, 147).
edge(37, 45).
edge(33, 47).
edge(37, 69).
edge(6, 51).
edge(89, 96).
edge(94, 161).
edge(43, 80).
edge(33, 153).
edge(28, 138).
edge(2, 155).
edge(38, 159).
edge(34, 64).
edge(48, 141).
edge(7, 143).
edge(79, 165).
edge(3, 149).
edge(62, 155).
edge(90, 150).
edge(77, 130).
edge(92, 103).
edge(95, 164).
edge(7, 16).
edge(49, 150).
edge(79, 103).
edge(12, 84).
edge(75, 98).
edge(66, 76).
edge(2, 117).
edge(10, 12).
edge(96, 108).
edge(113, 159).
edge(87, 159).
edge(26, 27).
edge(34, 54).
edge(36, 66).
edge(29, 141).
edge(85, 108).
edge(26, 147).
edge(41, 141).
edge(130, 153).
edge(52, 90).
edge(73, 78).
edge(119, 153).
edge(3, 166).
edge(37, 152).
edge(87, 100).
edge(114, 139).
edge(0, 26).
edge(42, 77).
edge(42, 65).
edge(34, 137).
edge(80, 119).
edge(67, 81).
edge(77, 148).
edge(22, 42).
edge(85, 105).
edge(70, 125).
edge(33, 52).
edge(7, 44).
edge(34, 149).
edge(6, 28).
edge(2, 109).
edge(31, 161).
edge(65, 161).
edge(72, 165).
edge(36, 111).
edge(96, 126).
edge(120, 141).
edge(93, 133).
edge(6, 115).
edge(74, 107).
edge(99, 102).
edge(15, 21).
edge(8, 79).
edge(36, 101).
edge(151, 155).
edge(1, 166).
edge(17, 138).
edge(20, 33).
edge(43, 83).
edge(132, 141).
edge(68, 102).
edge(55, 62).
edge(5, 164).
edge(101, 132).
edge(56, 134).
edge(17, 45).
edge(41, 113).
edge(90, 101).
edge(21, 126).
edge(30, 152).
edge(120, 162).
edge(136, 166).
edge(60, 137).
edge(27, 49).
edge(35, 37).
edge(25, 38).
edge(11, 27).
edge(32, 85).
edge(62, 128).
edge(56, 88).
edge(51, 160).
edge(84, 149).
edge(49, 118).
edge(13, 129).
edge(12, 51).
edge(75, 128).
edge(31, 139).
edge(47, 79).
edge(16, 64).
edge(75, 87).
edge(75, 162).
edge(15, 163).
edge(127, 141).
edge(5, 121).
edge(14, 27).
edge(85, 96).
edge(81, 128).
edge(3, 29).
edge(18, 74).
edge(53, 118).
edge(55, 81).
edge(86, 97).
edge(48, 121).
edge(21, 160).
edge(32, 102).
edge(70, 144).
edge(23, 28).
edge(135, 153).
edge(3, 20).
edge(22, 39).
edge(28, 66).
edge(124, 131).
edge(10, 76).
edge(1, 16).
edge(54, 155).
edge(93, 116).
edge(36, 164).
edge(114, 141).
edge(101, 128).
edge(79, 95).
edge(43, 120).
edge(115, 145).
edge(44, 72).
edge(21, 158).
edge(53, 76).
edge(6, 152).
edge(20, 152).
edge(159, 161).
edge(3, 118).
edge(117, 152).
edge(58, 130).
edge(137, 147).
edge(9, 155).
edge(69, 81).
edge(0, 53).
edge(20, 41).
edge(45, 46).
edge(58, 105).
edge(121, 156).
edge(124, 150).
edge(74, 113).
edge(66, 91).
edge(77, 125).
edge(6, 77).
edge(90, 111).
edge(2, 40).
edge(7, 119).
edge(25, 147).
edge(39, 129).
edge(35, 79).
edge(36, 116).
edge(48, 145).
edge(48, 99).
edge(124, 146).
edge(37, 139).
edge(140, 156).
edge(3, 22).
edge(24, 106).
edge(15, 19).
edge(94, 163).
edge(101, 130).
edge(84, 135).
edge(63, 135).
edge(41, 81).
edge(36, 118).
edge(72, 138).
edge(84, 118).
edge(83, 152).
edge(64, 89).
edge(111, 116).
edge(25, 148).
edge(10, 78).
edge(3, 73).
edge(51, 88).
edge(118, 146).
edge(32, 37).
edge(34, 55).
edge(17, 120).
edge(119, 149).
edge(105, 120).
edge(73, 163).
edge(64, 138).
edge(90, 125).
edge(15, 45).
edge(10, 107).
edge(39, 57).
edge(7, 14).
edge(72, 78).
edge(144, 162).
edge(111, 124).
edge(67, 111).
edge(25, 85).
edge(8, 96).
edge(112, 161).
edge(35, 148).
edge(101, 105).
edge(6, 65).
edge(13, 141).
edge(40, 141).
edge(117, 129).
edge(87, 164).
edge(111, 139).
edge(96, 146).
edge(131, 157).
edge(5, 60).
edge(88, 124).
edge(101, 164).
edge(21, 106).
edge(116, 132).
edge(124, 159).
edge(31, 106).
edge(29, 101).
edge(64, 112).
edge(31, 156).
edge(39, 122).
edge(2, 35).
edge(118, 126).
edge(17, 48).
edge(16, 134).
edge(14, 119).
edge(11, 164).
edge(56, 76).
edge(10, 150).
edge(75, 134).
edge(91, 154).
edge(43, 54).
edge(122, 152).
edge(25, 59).
edge(15, 160).
edge(2, 116).
edge(2, 19).
edge(123, 127).
edge(98, 122).
edge(63, 158).
edge(57, 148).
edge(39, 127).
edge(77, 143).
edge(19, 37).
edge(47, 92).
edge(33, 75).
edge(68, 123).
edge(29, 148).
edge(0, 133).
edge(20, 88).
edge(101, 151).
edge(79, 96).
edge(63, 94).
edge(30, 34).
edge(134, 152).
edge(97, 161).
edge(141, 150).
edge(123, 130).
edge(63, 113).
edge(21, 50).
edge(52, 91).
edge(32, 123).
edge(39, 108).
edge(46, 105).
edge(86, 165).
edge(0, 17).
edge(71, 130).
edge(71, 139).
edge(50, 76).
edge(85, 143).
edge(16, 130).
edge(78, 162).
edge(71, 89).
edge(29, 65).
edge(28, 61).
edge(41, 155).
edge(11, 84).
edge(119, 152).
edge(20, 143).
edge(14, 106).
edge(76, 136).
edge(36, 154).
edge(90, 95).
edge(1, 164).
edge(23, 148).
edge(10, 63).
edge(70, 135).
edge(41, 88).
edge(27, 50).
edge(48, 87).
edge(140, 144).
edge(38, 89).
edge(9, 120).
edge(103, 163).
edge(40, 100).
edge(115, 154).
edge(8, 77).
edge(57, 88).
edge(48, 134).
edge(72, 156).
edge(132, 145).
edge(135, 136).
edge(54, 135).
edge(28, 122).
edge(30, 144).
edge(19, 71).
edge(7, 103).
edge(53, 149).
edge(150, 156).
edge(94, 164).
edge(40, 71).
edge(7, 52).
edge(117, 119).
edge(145, 166).
edge(51, 121).
edge(19, 148).
edge(71, 137).
edge(58, 64).
edge(63, 106).
edge(88, 105).
edge(99, 166).
edge(6, 56).
edge(8, 85).
edge(25, 164).
edge(16, 25).
edge(134, 142).
edge(46, 160).
edge(28, 128).
edge(2, 22).
edge(31, 165).
edge(42, 55).
edge(17, 75).
edge(11, 39).
edge(59, 138).
edge(11, 60).
edge(62, 79).
edge(13, 26).
edge(31, 70).
edge(140, 146).
edge(9, 163).
edge(46, 159).
edge(32, 44).
edge(42, 88).
edge(43, 44).
edge(39, 97).
edge(44, 128).
edge(67, 159).
edge(84, 100).
edge(69, 102).
edge(7, 113).
edge(81, 123).
edge(14, 59).
edge(48, 120).
edge(17, 157).
edge(128, 154).
edge(55, 69).
edge(26, 49).
edge(45, 55).
edge(76, 155).
edge(108, 114).
edge(125, 135).
edge(9, 117).
edge(67, 120).
edge(68, 152).
edge(82, 148).
edge(19, 162).
edge(71, 109).
edge(4, 54).
edge(74, 157).
edge(41, 57).
edge(32, 95).
edge(145, 165).
edge(4, 68).
edge(95, 116).
edge(61, 114).
edge(10, 74).
edge(13, 49).
edge(90, 160).
edge(53, 120).
edge(43, 76).
edge(100, 102).
edge(8, 14).
edge(37, 92).
edge(78, 88).
edge(31, 62).
edge(4, 119).
edge(68, 129).
edge(72, 102).
edge(66, 119).
edge(5, 133).
edge(89, 137).
edge(106, 146).
edge(22, 65).
edge(44, 124).
edge(59, 66).
edge(11, 148).
edge(9, 131).
edge(45, 129).
edge(112, 140).
edge(107, 149).
edge(1, 53).
edge(9, 61).
edge(11, 37).
edge(72, 128).
edge(26, 57).
edge(65, 91).
edge(63, 157).
edge(48, 164).
edge(49, 66).
edge(89, 112).
edge(84, 103).
edge(100, 120).
edge(2, 65).
edge(82, 152).
edge(72, 123).
edge(118, 159).
edge(140, 161).
edge(84, 114).
edge(91, 130).
edge(34, 157).
edge(3, 60).
edge(125, 150).
edge(2, 111).
edge(95, 110).
edge(9, 26).
edge(24, 135).
edge(117, 145).
edge(0, 71).
edge(131, 153).
edge(31, 41).
edge(60, 145).
edge(67, 151).
edge(16, 142).
edge(12, 107).
edge(93, 156).
edge(8, 164).
edge(56, 163).
edge(61, 146).
edge(152, 163).
edge(25, 151).
edge(53, 160).
edge(1, 101).
edge(89, 102).
edge(83, 100).
edge(10, 103).
edge(59, 122).
edge(63, 128).
edge(43, 104).
edge(19, 60).
edge(86, 158).
edge(116, 161).
edge(66, 73).
edge(11, 87).
edge(51, 101).
edge(41, 123).
edge(65, 131).
edge(47, 157).
edge(14, 23).
edge(50, 80).
edge(49, 53).
edge(74, 136).
edge(54, 92).
edge(27, 105).
edge(102, 138).
edge(124, 125).
edge(44, 50).
edge(36, 91).
edge(10, 139).
edge(28, 39).
edge(35, 107).
edge(85, 148).
edge(95, 97).
edge(113, 130).
edge(27, 140).
edge(44, 140).
edge(9, 19).
edge(8, 149).
edge(5, 113).
edge(48, 115).
edge(41, 94).
edge(67, 126).
edge(35, 66).
edge(55, 57).
edge(132, 150).
edge(29, 92).
edge(26, 153).
edge(100, 153).
edge(34, 121).
edge(7, 125).
edge(28, 149).
edge(37, 63).
edge(35, 76).
edge(1, 134).
edge(46, 123).
edge(0, 23).
edge(92, 145).
edge(0, 161).
edge(103, 146).
edge(26, 92).
edge(10, 123).
edge(98, 109).
edge(117, 157).
edge(44, 123).
edge(34, 134).
edge(33, 54).
edge(96, 165).
edge(124, 127).
edge(21, 28).
edge(71, 142).
edge(66, 130).
edge(18, 128).
edge(38, 129).
edge(40, 105).
edge(81, 133).
edge(44, 77).
edge(82, 144).
edge(50, 118).
edge(81, 158).
edge(37, 49).
edge(100, 145).
edge(46, 97).
edge(5, 74).
edge(123, 153).
edge(70, 133).
edge(94, 158).
edge(51, 54).
edge(17, 21).
edge(17, 94).
edge(20, 74).
edge(5, 23).
edge(103, 129).
edge(83, 94).
edge(132, 163).
edge(65, 97).
edge(45, 162).
edge(78, 97).
edge(43, 69).
edge(49, 50).
edge(66, 94).
edge(21, 68).
edge(26, 108).
edge(26, 130).
edge(11, 95).
edge(40, 134).
edge(96, 120).
edge(114, 149).
edge(38, 78).
edge(88, 132).
edge(20, 148).
edge(8, 93).
edge(10, 44).
edge(81, 97).
edge(11, 31).
edge(117, 143).
edge(5, 61).
edge(15, 158).
edge(46, 125).
edge(5, 116).
edge(151, 161).
edge(103, 131).
edge(12, 74).
edge(55, 137).
edge(12, 67).
edge(43, 47).
edge(135, 143).
edge(56, 84).
edge(71, 106).
edge(72, 136).
edge(55, 84).
edge(46, 142).
edge(90, 109).
edge(131, 160).
edge(72, 87).
edge(29, 164).
edge(65, 144).
edge(114, 140).
edge(46, 119).
edge(15, 129).
edge(6, 36).
edge(24, 40).
edge(42, 157).
edge(100, 130).
edge(31, 136).
edge(98, 100).
edge(24, 159).
edge(94, 137).
edge(33, 150).
edge(22, 76).
edge(66, 67).
edge(40, 120).
edge(50, 102).
edge(78, 90).
edge(70, 107).
edge(81, 163).
edge(118, 152).
edge(27, 44).
edge(107, 120).
edge(0, 157).
edge(13, 14).
edge(22, 149).
edge(98, 129).
edge(141, 145).
edge(37, 79).
edge(29, 125).
edge(59, 83).
edge(73, 107).
edge(54, 96).
edge(24, 97).
edge(105, 131).
edge(1, 130).
edge(87, 114).
edge(100, 159).
edge(42, 51).
edge(61, 131).
edge(82, 111).
edge(0, 22).
edge(34, 89).
edge(110, 131).
edge(32, 71).
edge(38, 70).
edge(37, 57).
edge(28, 87).
edge(45, 111).
edge(42, 50).
edge(4, 74).
edge(132, 159).
edge(70, 156).
edge(40, 86).
edge(15, 24).
edge(99, 139).
edge(8, 83).
edge(22, 33).
edge(46, 56).
edge(42, 154).
edge(28, 38).
edge(12, 155).
edge(81, 100).
edge(47, 84).
edge(91, 149).
edge(41, 50).
edge(136, 160).
edge(28, 70).
edge(35, 127).
edge(27, 88).
edge(32, 43).
edge(48, 116).
edge(35, 120).
edge(98, 163).
edge(8, 120).
edge(59, 143).
edge(133, 153).
edge(10, 156).
edge(97, 103).
edge(38, 131).
edge(57, 135).
edge(142, 165).
edge(73, 95).
edge(86, 140).
edge(32, 52).
edge(117, 149).
edge(74, 149).
edge(34, 42).
edge(61, 112).
edge(111, 119).
edge(63, 107).
edge(60, 61).
edge(57, 150).
edge(75, 136).
edge(94, 99).
edge(17, 135).
edge(23, 110).
edge(29, 103).
edge(60, 100).
edge(9, 87).
edge(18, 43).
edge(4, 60).
edge(34, 80).
edge(30, 159).
edge(67, 78).
edge(111, 134).
edge(89, 133).
edge(60, 122).
edge(79, 135).
edge(1, 34).
edge(36, 75).
edge(33, 159).
edge(88, 140).
edge(66, 133).
edge(66, 104).
edge(77, 99).
edge(15, 88).
edge(25, 102).
edge(35, 84).
edge(9, 58).
edge(8, 102).
edge(54, 110).
edge(22, 137).
edge(114, 166).
edge(85, 109).
edge(10, 49).
edge(35, 114).
edge(26, 99).
edge(62, 75).
edge(101, 136).
edge(22, 71).
edge(94, 111).
edge(9, 90).
edge(10, 17).
edge(92, 95).
edge(121, 125).
edge(14, 159).
edge(48, 52).
edge(0, 150).
edge(39, 82).
edge(50, 159).
edge(18, 83).
edge(93, 152).
edge(6, 44).
edge(35, 63).
edge(110, 130).
edge(29, 97).
edge(129, 146).
edge(108, 131).
edge(53, 73).
edge(16, 31).
edge(51, 145).
edge(93, 96).
edge(17, 136).
edge(84, 131).
edge(31, 87).
edge(131, 166).
edge(32, 133).
edge(57, 149).
edge(41, 102).
edge(93, 163).
edge(22, 80).
edge(47, 166).
edge(55, 165).
edge(61, 157).
edge(67, 145).
edge(61, 147).
edge(9, 23).
edge(6, 22).
edge(4, 48).
edge(40, 47).
edge(91, 110).
edge(0, 43).
edge(41, 131).
edge(26, 77).
edge(2, 85).
edge(66, 142).
edge(40, 75).
edge(110, 156).
edge(32, 61).
edge(2, 18).
edge(92, 116).
edge(13, 28).
edge(25, 77).
edge(82, 161).
edge(104, 105).
edge(1, 31).
edge(10, 92).
edge(7, 58).
edge(52, 92).
edge(0, 15).
edge(31, 33).
edge(43, 68).
edge(87, 146).
edge(142, 158).
edge(158, 161).
edge(39, 93).
edge(32, 124).
edge(9, 68).
edge(33, 94).
edge(29, 116).
edge(36, 50).
edge(37, 86).
edge(87, 106).
edge(32, 75).
edge(8, 18).
edge(44, 118).
edge(56, 72).
edge(53, 67).
edge(46, 83).
edge(13, 56).
edge(0, 90).
edge(9, 77).
edge(0, 103).
edge(66, 143).
edge(119, 126).
edge(11, 69).
edge(5, 55).
edge(75, 135).
edge(80, 130).
edge(72, 158).
edge(40, 112).
edge(4, 117).
edge(71, 80).
edge(84, 119).
edge(39, 85).
edge(71, 100).
edge(21, 92).
edge(11, 40).
edge(85, 131).
edge(72, 146).
edge(32, 91).
edge(71, 82).
edge(163, 166).
edge(115, 141).
edge(61, 140).
edge(50, 121).
edge(60, 132).
edge(14, 35).
edge(57, 137).
edge(53, 130).
edge(72, 166).
edge(21, 73).
edge(42, 143).
edge(43, 141).
edge(25, 56).
edge(4, 5).
edge(94, 160).
edge(39, 125).
edge(32, 88).
edge(141, 156).
edge(96, 104).
edge(89, 125).
edge(19, 57).
edge(11, 12).
edge(36, 150).
edge(16, 58).
edge(29, 67).
edge(27, 73).
edge(142, 162).
edge(79, 141).
edge(4, 122).
edge(86, 152).
edge(12, 97).
edge(30, 69).
edge(39, 142).
edge(90, 122).
edge(96, 138).
edge(2, 141).
edge(1, 96).
edge(20, 145).
edge(12, 36).
edge(145, 157).
edge(75, 142).
edge(50, 113).
edge(26, 89).
edge(42, 130).
edge(11, 55).
edge(16, 82).
edge(114, 162).
edge(64, 92).
edge(49, 55).
edge(150, 164).
edge(5, 31).
edge(12, 130).
edge(64, 85).
edge(75, 99).
edge(48, 135).
edge(99, 165).
edge(14, 71).
edge(136, 144).
edge(27, 62).
edge(106, 145).
edge(65, 126).
edge(70, 158).
edge(30, 114).
edge(134, 164).
edge(30, 157).
edge(27, 95).
edge(81, 162).
edge(61, 88).
edge(32, 142).
edge(34, 87).
edge(121, 152).
edge(15, 137).
edge(41, 118).
edge(129, 163).
edge(72, 134).
edge(40, 46).
edge(142, 159).
edge(11, 120).
edge(0, 128).
edge(17, 109).
edge(2, 142).
edge(78, 152).
edge(66, 102).
edge(36, 162).
edge(69, 166).
edge(88, 101).
edge(91, 104).
edge(61, 150).
edge(12, 50).
edge(37, 106).
edge(109, 113).
edge(44, 135).
edge(106, 134).
edge(64, 99).
edge(103, 149).
edge(23, 136).
edge(67, 139).
edge(18, 84).
edge(36, 122).
edge(22, 123).
edge(1, 107).
edge(54, 146).
edge(142, 146).
edge(1, 138).
edge(2, 52).
edge(17, 56).
edge(35, 36).
edge(16, 151).
edge(24, 54).
edge(66, 163).
edge(88, 143).
edge(1, 40).
edge(122, 159).
edge(118, 161).
edge(19, 64).
edge(138, 146).
edge(86, 113).
edge(106, 108).
edge(96, 159).
edge(35, 138).
edge(128, 134).
edge(34, 53).
edge(73, 150).
edge(98, 131).
edge(61, 149).
edge(4, 152).
edge(27, 124).
edge(90, 141).
edge(72, 126).
edge(128, 140).
edge(50, 149).
edge(109, 131).
edge(84, 123).
edge(50, 78).
edge(127, 148).
edge(39, 48).
edge(99, 121).
edge(114, 130).
edge(97, 156).
edge(35, 144).
edge(26, 47).
edge(110, 117).
edge(43, 145).
edge(16, 162).
edge(150, 152).
edge(67, 156).
edge(15, 147).
edge(120, 155).
edge(146, 148).
edge(12, 146).
edge(86, 156).
edge(105, 159).
edge(14, 72).
edge(23, 24).
edge(9, 62).
edge(153, 155).
edge(6, 123).
edge(28, 73).
edge(71, 145).
edge(76, 142).
edge(5, 18).
edge(124, 154).
edge(98, 151).
edge(68, 87).
edge(10, 145).
edge(105, 138).
edge(90, 97).
edge(14, 21).
edge(5, 36).
edge(24, 143).
edge(48, 61).
edge(54, 93).
edge(13, 40).
edge(31, 141).
edge(116, 144).
edge(12, 87).
edge(112, 160).
edge(88, 141).
edge(85, 126).
edge(30, 101).
edge(17, 66).
edge(97, 118).
edge(0, 8).
edge(95, 146).
edge(46, 69).
edge(57, 109).
edge(38, 118).
edge(33, 121).
edge(111, 148).
edge(71, 146).
edge(61, 111).
edge(8, 20).
edge(21, 80).
edge(34, 46).
edge(2, 97).
edge(40, 161).
edge(107, 147).
edge(8, 98).
edge(14, 139).
edge(63, 141).
edge(95, 141).
edge(73, 96).
edge(29, 96).
edge(24, 63).
edge(123, 124).
edge(102, 130).
edge(35, 142).
edge(59, 108).
edge(15, 92).
edge(7, 88).
edge(24, 115).
edge(14, 151).
edge(66, 134).
edge(55, 124).
edge(42, 111).
edge(32, 87).
edge(12, 56).
edge(38, 80).
edge(36, 132).
edge(0, 95).
edge(55, 116).
edge(7, 69).
edge(86, 123).
edge(50, 114).
edge(138, 160).
edge(99, 163).
edge(72, 94).
edge(131, 132).
edge(55, 98).
edge(51, 119).
edge(14, 75).
edge(2, 26).
edge(11, 137).
edge(40, 44).
edge(110, 164).
edge(40, 146).
edge(23, 154).
edge(104, 123).
edge(30, 64).
edge(143, 148).
edge(6, 142).
edge(43, 62).
edge(16, 158).
edge(49, 97).
edge(12, 62).
edge(150, 155).
edge(19, 28).
edge(0, 151).
edge(93, 164).
edge(7, 164).
edge(0, 69).
edge(28, 144).
edge(112, 155).
edge(99, 117).
edge(44, 85).
edge(93, 148).
edge(4, 39).
edge(82, 150).
edge(33, 97).
edge(95, 118).
edge(9, 94).
edge(41, 42).
edge(90, 110).
edge(5, 53).
edge(64, 109).
edge(43, 155).
edge(18, 124).
edge(57, 162).
edge(28, 59).
edge(38, 98).
edge(51, 148).
edge(51, 75).
edge(104, 117).
edge(33, 148).
edge(73, 126).
edge(100, 142).
edge(158, 163).
edge(108, 113).
edge(22, 23).
edge(10, 161).
edge(116, 145).
edge(53, 81).
edge(91, 111).
edge(114, 117).
edge(45, 136).
edge(44, 102).
edge(10, 119).
edge(115, 126).
edge(28, 127).
edge(9, 166).
edge(91, 112).
edge(46, 127).
edge(157, 165).
edge(24, 145).
edge(101, 116).
edge(59, 74).
edge(14, 79).
edge(79, 164).
edge(104, 106).
edge(32, 161).
edge(1, 51).
edge(31, 45).
edge(64, 128).
edge(84, 122).
edge(95, 138).
edge(16, 99).
edge(65, 82).
edge(36, 63).
edge(1, 159).
edge(156, 163).
edge(22, 141).
edge(53, 68).
edge(74, 116).
edge(63, 69).
edge(24, 111).
edge(100, 135).
edge(94, 108).
edge(8, 119).
edge(33, 36).
edge(1, 12).
edge(98, 101).
edge(87, 129).
edge(95, 155).
edge(37, 155).
edge(121, 126).
edge(87, 92).
edge(91, 128).
edge(70, 128).
edge(8, 122).
edge(47, 138).
edge(39, 81).
edge(125, 133).
edge(46, 102).
edge(26, 35).
edge(75, 86).
edge(54, 72).
edge(9, 153).
edge(7, 133).
edge(51, 91).
edge(24, 126).
edge(103, 119).
edge(8, 10).
edge(95, 140).
edge(12, 82).
edge(33, 103).
edge(146, 164).
edge(79, 123).
edge(51, 129).
edge(3, 84).
edge(48, 162).
edge(69, 96).
edge(93, 98).
edge(77, 157).
edge(88, 89).
edge(117, 135).
edge(37, 84).
edge(48, 73).
edge(29, 143).
edge(59, 71).
edge(75, 91).
edge(24, 86).
edge(123, 150).
edge(61, 97).
edge(74, 145).
edge(83, 166).
edge(51, 110).
edge(68, 155).
edge(54, 75).
edge(72, 122).
edge(19, 158).
edge(37, 109).
edge(65, 68).
edge(16, 117).
edge(15, 69).
edge(51, 63).
edge(26, 79).
edge(43, 132).
edge(45, 85).
edge(14, 83).
edge(81, 156).
edge(123, 163).
edge(86, 143).
edge(13, 163).
edge(86, 149).
edge(114, 146).
edge(41, 83).
edge(13, 101).
edge(30, 68).
edge(58, 108).
edge(101, 148).
edge(67, 95).
edge(49, 123).
edge(75, 165).
edge(48, 166).
edge(78, 99).
edge(104, 119).
edge(18, 125).
edge(51, 159).
edge(82, 102).
edge(0, 66).
edge(61, 110).
edge(37, 42).
edge(41, 78).
edge(51, 99).
edge(89, 108).
edge(30, 118).
edge(56, 148).
edge(56, 118).
edge(8, 69).
edge(17, 81).
edge(25, 58).
edge(44, 93).
edge(14, 15).
edge(81, 135).
edge(84, 147).
edge(21, 25).
edge(153, 163).
edge(32, 138).
edge(104, 141).
edge(94, 149).
edge(68, 111).
edge(86, 114).
edge(27, 162).
edge(35, 161).
edge(9, 92).
edge(17, 148).
edge(1, 75).
edge(136, 164).
edge(1, 45).
edge(38, 115).
edge(51, 155).
edge(61, 164).
edge(64, 121).
edge(28, 74).
edge(38, 59).
edge(76, 140).
edge(84, 104).
edge(22, 153).
edge(8, 155).
edge(139, 165).
edge(112, 130).
edge(37, 52).
edge(27, 157).
edge(108, 112).
edge(92, 166).
edge(40, 41).
edge(52, 149).
edge(32, 112).
edge(23, 37).
edge(73, 133).
edge(22, 132).
edge(36, 37).
edge(68, 136).
edge(20, 131).
edge(42, 43).
edge(130, 155).
edge(9, 144).
edge(114, 120).
edge(5, 104).
edge(70, 93).
edge(118, 147).
edge(105, 135).
edge(45, 82).
edge(12, 60).
edge(147, 157).
edge(110, 114).
edge(4, 88).
edge(19, 150).
edge(32, 33).
edge(29, 41).
edge(15, 25).
edge(92, 152).
edge(7, 100).
edge(124, 164).
edge(35, 159).
edge(61, 103).
edge(78, 114).
edge(68, 79).
edge(24, 107).
edge(91, 141).
edge(111, 121).
edge(1, 161).
edge(98, 104).
edge(116, 125).
edge(2, 151).
edge(18, 143).
edge(145, 152).
edge(112, 139).
edge(79, 151).
edge(75, 96).
edge(69, 95).
edge(5, 80).
edge(3, 154).
edge(26, 146).
edge(36, 86).
edge(7, 130).
edge(5, 101).
edge(86, 157).
edge(99, 141).
edge(16, 44).
edge(34, 97).
edge(93, 139).
edge(36, 131).
edge(76, 149).
edge(86, 160).
edge(18, 20).
edge(22, 89).
edge(25, 156).
edge(70, 98).
edge(24, 114).
edge(52, 110).
edge(4, 8).
edge(40, 60).
edge(49, 81).
edge(55, 120).
edge(20, 90).
edge(2, 129).
edge(65, 145).
edge(59, 128).
edge(64, 101).
edge(81, 99).
edge(70, 104).
edge(15, 142).
edge(59, 160).
edge(3, 65).
edge(25, 52).
edge(149, 150).
edge(22, 43).
edge(36, 68).
edge(63, 126).
edge(75, 115).
edge(53, 163).
edge(9, 154).
edge(22, 139).
edge(6, 57).
edge(145, 163).
edge(70, 127).
edge(38, 51).
edge(107, 112).
edge(80, 145).
edge(65, 105).
edge(46, 108).
edge(44, 62).
edge(141, 161).
edge(13, 55).
edge(97, 159).
edge(44, 91).
edge(34, 38).
edge(38, 124).
edge(104, 122).
edge(1, 153).
edge(34, 130).
edge(30, 90).
edge(15, 113).
edge(21, 140).
edge(93, 143).
edge(32, 38).
edge(78, 86).
edge(53, 104).
edge(16, 73).
edge(93, 115).
edge(29, 44).
edge(63, 110).
edge(10, 96).
edge(37, 38).
edge(39, 102).
edge(49, 63).
edge(42, 49).
edge(43, 118).
edge(10, 81).
edge(18, 19).
edge(102, 164).
edge(47, 89).
edge(20, 97).
edge(32, 94).
edge(58, 83).
edge(76, 93).
edge(102, 126).
edge(23, 57).
edge(81, 83).
edge(36, 100).
edge(35, 60).
edge(41, 138).
edge(25, 48).
edge(68, 101).
edge(52, 161).
edge(113, 133).
edge(55, 109).
edge(133, 154).
edge(24, 120).
edge(29, 87).
edge(57, 110).
edge(30, 165).
edge(4, 142).
edge(10, 100).
edge(55, 156).
edge(12, 148).
edge(15, 126).
edge(11, 34).
edge(49, 152).
edge(55, 66).
edge(79, 157).
edge(32, 78).
edge(69, 113).
edge(96, 97).
edge(39, 66).
edge(18, 148).
edge(22, 62).
edge(31, 89).
edge(63, 148).
edge(8, 58).
edge(47, 85).
edge(16, 53).
edge(52, 86).
edge(46, 145).
edge(46, 47).
edge(80, 106).
edge(46, 106).
edge(37, 114).
edge(53, 56).
edge(14, 18).
edge(73, 123).
edge(151, 165).
edge(129, 140).
edge(79, 152).
edge(88, 154).
edge(10, 87).
edge(80, 114).
edge(117, 147).
edge(86, 141).
edge(6, 25).
edge(85, 115).
edge(130, 160).
edge(12, 64).
edge(87, 153).
edge(59, 82).
edge(56, 101).
edge(48, 100).
edge(6, 11).
edge(9, 76).
edge(70, 137).
edge(133, 161).
edge(24, 67).
edge(12, 65).
edge(35, 45).
edge(44, 88).
edge(52, 93).
edge(11, 28).
edge(7, 153).
edge(13, 58).
edge(41, 156).
edge(47, 68).
edge(103, 139).
edge(40, 54).
edge(134, 145).
edge(55, 90).
edge(152, 156).
edge(12, 153).
edge(74, 159).
edge(60, 94).
edge(22, 158).
edge(101, 102).
edge(108, 150).
edge(40, 166).
edge(40, 158).
edge(90, 136).
edge(22, 35).
edge(42, 123).
edge(49, 114).
edge(88, 106).
edge(30, 117).
edge(12, 152).
edge(66, 120).
edge(132, 166).
edge(77, 88).
edge(126, 129).
edge(69, 101).
edge(81, 91).
edge(83, 162).
edge(26, 155).
edge(110, 141).
edge(79, 99).
edge(142, 154).
edge(100, 107).
edge(44, 137).
edge(53, 71).
edge(22, 66).
edge(13, 29).
edge(77, 112).
edge(57, 101).
edge(55, 76).
edge(66, 105).
edge(13, 30).
edge(89, 99).
edge(0, 83).
edge(77, 90).
edge(65, 92).
edge(121, 166).
edge(48, 119).
edge(40, 81).
edge(131, 145).
edge(31, 162).
edge(24, 146).
edge(49, 65).
edge(110, 150).
edge(83, 150).
edge(107, 142).
edge(95, 114).
edge(157, 166).
edge(114, 119).
edge(89, 126).
edge(5, 152).
edge(54, 165).
edge(63, 119).
edge(67, 86).
edge(103, 160).
edge(3, 102).
edge(16, 27).
edge(42, 163).
edge(10, 21).
edge(38, 56).
edge(71, 164).
edge(12, 100).
edge(111, 165).
edge(114, 158).
edge(62, 141).
edge(12, 113).
edge(102, 108).
edge(20, 52).
edge(107, 150).
edge(12, 92).
edge(93, 136).
edge(31, 120).
edge(23, 32).
edge(52, 74).
edge(88, 161).
edge(117, 131).
edge(50, 134).
edge(47, 126).
edge(12, 94).
edge(95, 107).
edge(122, 160).
edge(58, 164).
edge(110, 148).
edge(15, 52).
edge(22, 44).
edge(79, 106).
edge(150, 159).
edge(141, 142).
edge(20, 158).
edge(89, 105).
edge(144, 147).
edge(120, 144).
edge(26, 144).
edge(17, 33).
edge(84, 133).
edge(56, 129).
edge(10, 112).
edge(35, 158).
edge(34, 140).
edge(23, 119).
edge(117, 132).
edge(95, 139).
edge(31, 61).
edge(33, 59).
edge(40, 49).
edge(44, 139).
edge(79, 160).
edge(5, 68).
edge(14, 52).
edge(18, 37).
edge(15, 57).
edge(60, 116).
edge(68, 154).
edge(102, 109).
edge(61, 141).
edge(84, 120).
edge(71, 141).
edge(98, 117).
edge(40, 157).
edge(81, 104).
edge(44, 79).
edge(9, 83).
edge(44, 70).
edge(18, 137).
edge(4, 94).
edge(116, 134).
edge(79, 122).
edge(63, 103).
edge(91, 133).
edge(37, 162).
edge(45, 110).
edge(4, 23).
edge(66, 165).
edge(31, 160).
edge(68, 139).
edge(110, 125).
edge(143, 160).
edge(68, 163).
edge(16, 91).
edge(63, 89).
edge(23, 122).
edge(50, 153).
edge(7, 57).
edge(34, 132).
edge(30, 155).
edge(83, 125).
edge(60, 72).
edge(119, 158).
edge(34, 116).
edge(57, 131).
edge(22, 73).
edge(16, 23).
edge(28, 91).
edge(25, 140).
edge(71, 163).
edge(21, 138).
edge(48, 142).
edge(92, 97).
edge(125, 140).
edge(3, 133).
edge(71, 123).
edge(69, 134).
edge(60, 125).
edge(19, 113).
edge(52, 118).
edge(67, 147).
edge(18, 122).
edge(11, 17).
edge(50, 127).
edge(17, 40).
edge(122, 124).
edge(31, 90).
edge(107, 108).
edge(63, 144).
edge(92, 120).
edge(23, 159).
edge(24, 26).
edge(2, 132).
edge(71, 76).
edge(92, 143).
edge(104, 134).
edge(156, 159).
edge(48, 152).
edge(53, 83).
edge(139, 158).
edge(73, 142).
edge(14, 46).
edge(8, 21).
edge(99, 143).
edge(128, 131).
edge(57, 156).
edge(45, 152).
edge(70, 123).
edge(86, 139).
edge(64, 96).
edge(12, 54).
edge(36, 56).
edge(118, 125).
edge(17, 49).
edge(38, 122).
edge(112, 117).
edge(38, 79).
edge(42, 156).
edge(146, 162).
edge(27, 69).
edge(25, 88).
edge(1, 68).
edge(79, 143).
edge(66, 136).
edge(9, 103).
edge(14, 39).
edge(84, 127).
edge(98, 148).
edge(10, 157).
edge(8, 130).
edge(161, 162).
edge(71, 94).
edge(31, 95).
edge(66, 85).
edge(120, 134).
edge(94, 136).
edge(11, 85).
edge(49, 131).
edge(107, 123).
edge(6, 148).
edge(30, 70).
edge(50, 155).
edge(75, 163).
edge(31, 37).
edge(8, 88).
edge(21, 150).
edge(36, 128).
edge(9, 157).
edge(71, 165).
edge(42, 46).
edge(70, 112).
edge(28, 166).
edge(100, 128).
edge(95, 136).
edge(47, 163).
edge(28, 139).
edge(61, 109).
edge(9, 33).
edge(15, 55).
edge(77, 97).
edge(108, 122).
edge(82, 158).
edge(37, 54).
edge(69, 156).
edge(57, 79).
edge(0, 62).
edge(4, 40).
edge(57, 72).
edge(6, 135).
edge(91, 97).
edge(24, 119).
edge(82, 119).
edge(82, 93).
edge(87, 136).
edge(48, 68).
edge(117, 121).
edge(20, 91).
edge(37, 127).
edge(34, 165).
edge(103, 145).
edge(36, 89).
edge(28, 142).
edge(95, 105).
edge(59, 80).
edge(106, 123).
edge(70, 111).
edge(138, 147).
edge(126, 159).
edge(75, 120).
edge(45, 71).
edge(72, 135).
edge(74, 124).
edge(22, 120).
edge(16, 22).
edge(127, 146).
edge(77, 115).
edge(106, 135).
edge(107, 131).
edge(7, 132).
edge(115, 132).
edge(46, 77).
edge(24, 53).
edge(89, 157).
edge(113, 120).
edge(77, 140).
edge(56, 92).
edge(41, 164).
edge(42, 76).
edge(119, 138).
edge(84, 163).
edge(49, 87).
edge(55, 89).
edge(38, 138).
edge(28, 140).
edge(136, 163).
edge(26, 53).
edge(78, 135).
edge(96, 152).
edge(55, 154).
edge(73, 148).
edge(10, 99).
edge(16, 123).
edge(28, 133).
edge(126, 151).
edge(62, 99).
edge(70, 113).
edge(9, 86).
edge(6, 26).
edge(15, 51).
edge(94, 166).
edge(2, 153).
edge(93, 112).
edge(77, 166).
edge(48, 96).
edge(9, 100).
edge(1, 81).
edge(38, 106).
edge(50, 135).
edge(67, 108).
edge(108, 132).
edge(147, 156).
edge(27, 141).
edge(74, 84).
edge(0, 35).
edge(69, 142).
edge(148, 150).
edge(4, 151).
edge(19, 35).
edge(31, 76).
edge(58, 77).
edge(106, 161).
edge(12, 115).
edge(94, 109).
edge(25, 87).
edge(56, 67).
edge(83, 97).
edge(49, 136).
edge(53, 150).
edge(64, 152).
edge(142, 152).
edge(52, 108).
edge(8, 73).
edge(31, 128).
edge(28, 131).
edge(67, 138).
edge(28, 116).
edge(79, 132).
edge(58, 117).
edge(8, 150).
edge(86, 135).
edge(132, 156).
edge(17, 150).
edge(142, 143).
edge(34, 58).
edge(99, 112).
edge(23, 91).
edge(128, 130).
edge(32, 97).
edge(37, 108).
edge(27, 51).
edge(71, 116).
edge(48, 72).
edge(57, 145).
edge(65, 110).
edge(102, 128).
edge(36, 121).
edge(55, 133).
edge(53, 82).
edge(73, 153).
edge(22, 77).
edge(102, 143).
edge(23, 70).
edge(72, 84).
edge(100, 108).
edge(38, 103).
edge(48, 102).
edge(99, 106).
edge(2, 59).
edge(27, 123).
edge(3, 116).
edge(17, 72).
edge(9, 12).
edge(54, 142).
edge(133, 146).
edge(63, 161).
edge(58, 109).
edge(41, 111).
edge(88, 155).
edge(27, 46).
edge(138, 152).
edge(30, 78).
edge(22, 152).
edge(42, 160).
edge(71, 102).
edge(142, 160).
edge(75, 94).
edge(4, 135).
edge(58, 149).
edge(38, 141).
edge(21, 76).
edge(104, 166).
edge(0, 32).
edge(25, 104).
edge(63, 142).
edge(103, 148).
edge(49, 103).
edge(50, 56).
edge(7, 70).
edge(9, 164).
edge(109, 153).
edge(98, 111).
edge(68, 95).
edge(51, 106).
edge(29, 89).
edge(3, 13).
edge(11, 52).
edge(34, 76).
edge(27, 56).
edge(59, 136).
edge(46, 114).
edge(84, 142).
edge(5, 62).
edge(17, 93).
edge(73, 149).
edge(62, 78).
edge(15, 117).
edge(16, 104).
edge(98, 102).
edge(47, 97).
edge(51, 100).
edge(89, 144).
edge(0, 94).
edge(14, 157).
edge(80, 108).
edge(68, 83).
edge(65, 90).
edge(64, 110).
edge(124, 161).
edge(4, 149).
edge(3, 17).
edge(49, 163).
edge(60, 128).
edge(135, 162).
edge(97, 130).
edge(29, 104).
edge(66, 84).
edge(36, 102).
edge(90, 131).
edge(111, 166).
edge(92, 142).
edge(132, 153).
edge(72, 149).
edge(88, 134).
edge(34, 155).
edge(100, 154).
edge(117, 166).
edge(53, 139).
edge(54, 81).
edge(146, 165).
edge(106, 116).
edge(116, 162).
edge(67, 152).
edge(45, 94).
edge(60, 126).
edge(116, 127).
edge(0, 118).
edge(30, 102).
edge(4, 76).
edge(21, 137).
edge(6, 10).
edge(12, 75).
edge(114, 144).
edge(141, 144).
edge(28, 121).
edge(70, 99).
edge(113, 143).
edge(56, 123).
edge(56, 108).
edge(80, 131).
edge(27, 137).
edge(16, 124).
edge(110, 119).
edge(42, 142).
edge(65, 143).
edge(53, 110).
edge(38, 160).
edge(48, 79).
edge(59, 98).
edge(49, 71).
edge(80, 91).
edge(49, 162).
edge(65, 132).
edge(24, 31).
edge(35, 68).
edge(53, 91).
edge(42, 133).
edge(77, 122).
edge(20, 35).
edge(70, 159).
edge(38, 102).
edge(49, 146).
edge(76, 77).
edge(145, 154).
edge(8, 137).
edge(44, 156).
edge(57, 108).
edge(48, 84).
edge(63, 109).
edge(68, 150).
edge(17, 89).
edge(16, 48).
edge(91, 160).
edge(111, 147).
edge(18, 61).
edge(80, 81).
edge(13, 32).
edge(39, 149).
edge(43, 59).
edge(74, 76).
edge(12, 43).
edge(121, 145).
edge(71, 125).
edge(64, 108).
edge(16, 63).
edge(7, 11).
edge(47, 83).
edge(124, 126).
edge(39, 146).
edge(4, 61).
edge(102, 120).
edge(103, 162).
edge(117, 130).
edge(55, 63).
edge(4, 6).
edge(34, 69).
edge(12, 29).
edge(48, 65).
edge(68, 144).
edge(51, 123).
edge(135, 145).
edge(18, 118).
edge(9, 165).
edge(60, 164).
edge(64, 116).
edge(34, 159).
edge(3, 95).
edge(143, 149).
edge(57, 115).
edge(10, 98).
edge(128, 143).
edge(84, 111).
edge(106, 127).
edge(93, 119).
edge(51, 153).
edge(89, 152).
edge(1, 59).
edge(2, 164).
edge(75, 124).
edge(15, 141).
edge(54, 60).
edge(86, 134).
edge(123, 140).
edge(19, 70).
edge(24, 90).
edge(43, 123).
edge(84, 91).
edge(94, 151).
edge(13, 53).
edge(103, 110).
edge(1, 150).
edge(30, 133).
edge(146, 161).
edge(26, 109).
edge(85, 147).
edge(50, 144).
edge(5, 45).
edge(34, 96).
edge(20, 149).
edge(88, 165).
edge(76, 92).
edge(84, 115).
edge(68, 164).
edge(25, 149).
edge(127, 142).
edge(88, 95).
edge(38, 74).
edge(69, 143).
edge(79, 121).
edge(12, 59).
edge(3, 79).
edge(24, 58).
edge(43, 74).
edge(35, 40).
edge(51, 118).
edge(5, 144).
edge(22, 102).
edge(105, 146).
edge(29, 57).
edge(8, 26).
edge(55, 157).
edge(13, 155).
edge(121, 133).
edge(46, 59).
edge(7, 24).
edge(27, 52).
edge(138, 140).
edge(23, 112).
edge(52, 104).
edge(87, 138).
edge(56, 139).
edge(91, 163).
edge(134, 165).
edge(14, 58).
edge(67, 157).
edge(5, 90).
edge(107, 129).
edge(78, 136).
edge(47, 57).
edge(116, 159).
edge(65, 81).
edge(64, 133).
edge(52, 65).
edge(49, 113).
edge(102, 112).
edge(34, 138).
edge(113, 119).
edge(5, 149).
edge(6, 45).
edge(37, 154).
edge(72, 155).
edge(106, 154).
edge(94, 134).
edge(88, 138).
edge(2, 159).
edge(25, 61).
edge(38, 162).
edge(64, 124).
edge(8, 113).
edge(90, 135).
edge(32, 139).
edge(86, 115).
edge(41, 124).
edge(46, 110).
edge(31, 81).
edge(121, 160).
edge(9, 96).
edge(20, 31).
edge(89, 151).
edge(119, 151).
edge(146, 153).
edge(18, 157).
edge(120, 153).
edge(15, 17).
edge(67, 136).
edge(43, 56).
edge(12, 114).
edge(111, 152).
edge(41, 110).
edge(72, 132).
edge(92, 162).
edge(75, 92).
edge(141, 146).
edge(8, 163).
edge(130, 133).
edge(78, 133).
edge(83, 121).
edge(77, 103).
edge(8, 91).
edge(89, 90).
edge(50, 146).
edge(33, 127).
edge(16, 165).
edge(83, 127).
edge(76, 91).
edge(18, 68).
edge(116, 166).
edge(111, 151).
edge(89, 160).
edge(76, 135).
edge(45, 74).
edge(29, 45).
edge(17, 79).
edge(39, 159).
edge(114, 133).
edge(58, 121).
edge(22, 144).
edge(82, 116).
edge(51, 84).
edge(109, 128).
edge(48, 110).
edge(52, 150).
edge(66, 87).
edge(96, 100).
edge(51, 52).
edge(80, 153).
edge(0, 112).
edge(11, 83).
edge(51, 89).
edge(18, 89).
edge(15, 164).
edge(1, 69).
edge(19, 152).
edge(92, 99).
edge(78, 83).
edge(78, 155).
edge(24, 29).
edge(61, 66).
edge(50, 104).
edge(106, 107).
edge(12, 22).
edge(97, 132).
edge(91, 134).
edge(21, 147).
edge(88, 110).
edge(52, 144).
edge(4, 79).
edge(32, 47).
edge(119, 128).
edge(3, 30).
edge(83, 131).
edge(62, 105).
edge(11, 24).
edge(33, 72).
edge(134, 155).
edge(114, 150).
edge(95, 132).
edge(24, 80).
edge(65, 157).
edge(77, 102).
edge(24, 39).
edge(121, 148).
edge(103, 161).
edge(88, 93).
edge(60, 103).
edge(89, 149).
edge(114, 124).
edge(61, 137).
edge(119, 125).
edge(57, 122).
edge(131, 165).
edge(151, 157).
edge(34, 103).
edge(40, 153).
edge(32, 82).
edge(107, 144).
edge(63, 120).
edge(19, 161).
edge(39, 113).
edge(75, 122).
edge(68, 97).
edge(42, 115).
edge(2, 105).
edge(39, 96).
edge(98, 147).
edge(52, 146).
edge(46, 150).
edge(23, 138).
edge(87, 142).
edge(149, 164).
edge(58, 70).
edge(85, 116).
edge(51, 132).
edge(57, 67).
edge(4, 45).
edge(111, 146).
edge(67, 158).
edge(58, 91).
edge(118, 153).
edge(38, 44).
edge(8, 52).
edge(28, 62).
edge(0, 110).
edge(14, 153).
edge(113, 129).
edge(107, 113).
edge(56, 79).
edge(2, 106).
edge(2, 152).
edge(24, 27).
edge(21, 139).
edge(87, 116).
edge(105, 140).
edge(30, 53).
edge(78, 150).
edge(25, 90).
edge(88, 133).
edge(156, 160).
edge(33, 77).
edge(75, 125).
edge(3, 104).
edge(55, 153).
edge(10, 155).
edge(32, 149).
edge(41, 166).
edge(80, 83).
edge(111, 125).
edge(6, 31).
edge(126, 145).
edge(30, 153).
edge(87, 117).
edge(19, 118).
edge(44, 152).
edge(8, 144).
edge(123, 148).
edge(16, 20).
edge(7, 138).
edge(65, 103).
edge(94, 113).
edge(16, 126).
edge(133, 150).
edge(87, 96).
edge(10, 104).
edge(10, 77).
edge(3, 115).
edge(43, 94).
edge(4, 30).
edge(122, 137).
edge(119, 161).
edge(14, 134).
edge(2, 53).
edge(80, 95).
edge(16, 146).
edge(22, 115).
edge(1, 64).
edge(69, 131).
edge(27, 43).
edge(73, 145).
edge(86, 90).
edge(31, 92).
edge(4, 91).
edge(3, 59).
edge(11, 21).
edge(39, 112).
edge(6, 106).
edge(88, 137).
edge(111, 138).
edge(108, 152).
edge(3, 138).
edge(7, 76).
edge(74, 137).
edge(95, 165).
edge(80, 128).
edge(77, 154).
edge(75, 153).
edge(76, 129).
edge(84, 98).
edge(65, 127).
edge(93, 102).
edge(35, 134).
edge(59, 142).
edge(40, 55).
edge(119, 122).
edge(57, 107).
edge(32, 56).
edge(76, 118).
edge(92, 127).
edge(40, 76).
edge(53, 159).
edge(26, 50).
edge(17, 68).
edge(26, 163).
edge(45, 54).
edge(1, 147).
edge(0, 141).
edge(37, 91).
edge(1, 123).
edge(49, 62).
edge(69, 149).
edge(53, 74).
edge(101, 117).
edge(160, 165).
edge(56, 64).
edge(8, 68).
edge(37, 96).
edge(13, 70).
edge(28, 48).
edge(63, 145).
edge(105, 145).
edge(110, 155).
edge(117, 136).
edge(99, 153).
edge(111, 154).
edge(41, 61).
edge(55, 142).
edge(1, 128).
edge(54, 76).
edge(13, 159).
edge(30, 47).
edge(72, 152).
edge(55, 127).
edge(75, 126).
edge(152, 164).
edge(48, 131).
edge(107, 159).
edge(40, 164).
edge(69, 155).
edge(68, 116).
edge(154, 157).
edge(36, 160).
edge(13, 97).
edge(27, 155).
edge(11, 14).
edge(73, 158).
edge(124, 152).
edge(147, 154).
edge(7, 59).
edge(30, 76).
edge(104, 126).
edge(54, 66).
edge(95, 153).
edge(60, 62).
edge(84, 94).
edge(1, 8).
edge(43, 129).
edge(4, 118).
edge(49, 106).
edge(14, 138).
edge(105, 156).
edge(59, 155).
edge(1, 135).
edge(24, 78).
edge(101, 139).
edge(57, 75).
edge(93, 158).
edge(29, 152).
edge(12, 128).
edge(97, 145).
edge(129, 162).
edge(39, 124).
edge(36, 52).
edge(33, 46).
edge(45, 149).
edge(8, 106).
edge(85, 89).
edge(73, 127).
edge(35, 91).
edge(63, 162).
edge(33, 50).
edge(43, 165).
edge(1, 41).
edge(75, 140).
edge(18, 134).
edge(118, 121).
edge(38, 46).
edge(99, 103).
edge(73, 74).
edge(124, 155).
edge(58, 98).
edge(88, 117).
edge(3, 83).
edge(119, 120).
edge(46, 161).
edge(16, 122).
edge(51, 124).
edge(35, 111).
edge(76, 102).
edge(47, 51).
edge(103, 111).
edge(17, 143).
edge(10, 110).
edge(127, 129).
edge(153, 165).
edge(132, 151).
edge(59, 109).
edge(8, 115).
edge(140, 145).
edge(122, 156).
edge(127, 152).
edge(1, 37).
edge(106, 157).
edge(127, 157).
edge(58, 100).
edge(4, 24).
edge(81, 85).
edge(121, 124).
edge(110, 118).
edge(27, 42).
edge(4, 82).
edge(51, 109).
edge(9, 47).
edge(106, 144).
edge(68, 143).
edge(15, 41).
edge(49, 80).
edge(36, 76).
edge(109, 137).
edge(3, 109).
edge(83, 142).
edge(90, 96).
edge(119, 162).
edge(50, 124).
edge(132, 155).
edge(11, 134).
edge(64, 79).
edge(62, 135).
edge(7, 33).
edge(125, 166).
edge(67, 92).
edge(38, 54).
edge(80, 105).
edge(101, 154).
edge(2, 102).
edge(77, 137).
edge(2, 16).
edge(97, 106).
edge(40, 83).
edge(7, 48).
edge(4, 159).
edge(27, 165).
edge(7, 49).
edge(56, 144).
edge(17, 133).
edge(82, 163).
edge(3, 33).
edge(30, 79).
edge(61, 162).
edge(31, 98).
edge(100, 149).
edge(3, 113).
edge(63, 65).
edge(28, 108).
edge(107, 119).
edge(72, 97).
edge(38, 66).
edge(11, 15).
edge(112, 146).
edge(18, 41).
edge(41, 160).
edge(106, 113).
edge(29, 115).
edge(25, 157).
edge(26, 111).
edge(119, 143).
edge(48, 80).
edge(45, 88).
edge(32, 53).
edge(76, 99).
edge(5, 106).
edge(22, 41).
edge(19, 43).
edge(6, 46).
edge(94, 148).
edge(9, 25).
edge(57, 78).
edge(27, 120).
edge(73, 156).
edge(58, 158).
edge(74, 148).
edge(19, 56).
edge(9, 81).
edge(70, 126).
edge(24, 38).
edge(45, 104).
edge(55, 91).
edge(33, 163).
edge(116, 139).
edge(41, 73).
edge(33, 38).
edge(30, 91).
edge(19, 44).
edge(98, 127).
edge(88, 147).
edge(99, 128).
edge(63, 68).
edge(55, 71).
edge(105, 121).
edge(1, 20).
edge(82, 113).
edge(15, 75).
edge(48, 83).
edge(18, 113).
edge(35, 164).
edge(82, 165).
edge(130, 135).
edge(117, 148).
edge(20, 157).
edge(128, 146).
edge(40, 79).
edge(113, 165).
edge(39, 90).
edge(23, 34).
edge(21, 60).
edge(44, 46).
edge(30, 83).
edge(52, 58).
edge(38, 55).
edge(83, 151).
edge(18, 105).
edge(129, 150).
edge(47, 108).
edge(36, 155).
edge(19, 52).
edge(38, 127).
edge(45, 113).
edge(96, 149).
edge(46, 104).
edge(64, 144).
edge(42, 164).
edge(13, 137).
edge(51, 92).
edge(33, 84).
edge(20, 51).
edge(130, 131).
edge(98, 134).
edge(68, 166).
edge(115, 150).
edge(93, 109).
edge(4, 80).
edge(13, 66).
edge(94, 152).
edge(36, 158).
edge(55, 107).
edge(25, 113).
edge(31, 80).
edge(61, 62).
edge(117, 125).
edge(91, 120).
edge(22, 106).
edge(69, 87).
edge(66, 89).
edge(26, 55).
edge(69, 77).
edge(143, 146).
edge(12, 109).
edge(60, 83).
edge(102, 165).
edge(98, 154).
edge(4, 103).
edge(22, 26).
edge(34, 153).
edge(15, 116).
edge(113, 128).
edge(120, 123).
edge(96, 137).
edge(83, 86).
edge(18, 70).
edge(112, 123).
edge(42, 126).
edge(88, 103).
edge(53, 152).
edge(57, 64).
edge(105, 160).
edge(53, 123).
edge(43, 105).
edge(67, 164).
edge(35, 85).
edge(7, 136).
edge(62, 123).
edge(41, 56).
edge(116, 128).
edge(12, 48).
edge(101, 144).
edge(53, 142).
edge(3, 132).
edge(83, 110).
edge(61, 86).
edge(20, 128).
edge(78, 128).
edge(49, 69).
edge(144, 156).
edge(108, 163).
edge(29, 49).
edge(33, 61).
edge(31, 118).
edge(10, 30).
edge(94, 106).
edge(125, 139).
edge(118, 138).
edge(52, 139).
edge(28, 164).
edge(113, 124).
edge(17, 61).
edge(42, 144).
edge(26, 28).
edge(23, 103).
edge(127, 128).
edge(60, 142).
edge(55, 125).
edge(163, 164).
edge(46, 116).
edge(126, 127).
edge(96, 115).
edge(115, 147).
edge(20, 96).
edge(5, 6).
edge(25, 107).
edge(97, 154).
edge(55, 150).
edge(136, 153).
edge(127, 153).
edge(22, 30).
edge(78, 106).
edge(0, 51).
edge(105, 114).
edge(2, 95).
edge(72, 119).
edge(63, 154).
edge(132, 137).
edge(128, 158).
edge(57, 141).
edge(38, 49).
edge(86, 87).
edge(10, 16).
edge(35, 67).
edge(97, 105).
edge(10, 129).
edge(95, 143).
edge(21, 83).
edge(42, 159).
edge(88, 123).
edge(48, 118).
edge(76, 157).
edge(33, 156).
edge(24, 37).
edge(60, 90).
edge(58, 107).
edge(135, 137).
edge(140, 153).
edge(43, 130).
edge(97, 152).
edge(65, 94).
edge(47, 80).
edge(42, 87).
edge(81, 110).
edge(39, 161).
edge(126, 154).
edge(66, 95).
edge(118, 132).
edge(91, 108).
edge(61, 75).
edge(127, 135).
edge(44, 151).
edge(21, 113).
edge(57, 140).
edge(43, 131).
edge(84, 95).
edge(11, 18).
edge(97, 112).
edge(144, 157).
edge(67, 153).
edge(17, 126).
edge(30, 136).
edge(28, 42).
edge(14, 158).
edge(10, 114).
edge(32, 92).
edge(95, 127).
edge(87, 93).
edge(1, 104).
edge(20, 44).
edge(117, 140).
edge(85, 124).
edge(56, 153).
edge(57, 95).
edge(72, 113).
edge(54, 154).
edge(11, 79).
edge(104, 152).
edge(77, 139).
edge(34, 91).
edge(20, 69).
edge(26, 143).
edge(13, 85).
edge(27, 36).
edge(123, 149).
edge(118, 164).
edge(20, 99).
edge(8, 22).
edge(49, 111).
edge(48, 155).
edge(21, 128).
edge(99, 105).
edge(54, 57).
edge(14, 125).
edge(87, 127).
edge(24, 33).
edge(0, 13).
edge(92, 149).
edge(7, 123).
edge(47, 158).
edge(33, 135).
edge(61, 165).
edge(6, 62).
edge(17, 163).
edge(123, 145).
edge(78, 146).
edge(3, 11).
edge(49, 133).
edge(83, 111).
edge(116, 147).
edge(51, 138).
edge(5, 42).
edge(28, 86).
edge(86, 96).
edge(29, 159).
edge(18, 22).
edge(130, 164).
edge(9, 14).
edge(69, 152).
edge(86, 128).
edge(106, 159).
edge(31, 50).
edge(61, 95).
edge(65, 135).
edge(9, 105).
edge(37, 105).
edge(3, 130).
edge(4, 127).
edge(96, 156).
edge(65, 154).
edge(102, 144).
edge(123, 166).
edge(61, 94).
edge(26, 38).
edge(115, 160).
edge(15, 166).
edge(6, 165).
edge(91, 150).
edge(48, 101).
edge(125, 157).
edge(16, 109).
edge(95, 133).
edge(7, 121).
edge(72, 107).
edge(42, 100).
edge(86, 133).
edge(15, 103).
edge(78, 89).
edge(91, 105).
edge(63, 95).
edge(43, 111).
edge(13, 143).
edge(130, 143).
edge(42, 139).
edge(55, 73).
edge(100, 121).
edge(18, 57).
edge(0, 81).
edge(85, 160).
edge(50, 65).
edge(52, 112).
edge(71, 140).
edge(73, 76).
edge(33, 128).
edge(61, 152).
edge(136, 147).
edge(65, 119).
edge(30, 93).
edge(69, 127).
edge(31, 110).
edge(82, 164).
edge(39, 51).
edge(78, 165).
edge(10, 58).
edge(10, 93).
edge(12, 14).
edge(62, 68).
edge(61, 98).
edge(5, 110).
edge(48, 90).
edge(74, 165).
edge(50, 82).
edge(103, 105).
edge(55, 158).
edge(92, 104).
edge(46, 101).
edge(0, 41).
edge(121, 144).
edge(92, 107).
edge(79, 100).
edge(3, 41).
edge(74, 118).
edge(93, 117).
edge(11, 13).
edge(18, 123).
edge(74, 79).
edge(85, 153).
edge(49, 57).
edge(9, 151).
edge(135, 150).
edge(7, 157).
edge(58, 92).
edge(48, 124).
edge(60, 118).
edge(128, 138).
edge(17, 100).
edge(144, 148).
edge(59, 152).
edge(28, 84).
edge(22, 24).
edge(70, 146).
edge(76, 86).
edge(100, 133).
edge(115, 124).
edge(83, 156).
edge(20, 47).
edge(61, 134).
edge(51, 73).
edge(55, 108).
edge(25, 72).
edge(42, 117).
edge(29, 88).
edge(52, 75).
edge(36, 79).
edge(62, 164).
edge(78, 142).
edge(120, 145).
edge(60, 69).
edge(43, 148).
edge(22, 124).
edge(124, 138).
edge(53, 126).
edge(9, 114).
edge(12, 53).
edge(10, 126).
edge(25, 162).
edge(157, 162).
edge(24, 98).
edge(66, 128).
edge(6, 74).
edge(119, 134).
edge(7, 148).
edge(29, 165).
edge(66, 110).
edge(5, 140).
edge(104, 130).
edge(6, 159).
edge(5, 89).
edge(23, 114).
edge(87, 111).
edge(38, 65).
edge(36, 156).
edge(8, 70).
edge(0, 59).
edge(34, 78).
edge(17, 146).
edge(81, 141).
edge(61, 130).
edge(37, 75).
edge(65, 122).
edge(74, 80).
edge(0, 84).
edge(69, 105).
edge(79, 98).
edge(54, 147).
edge(14, 109).
edge(6, 82).
edge(113, 161).
edge(93, 165).
edge(92, 108).
edge(55, 143).
edge(72, 116).
edge(79, 126).
edge(60, 140).
edge(60, 161).
edge(80, 88).
edge(23, 72).
edge(37, 78).
edge(34, 67).
edge(12, 28).
edge(48, 67).
edge(5, 44).
edge(15, 27).
edge(96, 110).
edge(50, 125).
edge(21, 61).
edge(103, 124).
edge(93, 123).
edge(2, 120).
edge(29, 160).
edge(12, 151).
edge(40, 133).
edge(11, 109).
edge(134, 162).
edge(41, 89).
edge(25, 155).
edge(16, 29).
edge(115, 128).
edge(58, 85).
edge(68, 137).
edge(43, 142).
edge(60, 67).
edge(126, 152).
edge(99, 113).
edge(99, 122).
edge(15, 48).
edge(12, 31).
edge(13, 128).
edge(18, 75).
edge(8, 28).
edge(24, 99).
edge(41, 69).
edge(1, 149).
edge(20, 66).
edge(14, 28).
edge(29, 40).
edge(33, 129).
edge(51, 97).
edge(62, 145).
edge(123, 133).
edge(48, 157).
edge(59, 78).
edge(136, 162).
edge(60, 86).
edge(118, 158).
edge(124, 145).
edge(42, 71).
edge(33, 66).
edge(33, 80).
edge(115, 152).
edge(47, 162).
edge(45, 99).
edge(69, 76).
edge(14, 100).
edge(124, 160).
edge(107, 116).
edge(107, 153).
edge(68, 92).
edge(133, 166).
edge(33, 86).
edge(139, 151).
edge(114, 159).
edge(54, 61).
edge(18, 159).
edge(20, 101).
edge(15, 97).
edge(93, 113).
edge(116, 140).
edge(12, 34).
edge(32, 90).
edge(103, 133).
edge(97, 113).
edge(13, 19).
edge(16, 78).
edge(4, 81).
edge(98, 158).
edge(2, 157).
edge(74, 112).
edge(73, 116).
edge(73, 100).
edge(41, 70).
edge(3, 34).
edge(44, 119).
edge(60, 156).
edge(44, 121).
edge(115, 148).
edge(148, 165).
edge(10, 11).
edge(95, 161).
edge(2, 32).
edge(47, 56).
edge(19, 72).
edge(50, 70).
edge(25, 132).
edge(34, 164).
edge(15, 47).
edge(73, 88).
edge(59, 123).
edge(56, 58).
edge(42, 83).
edge(1, 9).
edge(24, 70).
edge(33, 82).
edge(37, 144).
edge(23, 40).
edge(87, 94).
edge(41, 71).
edge(102, 123).
edge(4, 47).
edge(6, 14).
edge(92, 112).
edge(69, 148).
edge(76, 145).
edge(0, 122).
edge(21, 81).
edge(21, 134).
edge(12, 88).
edge(94, 153).
edge(100, 165).
edge(5, 77).
edge(64, 68).
edge(34, 88).
edge(16, 56).
edge(124, 157).
edge(12, 44).
edge(7, 124).
edge(54, 112).
edge(28, 130).
edge(25, 153).
edge(7, 161).
edge(65, 112).
edge(31, 102).
edge(44, 57).
edge(26, 76).
edge(128, 166).
edge(0, 100).
edge(57, 87).
edge(22, 74).
edge(108, 161).
edge(72, 144).
edge(13, 104).
edge(2, 10).
edge(121, 130).
edge(10, 91).
edge(38, 113).
edge(98, 139).
edge(44, 160).
edge(42, 105).
edge(81, 152).
edge(81, 94).
edge(9, 98).
edge(56, 120).
edge(86, 117).
edge(36, 57).
edge(83, 149).
edge(15, 93).
edge(26, 34).
edge(44, 163).
edge(20, 71).
edge(49, 160).
edge(7, 41).
edge(60, 92).
edge(7, 74).
edge(26, 162).
edge(35, 116).
edge(54, 120).
edge(19, 109).
edge(129, 132).
edge(3, 155).
edge(15, 125).
edge(110, 138).
edge(126, 133).
edge(40, 48).
edge(77, 133).
edge(19, 53).
edge(14, 88).
edge(31, 159).
edge(33, 93).
edge(38, 153).
edge(4, 42).
edge(45, 154).
edge(56, 100).
edge(92, 110).
edge(4, 7).
edge(61, 159).
edge(93, 153).
edge(110, 111).
edge(59, 148).
edge(34, 109).
edge(79, 119).
edge(31, 46).
edge(103, 123).
edge(5, 48).
edge(32, 99).
edge(35, 86).
edge(49, 126).
edge(38, 58).
edge(35, 152).
edge(45, 147).
edge(61, 102).
edge(54, 157).
edge(21, 96).
edge(31, 39).
edge(134, 137).
edge(48, 149).
edge(35, 56).
edge(92, 113).
edge(45, 124).
edge(127, 162).
edge(28, 36).
edge(77, 83).
edge(50, 73).
edge(58, 118).
edge(4, 144).
edge(141, 152).
edge(67, 154).
edge(139, 164).
edge(102, 124).
edge(76, 125).
edge(82, 155).
edge(45, 138).
edge(8, 136).
edge(114, 148).
edge(24, 136).
edge(8, 16).
edge(26, 73).
edge(34, 60).
edge(9, 11).
edge(26, 157).
edge(53, 75).
edge(61, 82).
edge(16, 84).
edge(116, 124).
edge(58, 102).
edge(103, 134).
edge(95, 126).
edge(95, 122).
edge(50, 84).
edge(88, 148).
edge(42, 120).
edge(140, 147).
edge(7, 73).
edge(110, 140).
edge(20, 146).
edge(56, 140).
edge(117, 153).
edge(60, 75).
edge(10, 133).
edge(79, 90).
edge(35, 43).
edge(76, 94).
edge(80, 89).
edge(9, 126).
edge(2, 30).
edge(81, 157).
edge(36, 113).
edge(102, 146).
edge(93, 149).
edge(8, 80).
edge(27, 74).
edge(29, 34).
edge(40, 99).
edge(130, 158).
edge(6, 164).
edge(60, 152).
edge(65, 69).
edge(121, 140).
edge(151, 152).
edge(23, 87).
edge(118, 129).
edge(70, 100).
edge(53, 147).
edge(13, 81).
edge(100, 162).
edge(29, 42).
edge(84, 88).
edge(101, 107).
edge(105, 107).
edge(55, 80).
edge(118, 151).
edge(46, 156).
edge(39, 52).
edge(74, 96).
edge(134, 143).
edge(103, 122).
edge(119, 164).
edge(4, 145).
edge(129, 156).
edge(27, 61).
edge(3, 18).
edge(26, 33).
edge(79, 156).
edge(46, 67).
edge(9, 122).
edge(69, 74).
edge(26, 32).
edge(84, 146).
edge(12, 133).
edge(114, 156).
edge(30, 131).
edge(46, 85).
edge(17, 103).
edge(23, 84).
edge(17, 43).
edge(26, 152).
edge(5, 32).
edge(39, 100).
edge(46, 133).
edge(68, 146).
edge(13, 102).
edge(148, 162).
edge(50, 150).
edge(90, 153).
edge(90, 148).
edge(46, 51).
edge(145, 146).
edge(49, 120).
edge(78, 101).
edge(32, 153).
edge(95, 119).
edge(29, 150).
edge(47, 156).
edge(7, 122).
edge(29, 120).
edge(78, 125).
edge(73, 139).
edge(76, 132).
edge(114, 161).
edge(99, 109).
edge(145, 164).
edge(63, 67).
edge(29, 102).
edge(152, 165).
edge(42, 103).
edge(66, 129).
edge(42, 151).
edge(40, 160).
edge(3, 117).
edge(10, 60).
edge(127, 130).
edge(47, 146).
edge(36, 109).
edge(40, 45).
edge(20, 103).
edge(8, 107).
edge(110, 126).
edge(33, 98).
edge(92, 96).
edge(18, 149).
edge(45, 89).
edge(106, 125).
edge(128, 159).
edge(26, 142).
edge(2, 143).
edge(117, 151).
edge(0, 155).
edge(70, 83).
edge(3, 97).
edge(31, 60).
edge(4, 116).
edge(47, 103).
edge(82, 124).
edge(16, 138).
edge(72, 143).
edge(103, 138).
edge(2, 60).
edge(20, 89).
edge(50, 69).
edge(90, 129).
edge(117, 126).
edge(64, 162).
edge(62, 103).
edge(69, 126).
edge(43, 89).
edge(35, 153).
edge(121, 165).
edge(60, 135).
edge(43, 67).
edge(44, 45).
edge(94, 150).
edge(24, 137).
edge(42, 78).
edge(14, 54).
edge(36, 62).
edge(63, 114).
edge(14, 42).
edge(16, 113).
edge(84, 117).
edge(92, 139).
edge(26, 61).
edge(19, 85).
edge(28, 46).
edge(65, 134).
edge(101, 134).
edge(122, 162).
edge(93, 166).
edge(89, 107).
edge(52, 152).
edge(50, 162).
edge(122, 129).
edge(7, 60).
edge(115, 159).
edge(50, 55).
edge(64, 127).
edge(41, 146).
edge(128, 160).
edge(21, 32).
edge(37, 94).
edge(54, 114).
edge(121, 143).
edge(93, 162).
edge(24, 153).
edge(122, 131).
edge(34, 77).
edge(28, 71).
edge(23, 150).
edge(57, 159).
edge(36, 90).
edge(126, 139).
edge(63, 100).
edge(66, 137).
edge(50, 92).
edge(140, 164).
edge(46, 147).
edge(46, 93).
edge(102, 119).
edge(21, 69).
edge(55, 160).
edge(126, 158).
edge(115, 164).
edge(36, 85).
edge(45, 143).
edge(26, 82).
edge(53, 94).
edge(104, 107).
edge(111, 141).
edge(29, 60).
edge(146, 166).
edge(128, 141).
edge(147, 164).
edge(147, 150).
edge(0, 153).
edge(59, 60).
edge(88, 114).
edge(19, 149).
edge(89, 120).
edge(45, 161).
edge(25, 80).
edge(111, 160).
edge(13, 132).
edge(61, 77).
edge(9, 50).
edge(13, 87).
edge(75, 108).
edge(102, 103).
edge(61, 128).
edge(28, 50).
edge(16, 80).
edge(69, 107).
edge(91, 164).
edge(75, 161).
edge(71, 115).
edge(3, 106).
edge(20, 147).
edge(123, 164).
edge(113, 147).
edge(11, 53).
edge(34, 61).
edge(45, 59).
edge(22, 148).
edge(5, 138).
edge(44, 134).
edge(12, 137).
edge(8, 108).
edge(145, 150).
edge(51, 69).
edge(78, 107).
edge(51, 158).
edge(57, 120).
edge(61, 154).
edge(75, 160).
edge(52, 102).
edge(81, 105).
edge(54, 94).
edge(43, 164).
edge(99, 100).
edge(29, 138).
edge(16, 139).
edge(52, 117).
edge(103, 127).
edge(108, 138).
edge(152, 158).
edge(10, 56).
edge(11, 90).
edge(111, 142).
edge(34, 50).
edge(7, 54).
edge(65, 67).
edge(3, 140).
edge(35, 80).
edge(19, 107).
edge(56, 105).
edge(84, 164).
edge(117, 159).
edge(95, 144).
edge(19, 123).
edge(113, 142).
edge(59, 110).
edge(33, 44).
edge(106, 112).
edge(2, 83).
edge(4, 83).
edge(9, 127).
edge(21, 44).
edge(87, 115).
edge(85, 133).
edge(66, 132).
edge(13, 150).
edge(36, 59).
edge(123, 137).
edge(67, 83).
edge(46, 136).
edge(82, 105).
edge(92, 138).
edge(117, 165).
edge(25, 116).
edge(61, 151).
edge(9, 22).
edge(99, 132).
edge(13, 148).
edge(6, 143).
edge(17, 149).
edge(51, 146).
edge(19, 157).
edge(32, 144).
edge(34, 135).
edge(66, 83).
edge(137, 156).
edge(31, 127).
edge(70, 75).
edge(30, 140).
edge(15, 159).
edge(92, 160).
edge(58, 137).
edge(22, 38).
edge(63, 156).
edge(52, 84).
edge(102, 163).
edge(65, 73).
edge(51, 78).
edge(74, 111).
edge(19, 92).
edge(49, 149).
edge(23, 129).
edge(27, 118).
edge(40, 165).
edge(56, 162).
edge(7, 26).
edge(79, 146).
edge(107, 127).
edge(76, 131).
edge(25, 139).
edge(41, 106).
edge(44, 103).
edge(81, 125).
edge(40, 139).
edge(54, 89).
edge(0, 20).
edge(32, 72).
edge(118, 149).
edge(27, 163).
edge(139, 148).
edge(111, 164).
edge(85, 136).
edge(38, 86).
edge(22, 165).
edge(108, 125).
edge(60, 65).
edge(32, 143).
edge(71, 72).
edge(7, 47).
edge(81, 154).
edge(16, 18).
edge(28, 165).
edge(11, 145).
edge(71, 157).
edge(58, 120).
edge(36, 120).
edge(10, 73).
edge(10, 164).
edge(30, 38).
edge(28, 85).
edge(112, 138).
edge(1, 61).
edge(41, 86).
edge(4, 75).
edge(13, 139).
edge(58, 80).
edge(136, 142).
edge(11, 115).
edge(25, 26).
edge(25, 84).
edge(35, 69).
edge(81, 153).
edge(20, 117).
edge(2, 68).
edge(13, 34).
edge(50, 101).
edge(115, 119).
edge(60, 133).
edge(123, 162).
edge(93, 137).
edge(7, 9).
edge(68, 149).
edge(57, 70).
edge(47, 81).
edge(2, 88).
edge(14, 44).
edge(36, 112).
edge(56, 158).
edge(82, 97).
edge(39, 123).
edge(86, 142).
edge(42, 96).
edge(25, 65).
edge(31, 157).
edge(49, 52).
edge(80, 135).
edge(15, 150).
edge(29, 80).
edge(57, 155).
edge(52, 140).
edge(12, 91).
edge(39, 55).
edge(42, 150).
edge(12, 15).
edge(70, 115).
edge(119, 166).
edge(145, 153).
edge(58, 159).
edge(3, 38).
edge(114, 151).
edge(5, 107).
edge(123, 152).
edge(151, 154).
edge(125, 161).
edge(11, 51).
edge(32, 54).
edge(37, 124).
edge(24, 127).
edge(11, 56).
edge(57, 157).
edge(85, 157).
edge(10, 33).
edge(148, 149).
edge(75, 159).
edge(7, 15).
edge(50, 90).
edge(7, 53).
edge(75, 152).
edge(85, 149).
edge(24, 118).
edge(133, 141).
edge(21, 108).
edge(92, 123).
edge(39, 44).
edge(74, 109).
edge(51, 108).
edge(30, 98).
edge(117, 120).
edge(17, 20).
edge(114, 118).
edge(120, 124).
edge(34, 85).
edge(62, 124).
edge(125, 162).
edge(20, 121).
edge(138, 141).
edge(7, 30).
edge(25, 154).
edge(90, 119).
edge(26, 110).
edge(105, 163).
edge(6, 146).
edge(6, 21).
edge(22, 105).
edge(45, 48).
edge(12, 41).
edge(4, 10).
edge(23, 79).
edge(46, 118).
edge(34, 92).
edge(15, 78).
edge(9, 137).
edge(23, 73).
edge(78, 96).
edge(97, 158).
edge(15, 46).
edge(48, 95).
edge(121, 127).
edge(67, 88).
edge(18, 52).
edge(37, 133).
edge(76, 123).
edge(42, 90).
edge(35, 46).
edge(6, 81).
edge(14, 89).
edge(36, 133).
edge(8, 43).
edge(56, 131).
edge(19, 102).
edge(68, 124).
edge(49, 158).
edge(23, 156).
edge(118, 144).
edge(73, 124).
edge(25, 27).
edge(67, 73).
edge(18, 90).
edge(55, 105).
edge(16, 55).
edge(3, 58).
edge(75, 145).
edge(101, 133).
edge(70, 71).
edge(49, 128).
edge(50, 103).
edge(58, 140).
edge(62, 80).
edge(5, 21).
edge(40, 95).
edge(34, 108).
edge(30, 120).
edge(10, 23).
edge(22, 138).
edge(46, 82).
edge(0, 121).
edge(43, 57).
edge(89, 124).
edge(29, 50).
edge(96, 162).
edge(87, 160).
edge(22, 117).
edge(58, 116).
edge(72, 159).
edge(32, 35).
edge(30, 132).
edge(100, 150).
edge(35, 99).
edge(29, 86).
edge(106, 140).
edge(90, 151).
edge(32, 41).
edge(16, 71).
edge(110, 115).
edge(31, 63).
edge(137, 149).
edge(24, 60).
edge(66, 126).
edge(5, 123).
edge(97, 163).
edge(60, 87).
edge(43, 53).
edge(122, 151).
edge(15, 36).
edge(93, 114).
edge(28, 132).
edge(32, 84).
edge(4, 84).
edge(35, 57).
edge(1, 10).
edge(103, 114).
edge(92, 124).
edge(4, 77).
edge(97, 155).
edge(128, 145).
edge(4, 87).
edge(47, 141).
edge(0, 56).
edge(67, 76).
edge(9, 152).
edge(57, 117).
edge(4, 146).
edge(72, 105).
edge(25, 125).
edge(31, 130).
edge(28, 159).
edge(68, 145).
edge(7, 45).
edge(110, 129).
edge(35, 150).
edge(58, 129).
edge(20, 62).
edge(50, 164).
edge(32, 120).
edge(75, 123).
edge(103, 109).
edge(84, 130).
edge(8, 104).
edge(58, 165).
edge(37, 149).
edge(109, 136).
edge(7, 126).
edge(139, 155).
edge(68, 121).
edge(31, 58).
edge(43, 113).
edge(64, 78).
edge(45, 123).
edge(144, 151).
edge(37, 132).
edge(31, 111).
edge(59, 145).
edge(54, 78).
edge(123, 146).
edge(43, 144).
edge(108, 148).
edge(138, 151).
edge(47, 67).
edge(15, 65).
edge(53, 66).
edge(94, 144).
edge(14, 57).
edge(97, 110).
edge(0, 91).
edge(53, 54).
edge(46, 50).
edge(88, 160).
edge(4, 50).
edge(47, 64).
edge(47, 72).
edge(93, 151).
edge(58, 82).
edge(42, 61).
edge(61, 65).
edge(160, 166).
edge(26, 74).
edge(45, 58).
edge(55, 129).
edge(64, 81).
edge(37, 89).
edge(25, 29).
edge(6, 58).
edge(52, 129).
edge(30, 46).
edge(8, 145).
edge(64, 151).
edge(64, 119).
edge(97, 131).
edge(17, 137).
edge(27, 75).
edge(92, 111).
edge(5, 137).
edge(105, 149).
edge(44, 66).
edge(109, 145).
edge(1, 13).
edge(103, 156).
edge(48, 136).
edge(30, 149).
edge(20, 28).
edge(57, 151).
edge(147, 163).
edge(43, 126).
edge(74, 154).
edge(42, 89).
edge(66, 88).
edge(33, 165).
edge(16, 68).
edge(109, 144).
edge(96, 107).
edge(48, 88).
edge(21, 103).
edge(126, 135).
edge(122, 158).
edge(6, 38).
edge(24, 130).
edge(67, 90).
edge(2, 6).
edge(97, 141).
edge(38, 140).
edge(56, 110).
edge(62, 104).
edge(1, 160).
edge(16, 164).
edge(107, 115).
edge(111, 150).
edge(121, 131).
edge(60, 130).
edge(8, 24).
edge(21, 154).
edge(89, 158).
edge(35, 51).
edge(64, 66).
edge(54, 116).
edge(21, 49).
edge(117, 144).
edge(121, 146).
edge(0, 6).
edge(14, 22).
edge(134, 136).
edge(25, 74).
edge(86, 155).
edge(26, 149).
edge(37, 72).
edge(51, 86).
edge(10, 22).
edge(51, 115).
edge(4, 92).
edge(22, 161).
edge(79, 85).
edge(90, 123).
edge(20, 108).
edge(18, 144).
edge(100, 155).
edge(113, 116).
edge(31, 44).
edge(119, 154).
edge(44, 90).
edge(19, 112).
edge(64, 95).
edge(22, 164).
edge(129, 143).
edge(81, 106).
edge(9, 41).
edge(85, 110).
edge(102, 136).
edge(65, 136).
edge(125, 141).
edge(75, 139).
edge(71, 159).
edge(5, 34).
edge(53, 97).
edge(133, 155).
edge(22, 134).
edge(37, 143).
edge(38, 137).
edge(5, 40).
edge(108, 144).
edge(16, 74).
edge(53, 108).
edge(9, 135).
edge(80, 124).
edge(41, 132).
edge(15, 144).
edge(62, 111).
edge(41, 144).
edge(34, 106).
edge(81, 93).
edge(78, 102).
edge(8, 135).
edge(6, 120).
edge(11, 153).
edge(69, 100).
edge(93, 103).
edge(67, 109).
edge(129, 149).
edge(72, 139).
edge(24, 164).
edge(52, 132).
edge(39, 78).
edge(49, 108).
edge(27, 63).
edge(109, 161).
edge(51, 117).
edge(63, 152).
edge(4, 21).
edge(47, 145).
edge(14, 26).
edge(52, 163).
edge(73, 147).
edge(123, 147).
edge(47, 124).
edge(54, 63).
edge(24, 59).
edge(39, 158).
edge(93, 118).
edge(70, 94).
edge(100, 104).
edge(118, 166).
edge(32, 129).
edge(17, 97).
edge(122, 146).
edge(11, 114).
edge(32, 83).
edge(21, 54).
edge(12, 52).
edge(109, 154).
edge(14, 30).
edge(80, 161).
edge(94, 98).
edge(18, 86).
edge(5, 157).
edge(2, 50).
edge(97, 136).
edge(18, 116).
edge(19, 41).
edge(57, 143).
edge(130, 148).
edge(22, 126).
edge(89, 130).
edge(114, 134).
edge(59, 92).
edge(40, 136).
edge(33, 95).
edge(5, 57).
edge(22, 113).
edge(24, 113).
edge(17, 139).
edge(10, 69).
edge(30, 123).
edge(27, 117).
edge(65, 75).
edge(79, 117).
edge(52, 87).
edge(14, 49).
edge(49, 141).
edge(26, 66).
edge(123, 142).
edge(105, 150).
edge(9, 158).
edge(42, 82).
edge(67, 84).
edge(42, 64).
edge(34, 68).
edge(2, 58).
edge(66, 158).
edge(62, 122).
edge(98, 141).
edge(116, 141).
edge(62, 151).
edge(38, 136).
edge(33, 151).
edge(116, 138).
edge(3, 134).
weight(0, 8).
weight(1, 5).
weight(2, 4).
weight(3, 3).
weight(4, 1).
weight(5, 1).
weight(6, 5).
weight(7, 5).
weight(8, 5).
weight(9, 9).
weight(10, 7).
weight(11, 6).
weight(12, 2).
weight(13, 5).
weight(14, 1).
weight(15, 8).
weight(16, 5).
weight(17, 1).
weight(18, 9).
weight(19, 2).
weight(20, 8).
weight(21, 7).
weight(22, 2).
weight(23, 4).
weight(24, 7).
weight(25, 8).
weight(26, 2).
weight(27, 6).
weight(28, 8).
weight(29, 7).
weight(30, 4).
weight(31, 1).
weight(32, 4).
weight(33, 2).
weight(34, 9).
weight(35, 2).
weight(36, 4).
weight(37, 6).
weight(38, 9).
weight(39, 4).
weight(40, 1).
weight(41, 3).
weight(42, 10).
weight(43, 8).
weight(44, 2).
weight(45, 3).
weight(46, 6).
weight(47, 3).
weight(48, 7).
weight(49, 10).
weight(50, 3).
weight(51, 2).
weight(52, 9).
weight(53, 1).
weight(54, 3).
weight(55, 4).
weight(56, 4).
weight(57, 4).
weight(58, 3).
weight(59, 5).
weight(60, 2).
weight(61, 4).
weight(62, 3).
weight(63, 9).
weight(64, 1).
weight(65, 5).
weight(66, 9).
weight(67, 7).
weight(68, 6).
weight(69, 7).
weight(70, 4).
weight(71, 7).
weight(72, 4).
weight(73, 10).
weight(74, 6).
weight(75, 4).
weight(76, 5).
weight(77, 7).
weight(78, 7).
weight(79, 7).
weight(80, 2).
weight(81, 1).
weight(82, 1).
weight(83, 8).
weight(84, 6).
weight(85, 1).
weight(86, 10).
weight(87, 10).
weight(88, 8).
weight(89, 2).
weight(90, 1).
weight(91, 7).
weight(92, 1).
weight(93, 1).
weight(94, 7).
weight(95, 5).
weight(96, 2).
weight(97, 8).
weight(98, 4).
weight(99, 7).
weight(100, 9).
weight(101, 2).
weight(102, 4).
weight(103, 10).
weight(104, 6).
weight(105, 9).
weight(106, 1).
weight(107, 4).
weight(108, 7).
weight(109, 5).
weight(110, 6).
weight(111, 3).
weight(112, 2).
weight(113, 4).
weight(114, 3).
weight(115, 7).
weight(116, 3).
weight(117, 7).
weight(118, 10).
weight(119, 7).
weight(120, 8).
weight(121, 4).
weight(122, 6).
weight(123, 2).
weight(124, 7).
weight(125, 9).
weight(126, 8).
weight(127, 8).
weight(128, 9).
weight(129, 3).
weight(130, 10).
weight(131, 5).
weight(132, 9).
weight(133, 4).
weight(134, 4).
weight(135, 8).
weight(136, 2).
weight(137, 9).
weight(138, 3).
weight(139, 6).
weight(140, 10).
weight(141, 5).
weight(142, 2).
weight(143, 8).
weight(144, 8).
weight(145, 2).
weight(146, 8).
weight(147, 2).
weight(148, 1).
weight(149, 10).
weight(150, 5).
weight(151, 9).
weight(152, 8).
weight(153, 10).
weight(154, 3).
weight(155, 8).
weight(156, 1).
weight(157, 8).
weight(158, 7).
weight(159, 3).
weight(160, 4).
weight(161, 1).
weight(162, 10).
weight(163, 5).
weight(164, 3).
weight(165, 1).
weight(166, 9).
bound(103).

adj(U,V) :- edge(U,V).
adj(U,V) :- edge(V,U).
{in(V)} :- node(V).
dominated(V) :- in(V).
dominated(V) :- in(U), adj(U,V).
:- node(V), not dominated(V).
:- bound(B), #sum{W,V : in(V), weight(V,W)} > B.
:~ in(V), weight(V,W). [W@1,V]
