node(0..186).
edge(176, 178).
edge(2, 159).
edge(54, 147).
edge(46, 121).
edge(14, 127).
edge(13, 108).
edge(59, 168).
edge(6, 10).
edge(135, 140).
edge(91, 113).
edge(84, 168).
edge(11, 66).
edge(58, 173).
edge(109, 144).
edge(26, 68).
edge(53, 145).
edge(17, 61).
edge(69, 149).
edge(3, 70).
edge(7, 37).
edge(118, 186).
edge(11, 73).
edge(109, 117).
edge(33, 104).
edge(71, 108).
edge(57, 87).
edge(11, 67).
edge(35, 64).
edge(59, 142).
edge(94, 161).
edge(102, 172).
edge(15, 157).
edge(26, 169).
edge(3, 76).
edge(121, 126).
edge(152, 161).
edge(10, 39).
edge(10, 19).
edge(80, 149).
edge(48, 158).
edge(71, 102).
edge(27, 176).
edge(0, 140).
edge(3, 136).
edge(48, 83).
edge(31, 55).
edge(168, 186).
edge(9, 180).
edge(19, 85).
edge(27, 99).
edge(148, 155).
edge(8, 146).
edge(101, 173).
edge(61, 72).
edge(93, 127).
edge(53, 56).
edge(17, 91).
edge(19, 90).
edge(42, 67).
edge(134, 150).
edge(103, 161).
edge(61, 161).
edge(85, 130).
edge(30, 46).
edge(52, 137).
edge(3, 94).
edge(97, 126).
edge(123, 176).
edge(27, 73).
edge(41, 119).
edge(78, 165).
edge(10, 162).
edge(134, 148).
edge(15, 151).
edge(100, 119).
edge(106, 151).
edge(21, 124).
edge(22, 34).
edge(139, 152).
edge(51, 84).
edge(93, 103).
edge(79, 102).
edge(8, 84).
edge(23, 134).
edge(134, 185).
edge(89, 169).
edge(146, 156).
edge(31, 47).
edge(56, 161).
edge(22, 160).
edge(48, 138).
edge(36, 63).
edge(102, 131).
edge(15, 25).
edge(158, 176).
edge(80, 129).
edge(49, 158).
edge(135, 142).
edge(136, 161).
edge(90, 115).
edge(25, 99).
edge(32, 127).
edge(45, 115).
edge(106, 108).
edge(56, 116).
edge(25, 35).
edge(104, 170).
edge(86, 171).
edge(102, 156).
edge(140, 159).
edge(45, 63).
edge(18, 65).
edge(70, 81).
edge(97, 133).
edge(139, 186).
edge(87, 112).
edge(69, 181).
edge(35, 71).
edge(104, 122).
edge(114, 118).
edge(123, 150).
edge(14, 76).
edge(62, 73).
edge(53, 149).
edge(127, 151).
edge(41, 155).
edge(52, 156).
edge(86, 124).
edge(61, 130).
edge(9, 101).
edge(10, 16).
edge(98, 184).
edge(123, 131).
edge(35, 173).
edge(69, 158).
edge(80, 125).
edge(53, 113).
edge(75, 86).
edge(4, 68).
edge(106, 125).
edge(106, 140).
edge(113, 148).
edge(106, 121).
edge(56, 129).
edge(14, 123).
edge(10, 75).
edge(105, 119).
edge(0, 155).
edge(49, 118).
edge(22, 145).
edge(23, 149).
edge(11, 167).
edge(140, 170).
edge(5, 121).
edge(14, 44).
edge(48, 116).
edge(49, 108).
edge(2, 103).
edge(9, 78).
edge(75, 82).
edge(64, 68).
edge(111, 125).
edge(59, 98).
edge(3, 13).
edge(64, 186).
edge(68, 162).
edge(53, 91).
edge(144, 172).
edge(62, 84).
edge(46, 94).
edge(90, 133).
edge(10, 58).
edge(30, 128).
edge(25, 175).
edge(5, 21).
edge(47, 131).
edge(46, 163).
edge(72, 138).
edge(50, 181).
edge(88, 120).
edge(12, 71).
edge(42, 119).
edge(93, 95).
edge(72, 83).
edge(93, 117).
edge(163, 166).
edge(73, 121).
edge(4, 91).
edge(39, 183).
edge(29, 149).
edge(60, 146).
edge(97, 137).
edge(35, 132).
edge(52, 85).
edge(25, 77).
edge(79, 160).
edge(14, 87).
edge(81, 156).
edge(31, 124).
edge(105, 139).
edge(56, 143).
edge(38, 94).
edge(93, 100).
edge(16, 71).
edge(66, 168).
edge(66, 67).
edge(130, 176).
edge(66, 74).
edge(47, 181).
edge(110, 123).
edge(24, 171).
edge(4, 141).
edge(82, 159).
edge(48, 135).
edge(50, 133).
edge(48, 59).
edge(114, 162).
edge(11, 17).
edge(27, 78).
edge(75, 150).
edge(104, 186).
edge(1, 178).
edge(56, 125).
edge(48, 57).
edge(128, 129).
edge(66, 128).
edge(21, 156).
edge(60, 125).
edge(177, 181).
edge(14, 61).
edge(31, 165).
edge(35, 98).
edge(154, 180).
edge(66, 95).
edge(141, 157).
edge(3, 80).
edge(85, 87).
edge(15, 24).
edge(51, 144).
edge(89, 100).
edge(11, 38).
edge(133, 144).
edge(25, 118).
edge(101, 146).
edge(102, 159).
edge(3, 40).
edge(93, 125).
edge(123, 127).
edge(16, 59).
edge(39, 70).
edge(139, 181).
edge(157, 174).
edge(43, 56).
edge(24, 82).
edge(28, 102).
edge(49, 70).
edge(102, 114).
edge(42, 185).
edge(38, 58).
edge(14, 134).
edge(40, 41).
edge(24, 45).
edge(29, 37).
edge(117, 143).
edge(18, 71).
edge(48, 167).
edge(177, 178).
edge(43, 126).
edge(136, 166).
edge(11, 45).
edge(123, 159).
edge(113, 178).
edge(79, 186).
edge(112, 122).
edge(143, 149).
edge(0, 146).
edge(10, 182).
edge(165, 175).
edge(2, 170).
edge(156, 165).
edge(78, 106).
edge(18, 96).
edge(24, 65).
edge(43, 180).
edge(76, 130).
edge(63, 105).
edge(123, 180).
edge(84, 92).
edge(58, 59).
edge(100, 184).
edge(104, 153).
edge(90, 120).
edge(46, 167).
edge(31, 82).
edge(66, 75).
edge(83, 183).
edge(94, 178).
edge(111, 161).
edge(72, 179).
edge(61, 160).
edge(23, 113).
edge(82, 169).
edge(71, 184).
edge(32, 43).
edge(49, 184).
edge(128, 183).
edge(48, 129).
edge(86, 155).
edge(7, 163).
edge(122, 166).
edge(85, 180).
edge(36, 51).
edge(106, 161).
edge(31, 174).
edge(46, 108).
edge(70, 91).
edge(9, 53).
edge(23, 87).
edge(88, 180).
edge(7, 148).
edge(14, 21).
edge(5, 70).
edge(113, 132).
edge(99, 163).
edge(105, 126).
edge(75, 118).
edge(34, 127).
edge(10, 81).
edge(103, 141).
edge(37, 151).
edge(25, 129).
edge(119, 146).
edge(151, 176).
edge(47, 64).
edge(99, 153).
edge(37, 90).
edge(6, 16).
edge(91, 155).
edge(127, 131).
edge(1, 138).
edge(14, 153).
edge(19, 84).
edge(13, 107).
edge(67, 74).
edge(166, 170).
edge(14, 86).
edge(41, 179).
edge(38, 142).
edge(69, 168).
edge(99, 154).
edge(20, 142).
edge(98, 100).
edge(56, 70).
edge(124, 137).
edge(158, 174).
edge(24, 179).
edge(47, 120).
edge(47, 91).
edge(43, 95).
edge(5, 82).
edge(55, 155).
edge(11, 85).
edge(17, 67).
edge(78, 102).
edge(115, 149).
edge(9, 91).
edge(140, 160).
edge(60, 138).
edge(97, 101).
edge(89, 182).
edge(112, 156).
edge(78, 126).
edge(138, 149).
edge(131, 168).
edge(70, 171).
edge(44, 147).
edge(63, 89).
edge(31, 155).
edge(30, 184).
edge(111, 178).
edge(87, 159).
edge(9, 126).
edge(26, 42).
edge(41, 121).
edge(58, 177).
edge(99, 143).
edge(107, 163).
edge(7, 33).
edge(18, 70).
edge(71, 100).
edge(14, 164).
edge(79, 81).
edge(125, 181).
edge(8, 38).
edge(5, 69).
edge(85, 134).
edge(11, 135).
edge(77, 153).
edge(13, 117).
edge(119, 180).
edge(57, 78).
edge(124, 149).
edge(41, 112).
edge(84, 121).
edge(19, 105).
edge(8, 176).
edge(1, 142).
edge(90, 96).
edge(28, 83).
edge(20, 115).
edge(52, 173).
edge(60, 150).
edge(98, 146).
edge(14, 150).
edge(29, 137).
edge(77, 146).
edge(37, 180).
edge(35, 85).
edge(110, 172).
edge(149, 167).
edge(64, 122).
edge(161, 178).
edge(88, 169).
edge(35, 181).
edge(91, 131).
edge(81, 91).
edge(70, 124).
edge(33, 127).
edge(94, 158).
edge(55, 67).
edge(141, 162).
edge(31, 112).
edge(98, 164).
edge(35, 160).
edge(4, 136).
edge(79, 94).
edge(73, 180).
edge(138, 171).
edge(5, 98).
edge(47, 103).
edge(150, 162).
edge(26, 55).
edge(50, 119).
edge(14, 41).
edge(51, 72).
edge(32, 179).
edge(27, 175).
edge(14, 23).
edge(21, 45).
edge(5, 101).
edge(5, 139).
edge(160, 162).
edge(8, 9).
edge(33, 110).
edge(20, 96).
edge(15, 73).
edge(143, 154).
edge(41, 161).
edge(86, 146).
edge(72, 185).
edge(9, 58).
edge(58, 141).
edge(55, 77).
edge(165, 184).
edge(142, 184).
edge(70, 79).
edge(58, 68).
edge(142, 165).
edge(26, 114).
edge(130, 178).
edge(116, 164).
edge(91, 117).
edge(61, 144).
edge(22, 184).
edge(53, 134).
edge(10, 121).
edge(133, 137).
edge(36, 61).
edge(31, 159).
edge(103, 120).
edge(73, 86).
edge(24, 52).
edge(49, 164).
edge(46, 73).
edge(0, 64).
edge(2, 158).
edge(11, 140).
edge(5, 84).
edge(48, 132).
edge(41, 82).
edge(64, 148).
edge(95, 170).
edge(28, 134).
edge(9, 151).
edge(8, 20).
edge(49, 183).
edge(57, 164).
edge(64, 174).
edge(161, 169).
edge(39, 40).
edge(98, 141).
edge(137, 166).
edge(40, 181).
edge(57, 158).
edge(17, 161).
edge(98, 155).
edge(123, 154).
edge(11, 156).
edge(110, 180).
edge(79, 166).
edge(77, 176).
edge(122, 172).
edge(142, 179).
edge(30, 36).
edge(8, 118).
edge(75, 152).
edge(123, 158).
edge(21, 93).
edge(69, 104).
edge(78, 184).
edge(10, 43).
edge(13, 161).
edge(11, 52).
edge(61, 183).
edge(58, 85).
edge(43, 86).
edge(109, 152).
edge(8, 135).
edge(168, 169).
edge(38, 125).
edge(50, 174).
edge(63, 88).
edge(119, 126).
edge(50, 171).
edge(78, 129).
edge(13, 178).
edge(1, 15).
edge(50, 162).
edge(181, 182).
edge(4, 145).
edge(124, 158).
edge(37, 104).
edge(21, 164).
edge(57, 132).
edge(51, 179).
edge(32, 37).
edge(46, 126).
edge(2, 76).
edge(52, 98).
edge(144, 153).
edge(118, 167).
edge(8, 143).
edge(1, 125).
edge(173, 185).
edge(83, 86).
edge(22, 77).
edge(72, 105).
edge(100, 162).
edge(85, 169).
edge(10, 155).
edge(56, 71).
edge(90, 134).
edge(95, 184).
edge(99, 106).
edge(30, 35).
edge(94, 179).
edge(17, 114).
edge(72, 86).
edge(5, 178).
edge(17, 83).
edge(26, 113).
edge(38, 105).
edge(161, 174).
edge(105, 183).
edge(39, 95).
edge(13, 29).
edge(132, 177).
edge(34, 101).
edge(95, 175).
edge(6, 39).
edge(49, 169).
edge(15, 84).
edge(71, 120).
edge(7, 54).
edge(25, 126).
edge(4, 163).
edge(10, 181).
edge(43, 111).
edge(28, 149).
edge(86, 104).
edge(87, 122).
edge(19, 47).
edge(91, 180).
edge(139, 140).
edge(65, 69).
edge(48, 128).
edge(20, 133).
edge(164, 186).
edge(112, 134).
edge(107, 136).
edge(118, 125).
edge(56, 132).
edge(26, 67).
edge(74, 137).
edge(63, 175).
edge(160, 172).
edge(59, 151).
edge(59, 155).
edge(59, 107).
edge(24, 78).
edge(39, 106).
edge(141, 178).
edge(7, 119).
edge(108, 160).
edge(135, 166).
edge(80, 179).
edge(29, 184).
edge(18, 20).
edge(119, 184).
edge(8, 96).
edge(18, 123).
edge(90, 138).
edge(78, 151).
edge(135, 156).
edge(65, 165).
edge(74, 136).
edge(48, 77).
edge(131, 163).
edge(78, 141).
edge(11, 110).
edge(97, 100).
edge(122, 146).
edge(85, 108).
edge(7, 14).
edge(60, 120).
edge(121, 153).
edge(92, 94).
edge(65, 179).
edge(133, 166).
edge(7, 77).
edge(0, 46).
edge(92, 186).
edge(20, 123).
edge(40, 108).
edge(28, 101).
edge(32, 154).
edge(68, 75).
edge(1, 98).
edge(135, 153).
edge(75, 151).
edge(20, 165).
edge(53, 120).
edge(76, 158).
edge(36, 159).
edge(146, 154).
edge(75, 145).
edge(39, 71).
edge(62, 139).
edge(27, 149).
edge(61, 172).
edge(110, 175).
edge(65, 106).
edge(16, 175).
edge(44, 173).
edge(43, 60).
edge(68, 169).
edge(96, 111).
edge(11, 107).
edge(70, 186).
edge(3, 100).
edge(142, 181).
edge(5, 38).
edge(174, 186).
edge(50, 180).
edge(53, 77).
edge(4, 66).
edge(34, 90).
edge(103, 109).
edge(72, 134).
edge(72, 99).
edge(103, 151).
edge(33, 144).
edge(68, 118).
edge(46, 90).
edge(15, 81).
edge(23, 68).
edge(67, 116).
edge(47, 141).
edge(90, 130).
edge(16, 117).
edge(79, 132).
edge(110, 160).
edge(34, 94).
edge(82, 121).
edge(54, 100).
edge(0, 97).
edge(56, 146).
edge(90, 148).
edge(0, 93).
edge(23, 65).
edge(33, 74).
edge(124, 182).
edge(9, 39).
edge(37, 141).
edge(59, 85).
edge(41, 102).
edge(82, 95).
edge(48, 98).
edge(7, 8).
edge(112, 131).
edge(114, 183).
edge(28, 147).
edge(58, 152).
edge(84, 175).
edge(25, 184).
edge(26, 124).
edge(3, 42).
edge(89, 176).
edge(98, 131).
edge(9, 13).
edge(52, 180).
edge(153, 167).
edge(120, 161).
edge(35, 175).
edge(71, 94).
edge(17, 171).
edge(113, 122).
edge(39, 148).
edge(30, 155).
edge(77, 90).
edge(111, 135).
edge(15, 52).
edge(40, 81).
edge(57, 80).
edge(22, 30).
edge(8, 109).
edge(150, 158).
edge(21, 168).
edge(39, 118).
edge(9, 77).
edge(49, 87).
edge(43, 101).
edge(12, 101).
edge(53, 70).
edge(57, 76).
edge(61, 77).
edge(145, 181).
edge(57, 114).
edge(172, 175).
edge(26, 60).
edge(26, 180).
edge(45, 141).
edge(46, 129).
edge(112, 155).
edge(35, 44).
edge(44, 49).
edge(131, 159).
edge(70, 165).
edge(98, 175).
edge(103, 160).
edge(10, 122).
edge(6, 171).
edge(97, 151).
edge(126, 179).
edge(83, 103).
edge(44, 48).
edge(31, 162).
edge(16, 95).
edge(95, 110).
edge(46, 76).
edge(32, 144).
edge(29, 46).
edge(113, 164).
edge(96, 156).
edge(50, 101).
edge(34, 113).
edge(158, 175).
edge(15, 45).
edge(92, 140).
edge(147, 183).
edge(9, 79).
edge(30, 40).
edge(2, 134).
edge(64, 169).
edge(10, 95).
edge(69, 89).
edge(86, 114).
edge(101, 121).
edge(10, 15).
edge(34, 185).
edge(3, 33).
edge(25, 170).
edge(106, 137).
edge(46, 119).
edge(91, 92).
edge(120, 128).
edge(35, 84).
edge(138, 151).
edge(62, 102).
edge(176, 185).
edge(86, 119).
edge(1, 51).
edge(109, 164).
edge(38, 51).
edge(61, 88).
edge(52, 82).
edge(7, 38).
edge(7, 147).
edge(24, 48).
edge(123, 163).
edge(31, 73).
edge(129, 151).
edge(139, 151).
edge(57, 85).
edge(16, 148).
edge(137, 171).
edge(156, 172).
edge(62, 149).
edge(96, 132).
edge(12, 115).
edge(6, 176).
edge(89, 122).
edge(8, 53).
edge(32, 44).
edge(37, 150).
edge(150, 183).
edge(35, 141).
edge(69, 106).
edge(18, 134).
edge(99, 157).
edge(1, 122).
edge(0, 38).
edge(47, 68).
edge(79, 112).
edge(21, 30).
edge(5, 85).
edge(33, 82).
edge(135, 176).
edge(2, 132).
edge(81, 154).
edge(87, 130).
edge(3, 48).
edge(115, 174).
edge(43, 87).
edge(48, 148).
edge(37, 103).
edge(73, 169).
edge(143, 158).
edge(69, 105).
edge(112, 166).
edge(14, 58).
edge(9, 181).
edge(7, 48).
edge(15, 177).
edge(35, 68).
edge(61, 108).
edge(51, 61).
edge(79, 156).
edge(131, 155).
edge(84, 115).
edge(33, 44).
edge(48, 139).
edge(49, 155).
edge(80, 134).
edge(122, 154).
edge(81, 118).
edge(19, 26).
edge(69, 171).
edge(86, 105).
edge(154, 168).
edge(26, 178).
edge(57, 172).
edge(113, 172).
edge(126, 164).
edge(5, 54).
edge(13, 101).
edge(7, 159).
edge(35, 45).
edge(49, 92).
edge(62, 93).
edge(80, 137).
edge(91, 174).
edge(16, 150).
edge(41, 150).
edge(19, 173).
edge(78, 185).
edge(61, 69).
edge(130, 165).
edge(1, 26).
edge(87, 110).
edge(24, 86).
edge(48, 124).
edge(4, 100).
edge(7, 92).
edge(63, 121).
edge(4, 108).
edge(119, 135).
edge(0, 110).
edge(75, 93).
edge(170, 184).
edge(50, 62).
edge(136, 143).
edge(130, 148).
edge(99, 101).
edge(102, 125).
edge(128, 165).
edge(82, 166).
edge(68, 129).
edge(43, 168).
edge(8, 121).
edge(111, 140).
edge(88, 144).
edge(157, 183).
edge(43, 112).
edge(79, 104).
edge(45, 120).
edge(23, 180).
edge(4, 120).
edge(79, 129).
edge(101, 158).
edge(173, 182).
edge(13, 67).
edge(125, 176).
edge(53, 186).
edge(142, 178).
edge(64, 81).
edge(72, 76).
edge(12, 44).
edge(4, 182).
edge(71, 150).
edge(40, 184).
edge(66, 104).
edge(62, 182).
edge(112, 185).
edge(53, 182).
edge(163, 176).
edge(20, 103).
edge(82, 172).
edge(88, 97).
edge(105, 140).
edge(32, 34).
edge(121, 146).
edge(48, 180).
edge(164, 180).
edge(68, 116).
edge(76, 162).
edge(178, 183).
edge(44, 183).
edge(26, 100).
edge(65, 134).
edge(45, 130).
edge(10, 25).
edge(59, 112).
edge(38, 61).
edge(11, 13).
edge(38, 96).
edge(56, 57).
edge(59, 61).
edge(106, 164).
edge(79, 152).
edge(134, 166).
edge(91, 178).
edge(44, 148).
edge(48, 169).
edge(8, 51).
edge(98, 132).
edge(9, 23).
edge(53, 125).
edge(98, 127).
edge(11, 153).
edge(101, 113).
edge(1, 66).
edge(30, 153).
edge(32, 39).
edge(57, 184).
edge(13, 113).
edge(7, 154).
edge(10, 167).
edge(42, 106).
edge(45, 98).
edge(49, 160).
edge(45, 56).
edge(123, 128).
edge(21, 181).
edge(145, 157).
edge(2, 105).
edge(31, 106).
edge(126, 154).
edge(67, 173).
edge(28, 136).
edge(57, 75).
edge(52, 124).
edge(33, 181).
edge(0, 84).
edge(53, 111).
edge(85, 90).
edge(50, 100).
edge(124, 131).
edge(114, 137).
edge(178, 185).
edge(2, 151).
edge(42, 60).
edge(43, 50).
edge(66, 184).
edge(45, 170).
edge(84, 156).
edge(142, 152).
edge(24, 173).
edge(118, 141).
edge(13, 109).
edge(115, 132).
edge(9, 106).
edge(46, 98).
edge(22, 66).
edge(23, 115).
edge(40, 105).
edge(83, 166).
edge(32, 66).
edge(12, 132).
edge(15, 159).
edge(4, 58).
edge(8, 101).
edge(33, 109).
edge(57, 118).
edge(71, 103).
edge(123, 174).
edge(134, 162).
edge(72, 130).
edge(16, 126).
edge(49, 111).
edge(74, 163).
edge(75, 107).
edge(92, 145).
edge(47, 96).
edge(47, 107).
edge(110, 119).
edge(17, 85).
edge(0, 159).
edge(148, 182).
edge(18, 102).
edge(109, 126).
edge(37, 185).
edge(61, 109).
edge(6, 179).
edge(117, 174).
edge(16, 172).
edge(128, 151).
edge(44, 146).
edge(3, 77).
edge(20, 141).
edge(60, 63).
edge(142, 159).
edge(3, 27).
edge(13, 78).
edge(34, 72).
edge(85, 136).
edge(37, 136).
edge(66, 180).
edge(80, 185).
edge(82, 152).
edge(4, 118).
edge(4, 112).
edge(9, 38).
edge(11, 105).
edge(33, 156).
edge(132, 185).
edge(12, 19).
edge(126, 171).
edge(7, 103).
edge(153, 177).
edge(136, 159).
edge(50, 126).
edge(72, 101).
edge(32, 119).
edge(71, 136).
edge(43, 175).
edge(55, 120).
edge(30, 97).
edge(26, 90).
edge(63, 141).
edge(1, 48).
edge(101, 135).
edge(25, 153).
edge(80, 182).
edge(176, 182).
edge(17, 175).
edge(21, 161).
edge(88, 96).
edge(80, 94).
edge(11, 131).
edge(44, 122).
edge(57, 156).
edge(39, 93).
edge(109, 173).
edge(29, 99).
edge(80, 123).
edge(37, 125).
edge(149, 178).
edge(17, 124).
edge(136, 163).
edge(72, 88).
edge(55, 179).
edge(137, 148).
edge(18, 186).
edge(13, 176).
edge(48, 106).
edge(8, 64).
edge(52, 63).
edge(1, 75).
edge(80, 112).
edge(107, 155).
edge(52, 185).
edge(34, 166).
edge(64, 67).
edge(64, 135).
edge(2, 96).
edge(8, 95).
edge(98, 152).
edge(0, 56).
edge(23, 130).
edge(132, 145).
edge(51, 145).
edge(89, 173).
edge(67, 108).
edge(121, 167).
edge(29, 166).
edge(59, 70).
edge(167, 172).
edge(109, 175).
edge(175, 179).
edge(62, 68).
edge(25, 31).
edge(97, 105).
edge(0, 45).
edge(28, 126).
edge(106, 178).
edge(63, 84).
edge(55, 81).
edge(152, 171).
edge(35, 116).
edge(69, 72).
edge(10, 55).
edge(33, 148).
edge(159, 166).
edge(28, 43).
edge(111, 176).
edge(47, 80).
edge(32, 81).
edge(33, 96).
edge(62, 123).
edge(3, 173).
edge(46, 184).
edge(133, 154).
edge(67, 114).
edge(143, 168).
edge(147, 162).
edge(25, 117).
edge(104, 175).
edge(122, 173).
edge(71, 180).
edge(54, 117).
edge(150, 153).
edge(42, 157).
edge(66, 182).
edge(50, 76).
edge(63, 139).
edge(83, 104).
edge(38, 92).
edge(0, 163).
edge(132, 180).
edge(28, 81).
edge(80, 157).
edge(48, 122).
edge(67, 107).
edge(125, 126).
edge(128, 172).
edge(50, 149).
edge(4, 38).
edge(43, 125).
edge(47, 115).
edge(6, 68).
edge(37, 61).
edge(138, 180).
edge(46, 71).
edge(8, 149).
edge(59, 96).
edge(80, 139).
edge(6, 94).
edge(30, 43).
edge(5, 26).
edge(57, 116).
edge(33, 87).
edge(7, 120).
edge(41, 103).
edge(48, 111).
edge(1, 146).
edge(56, 124).
edge(74, 139).
edge(39, 179).
edge(28, 125).
edge(94, 140).
edge(102, 166).
edge(109, 182).
edge(20, 144).
edge(84, 103).
edge(5, 135).
edge(25, 30).
edge(70, 183).
edge(67, 91).
edge(27, 41).
edge(35, 55).
edge(10, 87).
edge(22, 179).
edge(37, 117).
edge(72, 131).
edge(102, 113).
edge(28, 124).
edge(0, 139).
edge(81, 167).
edge(8, 132).
edge(57, 154).
edge(15, 182).
edge(142, 177).
edge(17, 35).
edge(64, 178).
edge(12, 166).
edge(13, 30).
edge(96, 134).
edge(21, 127).
edge(109, 170).
edge(20, 156).
edge(134, 167).
edge(74, 101).
edge(98, 174).
edge(43, 70).
edge(3, 97).
edge(62, 95).
edge(37, 50).
edge(12, 43).
edge(155, 167).
edge(8, 19).
edge(57, 180).
edge(75, 158).
edge(3, 183).
edge(145, 147).
edge(125, 154).
edge(6, 81).
edge(51, 165).
edge(13, 179).
edge(104, 168).
edge(81, 175).
edge(157, 166).
edge(140, 143).
edge(88, 124).
edge(7, 66).
edge(126, 163).
edge(92, 111).
edge(71, 169).
edge(93, 124).
edge(6, 19).
edge(42, 154).
edge(7, 101).
edge(104, 137).
edge(118, 179).
edge(57, 151).
edge(98, 101).
edge(92, 171).
edge(35, 97).
edge(42, 111).
edge(8, 52).
edge(72, 102).
edge(159, 167).
edge(112, 147).
edge(130, 182).
edge(91, 157).
edge(0, 129).
edge(22, 57).
edge(30, 130).
edge(21, 123).
edge(6, 59).
edge(20, 58).
edge(30, 111).
edge(26, 122).
edge(115, 131).
edge(115, 184).
edge(20, 82).
edge(57, 127).
edge(108, 168).
edge(88, 116).
edge(4, 6).
edge(152, 185).
edge(18, 124).
edge(16, 51).
edge(34, 80).
edge(142, 147).
edge(133, 139).
edge(32, 98).
edge(77, 184).
edge(38, 106).
edge(5, 117).
edge(66, 71).
edge(9, 147).
edge(16, 139).
edge(68, 182).
edge(21, 41).
edge(19, 102).
edge(83, 146).
edge(65, 145).
edge(34, 176).
edge(65, 67).
edge(83, 175).
edge(76, 86).
edge(38, 107).
edge(129, 164).
edge(3, 21).
edge(53, 85).
edge(46, 47).
edge(60, 173).
edge(30, 164).
edge(108, 109).
edge(45, 83).
edge(111, 185).
edge(28, 54).
edge(39, 165).
edge(112, 173).
edge(24, 119).
edge(29, 32).
edge(146, 160).
edge(28, 135).
edge(7, 52).
edge(108, 145).
edge(84, 182).
edge(41, 172).
edge(32, 112).
edge(108, 133).
edge(13, 135).
edge(114, 120).
edge(88, 178).
edge(48, 179).
edge(82, 160).
edge(155, 162).
edge(4, 57).
edge(14, 42).
edge(31, 100).
edge(88, 134).
edge(120, 150).
edge(52, 160).
edge(52, 57).
edge(87, 162).
edge(78, 95).
edge(8, 134).
edge(145, 169).
edge(83, 139).
edge(90, 163).
edge(15, 171).
edge(23, 55).
edge(115, 169).
edge(13, 60).
edge(68, 173).
edge(25, 26).
edge(105, 168).
edge(49, 167).
edge(46, 177).
edge(114, 141).
edge(46, 111).
edge(107, 150).
edge(77, 182).
edge(69, 161).
edge(12, 84).
edge(20, 33).
edge(102, 148).
edge(92, 165).
edge(110, 126).
edge(117, 167).
edge(56, 118).
edge(122, 163).
edge(70, 173).
edge(1, 24).
edge(51, 63).
edge(37, 40).
edge(89, 111).
edge(14, 140).
edge(58, 117).
edge(2, 34).
edge(7, 162).
edge(94, 116).
edge(87, 144).
edge(10, 172).
edge(6, 98).
edge(24, 145).
edge(46, 57).
edge(100, 144).
edge(114, 180).
edge(34, 121).
edge(57, 104).
edge(84, 123).
edge(103, 110).
edge(70, 128).
edge(87, 127).
edge(55, 114).
edge(120, 178).
edge(6, 156).
edge(154, 160).
edge(180, 182).
edge(38, 49).
edge(79, 134).
edge(50, 57).
edge(25, 108).
edge(100, 164).
edge(91, 127).
edge(133, 167).
edge(49, 57).
edge(24, 28).
edge(137, 154).
edge(2, 77).
edge(67, 92).
edge(65, 76).
edge(34, 171).
edge(88, 143).
edge(4, 63).
edge(135, 186).
edge(4, 45).
edge(1, 119).
edge(104, 144).
edge(56, 102).
edge(6, 105).
edge(34, 41).
edge(135, 178).
edge(112, 154).
edge(10, 61).
edge(1, 22).
edge(42, 113).
edge(40, 124).
edge(69, 84).
edge(9, 123).
edge(113, 169).
edge(6, 74).
edge(2, 167).
edge(75, 130).
edge(12, 42).
edge(16, 116).
edge(113, 128).
edge(57, 93).
edge(7, 18).
edge(107, 111).
edge(0, 31).
edge(114, 119).
edge(64, 94).
edge(45, 55).
edge(86, 169).
edge(76, 109).
edge(83, 108).
edge(11, 82).
edge(4, 148).
edge(42, 160).
edge(123, 179).
edge(49, 132).
edge(107, 114).
edge(125, 141).
edge(42, 118).
edge(12, 57).
edge(31, 61).
edge(106, 130).
edge(58, 74).
edge(41, 43).
edge(37, 145).
edge(167, 183).
edge(76, 133).
edge(8, 90).
edge(89, 147).
edge(59, 156).
edge(45, 82).
edge(142, 166).
edge(13, 155).
edge(50, 129).
edge(38, 124).
edge(79, 93).
edge(90, 180).
edge(21, 82).
edge(31, 38).
edge(128, 138).
edge(58, 125).
edge(29, 93).
edge(43, 116).
edge(28, 29).
edge(37, 166).
edge(39, 172).
edge(41, 186).
edge(114, 174).
edge(153, 185).
edge(8, 54).
edge(47, 111).
edge(22, 90).
edge(125, 131).
edge(36, 184).
edge(8, 127).
edge(152, 167).
edge(28, 44).
edge(54, 79).
edge(37, 84).
edge(76, 152).
edge(102, 104).
edge(54, 86).
edge(84, 107).
edge(24, 104).
edge(140, 153).
edge(72, 107).
edge(46, 185).
edge(29, 41).
edge(26, 51).
edge(125, 148).
edge(78, 180).
edge(49, 51).
edge(102, 109).
edge(11, 79).
edge(22, 46).
edge(66, 79).
edge(71, 164).
edge(53, 95).
edge(6, 107).
edge(107, 177).
edge(20, 93).
edge(16, 31).
edge(29, 120).
edge(121, 148).
edge(52, 87).
edge(124, 176).
edge(2, 156).
edge(90, 154).
edge(52, 182).
edge(57, 167).
edge(22, 87).
edge(54, 126).
edge(16, 167).
edge(63, 122).
edge(38, 162).
edge(168, 176).
edge(23, 137).
edge(43, 162).
edge(61, 152).
edge(103, 105).
edge(5, 109).
edge(45, 110).
edge(41, 171).
edge(61, 106).
edge(14, 186).
edge(118, 145).
edge(144, 174).
edge(88, 181).
edge(94, 164).
edge(67, 171).
edge(103, 181).
edge(67, 137).
edge(19, 66).
edge(24, 88).
edge(11, 142).
edge(3, 56).
edge(10, 79).
edge(36, 116).
edge(49, 114).
edge(2, 148).
edge(65, 132).
edge(82, 113).
edge(76, 163).
edge(31, 114).
edge(41, 131).
edge(34, 104).
edge(155, 183).
edge(31, 107).
edge(73, 111).
edge(40, 64).
edge(62, 124).
edge(107, 172).
edge(12, 173).
edge(84, 125).
edge(13, 28).
edge(8, 138).
edge(103, 170).
edge(8, 70).
edge(4, 60).
edge(0, 13).
edge(13, 72).
edge(89, 116).
edge(15, 47).
edge(110, 176).
edge(31, 62).
edge(21, 130).
edge(101, 149).
edge(81, 145).
edge(5, 78).
edge(4, 50).
edge(112, 132).
edge(114, 173).
edge(40, 162).
edge(123, 175).
edge(41, 174).
edge(130, 147).
edge(22, 88).
edge(129, 178).
edge(106, 134).
edge(49, 82).
edge(17, 178).
edge(66, 154).
edge(58, 129).
edge(158, 170).
edge(27, 33).
edge(101, 177).
edge(4, 28).
edge(38, 134).
edge(26, 87).
edge(34, 116).
edge(38, 65).
edge(18, 110).
edge(5, 143).
edge(32, 42).
edge(18, 108).
edge(68, 95).
edge(111, 126).
edge(28, 98).
edge(4, 150).
edge(106, 131).
edge(179, 183).
edge(25, 181).
edge(115, 157).
edge(76, 110).
edge(61, 111).
edge(6, 180).
edge(141, 183).
edge(7, 185).
edge(49, 125).
edge(66, 155).
edge(77, 160).
edge(84, 131).
edge(74, 98).
edge(17, 167).
edge(67, 169).
edge(35, 165).
edge(102, 141).
edge(99, 146).
edge(6, 45).
edge(116, 124).
edge(57, 160).
edge(37, 43).
edge(103, 150).
edge(121, 136).
edge(14, 117).
edge(19, 106).
edge(70, 109).
edge(151, 186).
edge(15, 119).
edge(41, 93).
edge(28, 146).
edge(124, 138).
edge(35, 155).
edge(41, 72).
edge(9, 49).
edge(10, 145).
edge(137, 158).
edge(120, 127).
edge(5, 76).
edge(72, 153).
edge(78, 85).
edge(89, 99).
edge(82, 135).
edge(35, 69).
edge(36, 181).
edge(90, 149).
edge(15, 71).
edge(28, 127).
edge(132, 153).
edge(33, 161).
edge(66, 86).
edge(116, 168).
edge(31, 56).
edge(7, 12).
edge(102, 164).
edge(14, 111).
edge(47, 130).
edge(25, 128).
edge(18, 180).
edge(147, 157).
edge(106, 117).
edge(72, 176).
edge(103, 173).
edge(123, 157).
edge(89, 168).
edge(8, 98).
edge(13, 171).
edge(83, 125).
edge(52, 68).
edge(72, 149).
edge(66, 150).
edge(24, 143).
edge(144, 182).
edge(115, 179).
edge(133, 143).
edge(127, 144).
edge(95, 148).
edge(56, 157).
edge(39, 79).
edge(24, 131).
edge(113, 143).
edge(24, 116).
edge(47, 172).
edge(34, 55).
edge(121, 141).
edge(103, 163).
edge(11, 60).
edge(12, 27).
edge(134, 154).
edge(76, 128).
edge(134, 137).
edge(84, 154).
edge(2, 72).
edge(71, 98).
edge(131, 182).
edge(23, 91).
edge(21, 79).
edge(78, 119).
edge(53, 165).
edge(67, 175).
edge(102, 175).
edge(26, 125).
edge(147, 161).
edge(44, 51).
edge(75, 114).
edge(0, 73).
edge(122, 184).
edge(16, 37).
edge(30, 86).
edge(46, 154).
edge(94, 152).
edge(12, 49).
edge(24, 51).
edge(8, 130).
edge(41, 106).
edge(113, 134).
edge(24, 94).
edge(115, 146).
edge(4, 24).
edge(29, 121).
edge(14, 69).
edge(106, 119).
edge(95, 149).
edge(12, 150).
edge(170, 182).
edge(34, 102).
edge(166, 168).
edge(44, 113).
edge(55, 92).
edge(96, 145).
edge(3, 114).
edge(40, 112).
edge(151, 171).
edge(171, 183).
edge(47, 179).
edge(18, 131).
edge(60, 130).
edge(115, 120).
edge(31, 57).
edge(22, 177).
edge(90, 135).
edge(34, 44).
edge(17, 25).
edge(153, 173).
edge(42, 110).
edge(109, 155).
edge(76, 89).
edge(25, 152).
edge(132, 134).
edge(101, 176).
edge(45, 146).
edge(47, 129).
edge(14, 49).
edge(8, 152).
edge(3, 168).
edge(102, 173).
edge(97, 154).
edge(7, 149).
edge(116, 167).
edge(1, 31).
edge(12, 151).
edge(16, 115).
edge(15, 131).
edge(94, 146).
edge(54, 164).
edge(85, 140).
edge(20, 153).
edge(48, 62).
edge(84, 112).
edge(69, 95).
edge(4, 123).
edge(59, 123).
edge(12, 121).
edge(63, 144).
edge(135, 181).
edge(87, 102).
edge(97, 116).
edge(44, 130).
edge(29, 97).
edge(18, 137).
edge(102, 116).
edge(38, 156).
edge(111, 112).
edge(45, 76).
edge(79, 157).
edge(40, 110).
edge(70, 100).
edge(44, 174).
edge(64, 154).
edge(141, 146).
edge(12, 77).
edge(33, 89).
edge(110, 169).
edge(69, 100).
edge(36, 168).
edge(7, 40).
edge(178, 181).
edge(102, 115).
edge(31, 87).
edge(102, 161).
edge(106, 160).
edge(31, 96).
edge(80, 130).
edge(131, 170).
edge(52, 119).
edge(43, 149).
edge(109, 130).
edge(63, 104).
edge(6, 99).
edge(37, 140).
edge(42, 141).
edge(111, 180).
edge(33, 174).
edge(14, 62).
edge(23, 118).
edge(89, 148).
edge(38, 77).
edge(38, 54).
edge(24, 114).
edge(57, 120).
edge(82, 107).
edge(90, 122).
edge(116, 151).
edge(92, 113).
edge(102, 151).
edge(10, 52).
edge(146, 172).
edge(57, 129).
edge(8, 170).
edge(97, 162).
edge(32, 110).
edge(42, 112).
edge(16, 105).
edge(0, 164).
edge(131, 138).
edge(29, 88).
edge(61, 126).
edge(41, 134).
edge(47, 55).
edge(11, 80).
edge(35, 93).
edge(3, 88).
edge(39, 160).
edge(9, 85).
edge(11, 138).
edge(33, 150).
edge(125, 136).
edge(80, 154).
edge(13, 120).
edge(14, 155).
edge(0, 68).
edge(45, 124).
edge(9, 33).
edge(46, 49).
edge(57, 179).
edge(78, 160).
edge(90, 126).
edge(42, 125).
edge(57, 134).
edge(16, 42).
edge(72, 164).
edge(9, 67).
edge(127, 163).
edge(28, 57).
edge(3, 41).
edge(110, 174).
edge(127, 170).
edge(64, 146).
edge(33, 153).
edge(120, 123).
edge(79, 140).
edge(139, 180).
edge(87, 128).
edge(147, 178).
edge(46, 183).
edge(89, 131).
edge(125, 129).
edge(76, 182).
edge(72, 80).
edge(70, 164).
edge(27, 140).
edge(82, 94).
edge(96, 150).
edge(47, 81).
edge(67, 115).
edge(50, 108).
edge(12, 107).
edge(85, 120).
edge(48, 145).
edge(10, 93).
edge(55, 135).
edge(76, 159).
edge(2, 180).
edge(35, 110).
edge(17, 118).
edge(82, 185).
edge(134, 172).
edge(38, 133).
edge(34, 152).
edge(17, 103).
edge(27, 89).
edge(120, 166).
edge(37, 120).
edge(111, 142).
edge(37, 69).
edge(74, 169).
edge(17, 21).
edge(93, 113).
edge(70, 140).
edge(48, 170).
edge(27, 53).
edge(89, 167).
edge(114, 128).
edge(11, 118).
edge(78, 104).
edge(85, 185).
edge(10, 67).
edge(6, 70).
edge(48, 99).
edge(153, 166).
edge(18, 86).
edge(97, 169).
edge(119, 130).
edge(13, 122).
edge(34, 36).
edge(64, 77).
edge(15, 65).
edge(8, 182).
edge(38, 73).
edge(8, 131).
edge(30, 84).
edge(79, 114).
edge(0, 15).
edge(29, 34).
edge(76, 186).
edge(166, 171).
edge(35, 112).
edge(42, 89).
edge(120, 131).
edge(39, 159).
edge(101, 159).
edge(64, 159).
edge(8, 24).
edge(1, 17).
edge(116, 130).
edge(70, 101).
edge(73, 165).
edge(41, 118).
edge(1, 99).
edge(53, 55).
edge(51, 173).
edge(74, 170).
edge(65, 107).
edge(67, 182).
edge(31, 68).
edge(3, 145).
edge(26, 133).
edge(101, 166).
edge(76, 174).
edge(23, 26).
edge(12, 184).
edge(6, 89).
edge(45, 106).
edge(96, 137).
edge(11, 161).
edge(94, 117).
edge(137, 176).
edge(42, 64).
edge(8, 36).
edge(7, 158).
edge(83, 185).
edge(76, 179).
edge(108, 148).
edge(18, 159).
edge(118, 159).
edge(3, 57).
edge(93, 97).
edge(15, 64).
edge(60, 162).
edge(107, 170).
edge(90, 93).
edge(36, 137).
edge(49, 145).
edge(94, 143).
edge(99, 126).
edge(4, 147).
edge(49, 89).
edge(49, 129).
edge(127, 169).
edge(27, 109).
edge(7, 100).
edge(142, 175).
edge(106, 167).
edge(14, 183).
edge(28, 40).
edge(132, 183).
edge(77, 89).
edge(22, 112).
edge(73, 126).
edge(11, 19).
edge(124, 167).
edge(13, 82).
edge(45, 67).
edge(60, 86).
edge(110, 138).
edge(78, 92).
edge(21, 141).
edge(65, 148).
edge(79, 90).
edge(27, 143).
edge(26, 152).
edge(173, 175).
edge(117, 158).
edge(3, 31).
edge(1, 140).
edge(11, 58).
edge(4, 14).
edge(119, 167).
edge(78, 117).
edge(36, 60).
edge(47, 160).
edge(88, 162).
edge(55, 158).
edge(6, 49).
edge(3, 162).
edge(19, 158).
edge(92, 98).
edge(19, 118).
edge(62, 183).
edge(23, 34).
edge(85, 172).
edge(98, 103).
edge(88, 122).
edge(26, 35).
edge(53, 118).
edge(28, 162).
edge(100, 116).
edge(96, 136).
edge(7, 47).
edge(7, 74).
edge(82, 144).
edge(11, 117).
edge(13, 140).
edge(19, 41).
edge(63, 119).
edge(38, 123).
edge(113, 165).
edge(26, 165).
edge(122, 129).
edge(2, 135).
edge(50, 148).
edge(1, 145).
edge(22, 98).
edge(165, 167).
edge(69, 70).
edge(19, 124).
edge(92, 133).
edge(151, 167).
edge(90, 114).
edge(100, 115).
edge(8, 151).
edge(109, 121).
edge(135, 139).
edge(48, 94).
edge(3, 172).
edge(13, 126).
edge(117, 162).
edge(22, 94).
edge(91, 172).
edge(89, 92).
edge(13, 148).
edge(150, 163).
edge(87, 136).
edge(7, 59).
edge(100, 170).
edge(97, 150).
edge(131, 184).
edge(142, 176).
edge(21, 165).
edge(73, 78).
edge(126, 152).
edge(85, 124).
edge(115, 160).
edge(98, 147).
edge(22, 97).
edge(33, 168).
edge(11, 114).
edge(37, 65).
edge(66, 69).
edge(3, 150).
edge(52, 92).
edge(130, 159).
edge(79, 180).
edge(79, 168).
edge(2, 141).
edge(25, 81).
edge(44, 82).
edge(26, 121).
edge(134, 142).
edge(151, 180).
edge(52, 135).
edge(62, 65).
edge(75, 180).
edge(64, 72).
edge(4, 180).
edge(29, 89).
edge(43, 100).
edge(22, 92).
edge(143, 167).
edge(2, 54).
edge(68, 108).
edge(115, 143).
edge(128, 174).
edge(20, 73).
edge(101, 120).
edge(133, 180).
edge(96, 161).
edge(114, 176).
edge(19, 64).
edge(25, 53).
edge(13, 57).
edge(41, 86).
edge(54, 94).
edge(105, 136).
edge(43, 90).
edge(81, 173).
edge(58, 139).
edge(168, 173).
edge(75, 178).
edge(6, 75).
edge(60, 131).
edge(47, 72).
edge(111, 170).
edge(150, 186).
edge(150, 180).
edge(91, 97).
edge(98, 154).
edge(21, 43).
edge(6, 79).
edge(15, 44).
edge(59, 75).
edge(34, 74).
edge(70, 154).
edge(22, 58).
edge(132, 143).
edge(95, 130).
edge(20, 154).
edge(1, 97).
edge(0, 4).
edge(11, 152).
edge(21, 148).
edge(69, 101).
edge(80, 176).
edge(78, 120).
edge(22, 138).
edge(155, 182).
edge(70, 151).
edge(0, 113).
edge(125, 159).
edge(18, 130).
edge(107, 141).
edge(24, 53).
edge(126, 143).
edge(71, 185).
edge(6, 101).
edge(20, 66).
edge(90, 132).
edge(102, 143).
edge(6, 128).
edge(72, 159).
edge(104, 111).
edge(153, 154).
edge(9, 40).
edge(103, 155).
edge(50, 164).
edge(28, 185).
edge(11, 56).
edge(13, 173).
edge(37, 78).
edge(59, 63).
edge(36, 185).
edge(127, 136).
edge(5, 99).
edge(108, 126).
edge(142, 163).
edge(29, 113).
edge(36, 161).
edge(11, 20).
edge(14, 78).
edge(24, 101).
edge(103, 144).
edge(47, 86).
edge(14, 148).
edge(10, 151).
edge(75, 127).
edge(63, 182).
edge(79, 176).
edge(120, 186).
edge(90, 102).
edge(42, 63).
edge(3, 105).
edge(70, 97).
edge(90, 176).
edge(48, 56).
edge(45, 164).
edge(131, 164).
edge(49, 109).
edge(150, 156).
edge(6, 78).
edge(115, 164).
edge(30, 121).
edge(74, 165).
edge(55, 168).
edge(64, 96).
edge(133, 183).
edge(148, 159).
edge(6, 22).
edge(139, 148).
edge(40, 54).
edge(18, 120).
edge(13, 167).
edge(28, 113).
edge(163, 175).
edge(37, 126).
edge(83, 144).
edge(2, 153).
edge(82, 181).
edge(79, 145).
edge(24, 43).
edge(4, 160).
edge(33, 182).
edge(47, 147).
edge(61, 82).
edge(6, 159).
edge(4, 77).
edge(31, 145).
edge(22, 26).
edge(43, 113).
edge(3, 61).
edge(126, 134).
edge(64, 166).
edge(130, 186).
edge(57, 173).
edge(128, 133).
edge(36, 153).
edge(52, 99).
edge(128, 167).
edge(53, 169).
edge(158, 178).
edge(2, 83).
edge(81, 116).
edge(26, 155).
edge(110, 157).
edge(62, 179).
edge(99, 175).
edge(111, 171).
edge(57, 149).
edge(123, 169).
edge(94, 159).
edge(115, 152).
edge(15, 62).
edge(56, 82).
edge(44, 78).
edge(27, 119).
edge(46, 168).
edge(5, 79).
edge(101, 133).
edge(69, 123).
edge(70, 94).
edge(80, 115).
edge(29, 49).
edge(118, 119).
edge(3, 182).
edge(28, 37).
edge(23, 95).
edge(1, 176).
edge(25, 147).
edge(43, 143).
edge(17, 57).
edge(55, 105).
edge(113, 183).
edge(104, 161).
edge(46, 123).
edge(106, 165).
edge(56, 184).
edge(37, 98).
edge(51, 178).
edge(50, 80).
edge(78, 97).
edge(4, 67).
edge(41, 49).
edge(46, 55).
edge(45, 152).
edge(52, 88).
edge(54, 89).
edge(80, 170).
edge(53, 89).
edge(116, 120).
edge(4, 128).
edge(18, 119).
edge(24, 144).
edge(44, 179).
edge(8, 94).
edge(15, 114).
edge(94, 162).
edge(100, 103).
edge(139, 141).
edge(21, 180).
edge(30, 87).
edge(28, 64).
edge(5, 20).
edge(84, 155).
edge(13, 124).
edge(12, 169).
edge(32, 128).
edge(8, 105).
edge(78, 148).
edge(51, 55).
edge(81, 130).
edge(40, 151).
edge(38, 39).
edge(89, 172).
edge(116, 180).
edge(88, 155).
edge(8, 119).
edge(83, 165).
edge(34, 68).
edge(44, 92).
edge(19, 116).
edge(62, 104).
edge(52, 177).
edge(35, 89).
edge(69, 134).
edge(9, 73).
edge(45, 134).
edge(40, 58).
edge(58, 113).
edge(94, 104).
edge(20, 95).
edge(53, 185).
edge(97, 128).
edge(70, 176).
edge(17, 20).
edge(85, 118).
edge(69, 117).
edge(29, 39).
edge(21, 92).
edge(7, 141).
edge(56, 96).
edge(84, 85).
edge(160, 178).
edge(8, 50).
edge(56, 90).
edge(96, 139).
edge(71, 81).
edge(58, 101).
edge(34, 77).
edge(44, 77).
edge(95, 158).
edge(25, 52).
edge(11, 112).
edge(99, 171).
edge(4, 140).
edge(10, 150).
edge(38, 86).
edge(102, 153).
edge(17, 125).
edge(135, 150).
edge(46, 165).
edge(66, 109).
edge(58, 155).
edge(166, 181).
edge(35, 151).
edge(16, 138).
edge(58, 78).
edge(55, 164).
edge(1, 160).
edge(69, 79).
edge(52, 159).
edge(78, 156).
edge(92, 105).
edge(147, 155).
edge(22, 127).
edge(124, 150).
edge(17, 26).
edge(6, 24).
edge(2, 13).
edge(66, 146).
edge(40, 168).
edge(35, 144).
edge(143, 160).
edge(52, 136).
edge(135, 179).
edge(69, 113).
edge(16, 24).
edge(116, 153).
edge(12, 81).
edge(38, 99).
edge(50, 94).
edge(55, 131).
edge(35, 133).
edge(117, 171).
edge(70, 153).
edge(8, 55).
edge(88, 170).
edge(28, 143).
edge(38, 64).
edge(85, 125).
edge(29, 182).
edge(22, 60).
edge(30, 83).
edge(106, 142).
edge(113, 175).
edge(25, 122).
edge(130, 152).
edge(19, 151).
edge(53, 137).
edge(34, 39).
edge(27, 52).
edge(36, 147).
edge(164, 167).
edge(7, 88).
edge(24, 142).
edge(94, 105).
edge(11, 129).
edge(149, 157).
edge(82, 178).
edge(154, 167).
edge(79, 161).
edge(82, 129).
edge(1, 52).
edge(64, 90).
edge(23, 168).
edge(44, 168).
edge(159, 171).
edge(145, 176).
edge(58, 116).
edge(37, 56).
edge(76, 78).
edge(120, 181).
edge(155, 173).
edge(94, 112).
edge(97, 156).
edge(162, 176).
edge(137, 146).
edge(2, 35).
edge(45, 72).
edge(17, 101).
edge(98, 163).
edge(17, 73).
edge(144, 184).
edge(2, 138).
edge(57, 178).
edge(102, 122).
edge(100, 151).
edge(52, 144).
edge(27, 137).
edge(46, 127).
edge(184, 186).
edge(105, 179).
edge(27, 49).
edge(111, 131).
edge(51, 102).
edge(148, 164).
edge(30, 160).
edge(118, 153).
edge(29, 55).
edge(97, 183).
edge(61, 67).
edge(13, 46).
edge(45, 68).
edge(0, 141).
edge(59, 76).
edge(100, 126).
edge(32, 35).
edge(29, 67).
edge(49, 71).
edge(75, 100).
edge(179, 184).
edge(42, 117).
edge(176, 184).
edge(44, 126).
edge(18, 104).
edge(152, 174).
edge(0, 3).
edge(65, 161).
edge(120, 185).
edge(127, 150).
edge(131, 135).
edge(18, 25).
edge(16, 36).
edge(14, 113).
edge(111, 174).
edge(69, 94).
edge(126, 150).
edge(68, 112).
edge(102, 186).
edge(107, 152).
edge(23, 147).
edge(25, 124).
edge(84, 97).
edge(117, 146).
edge(11, 174).
edge(103, 133).
edge(21, 84).
edge(124, 160).
edge(58, 86).
edge(68, 102).
edge(50, 87).
edge(75, 131).
edge(156, 161).
edge(82, 93).
edge(91, 116).
edge(76, 165).
edge(128, 142).
edge(56, 138).
edge(30, 96).
edge(2, 174).
edge(12, 185).
edge(149, 170).
edge(29, 115).
edge(5, 50).
edge(97, 143).
edge(1, 35).
edge(149, 175).
edge(125, 153).
edge(34, 73).
edge(20, 112).
edge(41, 173).
edge(54, 90).
edge(30, 113).
edge(62, 165).
edge(66, 82).
edge(58, 105).
edge(12, 144).
edge(61, 170).
edge(40, 122).
edge(35, 59).
edge(92, 139).
edge(62, 120).
edge(136, 174).
edge(33, 158).
edge(3, 60).
edge(79, 172).
edge(99, 151).
edge(9, 30).
edge(8, 33).
edge(56, 66).
edge(107, 124).
edge(8, 77).
edge(116, 152).
edge(37, 102).
edge(161, 167).
edge(37, 66).
edge(31, 161).
edge(15, 58).
edge(139, 143).
edge(29, 168).
edge(144, 148).
edge(61, 122).
edge(40, 158).
edge(110, 185).
edge(49, 150).
edge(87, 168).
edge(73, 122).
edge(53, 175).
edge(97, 136).
edge(155, 186).
edge(164, 185).
edge(93, 170).
edge(128, 134).
edge(130, 134).
edge(140, 155).
edge(110, 124).
edge(122, 139).
edge(17, 186).
edge(157, 170).
edge(49, 131).
edge(135, 185).
edge(14, 27).
edge(36, 124).
edge(51, 136).
edge(120, 145).
edge(66, 165).
edge(98, 157).
edge(56, 73).
edge(179, 185).
edge(91, 152).
edge(77, 157).
edge(62, 177).
edge(15, 61).
edge(47, 50).
edge(103, 149).
edge(45, 143).
edge(161, 183).
edge(94, 155).
edge(2, 41).
edge(94, 151).
edge(95, 132).
edge(62, 106).
edge(70, 115).
edge(120, 165).
edge(54, 171).
edge(102, 136).
edge(65, 88).
edge(38, 44).
edge(125, 147).
edge(45, 129).
edge(122, 180).
edge(112, 140).
edge(81, 129).
edge(1, 93).
edge(172, 184).
edge(110, 137).
edge(61, 134).
edge(52, 140).
edge(77, 150).
edge(55, 143).
edge(137, 181).
edge(77, 173).
edge(15, 29).
edge(22, 68).
edge(81, 119).
edge(18, 81).
edge(73, 110).
edge(136, 183).
edge(32, 151).
edge(10, 117).
edge(41, 78).
edge(90, 111).
edge(131, 176).
edge(114, 148).
edge(41, 95).
edge(71, 178).
edge(51, 149).
edge(97, 103).
edge(124, 175).
edge(20, 63).
edge(53, 86).
edge(118, 168).
edge(91, 133).
edge(29, 33).
edge(81, 150).
edge(98, 158).
edge(65, 130).
edge(106, 152).
edge(29, 161).
edge(158, 179).
edge(5, 158).
edge(7, 87).
edge(105, 174).
edge(23, 171).
edge(40, 117).
edge(16, 109).
edge(30, 134).
edge(43, 137).
edge(108, 156).
edge(110, 153).
edge(11, 32).
edge(60, 177).
edge(30, 110).
edge(106, 107).
edge(151, 169).
edge(69, 90).
edge(78, 145).
edge(54, 111).
edge(46, 176).
edge(33, 36).
edge(72, 171).
edge(114, 155).
edge(10, 146).
edge(19, 43).
edge(19, 91).
edge(10, 47).
edge(32, 105).
edge(63, 94).
edge(67, 125).
edge(15, 37).
edge(143, 170).
edge(117, 148).
edge(80, 106).
edge(108, 144).
edge(30, 98).
edge(39, 134).
edge(60, 69).
edge(132, 157).
edge(13, 141).
edge(14, 35).
edge(11, 43).
edge(42, 55).
edge(86, 108).
edge(38, 79).
edge(10, 152).
edge(116, 142).
edge(42, 158).
edge(161, 162).
edge(79, 88).
edge(60, 75).
edge(86, 184).
edge(5, 154).
edge(27, 108).
edge(80, 162).
edge(5, 177).
edge(53, 78).
edge(92, 107).
edge(12, 53).
edge(23, 33).
edge(38, 150).
edge(50, 169).
edge(48, 66).
edge(58, 67).
edge(118, 164).
edge(70, 99).
edge(31, 118).
edge(47, 87).
edge(64, 106).
edge(1, 56).
edge(38, 70).
edge(87, 131).
edge(47, 79).
edge(52, 145).
edge(32, 135).
edge(1, 47).
edge(46, 50).
edge(108, 112).
edge(13, 39).
edge(36, 39).
edge(99, 127).
edge(90, 182).
edge(174, 175).
edge(72, 175).
edge(32, 50).
edge(10, 12).
edge(92, 106).
edge(96, 184).
edge(70, 139).
edge(159, 175).
edge(2, 33).
edge(118, 134).
edge(57, 94).
edge(47, 59).
edge(77, 138).
edge(149, 154).
edge(111, 144).
edge(7, 75).
edge(1, 91).
edge(37, 45).
edge(84, 99).
edge(42, 176).
edge(91, 130).
edge(33, 80).
edge(4, 162).
edge(49, 88).
edge(57, 84).
edge(75, 155).
edge(16, 142).
edge(16, 183).
edge(115, 123).
edge(19, 95).
edge(42, 57).
edge(30, 118).
edge(54, 58).
edge(105, 155).
edge(26, 28).
edge(23, 104).
edge(3, 8).
edge(103, 171).
edge(147, 176).
edge(63, 129).
edge(32, 104).
edge(34, 62).
edge(5, 34).
edge(108, 175).
edge(36, 77).
edge(66, 110).
edge(20, 177).
edge(128, 150).
edge(12, 178).
edge(162, 168).
edge(26, 74).
edge(29, 53).
edge(47, 71).
edge(85, 114).
edge(1, 108).
edge(22, 146).
edge(20, 106).
edge(6, 184).
edge(78, 100).
edge(61, 81).
edge(135, 172).
edge(60, 183).
edge(14, 99).
edge(34, 100).
edge(42, 162).
edge(94, 129).
edge(6, 96).
edge(35, 41).
edge(63, 145).
edge(144, 176).
edge(105, 150).
edge(79, 165).
edge(85, 148).
edge(98, 99).
edge(75, 133).
edge(84, 174).
edge(34, 148).
edge(57, 64).
edge(60, 121).
edge(61, 174).
edge(101, 143).
edge(14, 83).
edge(97, 127).
edge(87, 114).
edge(93, 177).
edge(2, 126).
edge(167, 181).
edge(0, 171).
edge(45, 154).
edge(92, 101).
edge(78, 79).
edge(47, 177).
edge(45, 52).
edge(14, 95).
edge(69, 129).
edge(15, 57).
edge(59, 109).
edge(93, 137).
edge(101, 126).
edge(128, 156).
edge(3, 110).
edge(22, 132).
edge(38, 63).
edge(46, 115).
edge(61, 85).
edge(69, 125).
edge(74, 81).
edge(13, 132).
edge(7, 165).
edge(31, 167).
edge(98, 130).
edge(49, 69).
edge(71, 182).
edge(51, 138).
edge(105, 106).
edge(81, 92).
edge(127, 156).
edge(52, 77).
edge(78, 173).
edge(22, 44).
edge(11, 166).
edge(20, 127).
edge(47, 51).
edge(100, 127).
edge(3, 124).
edge(21, 184).
edge(109, 177).
edge(65, 72).
edge(76, 127).
edge(27, 164).
edge(81, 169).
edge(87, 116).
edge(69, 159).
edge(139, 154).
edge(84, 94).
edge(124, 161).
edge(113, 114).
edge(2, 91).
edge(72, 111).
edge(78, 83).
edge(87, 111).
edge(72, 109).
edge(94, 125).
edge(26, 186).
edge(56, 139).
edge(71, 77).
edge(65, 151).
edge(80, 175).
edge(3, 82).
edge(123, 185).
edge(113, 179).
edge(73, 125).
edge(35, 114).
edge(103, 186).
edge(123, 164).
edge(102, 158).
edge(180, 186).
edge(16, 84).
edge(71, 93).
edge(52, 141).
edge(71, 179).
edge(66, 107).
edge(145, 149).
edge(133, 153).
edge(100, 130).
edge(41, 54).
edge(85, 138).
edge(69, 74).
edge(1, 73).
edge(0, 150).
edge(158, 160).
edge(38, 121).
edge(71, 124).
edge(104, 142).
edge(53, 69).
edge(35, 125).
edge(67, 164).
edge(20, 54).
edge(9, 60).
edge(31, 122).
edge(130, 146).
edge(1, 172).
edge(96, 168).
edge(53, 90).
edge(16, 166).
edge(36, 128).
edge(95, 127).
edge(58, 63).
edge(46, 72).
edge(30, 147).
edge(20, 31).
edge(0, 52).
edge(57, 176).
edge(111, 175).
edge(65, 94).
edge(42, 148).
edge(56, 185).
edge(24, 42).
edge(112, 151).
edge(47, 110).
edge(48, 109).
edge(32, 109).
edge(11, 30).
edge(45, 119).
edge(59, 154).
edge(13, 162).
edge(137, 141).
edge(61, 129).
edge(9, 127).
edge(95, 140).
edge(97, 174).
edge(74, 114).
edge(96, 147).
edge(91, 153).
edge(24, 154).
edge(140, 161).
edge(48, 118).
edge(11, 115).
edge(69, 165).
edge(29, 45).
edge(73, 142).
edge(84, 186).
edge(62, 107).
edge(27, 146).
edge(87, 109).
edge(97, 155).
edge(124, 128).
edge(97, 161).
edge(141, 167).
edge(49, 77).
edge(42, 92).
edge(45, 87).
edge(142, 173).
edge(70, 85).
edge(21, 73).
edge(23, 158).
edge(101, 103).
edge(52, 81).
edge(44, 46).
edge(13, 164).
edge(58, 145).
edge(56, 85).
edge(6, 102).
edge(5, 37).
edge(12, 160).
edge(127, 129).
edge(13, 35).
edge(55, 149).
edge(33, 61).
edge(6, 155).
edge(98, 136).
edge(87, 124).
edge(3, 160).
edge(150, 160).
edge(44, 50).
edge(0, 12).
edge(178, 179).
edge(18, 56).
edge(111, 152).
edge(73, 93).
edge(84, 86).
edge(75, 147).
edge(62, 108).
edge(23, 146).
edge(115, 124).
edge(13, 94).
edge(1, 170).
edge(79, 163).
edge(40, 178).
edge(5, 29).
edge(37, 99).
edge(61, 184).
edge(16, 40).
edge(60, 182).
edge(88, 92).
edge(90, 186).
edge(53, 109).
edge(40, 73).
edge(53, 116).
edge(134, 151).
edge(77, 134).
edge(161, 185).
edge(99, 167).
edge(49, 126).
edge(74, 92).
edge(28, 48).
edge(46, 51).
edge(171, 185).
edge(57, 139).
edge(147, 173).
edge(100, 142).
edge(137, 162).
edge(3, 86).
edge(100, 122).
edge(12, 174).
edge(4, 30).
edge(69, 160).
edge(24, 128).
edge(22, 153).
edge(49, 124).
edge(12, 94).
edge(100, 148).
edge(167, 182).
edge(16, 83).
edge(126, 167).
edge(10, 77).
edge(74, 103).
edge(81, 86).
edge(0, 128).
edge(64, 87).
edge(115, 163).
edge(65, 71).
edge(54, 102).
edge(43, 61).
edge(2, 146).
edge(128, 160).
edge(73, 117).
edge(67, 167).
edge(17, 121).
edge(79, 138).
edge(53, 114).
edge(48, 152).
edge(15, 43).
edge(111, 116).
edge(95, 165).
edge(39, 54).
edge(0, 100).
edge(16, 153).
edge(73, 130).
edge(5, 138).
edge(12, 106).
edge(3, 125).
edge(1, 179).
edge(30, 117).
edge(2, 26).
edge(11, 130).
edge(147, 182).
edge(102, 121).
edge(9, 93).
edge(52, 171).
edge(110, 113).
edge(88, 114).
edge(41, 147).
edge(3, 44).
edge(78, 82).
edge(13, 18).
edge(63, 71).
edge(6, 27).
edge(131, 169).
edge(27, 105).
edge(44, 56).
edge(21, 69).
edge(45, 91).
edge(43, 110).
edge(63, 86).
edge(98, 142).
edge(12, 87).
edge(91, 149).
edge(135, 147).
edge(7, 71).
edge(47, 100).
edge(33, 117).
edge(117, 175).
edge(62, 178).
edge(50, 167).
edge(62, 162).
edge(16, 118).
edge(131, 144).
edge(19, 45).
edge(13, 151).
edge(22, 134).
edge(13, 147).
edge(81, 162).
edge(26, 72).
edge(4, 41).
edge(82, 156).
edge(73, 106).
edge(25, 90).
edge(59, 177).
edge(89, 160).
edge(1, 171).
edge(85, 162).
edge(63, 78).
edge(49, 116).
edge(24, 108).
edge(20, 74).
edge(155, 157).
edge(9, 92).
edge(19, 76).
edge(137, 178).
edge(99, 178).
edge(172, 186).
edge(30, 138).
edge(87, 141).
edge(17, 185).
edge(30, 115).
edge(33, 173).
edge(99, 137).
edge(125, 165).
edge(124, 156).
edge(36, 81).
edge(132, 184).
edge(49, 53).
edge(26, 141).
edge(40, 87).
edge(23, 131).
edge(124, 135).
edge(132, 165).
edge(86, 164).
edge(58, 157).
edge(2, 79).
edge(41, 157).
edge(34, 37).
edge(19, 139).
edge(135, 137).
edge(90, 153).
edge(77, 102).
edge(102, 182).
edge(19, 97).
edge(40, 102).
edge(41, 175).
edge(40, 111).
edge(74, 86).
edge(72, 128).
edge(39, 146).
edge(8, 15).
edge(49, 175).
edge(35, 131).
edge(90, 127).
edge(7, 146).
edge(89, 141).
edge(82, 158).
edge(46, 87).
edge(58, 122).
edge(35, 108).
edge(99, 169).
edge(34, 173).
edge(59, 87).
edge(97, 170).
edge(76, 97).
edge(9, 142).
edge(6, 47).
edge(17, 143).
edge(53, 65).
edge(53, 164).
edge(87, 89).
edge(14, 122).
edge(143, 172).
edge(15, 121).
edge(176, 180).
edge(103, 172).
edge(81, 177).
edge(53, 172).
edge(74, 171).
edge(10, 30).
edge(149, 182).
edge(58, 138).
edge(15, 50).
edge(151, 185).
edge(4, 171).
edge(51, 58).
edge(55, 107).
edge(0, 138).
edge(46, 117).
edge(67, 86).
edge(72, 148).
edge(19, 75).
edge(25, 164).
edge(42, 75).
edge(22, 82).
edge(122, 177).
edge(89, 98).
edge(4, 35).
edge(75, 129).
edge(83, 151).
edge(4, 125).
edge(37, 68).
edge(87, 100).
edge(18, 109).
edge(36, 127).
edge(32, 94).
edge(168, 170).
edge(46, 114).
edge(92, 174).
edge(14, 129).
edge(54, 80).
edge(51, 155).
edge(44, 99).
edge(35, 162).
edge(12, 128).
edge(55, 57).
edge(152, 169).
edge(83, 96).
edge(76, 171).
edge(70, 157).
edge(142, 186).
edge(23, 126).
edge(2, 113).
edge(109, 156).
edge(21, 176).
edge(75, 77).
edge(60, 144).
edge(19, 54).
edge(24, 66).
edge(169, 182).
edge(15, 82).
edge(98, 106).
edge(32, 129).
edge(38, 130).
edge(123, 178).
edge(148, 162).
edge(141, 144).
edge(120, 168).
edge(78, 110).
edge(14, 125).
edge(36, 40).
edge(42, 127).
edge(34, 181).
edge(21, 112).
edge(7, 84).
edge(16, 91).
edge(36, 126).
edge(56, 175).
edge(150, 168).
edge(146, 149).
edge(25, 94).
edge(168, 172).
edge(34, 179).
edge(26, 80).
edge(4, 110).
edge(17, 162).
edge(14, 139).
edge(47, 137).
edge(26, 73).
edge(90, 140).
edge(37, 77).
edge(25, 161).
edge(31, 180).
edge(36, 105).
edge(83, 160).
edge(27, 152).
edge(21, 83).
edge(131, 177).
edge(72, 143).
edge(107, 126).
edge(9, 52).
edge(81, 158).
edge(10, 74).
edge(24, 63).
edge(8, 73).
edge(81, 137).
edge(27, 121).
edge(151, 172).
edge(48, 67).
edge(39, 105).
edge(0, 74).
edge(28, 55).
edge(59, 157).
edge(36, 45).
edge(119, 157).
edge(117, 185).
edge(23, 107).
edge(106, 127).
edge(69, 76).
edge(92, 172).
edge(96, 99).
edge(114, 160).
edge(7, 136).
edge(105, 141).
edge(76, 137).
edge(65, 115).
edge(89, 149).
edge(42, 49).
edge(4, 183).
edge(91, 101).
edge(84, 171).
edge(84, 157).
edge(22, 178).
edge(115, 142).
edge(62, 82).
edge(139, 177).
edge(35, 140).
edge(30, 50).
edge(37, 82).
edge(80, 171).
edge(27, 29).
edge(4, 81).
edge(60, 140).
edge(50, 147).
edge(151, 161).
edge(1, 33).
edge(44, 145).
edge(48, 51).
edge(94, 124).
edge(67, 151).
edge(59, 80).
edge(79, 86).
edge(45, 94).
edge(56, 152).
edge(155, 156).
edge(8, 147).
edge(7, 133).
edge(53, 62).
edge(41, 97).
edge(33, 122).
edge(56, 159).
edge(16, 80).
edge(5, 100).
edge(97, 107).
edge(72, 74).
edge(61, 117).
edge(51, 86).
edge(21, 100).
edge(70, 112).
edge(23, 46).
edge(144, 159).
edge(101, 171).
edge(53, 98).
edge(1, 126).
edge(5, 66).
edge(91, 128).
edge(45, 183).
edge(67, 70).
edge(145, 150).
edge(58, 88).
edge(104, 174).
edge(113, 185).
edge(97, 115).
edge(86, 149).
edge(63, 111).
edge(19, 162).
edge(54, 95).
edge(116, 147).
edge(43, 79).
edge(34, 137).
edge(108, 131).
edge(17, 31).
edge(44, 172).
edge(72, 177).
edge(29, 70).
edge(39, 85).
edge(154, 176).
edge(113, 173).
edge(26, 128).
edge(41, 80).
edge(116, 172).
edge(117, 183).
edge(87, 183).
edge(10, 158).
edge(105, 122).
edge(80, 118).
edge(39, 56).
edge(81, 135).
edge(6, 43).
edge(114, 145).
edge(51, 128).
edge(59, 103).
edge(65, 89).
edge(129, 157).
edge(0, 10).
edge(18, 103).
edge(9, 62).
edge(65, 141).
edge(82, 105).
edge(9, 158).
edge(59, 180).
edge(49, 143).
edge(33, 115).
edge(28, 182).
edge(15, 184).
edge(149, 163).
edge(14, 40).
edge(18, 22).
edge(70, 146).
edge(28, 141).
edge(73, 135).
edge(31, 90).
edge(97, 175).
edge(33, 67).
edge(84, 167).
edge(84, 176).
edge(102, 112).
edge(159, 164).
edge(84, 172).
edge(88, 130).
edge(50, 142).
edge(15, 137).
edge(134, 181).
edge(120, 167).
edge(106, 168).
edge(62, 175).
edge(36, 91).
edge(123, 145).
edge(48, 63).
edge(98, 173).
edge(169, 172).
edge(72, 144).
edge(44, 94).
edge(145, 186).
edge(45, 133).
edge(14, 57).
edge(21, 52).
edge(147, 153).
edge(28, 63).
edge(12, 145).
edge(26, 109).
edge(12, 118).
edge(128, 145).
edge(11, 41).
edge(105, 178).
edge(142, 167).
edge(31, 103).
edge(95, 155).
edge(89, 105).
edge(11, 33).
edge(31, 123).
edge(98, 129).
edge(44, 61).
edge(45, 137).
edge(9, 76).
edge(109, 153).
edge(56, 177).
edge(75, 179).
edge(45, 136).
edge(22, 47).
edge(49, 121).
edge(15, 145).
edge(151, 156).
edge(71, 84).
edge(110, 155).
edge(54, 137).
edge(84, 106).
edge(75, 134).
edge(41, 51).
edge(102, 157).
edge(105, 128).
edge(72, 113).
edge(99, 162).
edge(22, 128).
edge(78, 170).
edge(0, 30).
edge(146, 175).
edge(123, 147).
edge(70, 175).
edge(16, 129).
edge(72, 180).
edge(124, 143).
edge(73, 146).
edge(26, 61).
edge(79, 85).
edge(92, 155).
edge(51, 104).
edge(56, 148).
edge(32, 159).
edge(123, 152).
edge(43, 47).
edge(22, 81).
edge(42, 78).
edge(11, 95).
edge(83, 97).
edge(1, 76).
edge(10, 17).
edge(59, 183).
edge(54, 64).
edge(62, 172).
edge(161, 166).
edge(61, 182).
edge(7, 23).
edge(117, 122).
edge(136, 157).
edge(12, 136).
edge(34, 136).
edge(143, 166).
edge(140, 174).
edge(0, 107).
edge(76, 126).
edge(21, 170).
edge(103, 135).
edge(16, 133).
edge(13, 55).
edge(147, 158).
edge(10, 44).
edge(58, 186).
edge(8, 43).
edge(32, 186).
edge(47, 92).
edge(30, 179).
edge(71, 82).
edge(85, 95).
edge(2, 133).
edge(35, 179).
edge(25, 106).
edge(20, 150).
edge(56, 88).
edge(80, 140).
edge(48, 154).
edge(112, 161).
edge(83, 127).
edge(129, 131).
edge(135, 175).
edge(34, 79).
edge(47, 102).
edge(157, 180).
edge(91, 146).
edge(132, 154).
edge(67, 76).
edge(99, 139).
edge(67, 166).
edge(76, 129).
edge(149, 152).
edge(127, 135).
edge(57, 77).
edge(0, 143).
edge(123, 170).
edge(40, 45).
edge(68, 146).
edge(36, 169).
edge(69, 91).
edge(94, 106).
edge(16, 64).
edge(67, 132).
edge(53, 105).
edge(9, 26).
edge(101, 132).
edge(86, 94).
edge(18, 84).
edge(4, 18).
edge(98, 140).
edge(33, 152).
edge(51, 68).
edge(109, 114).
edge(105, 111).
edge(144, 168).
edge(136, 150).
edge(132, 174).
edge(9, 184).
edge(30, 59).
edge(100, 150).
edge(7, 11).
edge(16, 65).
edge(84, 118).
edge(88, 118).
edge(115, 127).
edge(12, 154).
edge(45, 123).
edge(88, 158).
edge(99, 123).
edge(9, 138).
edge(0, 39).
edge(87, 178).
edge(122, 123).
edge(109, 113).
edge(84, 95).
edge(94, 130).
edge(156, 158).
edge(103, 153).
edge(60, 184).
edge(51, 131).
edge(59, 113).
edge(68, 71).
edge(34, 161).
edge(109, 168).
edge(71, 161).
edge(122, 179).
edge(112, 130).
edge(28, 34).
edge(39, 138).
edge(48, 143).
edge(37, 139).
edge(22, 156).
edge(10, 169).
edge(163, 171).
edge(6, 34).
edge(90, 109).
edge(99, 181).
edge(87, 186).
edge(21, 22).
edge(20, 168).
edge(69, 128).
edge(148, 184).
edge(66, 96).
edge(0, 120).
edge(68, 125).
edge(87, 165).
edge(56, 98).
edge(17, 66).
edge(120, 137).
edge(109, 143).
edge(8, 140).
edge(64, 124).
edge(21, 173).
edge(21, 94).
edge(88, 107).
edge(74, 91).
edge(105, 120).
edge(6, 21).
edge(76, 122).
edge(25, 101).
edge(29, 143).
edge(81, 90).
edge(16, 149).
edge(20, 160).
edge(30, 31).
edge(27, 75).
edge(42, 87).
edge(13, 104).
edge(2, 95).
edge(47, 84).
edge(76, 175).
edge(48, 74).
edge(113, 174).
edge(0, 116).
edge(139, 145).
edge(26, 49).
edge(3, 137).
edge(131, 143).
edge(84, 159).
edge(86, 136).
edge(32, 150).
edge(9, 84).
edge(59, 128).
edge(18, 79).
edge(86, 92).
edge(55, 132).
edge(25, 66).
edge(8, 91).
edge(29, 170).
edge(31, 85).
edge(18, 126).
edge(16, 61).
edge(160, 179).
edge(125, 156).
edge(167, 176).
edge(33, 95).
edge(89, 142).
edge(125, 160).
edge(40, 161).
edge(61, 86).
edge(30, 80).
edge(14, 30).
edge(3, 73).
edge(179, 180).
edge(91, 120).
edge(13, 114).
edge(73, 80).
edge(86, 98).
edge(35, 99).
edge(3, 92).
edge(95, 162).
edge(161, 168).
edge(42, 79).
edge(55, 156).
edge(59, 182).
edge(72, 136).
edge(51, 183).
edge(15, 123).
edge(105, 110).
edge(10, 40).
edge(109, 145).
edge(8, 102).
edge(97, 179).
edge(138, 139).
edge(20, 48).
edge(130, 155).
edge(131, 185).
edge(149, 159).
edge(0, 23).
edge(54, 165).
edge(95, 167).
edge(54, 112).
edge(1, 133).
edge(34, 186).
edge(2, 106).
edge(107, 173).
edge(3, 127).
edge(22, 148).
edge(7, 139).
edge(20, 149).
edge(64, 142).
edge(134, 165).
edge(30, 63).
edge(5, 148).
edge(19, 46).
edge(3, 122).
edge(55, 140).
edge(91, 98).
edge(12, 155).
edge(150, 155).
edge(124, 134).
edge(116, 129).
edge(75, 117).
edge(106, 123).
edge(26, 145).
edge(126, 155).
edge(3, 75).
edge(22, 129).
edge(116, 158).
edge(97, 119).
edge(78, 164).
edge(49, 119).
edge(13, 19).
edge(13, 20).
edge(9, 150).
edge(37, 63).
edge(2, 185).
edge(59, 72).
edge(111, 165).
edge(22, 40).
edge(9, 124).
edge(25, 100).
edge(53, 184).
edge(121, 137).
edge(172, 181).
edge(112, 150).
edge(81, 94).
edge(21, 162).
edge(104, 121).
edge(30, 169).
edge(76, 132).
edge(4, 143).
edge(69, 152).
edge(128, 146).
edge(77, 85).
edge(80, 82).
edge(126, 160).
edge(10, 179).
edge(25, 88).
edge(51, 77).
edge(9, 69).
edge(36, 155).
edge(39, 130).
edge(29, 91).
edge(64, 183).
edge(22, 69).
edge(1, 96).
edge(96, 169).
edge(1, 134).
edge(78, 172).
edge(5, 163).
edge(84, 166).
edge(126, 182).
edge(36, 136).
edge(79, 155).
edge(22, 99).
edge(57, 98).
edge(23, 170).
edge(20, 147).
edge(51, 142).
edge(26, 83).
edge(21, 34).
edge(4, 167).
edge(74, 113).
edge(59, 186).
edge(9, 54).
edge(98, 121).
edge(27, 115).
edge(89, 183).
edge(24, 77).
edge(116, 122).
edge(79, 97).
edge(74, 184).
edge(111, 159).
edge(14, 158).
edge(82, 88).
edge(40, 82).
edge(12, 97).
edge(13, 74).
edge(60, 175).
edge(62, 155).
edge(70, 184).
edge(23, 144).
edge(146, 173).
edge(35, 153).
edge(23, 54).
edge(15, 75).
edge(13, 65).
edge(100, 107).
edge(0, 127).
edge(76, 169).
edge(65, 97).
edge(44, 52).
edge(93, 165).
edge(90, 136).
edge(8, 163).
edge(54, 141).
edge(9, 21).
edge(39, 125).
edge(38, 45).
edge(39, 174).
edge(21, 78).
edge(66, 121).
edge(3, 158).
edge(101, 180).
edge(22, 75).
edge(39, 126).
edge(54, 134).
edge(90, 161).
edge(134, 183).
edge(26, 126).
edge(105, 107).
edge(106, 174).
edge(107, 127).
edge(2, 50).
edge(73, 152).
edge(30, 148).
edge(11, 42).
edge(14, 97).
edge(115, 118).
edge(38, 57).
edge(70, 177).
edge(61, 143).
edge(143, 173).
edge(54, 120).
edge(96, 105).
edge(13, 89).
edge(174, 180).
edge(140, 158).
edge(60, 149).
edge(10, 66).
edge(121, 178).
edge(9, 55).
edge(66, 143).
edge(67, 90).
edge(14, 104).
edge(50, 163).
edge(44, 95).
edge(94, 141).
edge(42, 53).
edge(41, 75).
edge(115, 136).
edge(137, 143).
edge(113, 146).
edge(86, 126).
edge(59, 105).
edge(11, 178).
edge(93, 142).
edge(19, 183).
edge(88, 94).
edge(3, 130).
edge(61, 145).
edge(120, 155).
edge(12, 114).
edge(71, 83).
edge(18, 88).
edge(15, 97).
edge(25, 73).
edge(108, 174).
edge(147, 177).
edge(16, 76).
edge(119, 183).
edge(11, 106).
edge(82, 145).
edge(37, 132).
edge(111, 150).
edge(16, 158).
edge(54, 127).
edge(58, 167).
edge(43, 83).
edge(98, 122).
edge(64, 175).
edge(43, 80).
edge(14, 46).
edge(10, 99).
edge(80, 100).
edge(5, 87).
edge(27, 96).
edge(83, 167).
edge(3, 95).
edge(63, 81).
edge(56, 106).
edge(10, 97).
edge(30, 162).
edge(136, 184).
edge(13, 43).
edge(26, 119).
edge(37, 159).
edge(56, 147).
edge(5, 55).
edge(62, 144).
edge(57, 72).
edge(1, 69).
edge(11, 151).
edge(91, 114).
edge(62, 127).
edge(28, 172).
edge(61, 93).
edge(134, 159).
edge(83, 161).
edge(87, 161).
edge(48, 60).
edge(157, 179).
edge(58, 147).
edge(27, 147).
edge(90, 97).
edge(61, 89).
edge(113, 168).
edge(12, 143).
edge(102, 110).
edge(13, 177).
edge(57, 147).
edge(64, 131).
edge(121, 143).
edge(55, 108).
edge(85, 112).
edge(133, 168).
edge(9, 102).
edge(33, 139).
edge(63, 158).
edge(131, 179).
edge(52, 155).
edge(46, 79).
edge(55, 167).
edge(106, 114).
edge(61, 151).
edge(32, 47).
edge(83, 163).
edge(18, 36).
edge(14, 89).
edge(85, 121).
edge(106, 170).
edge(15, 41).
edge(60, 157).
edge(42, 52).
edge(6, 163).
edge(103, 185).
edge(116, 183).
edge(116, 134).
edge(78, 96).
edge(65, 128).
edge(80, 173).
edge(65, 138).
edge(58, 107).
edge(66, 90).
edge(36, 158).
edge(86, 142).
edge(27, 182).
edge(22, 159).
edge(125, 146).
edge(32, 137).
edge(120, 179).
edge(41, 139).
edge(5, 11).
edge(158, 168).
edge(151, 175).
edge(74, 125).
edge(68, 179).
edge(10, 14).
edge(46, 64).
edge(58, 60).
edge(109, 180).
edge(95, 161).
edge(51, 116).
edge(90, 156).
edge(105, 182).
edge(8, 27).
edge(1, 80).
edge(44, 108).
edge(44, 143).
edge(13, 150).
edge(57, 142).
edge(81, 87).
edge(74, 152).
edge(12, 142).
edge(133, 159).
edge(9, 45).
edge(12, 36).
edge(144, 185).
edge(68, 131).
edge(18, 173).
edge(0, 177).
edge(56, 151).
edge(4, 151).
edge(141, 148).
edge(114, 177).
edge(96, 109).
edge(151, 165).
edge(4, 85).
edge(40, 57).
edge(10, 64).
edge(22, 70).
edge(80, 85).
edge(91, 140).
edge(53, 173).
edge(11, 59).
edge(50, 51).
edge(49, 151).
edge(43, 107).
edge(124, 136).
edge(89, 145).
edge(23, 81).
edge(104, 154).
edge(29, 148).
edge(33, 185).
edge(23, 90).
edge(13, 146).
edge(56, 128).
edge(115, 116).
edge(131, 152).
edge(122, 168).
edge(31, 184).
edge(54, 181).
edge(68, 151).
edge(7, 80).
edge(2, 84).
edge(11, 182).
edge(47, 157).
edge(63, 64).
edge(81, 184).
edge(36, 106).
edge(31, 126).
edge(104, 109).
edge(100, 113).
edge(17, 140).
edge(143, 182).
edge(22, 157).
edge(94, 186).
edge(84, 130).
edge(17, 139).
edge(113, 149).
edge(15, 168).
edge(25, 116).
edge(59, 100).
edge(71, 112).
edge(110, 146).
edge(24, 68).
edge(2, 109).
edge(95, 178).
edge(48, 82).
edge(46, 148).
edge(12, 56).
edge(95, 103).
edge(12, 130).
edge(89, 108).
edge(50, 136).
edge(113, 137).
edge(26, 129).
edge(53, 115).
edge(55, 112).
edge(40, 51).
edge(2, 78).
edge(131, 148).
edge(68, 124).
edge(29, 109).
edge(2, 181).
edge(154, 161).
edge(44, 166).
edge(157, 175).
edge(41, 60).
edge(37, 74).
edge(67, 93).
edge(34, 132).
edge(46, 134).
edge(19, 125).
edge(62, 135).
edge(86, 109).
edge(99, 174).
edge(62, 99).
edge(14, 103).
edge(27, 183).
edge(19, 99).
edge(27, 113).
edge(67, 131).
edge(25, 62).
edge(149, 176).
edge(17, 99).
edge(48, 73).
edge(91, 111).
edge(1, 60).
edge(71, 154).
edge(19, 111).
edge(31, 176).
edge(58, 123).
edge(91, 104).
edge(66, 153).
edge(81, 143).
edge(53, 139).
edge(104, 164).
edge(36, 97).
edge(57, 168).
edge(91, 135).
edge(107, 162).
edge(54, 118).
edge(9, 168).
edge(127, 137).
edge(23, 164).
edge(11, 88).
edge(46, 166).
edge(136, 185).
edge(50, 122).
edge(67, 95).
edge(133, 165).
edge(71, 115).
edge(129, 142).
edge(23, 125).
edge(31, 151).
edge(100, 104).
edge(68, 89).
edge(119, 122).
edge(117, 169).
edge(69, 120).
edge(106, 138).
edge(119, 178).
edge(41, 55).
edge(85, 98).
edge(49, 159).
edge(130, 161).
edge(90, 95).
edge(23, 119).
edge(36, 71).
edge(34, 162).
edge(28, 131).
edge(46, 84).
edge(47, 168).
edge(34, 46).
edge(1, 3).
edge(47, 49).
edge(72, 78).
edge(60, 105).
edge(48, 160).
edge(49, 154).
edge(11, 100).
edge(112, 136).
edge(75, 99).
edge(51, 76).
edge(51, 71).
edge(37, 121).
edge(147, 160).
edge(128, 143).
edge(32, 59).
edge(25, 96).
edge(122, 134).
edge(59, 146).
edge(36, 141).
edge(35, 106).
edge(104, 118).
edge(38, 62).
edge(21, 42).
edge(154, 163).
edge(96, 165).
edge(24, 99).
edge(108, 152).
edge(40, 134).
edge(110, 114).
edge(87, 158).
edge(15, 107).
edge(42, 107).
edge(58, 96).
edge(13, 102).
edge(85, 177).
edge(119, 133).
edge(111, 164).
edge(49, 134).
edge(121, 135).
edge(15, 149).
edge(55, 125).
edge(133, 176).
edge(87, 181).
edge(81, 112).
edge(154, 172).
edge(22, 152).
edge(0, 114).
edge(16, 47).
edge(88, 177).
edge(80, 89).
edge(5, 164).
edge(9, 61).
edge(75, 174).
edge(114, 182).
edge(140, 171).
edge(132, 144).
edge(2, 124).
edge(33, 167).
edge(91, 156).
edge(107, 116).
edge(70, 144).
edge(124, 162).
edge(46, 78).
edge(121, 174).
edge(8, 26).
edge(26, 116).
edge(160, 167).
edge(146, 152).
edge(86, 178).
edge(7, 104).
edge(33, 56).
edge(34, 93).
edge(125, 143).
edge(1, 175).
edge(31, 49).
edge(31, 66).
edge(41, 74).
edge(42, 86).
edge(10, 54).
edge(90, 168).
edge(59, 133).
edge(30, 48).
edge(64, 177).
edge(61, 149).
edge(70, 120).
edge(19, 34).
edge(88, 138).
edge(133, 174).
edge(33, 48).
edge(6, 143).
edge(81, 102).
edge(104, 112).
edge(48, 141).
edge(99, 130).
edge(117, 161).
edge(61, 71).
edge(124, 142).
edge(16, 19).
edge(49, 182).
edge(11, 93).
edge(1, 44).
edge(33, 90).
edge(92, 95).
edge(108, 158).
edge(119, 124).
edge(27, 180).
edge(26, 62).
edge(40, 55).
edge(32, 161).
edge(104, 146).
edge(19, 25).
edge(46, 118).
edge(70, 141).
edge(54, 55).
edge(34, 120).
edge(107, 159).
edge(101, 122).
edge(66, 134).
edge(33, 59).
edge(49, 153).
edge(12, 76).
edge(9, 125).
edge(10, 13).
edge(78, 182).
edge(132, 173).
edge(99, 184).
edge(44, 53).
edge(39, 66).
edge(20, 30).
edge(167, 170).
edge(127, 133).
edge(51, 78).
edge(18, 59).
edge(18, 171).
edge(5, 142).
edge(131, 172).
edge(109, 132).
edge(137, 186).
edge(24, 55).
edge(5, 126).
edge(17, 30).
edge(43, 160).
edge(21, 59).
edge(57, 181).
edge(43, 173).
edge(53, 150).
edge(17, 180).
edge(130, 174).
edge(42, 122).
edge(167, 179).
edge(58, 73).
edge(84, 146).
edge(71, 148).
edge(80, 127).
edge(35, 172).
edge(15, 66).
edge(50, 146).
edge(36, 37).
edge(56, 67).
edge(36, 165).
edge(148, 167).
edge(87, 169).
edge(45, 128).
edge(78, 108).
edge(66, 93).
edge(41, 87).
edge(136, 137).
edge(16, 141).
edge(19, 89).
edge(37, 47).
edge(145, 173).
edge(26, 160).
edge(53, 171).
edge(136, 152).
edge(5, 42).
edge(5, 166).
edge(120, 149).
edge(14, 32).
edge(97, 149).
edge(22, 139).
edge(65, 133).
edge(85, 178).
edge(75, 89).
edge(0, 59).
edge(29, 179).
edge(51, 79).
edge(6, 148).
edge(20, 87).
edge(115, 176).
edge(155, 176).
edge(46, 131).
edge(31, 149).
edge(11, 94).
edge(104, 127).
edge(115, 165).
edge(81, 107).
edge(66, 72).
edge(61, 165).
edge(51, 75).
edge(35, 76).
edge(79, 175).
edge(101, 152).
edge(54, 138).
edge(0, 170).
edge(113, 145).
edge(14, 54).
edge(1, 67).
edge(99, 113).
edge(8, 125).
edge(31, 88).
edge(21, 36).
edge(94, 120).
edge(36, 48).
edge(101, 106).
edge(47, 76).
edge(159, 161).
edge(54, 103).
edge(167, 186).
edge(109, 183).
edge(13, 73).
edge(120, 125).
edge(17, 182).
edge(75, 166).
edge(99, 156).
edge(115, 144).
edge(40, 147).
edge(16, 156).
edge(18, 30).
edge(80, 91).
edge(1, 25).
edge(92, 183).
edge(110, 140).
edge(29, 31).
edge(49, 60).
edge(43, 49).
edge(62, 130).
edge(41, 177).
edge(66, 140).
edge(78, 132).
edge(114, 178).
edge(21, 28).
edge(9, 129).
edge(85, 128).
edge(100, 149).
edge(16, 143).
edge(24, 79).
edge(142, 160).
edge(118, 148).
edge(75, 167).
edge(108, 115).
edge(119, 149).
edge(88, 104).
edge(66, 179).
edge(50, 63).
edge(118, 128).
edge(3, 81).
edge(100, 161).
edge(69, 122).
edge(19, 80).
edge(98, 161).
edge(16, 45).
edge(19, 146).
edge(122, 178).
edge(28, 178).
edge(22, 107).
edge(35, 51).
edge(7, 179).
edge(23, 35).
edge(131, 160).
edge(77, 81).
edge(41, 163).
edge(77, 94).
edge(2, 147).
edge(2, 69).
edge(87, 145).
edge(74, 142).
edge(120, 160).
edge(76, 119).
edge(19, 74).
edge(78, 112).
edge(85, 154).
edge(114, 129).
edge(30, 102).
edge(59, 66).
edge(84, 147).
edge(31, 69).
edge(79, 158).
edge(74, 183).
edge(84, 163).
edge(45, 162).
edge(13, 115).
edge(95, 160).
edge(9, 70).
edge(177, 180).
edge(9, 107).
edge(28, 183).
edge(16, 185).
edge(82, 151).
edge(40, 141).
edge(97, 160).
edge(67, 139).
edge(47, 144).
edge(115, 117).
edge(14, 100).
edge(183, 185).
edge(131, 145).
edge(19, 161).
edge(82, 99).
edge(1, 57).
edge(92, 181).
edge(5, 115).
edge(26, 40).
edge(26, 58).
edge(6, 28).
edge(48, 76).
edge(113, 116).
edge(9, 32).
edge(130, 145).
edge(10, 68).
edge(50, 134).
edge(10, 135).
edge(49, 99).
edge(11, 96).
edge(69, 155).
edge(23, 178).
edge(74, 131).
edge(73, 82).
edge(71, 177).
edge(3, 178).
edge(20, 90).
edge(111, 163).
edge(102, 130).
edge(124, 152).
edge(133, 141).
edge(88, 102).
edge(56, 74).
edge(104, 185).
edge(48, 182).
edge(28, 68).
edge(54, 159).
edge(20, 151).
edge(3, 185).
edge(40, 146).
edge(8, 123).
edge(25, 173).
edge(125, 163).
edge(81, 100).
edge(13, 172).
edge(82, 141).
edge(0, 65).
edge(131, 137).
edge(74, 134).
edge(54, 61).
edge(70, 127).
edge(22, 180).
edge(42, 149).
edge(52, 128).
edge(4, 152).
edge(34, 76).
edge(56, 162).
edge(61, 181).
edge(94, 131).
edge(87, 146).
edge(4, 109).
edge(78, 181).
edge(78, 84).
edge(58, 62).
edge(29, 74).
edge(67, 135).
edge(133, 164).
edge(36, 115).
edge(42, 139).
edge(6, 104).
edge(48, 155).
edge(24, 29).
edge(60, 114).
edge(144, 183).
edge(6, 127).
edge(60, 122).
edge(58, 106).
edge(12, 64).
edge(77, 105).
edge(136, 144).
edge(5, 156).
edge(107, 145).
edge(48, 162).
edge(99, 118).
edge(46, 107).
edge(35, 87).
edge(66, 122).
edge(33, 40).
edge(80, 135).
edge(20, 101).
edge(48, 105).
edge(84, 87).
edge(50, 66).
edge(131, 157).
edge(77, 78).
edge(125, 139).
edge(160, 170).
edge(85, 157).
edge(57, 66).
edge(17, 95).
edge(42, 93).
edge(14, 48).
edge(66, 137).
edge(18, 64).
edge(51, 111).
edge(11, 39).
edge(38, 127).
edge(63, 178).
edge(125, 157).
edge(90, 131).
edge(37, 153).
edge(103, 131).
edge(41, 48).
edge(71, 159).
edge(84, 148).
edge(13, 49).
edge(6, 67).
edge(129, 162).
edge(121, 160).
edge(99, 179).
edge(97, 104).
edge(23, 165).
edge(2, 21).
edge(79, 146).
edge(26, 138).
edge(106, 146).
edge(84, 91).
edge(37, 123).
edge(72, 92).
edge(10, 173).
edge(83, 154).
edge(81, 181).
edge(34, 155).
edge(73, 94).
edge(76, 135).
edge(134, 174).
edge(96, 124).
edge(60, 163).
edge(172, 176).
edge(20, 135).
edge(13, 81).
edge(25, 186).
edge(88, 171).
edge(73, 108).
edge(135, 149).
edge(81, 128).
edge(116, 131).
edge(8, 161).
edge(32, 63).
edge(63, 109).
edge(72, 141).
edge(108, 128).
edge(46, 60).
edge(119, 143).
edge(34, 140).
edge(67, 81).
edge(122, 135).
edge(102, 154).
edge(42, 61).
edge(44, 150).
edge(136, 175).
edge(95, 113).
edge(135, 184).
edge(153, 161).
edge(7, 78).
edge(81, 84).
edge(20, 46).
edge(112, 153).
edge(107, 169).
edge(23, 128).
edge(0, 49).
edge(31, 183).
edge(140, 149).
edge(30, 158).
edge(82, 119).
edge(18, 78).
edge(45, 65).
edge(55, 76).
edge(41, 89).
edge(125, 182).
edge(5, 88).
edge(5, 162).
edge(42, 130).
edge(59, 62).
edge(24, 110).
edge(54, 166).
edge(38, 102).
edge(114, 126).
edge(56, 113).
edge(78, 107).
edge(110, 135).
edge(62, 161).
edge(95, 181).
edge(100, 186).
edge(12, 69).
edge(0, 98).
edge(114, 142).
edge(121, 173).
edge(36, 117).
edge(96, 153).
edge(92, 158).
edge(106, 186).
edge(42, 114).
edge(75, 161).
edge(54, 62).
edge(28, 99).
edge(70, 84).
edge(63, 68).
edge(82, 177).
edge(72, 89).
edge(3, 49).
edge(108, 171).
edge(118, 131).
edge(17, 107).
edge(94, 100).
edge(73, 139).
edge(116, 148).
edge(104, 136).
edge(1, 49).
edge(83, 115).
edge(2, 93).
edge(24, 155).
edge(114, 123).
edge(98, 110).
edge(21, 89).
edge(18, 46).
edge(50, 75).
edge(73, 102).
edge(75, 104).
edge(75, 176).
edge(36, 114).
edge(6, 140).
edge(42, 74).
edge(16, 131).
edge(34, 88).
edge(51, 85).
edge(29, 156).
edge(28, 88).
edge(0, 16).
edge(48, 157).
edge(123, 140).
edge(38, 50).
edge(105, 135).
edge(66, 145).
edge(70, 107).
edge(118, 140).
edge(92, 157).
edge(0, 5).
edge(105, 108).
edge(68, 181).
edge(4, 80).
edge(56, 63).
edge(53, 66).
edge(109, 119).
edge(69, 185).
edge(49, 128).
edge(4, 90).
edge(105, 125).
edge(64, 95).
edge(174, 182).
edge(67, 109).
edge(83, 120).
edge(57, 73).
edge(34, 131).
edge(3, 4).
edge(171, 174).
edge(92, 103).
edge(14, 180).
edge(39, 91).
edge(130, 168).
edge(82, 133).
edge(12, 66).
edge(10, 50).
edge(63, 172).
edge(80, 166).
edge(95, 145).
edge(101, 179).
edge(54, 65).
edge(146, 177).
edge(47, 54).
edge(87, 121).
edge(150, 167).
edge(155, 180).
edge(81, 176).
edge(36, 130).
edge(77, 129).
edge(20, 55).
edge(94, 170).
edge(124, 154).
edge(162, 172).
edge(23, 141).
edge(60, 104).
edge(14, 181).
edge(142, 145).
edge(94, 177).
edge(12, 162).
edge(66, 92).
edge(167, 174).
edge(56, 170).
edge(19, 62).
edge(75, 111).
edge(10, 89).
edge(51, 168).
edge(58, 112).
edge(23, 31).
edge(31, 153).
edge(33, 43).
edge(84, 161).
edge(148, 183).
edge(5, 40).
edge(63, 142).
edge(138, 184).
edge(84, 183).
edge(4, 133).
edge(74, 130).
edge(83, 100).
edge(21, 66).
edge(23, 124).
edge(31, 137).
edge(106, 115).
edge(15, 83).
edge(97, 148).
edge(55, 103).
edge(47, 61).
edge(83, 155).
edge(65, 83).
edge(60, 110).
edge(107, 161).
edge(82, 146).
edge(25, 121).
edge(60, 127).
edge(39, 101).
edge(35, 143).
edge(3, 132).
edge(10, 108).
edge(97, 147).
edge(80, 81).
edge(159, 182).
edge(61, 80).
edge(47, 125).
edge(55, 60).
edge(65, 85).
edge(61, 127).
edge(0, 70).
edge(8, 177).
edge(58, 69).
edge(23, 109).
edge(23, 43).
edge(26, 66).
edge(62, 90).
edge(58, 180).
edge(96, 164).
edge(58, 110).
edge(17, 33).
edge(13, 106).
edge(106, 157).
edge(47, 121).
edge(120, 174).
edge(67, 180).
edge(24, 32).
edge(32, 96).
edge(89, 177).
edge(28, 184).
edge(12, 159).
edge(67, 87).
edge(134, 135).
edge(79, 169).
edge(130, 185).
edge(33, 180).
edge(48, 161).
edge(96, 177).
edge(90, 121).
edge(149, 151).
edge(22, 186).
edge(55, 89).
edge(16, 155).
edge(115, 168).
edge(127, 158).
edge(65, 96).
edge(143, 185).
edge(101, 117).
edge(28, 32).
edge(43, 141).
edge(35, 52).
edge(75, 115).
edge(77, 136).
edge(1, 7).
edge(6, 164).
edge(73, 101).
edge(105, 118).
edge(99, 170).
edge(107, 133).
edge(18, 44).
edge(11, 44).
edge(2, 92).
edge(33, 162).
edge(122, 171).
edge(2, 24).
edge(20, 97).
edge(126, 184).
edge(77, 115).
edge(128, 166).
edge(8, 145).
edge(88, 152).
edge(75, 139).
edge(7, 61).
edge(121, 139).
edge(85, 99).
edge(59, 181).
edge(23, 36).
edge(40, 90).
edge(33, 178).
edge(67, 176).
edge(11, 84).
edge(135, 171).
edge(18, 152).
edge(84, 100).
edge(37, 171).
edge(15, 116).
edge(67, 185).
edge(73, 97).
edge(92, 118).
edge(30, 178).
edge(64, 85).
edge(30, 136).
edge(79, 115).
edge(109, 123).
edge(165, 182).
edge(98, 107).
edge(3, 111).
edge(10, 37).
edge(7, 132).
edge(124, 186).
edge(24, 33).
edge(20, 21).
edge(54, 60).
edge(145, 155).
edge(3, 129).
edge(28, 71).
edge(109, 185).
edge(50, 120).
edge(96, 121).
edge(123, 146).
edge(0, 95).
edge(37, 109).
edge(28, 164).
edge(104, 117).
edge(12, 55).
edge(14, 138).
edge(43, 150).
edge(156, 167).
edge(0, 165).
edge(69, 131).
edge(46, 142).
edge(77, 99).
edge(13, 175).
edge(16, 135).
edge(46, 170).
edge(8, 103).
edge(165, 171).
edge(30, 145).
edge(12, 186).
edge(146, 170).
edge(116, 155).
edge(133, 151).
edge(90, 177).
edge(28, 95).
edge(166, 179).
edge(7, 98).
edge(37, 70).
edge(76, 92).
edge(65, 116).
edge(74, 126).
edge(4, 97).
edge(45, 140).
edge(28, 165).
edge(83, 170).
edge(52, 154).
edge(78, 140).
edge(52, 101).
edge(1, 61).
edge(15, 170).
edge(160, 183).
edge(89, 123).
edge(108, 127).
edge(81, 140).
edge(58, 83).
edge(6, 63).
edge(119, 153).
edge(3, 115).
edge(26, 153).
edge(41, 70).
edge(126, 153).
edge(20, 107).
edge(54, 98).
edge(98, 159).
edge(36, 154).
edge(58, 90).
edge(30, 41).
edge(24, 103).
edge(51, 52).
edge(107, 140).
edge(21, 136).
edge(29, 59).
edge(70, 129).
edge(29, 44).
edge(37, 100).
edge(156, 159).
edge(14, 137).
edge(13, 184).
edge(149, 168).
edge(131, 181).
edge(63, 153).
edge(21, 65).
edge(25, 44).
edge(30, 176).
edge(119, 165).
edge(123, 143).
edge(4, 111).
edge(77, 152).
edge(75, 128).
edge(31, 110).
edge(4, 144).
edge(21, 118).
edge(22, 164).
edge(25, 136).
edge(27, 67).
edge(19, 98).
edge(61, 87).
edge(8, 180).
edge(59, 86).
edge(46, 81).
edge(145, 172).
edge(59, 74).
edge(129, 135).
edge(133, 149).
edge(130, 172).
edge(24, 40).
edge(17, 39).
edge(110, 173).
edge(71, 151).
edge(21, 171).
edge(28, 150).
edge(79, 154).
edge(1, 38).
edge(145, 161).
edge(108, 142).
edge(50, 60).
edge(91, 181).
edge(76, 117).
edge(104, 156).
edge(49, 172).
edge(133, 161).
edge(96, 152).
edge(36, 84).
edge(49, 181).
edge(24, 168).
edge(96, 140).
edge(133, 184).
edge(59, 184).
edge(134, 168).
edge(59, 164).
edge(12, 164).
edge(120, 163).
edge(155, 168).
edge(78, 127).
edge(114, 172).
edge(123, 133).
edge(93, 94).
edge(43, 163).
edge(42, 102).
edge(14, 157).
edge(117, 125).
edge(38, 152).
edge(59, 132).
edge(67, 88).
edge(9, 14).
edge(41, 73).
edge(6, 33).
edge(67, 94).
edge(60, 168).
edge(12, 131).
edge(46, 153).
edge(18, 21).
edge(16, 151).
edge(61, 66).
edge(143, 169).
edge(60, 99).
edge(131, 156).
edge(50, 103).
edge(46, 164).
edge(11, 163).
edge(101, 186).
edge(45, 103).
edge(27, 74).
edge(95, 179).
edge(93, 101).
edge(20, 128).
edge(22, 120).
edge(9, 157).
edge(74, 90).
edge(64, 113).
edge(16, 53).
edge(25, 143).
edge(169, 185).
edge(40, 60).
edge(112, 179).
edge(18, 90).
edge(3, 74).
edge(53, 124).
edge(136, 162).
edge(152, 164).
edge(38, 87).
edge(65, 119).
edge(29, 72).
edge(19, 81).
edge(94, 99).
edge(13, 95).
edge(26, 81).
edge(108, 179).
edge(12, 78).
edge(25, 78).
edge(23, 172).
edge(103, 143).
edge(41, 85).
edge(143, 152).
edge(10, 171).
edge(29, 80).
edge(31, 52).
edge(88, 119).
edge(64, 150).
edge(175, 186).
edge(30, 156).
edge(42, 48).
edge(66, 105).
edge(96, 154).
edge(147, 170).
edge(52, 131).
edge(162, 171).
edge(2, 75).
edge(14, 156).
edge(38, 52).
edge(71, 173).
edge(132, 168).
edge(47, 152).
edge(82, 176).
edge(23, 58).
edge(124, 181).
edge(36, 108).
edge(148, 165).
edge(37, 179).
edge(87, 182).
edge(12, 33).
edge(40, 61).
edge(78, 159).
edge(26, 132).
edge(57, 159).
edge(47, 118).
edge(46, 53).
edge(63, 140).
edge(97, 131).
edge(100, 132).
edge(12, 79).
edge(66, 159).
edge(9, 81).
edge(74, 172).
edge(47, 63).
edge(77, 128).
edge(122, 140).
edge(50, 131).
edge(28, 138).
edge(15, 158).
edge(0, 103).
edge(121, 161).
edge(36, 59).
edge(10, 73).
edge(81, 160).
edge(0, 142).
edge(72, 124).
edge(2, 176).
edge(3, 104).
edge(63, 93).
edge(45, 186).
edge(98, 109).
edge(4, 52).
edge(74, 181).
edge(87, 90).
edge(46, 105).
edge(129, 155).
edge(47, 159).
edge(10, 128).
edge(66, 97).
edge(35, 122).
edge(49, 123).
edge(55, 170).
edge(9, 137).
edge(67, 143).
edge(95, 174).
edge(41, 137).
edge(52, 108).
edge(16, 74).
edge(58, 87).
edge(53, 68).
edge(89, 94).
edge(23, 48).
edge(39, 128).
edge(66, 132).
edge(72, 103).
edge(169, 174).
edge(66, 117).
edge(42, 103).
edge(78, 109).
edge(11, 26).
edge(124, 140).
edge(47, 146).
edge(108, 124).
edge(76, 141).
edge(90, 119).
edge(59, 185).
edge(77, 104).
edge(96, 125).
edge(94, 145).
edge(29, 64).
edge(125, 140).
edge(11, 121).
edge(65, 136).
edge(30, 60).
edge(21, 51).
edge(35, 120).
edge(161, 164).
edge(127, 179).
edge(119, 150).
edge(130, 158).
edge(71, 113).
edge(45, 135).
edge(160, 174).
edge(118, 124).
edge(69, 108).
edge(61, 98).
edge(84, 143).
edge(13, 34).
edge(74, 111).
edge(52, 133).
edge(97, 166).
edge(39, 76).
edge(30, 42).
edge(100, 106).
edge(45, 61).
edge(118, 127).
edge(150, 175).
edge(0, 48).
edge(87, 119).
edge(10, 71).
edge(80, 132).
edge(40, 139).
edge(45, 100).
edge(66, 158).
edge(7, 152).
edge(1, 132).
edge(55, 91).
edge(18, 72).
edge(52, 71).
edge(33, 146).
edge(99, 116).
edge(31, 59).
edge(22, 142).
edge(56, 111).
edge(96, 106).
edge(12, 18).
edge(1, 28).
edge(23, 71).
edge(62, 121).
edge(54, 179).
edge(54, 82).
edge(163, 169).
edge(7, 44).
edge(78, 123).
edge(75, 80).
edge(4, 94).
edge(45, 125).
edge(83, 186).
edge(29, 85).
edge(126, 183).
edge(44, 90).
edge(134, 179).
edge(36, 180).
edge(64, 185).
edge(13, 16).
edge(5, 127).
edge(34, 150).
edge(39, 143).
edge(29, 66).
edge(65, 84).
edge(61, 137).
edge(166, 176).
edge(29, 150).
edge(84, 104).
edge(39, 186).
edge(70, 82).
edge(36, 178).
edge(1, 129).
edge(132, 171).
edge(141, 163).
edge(25, 98).
edge(98, 114).
edge(20, 40).
edge(65, 98).
edge(0, 72).
edge(28, 36).
edge(111, 129).
edge(76, 83).
edge(29, 51).
edge(105, 162).
edge(27, 144).
edge(15, 85).
edge(74, 145).
edge(52, 66).
edge(88, 137).
edge(50, 109).
edge(6, 32).
edge(39, 167).
edge(87, 163).
edge(35, 105).
edge(4, 75).
edge(75, 135).
edge(8, 104).
edge(17, 50).
edge(124, 129).
edge(45, 175).
edge(47, 75).
edge(83, 85).
edge(150, 171).
edge(42, 151).
edge(10, 131).
edge(2, 9).
edge(65, 77).
edge(74, 138).
edge(75, 172).
edge(29, 48).
edge(76, 95).
edge(42, 54).
edge(3, 106).
edge(68, 91).
edge(55, 178).
edge(42, 73).
edge(38, 148).
edge(2, 88).
edge(49, 91).
edge(124, 132).
edge(82, 183).
edge(12, 129).
edge(146, 179).
edge(108, 117).
edge(74, 107).
edge(73, 141).
edge(6, 118).
edge(45, 157).
edge(21, 186).
edge(43, 144).
edge(107, 158).
edge(101, 175).
edge(51, 110).
edge(29, 145).
edge(45, 58).
edge(48, 50).
edge(32, 60).
edge(63, 185).
edge(34, 57).
edge(52, 125).
edge(77, 177).
edge(45, 92).
edge(155, 172).
edge(91, 169).
edge(22, 158).
edge(80, 155).
edge(19, 122).
edge(31, 60).
edge(6, 54).
edge(14, 116).
edge(97, 114).
edge(36, 65).
edge(90, 142).
edge(137, 170).
edge(19, 35).
edge(14, 171).
edge(82, 83).
edge(101, 167).
edge(24, 156).
edge(74, 155).
edge(92, 142).
edge(51, 147).
edge(16, 171).
edge(95, 100).
edge(135, 167).
edge(55, 106).
edge(56, 169).
edge(24, 166).
edge(59, 95).
edge(73, 140).
edge(39, 50).
edge(38, 173).
edge(29, 175).
edge(122, 157).
edge(141, 145).
edge(131, 161).
edge(1, 157).
edge(11, 168).
edge(38, 56).
edge(32, 83).
edge(8, 76).
edge(96, 129).
edge(22, 162).
edge(125, 177).
edge(8, 184).
edge(28, 156).
edge(13, 31).
edge(91, 165).
edge(30, 142).
edge(94, 154).
edge(29, 132).
edge(73, 74).
edge(15, 139).
edge(1, 103).
edge(33, 166).
edge(51, 184).
edge(30, 152).
edge(104, 147).
edge(100, 145).
edge(104, 162).
edge(56, 89).
edge(117, 135).
edge(15, 106).
edge(45, 74).
edge(6, 113).
edge(60, 158).
edge(49, 115).
edge(162, 173).
edge(95, 133).
edge(38, 75).
edge(137, 169).
edge(5, 59).
edge(12, 68).
edge(80, 110).
edge(9, 132).
edge(159, 183).
edge(23, 166).
edge(62, 80).
edge(40, 140).
edge(78, 111).
edge(11, 53).
edge(127, 143).
edge(26, 97).
edge(2, 53).
edge(9, 183).
edge(73, 175).
edge(74, 173).
edge(90, 110).
edge(99, 149).
edge(79, 159).
edge(69, 135).
edge(25, 163).
edge(84, 116).
edge(73, 91).
edge(23, 93).
edge(48, 121).
edge(26, 107).
edge(86, 151).
edge(1, 163).
edge(118, 185).
edge(2, 4).
edge(122, 153).
edge(52, 167).
edge(4, 129).
edge(119, 154).
edge(27, 60).
edge(169, 176).
edge(91, 160).
edge(17, 77).
edge(86, 134).
edge(132, 155).
edge(36, 103).
edge(21, 114).
edge(131, 183).
edge(56, 86).
edge(95, 177).
edge(8, 178).
edge(107, 117).
edge(117, 150).
edge(43, 67).
edge(32, 65).
edge(59, 161).
edge(37, 167).
edge(27, 158).
edge(21, 104).
edge(97, 181).
edge(21, 87).
edge(2, 37).
edge(97, 99).
edge(35, 104).
edge(60, 101).
edge(5, 12).
edge(93, 148).
edge(55, 116).
edge(96, 166).
edge(78, 87).
edge(38, 164).
edge(53, 135).
edge(28, 85).
edge(47, 73).
edge(22, 163).
edge(33, 76).
edge(6, 83).
edge(68, 161).
edge(27, 87).
edge(84, 158).
edge(84, 140).
edge(158, 185).
edge(23, 69).
edge(129, 139).
edge(15, 54).
edge(39, 176).
edge(36, 87).
edge(22, 125).
edge(29, 186).
edge(71, 97).
edge(50, 135).
edge(20, 59).
edge(39, 94).
edge(120, 151).
edge(37, 129).
edge(158, 186).
edge(43, 165).
edge(85, 91).
edge(22, 48).
edge(113, 170).
edge(69, 157).
edge(59, 139).
edge(133, 150).
edge(73, 98).
edge(90, 170).
edge(44, 86).
edge(15, 19).
edge(15, 129).
edge(113, 131).
edge(94, 172).
edge(15, 163).
edge(57, 113).
edge(8, 108).
edge(46, 106).
edge(63, 72).
edge(4, 117).
edge(127, 171).
edge(11, 150).
edge(154, 182).
edge(94, 96).
edge(63, 70).
edge(14, 25).
edge(22, 166).
weight(0, 8).
weight(1, 9).
weight(2, 3).
weight(3, 4).
weight(4, 3).
weight(5, 11).
weight(6, 6).
weight(7, 1).
weight(8, 10).
weight(9, 7).
weight(10, 7).
weight(11, 4).
weight(12, 4).
weight(13, 5).
weight(14, 6).
weight(15, 9).
weight(16, 4).
weight(17, 2).
weight(18, 11).
weight(19, 6).
weight(20, 8).
weight(21, 7).
weight(22, 4).
weight(23, 8).
weight(24, 2).
weight(25, 4).
weight(26, 6).
weight(27, 10).
weight(28, 7).
weight(29, 11).
weight(30, 2).
weight(31, 3).
weight(32, 1).
weight(33, 7).
weight(34, 7).
weight(35, 10).
weight(36, 7).
weight(37, 11).
weight(38, 3).
weight(39, 7).
weight(40, 8).
weight(41, 9).
weight(42, 1).
weight(43, 1).
weight(44, 9).
weight(45, 7).
weight(46, 5).
weight(47, 3).
weight(48, 3).
weight(49, 6).
weight(50, 11).
weight(51, 6).
weight(52, 8).
weight(53, 3).
weight(54, 6).
weight(55, 5).
weight(56, 4).
weight(57, 1).
weight(58, 6).
weight(59, 3).
weight(60, 3).
weight(61, 4).
weight(62, 6).
weight(63, 8).
weight(64, 10).
weight(65, 10).
weight(66, 1).
weight(67, 10).
weight(68, 1).
weight(69, 3).
weight(70, 1).
weight(71, 4).
weight(72, 7).
weight(73, 10).
weight(74, 2).
weight(75, 9).
weight(76, 1).
weight(77, 6).
weight(78, 10).
weight(79, 8).
weight(80, 9).
weight(81, 4).
weight(82, 10).
weight(83, 8).
weight(84, 6).
weight(85, 5).
weight(86, 2).
weight(87, 2).
weight(88, 9).
weight(89, 11).
weight(90, 9).
weight(91, 11).
weight(92, 4).
weight(93, 10).
weight(94, 9).
weight(95, 6).
weight(96, 8).
weight(97, 5).
weight(98, 8).
weight(99, 1).
weight(100, 1).
weight(101, 9).
weight(102, 11).
weight(103, 5).
weight(104, 2).
weight(105, 6).
weight(106, 3).
weight(107, 1).
weight(108, 9).
weight(109, 2).
weight(110, 4).
weight(111, 4).
weight(112, 3).
weight(113, 10).
weight(114, 2).
weight(115, 11).
weight(116, 2).
weight(117, 2).
weight(118, 9).
weight(119, 9).
weight(120, 2).
weight(121, 11).
weight(122, 1).
weight(123, 10).
weight(124, 9).
weight(125, 1).
weight(126, 9).
weight(127, 6).
weight(128, 8).
weight(129, 5).
weight(130, 4).
weight(131, 6).
weight(132, 5).
weight(133, 4).
weight(134, 7).
weight(135, 6).
weight(136, 6).
weight(137, 6).
weight(138, 4).
weight(139, 5).
weight(140, 9).
weight(141, 6).
weight(142, 5).
weight(143, 5).
weight(144, 11).
weight(145, 5).
weight(146, 5).
weight(147, 11).
weight(148, 10).
weight(149, 1).
weight(150, 3).
weight(151, 1).
weight(152, 9).
weight(153, 9).
weight(154, 7).
weight(155, 9).
weight(156, 7).
weight(157, 11).
weight(158, 8).
weight(159, 7).
weight(160, 9).
weight(161, 6).
weight(162, 10).
weight(163, 8).
weight(164, 6).
weight(165, 2).
weight(166, 2).
weight(167, 1).
weight(168, 9).
weight(169, 5).
weight(170, 3).
weight(171, 1).
weight(172, 4).
weight(173, 6).
weight(174, 2).
weight(175, 10).
weight(176, 8).
weight(177, 2).
weight(178, 1).
weight(179, 2).
weight(180, 10).
weight(181, 1).
weight(182, 7).
weight(183, 7).
weight(184, 9).
weight(185, 9).
weight(186, 1).
bound(113).

adj(U,V) :- edge(U,V).
adj(U,V) :- edge(V,U).
{in(V)} :- node(V).
dominated(V) :- in(V).
dominated(V) :- in(U), adj(U,V).
:- node(V), not dominated(V).
:- bound(B), #sum{W,V : in(V), weight(V,W)} > B.
:~ in(V), weight(V,W). [W@1,V]
