node(0..174).
edge(3, 75).
edge(66, 158).
edge(10, 80).
edge(28, 40).
edge(40, 91).
edge(57, 156).
edge(34, 50).
edge(11, 131).
edge(36, 94).
edge(38, 166).
edge(36, 43).
edge(2, 113).
edge(112, 135).
edge(119, 168).
edge(57, 157).
edge(1, 105).
edge(94, 131).
edge(95, 145).
edge(3, 35).
edge(48, 154).
edge(119, 164).
edge(95, 158).
edge(24, 118).
edge(42, 156).
edge(3, 48).
edge(79, 104).
edge(105, 143).
edge(134, 143).
edge(86, 134).
edge(65, 131).
edge(149, 155).
edge(22, 118).
edge(30, 42).
edge(90, 113).
edge(51, 69).
edge(43, 118).
edge(73, 170).
edge(17, 157).
edge(23, 69).
edge(103, 127).
edge(159, 161).
edge(15, 162).
edge(68, 70).
edge(3, 56).
edge(19, 165).
edge(41, 81).
edge(56, 159).
edge(59, 116).
edge(76, 170).
edge(3, 80).
edge(54, 96).
edge(53, 58).
edge(14, 125).
edge(78, 117).
edge(54, 166).
edge(75, 161).
edge(75, 103).
edge(16, 138).
edge(31, 103).
edge(107, 123).
edge(10, 174).
edge(82, 162).
edge(31, 134).
edge(38, 52).
edge(87, 129).
edge(100, 147).
edge(145, 156).
edge(67, 125).
edge(89, 126).
edge(32, 163).
edge(119, 149).
edge(130, 161).
edge(13, 43).
edge(78, 102).
edge(111, 113).
edge(152, 157).
edge(36, 66).
edge(81, 130).
edge(115, 152).
edge(109, 133).
edge(47, 56).
edge(44, 172).
edge(24, 95).
edge(68, 86).
edge(38, 73).
edge(49, 116).
edge(110, 113).
edge(34, 54).
edge(42, 72).
edge(42, 164).
edge(30, 95).
edge(36, 132).
edge(51, 112).
edge(31, 149).
edge(60, 129).
edge(84, 154).
edge(22, 140).
edge(3, 83).
edge(67, 167).
edge(49, 79).
edge(18, 106).
edge(19, 94).
edge(69, 70).
edge(62, 67).
edge(133, 152).
edge(126, 148).
edge(10, 122).
edge(0, 28).
edge(11, 154).
edge(143, 148).
edge(129, 136).
edge(9, 81).
edge(7, 52).
edge(71, 119).
edge(130, 162).
edge(54, 167).
edge(4, 74).
edge(89, 104).
edge(3, 128).
edge(38, 107).
edge(14, 141).
edge(78, 95).
edge(66, 145).
edge(2, 5).
edge(8, 73).
edge(96, 158).
edge(67, 108).
edge(125, 130).
edge(94, 151).
edge(34, 93).
edge(138, 170).
edge(62, 76).
edge(65, 73).
edge(111, 138).
edge(13, 102).
edge(81, 125).
edge(126, 144).
edge(41, 129).
edge(30, 101).
edge(125, 167).
edge(32, 56).
edge(55, 131).
edge(61, 146).
edge(95, 135).
edge(19, 137).
edge(27, 84).
edge(36, 74).
edge(2, 63).
edge(0, 90).
edge(43, 49).
edge(93, 135).
edge(76, 97).
edge(106, 114).
edge(58, 124).
edge(44, 151).
edge(27, 55).
edge(141, 146).
edge(53, 146).
edge(80, 153).
edge(31, 121).
edge(105, 125).
edge(78, 88).
edge(2, 61).
edge(18, 73).
edge(51, 124).
edge(42, 85).
edge(43, 88).
edge(150, 164).
edge(55, 94).
edge(51, 163).
edge(118, 138).
edge(37, 65).
edge(86, 122).
edge(91, 137).
edge(128, 152).
edge(70, 147).
edge(120, 173).
edge(104, 155).
edge(90, 154).
edge(57, 130).
edge(83, 91).
edge(47, 165).
edge(4, 116).
edge(30, 157).
edge(63, 89).
edge(13, 95).
edge(96, 160).
edge(51, 114).
edge(6, 155).
edge(78, 123).
edge(20, 41).
edge(10, 60).
edge(8, 125).
edge(2, 128).
edge(40, 48).
edge(3, 157).
edge(4, 85).
edge(36, 42).
edge(28, 126).
edge(10, 138).
edge(33, 53).
edge(14, 32).
edge(93, 118).
edge(34, 100).
edge(58, 69).
edge(67, 144).
edge(13, 96).
edge(43, 62).
edge(64, 162).
edge(38, 164).
edge(46, 63).
edge(113, 126).
edge(93, 148).
edge(29, 69).
edge(17, 66).
edge(139, 157).
edge(3, 119).
edge(119, 143).
edge(13, 55).
edge(140, 168).
edge(99, 125).
edge(71, 151).
edge(102, 164).
edge(139, 174).
edge(22, 165).
edge(49, 89).
edge(40, 69).
edge(29, 88).
edge(98, 129).
edge(52, 69).
edge(11, 157).
edge(38, 41).
edge(75, 170).
edge(12, 23).
edge(83, 130).
edge(140, 156).
edge(32, 113).
edge(0, 77).
edge(42, 78).
edge(25, 158).
edge(45, 159).
edge(5, 131).
edge(133, 151).
edge(15, 26).
edge(0, 25).
edge(9, 27).
edge(144, 171).
edge(91, 163).
edge(78, 125).
edge(55, 120).
edge(81, 158).
edge(19, 159).
edge(58, 171).
edge(63, 111).
edge(17, 136).
edge(138, 164).
edge(64, 83).
edge(5, 19).
edge(68, 145).
edge(14, 86).
edge(149, 156).
edge(49, 137).
edge(21, 129).
edge(118, 158).
edge(10, 79).
edge(9, 172).
edge(44, 108).
edge(56, 104).
edge(109, 122).
edge(8, 138).
edge(99, 107).
edge(24, 59).
edge(24, 172).
edge(24, 58).
edge(50, 88).
edge(4, 152).
edge(87, 174).
edge(62, 65).
edge(13, 120).
edge(76, 134).
edge(26, 159).
edge(9, 112).
edge(77, 135).
edge(4, 123).
edge(93, 134).
edge(103, 135).
edge(90, 174).
edge(93, 166).
edge(107, 135).
edge(20, 90).
edge(11, 116).
edge(101, 166).
edge(19, 93).
edge(150, 166).
edge(1, 80).
edge(118, 137).
edge(61, 73).
edge(150, 161).
edge(0, 3).
edge(32, 142).
edge(35, 120).
edge(54, 131).
edge(0, 126).
edge(53, 132).
edge(121, 172).
edge(38, 153).
edge(79, 92).
edge(52, 103).
edge(100, 161).
edge(45, 46).
edge(21, 128).
edge(75, 107).
edge(99, 130).
edge(83, 150).
edge(0, 43).
edge(110, 155).
edge(32, 112).
edge(139, 148).
edge(13, 50).
edge(15, 44).
edge(90, 131).
edge(9, 69).
edge(91, 149).
edge(18, 103).
edge(123, 147).
edge(103, 140).
edge(43, 127).
edge(72, 120).
edge(22, 54).
edge(53, 63).
edge(118, 167).
edge(51, 83).
edge(62, 93).
edge(128, 133).
edge(101, 172).
edge(151, 171).
edge(114, 162).
edge(167, 172).
edge(99, 117).
edge(67, 145).
edge(148, 151).
edge(27, 56).
edge(86, 171).
edge(41, 142).
edge(26, 111).
edge(7, 27).
edge(80, 81).
edge(29, 78).
edge(14, 55).
edge(65, 106).
edge(146, 164).
edge(48, 56).
edge(34, 89).
edge(36, 84).
edge(144, 152).
edge(14, 111).
edge(143, 152).
edge(71, 164).
edge(35, 123).
edge(39, 43).
edge(14, 49).
edge(60, 136).
edge(76, 127).
edge(57, 159).
edge(46, 57).
edge(15, 126).
edge(32, 41).
edge(64, 104).
edge(121, 144).
edge(1, 33).
edge(95, 171).
edge(4, 124).
edge(45, 147).
edge(141, 156).
edge(79, 161).
edge(99, 162).
edge(4, 134).
edge(10, 52).
edge(104, 165).
edge(114, 166).
edge(68, 161).
edge(103, 151).
edge(121, 133).
edge(29, 132).
edge(35, 71).
edge(38, 97).
edge(21, 172).
edge(66, 156).
edge(113, 121).
edge(15, 106).
edge(43, 57).
edge(1, 114).
edge(130, 155).
edge(4, 89).
edge(149, 161).
edge(90, 120).
edge(93, 102).
edge(28, 105).
edge(85, 152).
edge(56, 67).
edge(22, 142).
edge(10, 15).
edge(77, 93).
edge(91, 109).
edge(24, 94).
edge(70, 74).
edge(75, 150).
edge(11, 172).
edge(10, 101).
edge(41, 60).
edge(26, 164).
edge(17, 52).
edge(94, 115).
edge(32, 65).
edge(22, 35).
edge(42, 71).
edge(115, 140).
edge(40, 108).
edge(52, 61).
edge(166, 169).
edge(42, 133).
edge(50, 53).
edge(155, 158).
edge(1, 166).
edge(91, 170).
edge(6, 29).
edge(17, 28).
edge(88, 172).
edge(128, 136).
edge(16, 52).
edge(9, 13).
edge(38, 79).
edge(84, 167).
edge(62, 160).
edge(18, 26).
edge(51, 167).
edge(20, 148).
edge(29, 56).
edge(27, 168).
edge(34, 131).
edge(17, 94).
edge(44, 88).
edge(106, 147).
edge(85, 153).
edge(14, 173).
edge(50, 151).
edge(72, 117).
edge(105, 111).
edge(39, 88).
edge(106, 121).
edge(63, 117).
edge(32, 53).
edge(48, 110).
edge(61, 98).
edge(11, 174).
edge(10, 78).
edge(109, 113).
edge(20, 85).
edge(45, 160).
edge(26, 42).
edge(32, 122).
edge(38, 115).
edge(9, 32).
edge(104, 117).
edge(16, 139).
edge(12, 151).
edge(32, 106).
edge(40, 42).
edge(25, 79).
edge(145, 167).
edge(19, 30).
edge(115, 144).
edge(53, 124).
edge(21, 113).
edge(126, 131).
edge(21, 115).
edge(104, 136).
edge(46, 74).
edge(130, 148).
edge(107, 116).
edge(25, 121).
edge(136, 173).
edge(48, 119).
edge(9, 76).
edge(37, 59).
edge(49, 106).
edge(35, 59).
edge(75, 133).
edge(2, 87).
edge(102, 138).
edge(94, 113).
edge(120, 167).
edge(20, 25).
edge(90, 108).
edge(173, 174).
edge(101, 135).
edge(21, 162).
edge(14, 81).
edge(33, 142).
edge(2, 133).
edge(0, 141).
edge(44, 45).
edge(10, 45).
edge(67, 126).
edge(95, 121).
edge(22, 27).
edge(69, 96).
edge(27, 153).
edge(16, 158).
edge(56, 150).
edge(34, 69).
edge(83, 172).
edge(23, 115).
edge(1, 156).
edge(13, 98).
edge(4, 13).
edge(27, 35).
edge(53, 65).
edge(76, 174).
edge(99, 103).
edge(164, 171).
edge(8, 29).
edge(64, 112).
edge(51, 173).
edge(4, 96).
edge(89, 154).
edge(22, 82).
edge(58, 135).
edge(4, 57).
edge(12, 115).
edge(17, 81).
edge(60, 127).
edge(85, 88).
edge(87, 105).
edge(49, 55).
edge(38, 150).
edge(1, 142).
edge(26, 165).
edge(16, 84).
edge(130, 142).
edge(10, 131).
edge(58, 123).
edge(130, 173).
edge(52, 104).
edge(83, 107).
edge(109, 152).
edge(44, 66).
edge(35, 63).
edge(149, 170).
edge(22, 172).
edge(41, 82).
edge(107, 174).
edge(103, 171).
edge(26, 138).
edge(39, 172).
edge(10, 136).
edge(13, 161).
edge(39, 104).
edge(22, 141).
edge(7, 116).
edge(15, 83).
edge(26, 170).
edge(120, 163).
edge(58, 117).
edge(2, 92).
edge(98, 99).
edge(38, 131).
edge(39, 62).
edge(12, 54).
edge(47, 61).
edge(67, 94).
edge(22, 130).
edge(57, 59).
edge(1, 13).
edge(55, 73).
edge(104, 128).
edge(89, 127).
edge(3, 167).
edge(16, 155).
edge(42, 108).
edge(43, 146).
edge(12, 162).
edge(32, 150).
edge(50, 93).
edge(2, 3).
edge(23, 170).
edge(107, 146).
edge(47, 112).
edge(52, 131).
edge(45, 164).
edge(10, 51).
edge(42, 170).
edge(70, 142).
edge(15, 54).
edge(82, 119).
edge(35, 68).
edge(61, 119).
edge(34, 167).
edge(71, 118).
edge(59, 97).
edge(12, 56).
edge(49, 60).
edge(109, 166).
edge(79, 106).
edge(77, 130).
edge(61, 80).
edge(15, 102).
edge(33, 101).
edge(92, 130).
edge(97, 134).
edge(12, 130).
edge(109, 155).
edge(94, 155).
edge(41, 55).
edge(10, 148).
edge(7, 55).
edge(69, 168).
edge(107, 171).
edge(81, 165).
edge(56, 61).
edge(119, 135).
edge(83, 127).
edge(49, 167).
edge(27, 122).
edge(33, 108).
edge(76, 92).
edge(62, 171).
edge(145, 166).
edge(23, 72).
edge(59, 105).
edge(99, 168).
edge(31, 161).
edge(0, 20).
edge(37, 159).
edge(130, 138).
edge(80, 157).
edge(146, 167).
edge(116, 165).
edge(81, 93).
edge(30, 80).
edge(63, 127).
edge(17, 100).
edge(67, 162).
edge(86, 92).
edge(17, 60).
edge(44, 169).
edge(36, 80).
edge(93, 133).
edge(16, 169).
edge(5, 113).
edge(36, 104).
edge(101, 123).
edge(61, 69).
edge(21, 122).
edge(106, 135).
edge(71, 138).
edge(53, 143).
edge(2, 75).
edge(21, 24).
edge(103, 170).
edge(65, 71).
edge(60, 165).
edge(71, 131).
edge(83, 165).
edge(103, 116).
edge(33, 98).
edge(135, 160).
edge(14, 20).
edge(24, 158).
edge(38, 109).
edge(72, 89).
edge(123, 136).
edge(133, 157).
edge(19, 69).
edge(39, 146).
edge(41, 68).
edge(84, 118).
edge(32, 153).
edge(44, 148).
edge(139, 169).
edge(86, 115).
edge(74, 106).
edge(43, 104).
edge(38, 90).
edge(4, 153).
edge(66, 107).
edge(34, 124).
edge(27, 54).
edge(85, 159).
edge(63, 83).
edge(70, 154).
edge(75, 168).
edge(137, 168).
edge(3, 113).
edge(63, 171).
edge(28, 69).
edge(25, 139).
edge(87, 167).
edge(61, 147).
edge(126, 173).
edge(85, 145).
edge(4, 32).
edge(88, 89).
edge(29, 146).
edge(17, 87).
edge(35, 100).
edge(66, 96).
edge(92, 106).
edge(109, 162).
edge(12, 64).
edge(21, 63).
edge(19, 144).
edge(13, 146).
edge(5, 122).
edge(35, 165).
edge(40, 43).
edge(1, 11).
edge(27, 53).
edge(38, 74).
edge(43, 65).
edge(89, 137).
edge(49, 119).
edge(69, 101).
edge(43, 75).
edge(71, 134).
edge(7, 169).
edge(16, 44).
edge(89, 107).
edge(111, 144).
edge(23, 47).
edge(86, 150).
edge(36, 167).
edge(54, 86).
edge(2, 83).
edge(15, 58).
edge(46, 164).
edge(36, 147).
edge(103, 153).
edge(128, 174).
edge(20, 96).
edge(47, 156).
edge(158, 162).
edge(0, 114).
edge(171, 173).
edge(73, 111).
edge(119, 134).
edge(46, 93).
edge(13, 105).
edge(74, 140).
edge(92, 148).
edge(108, 171).
edge(11, 75).
edge(42, 173).
edge(42, 153).
edge(4, 136).
edge(44, 73).
edge(14, 106).
edge(103, 172).
edge(42, 47).
edge(116, 166).
edge(41, 159).
edge(83, 151).
edge(26, 120).
edge(125, 146).
edge(146, 151).
edge(92, 109).
edge(108, 157).
edge(108, 122).
edge(71, 83).
edge(61, 151).
edge(27, 134).
edge(106, 163).
edge(60, 78).
edge(25, 96).
edge(26, 172).
edge(4, 171).
edge(31, 118).
edge(18, 52).
edge(23, 59).
edge(40, 45).
edge(63, 79).
edge(30, 110).
edge(66, 93).
edge(81, 115).
edge(63, 64).
edge(127, 144).
edge(129, 154).
edge(108, 162).
edge(66, 169).
edge(32, 83).
edge(80, 82).
edge(119, 145).
edge(5, 86).
edge(118, 152).
edge(19, 33).
edge(4, 39).
edge(125, 157).
edge(11, 148).
edge(56, 73).
edge(32, 34).
edge(13, 121).
edge(20, 31).
edge(111, 168).
edge(72, 97).
edge(81, 154).
edge(50, 56).
edge(120, 169).
edge(122, 170).
edge(27, 97).
edge(24, 136).
edge(64, 86).
edge(2, 165).
edge(2, 26).
edge(33, 158).
edge(45, 128).
edge(77, 117).
edge(54, 148).
edge(60, 94).
edge(47, 78).
edge(69, 124).
edge(11, 98).
edge(138, 144).
edge(19, 119).
edge(84, 114).
edge(23, 81).
edge(8, 157).
edge(79, 172).
edge(13, 26).
edge(130, 152).
edge(40, 138).
edge(130, 174).
edge(31, 65).
edge(88, 106).
edge(38, 54).
edge(74, 153).
edge(110, 161).
edge(47, 97).
edge(63, 140).
edge(7, 82).
edge(56, 174).
edge(88, 174).
edge(9, 90).
edge(39, 107).
edge(36, 65).
edge(148, 152).
edge(89, 141).
edge(7, 151).
edge(110, 114).
edge(39, 49).
edge(2, 114).
edge(119, 133).
edge(101, 164).
edge(100, 103).
edge(103, 114).
edge(68, 93).
edge(73, 151).
edge(107, 147).
edge(28, 55).
edge(4, 67).
edge(28, 158).
edge(77, 120).
edge(17, 26).
edge(84, 89).
edge(150, 152).
edge(73, 154).
edge(14, 76).
edge(70, 100).
edge(146, 166).
edge(3, 160).
edge(32, 168).
edge(40, 157).
edge(30, 125).
edge(23, 63).
edge(37, 57).
edge(35, 97).
edge(6, 152).
edge(5, 138).
edge(20, 67).
edge(24, 63).
edge(28, 122).
edge(29, 92).
edge(110, 153).
edge(14, 137).
edge(85, 170).
edge(8, 164).
edge(35, 101).
edge(5, 129).
edge(0, 33).
edge(38, 110).
edge(134, 169).
edge(16, 68).
edge(19, 108).
edge(25, 124).
edge(66, 126).
edge(31, 141).
edge(58, 106).
edge(81, 97).
edge(26, 68).
edge(19, 34).
edge(116, 121).
edge(15, 48).
edge(8, 79).
edge(94, 161).
edge(9, 15).
edge(50, 99).
edge(6, 90).
edge(97, 99).
edge(40, 120).
edge(121, 160).
edge(95, 109).
edge(4, 162).
edge(63, 158).
edge(56, 161).
edge(1, 161).
edge(91, 174).
edge(78, 81).
edge(30, 134).
edge(146, 147).
edge(10, 75).
edge(11, 50).
edge(15, 169).
edge(31, 156).
edge(83, 128).
edge(0, 144).
edge(31, 96).
edge(97, 156).
edge(31, 117).
edge(47, 59).
edge(22, 170).
edge(153, 157).
edge(160, 162).
edge(62, 126).
edge(134, 141).
edge(57, 91).
edge(27, 138).
edge(132, 165).
edge(74, 120).
edge(44, 133).
edge(81, 144).
edge(34, 96).
edge(27, 102).
edge(28, 140).
edge(73, 153).
edge(97, 140).
edge(7, 76).
edge(69, 139).
edge(49, 147).
edge(29, 114).
edge(40, 113).
edge(160, 169).
edge(18, 160).
edge(20, 107).
edge(10, 33).
edge(116, 131).
edge(50, 136).
edge(25, 115).
edge(19, 130).
edge(80, 99).
edge(69, 81).
edge(40, 68).
edge(23, 76).
edge(24, 69).
edge(66, 119).
edge(43, 145).
edge(47, 142).
edge(1, 55).
edge(91, 129).
edge(102, 139).
edge(161, 167).
edge(19, 57).
edge(82, 137).
edge(9, 30).
edge(5, 41).
edge(81, 157).
edge(67, 131).
edge(145, 154).
edge(39, 101).
edge(59, 169).
edge(41, 76).
edge(72, 133).
edge(130, 166).
edge(30, 138).
edge(45, 108).
edge(9, 91).
edge(154, 173).
edge(62, 110).
edge(64, 68).
edge(119, 148).
edge(12, 35).
edge(79, 168).
edge(33, 116).
edge(74, 151).
edge(34, 139).
edge(24, 124).
edge(54, 173).
edge(90, 95).
edge(8, 123).
edge(145, 158).
edge(33, 42).
edge(27, 57).
edge(18, 78).
edge(45, 91).
edge(57, 141).
edge(55, 61).
edge(120, 161).
edge(11, 142).
edge(84, 136).
edge(57, 94).
edge(114, 174).
edge(121, 139).
edge(47, 118).
edge(66, 171).
edge(30, 143).
edge(34, 149).
edge(104, 119).
edge(69, 90).
edge(31, 139).
edge(19, 107).
edge(41, 83).
edge(19, 55).
edge(15, 55).
edge(154, 168).
edge(17, 24).
edge(14, 103).
edge(21, 97).
edge(70, 94).
edge(51, 133).
edge(160, 163).
edge(89, 103).
edge(79, 123).
edge(2, 69).
edge(37, 106).
edge(49, 68).
edge(42, 86).
edge(118, 143).
edge(2, 157).
edge(32, 119).
edge(117, 157).
edge(15, 145).
edge(87, 127).
edge(34, 83).
edge(15, 155).
edge(80, 166).
edge(43, 108).
edge(75, 169).
edge(27, 116).
edge(19, 174).
edge(39, 164).
edge(57, 73).
edge(83, 153).
edge(41, 169).
edge(24, 88).
edge(27, 82).
edge(129, 173).
edge(103, 133).
edge(8, 38).
edge(131, 132).
edge(37, 40).
edge(62, 157).
edge(62, 73).
edge(150, 154).
edge(9, 141).
edge(74, 107).
edge(70, 102).
edge(52, 174).
edge(85, 120).
edge(130, 163).
edge(41, 137).
edge(105, 144).
edge(24, 134).
edge(34, 106).
edge(48, 97).
edge(8, 50).
edge(54, 116).
edge(29, 141).
edge(20, 51).
edge(93, 165).
edge(61, 124).
edge(44, 48).
edge(25, 73).
edge(17, 170).
edge(94, 171).
edge(93, 171).
edge(86, 168).
edge(45, 132).
edge(26, 105).
edge(66, 167).
edge(149, 162).
edge(38, 100).
edge(14, 21).
edge(21, 71).
edge(82, 110).
edge(30, 76).
edge(28, 82).
edge(137, 142).
edge(8, 56).
edge(41, 52).
edge(7, 38).
edge(79, 167).
edge(27, 170).
edge(32, 164).
edge(104, 135).
edge(101, 158).
edge(76, 155).
edge(142, 169).
edge(49, 121).
edge(131, 167).
edge(123, 155).
edge(37, 144).
edge(65, 156).
edge(0, 64).
edge(59, 60).
edge(15, 135).
edge(34, 95).
edge(41, 91).
edge(48, 77).
edge(35, 103).
edge(126, 139).
edge(42, 56).
edge(20, 125).
edge(5, 73).
edge(102, 158).
edge(21, 27).
edge(29, 81).
edge(64, 87).
edge(42, 46).
edge(60, 87).
edge(10, 143).
edge(64, 163).
edge(36, 78).
edge(12, 48).
edge(126, 137).
edge(16, 110).
edge(49, 153).
edge(50, 162).
edge(89, 143).
edge(89, 92).
edge(35, 148).
edge(0, 65).
edge(43, 103).
edge(61, 144).
edge(20, 136).
edge(94, 144).
edge(38, 71).
edge(17, 166).
edge(69, 73).
edge(90, 121).
edge(18, 113).
edge(10, 129).
edge(29, 63).
edge(99, 106).
edge(92, 163).
edge(138, 162).
edge(41, 50).
edge(162, 165).
edge(6, 20).
edge(40, 131).
edge(37, 154).
edge(126, 160).
edge(98, 135).
edge(43, 114).
edge(17, 164).
edge(0, 74).
edge(74, 110).
edge(13, 80).
edge(20, 159).
edge(11, 126).
edge(43, 91).
edge(64, 81).
edge(3, 41).
edge(84, 168).
edge(26, 32).
edge(66, 89).
edge(107, 148).
edge(37, 54).
edge(1, 12).
edge(97, 125).
edge(12, 138).
edge(51, 161).
edge(2, 172).
edge(56, 88).
edge(19, 141).
edge(77, 116).
edge(71, 106).
edge(126, 168).
edge(92, 160).
edge(49, 61).
edge(25, 161).
edge(27, 37).
edge(107, 127).
edge(53, 149).
edge(101, 104).
edge(104, 134).
edge(37, 147).
edge(28, 131).
edge(97, 120).
edge(54, 79).
edge(77, 85).
edge(26, 66).
edge(2, 174).
edge(116, 122).
edge(159, 162).
edge(47, 137).
edge(1, 47).
edge(44, 83).
edge(38, 59).
edge(112, 127).
edge(74, 139).
edge(80, 89).
edge(102, 133).
edge(136, 155).
edge(77, 155).
edge(87, 126).
edge(60, 149).
edge(54, 135).
edge(73, 91).
edge(52, 88).
edge(26, 144).
edge(122, 162).
edge(12, 73).
edge(94, 118).
edge(11, 31).
edge(96, 139).
edge(93, 173).
edge(87, 123).
edge(34, 166).
edge(104, 173).
edge(80, 129).
edge(144, 173).
edge(60, 161).
edge(59, 134).
edge(21, 70).
edge(42, 45).
edge(10, 71).
edge(35, 85).
edge(22, 84).
edge(132, 171).
edge(33, 47).
edge(36, 87).
edge(115, 142).
edge(72, 126).
edge(1, 99).
edge(26, 73).
edge(54, 156).
edge(76, 164).
edge(69, 80).
edge(0, 94).
edge(49, 107).
edge(152, 166).
edge(17, 148).
edge(18, 100).
edge(40, 173).
edge(36, 59).
edge(71, 98).
edge(99, 141).
edge(21, 93).
edge(51, 95).
edge(111, 125).
edge(102, 146).
edge(27, 133).
edge(20, 128).
edge(116, 145).
edge(145, 152).
edge(20, 133).
edge(111, 167).
edge(54, 168).
edge(63, 93).
edge(11, 151).
edge(33, 74).
edge(99, 126).
edge(65, 90).
edge(45, 95).
edge(11, 147).
edge(111, 161).
edge(79, 88).
edge(32, 127).
edge(113, 140).
edge(8, 116).
edge(79, 144).
edge(78, 79).
edge(26, 34).
edge(23, 50).
edge(32, 86).
edge(24, 126).
edge(59, 166).
edge(83, 144).
edge(141, 161).
edge(103, 129).
edge(55, 142).
edge(83, 174).
edge(65, 136).
edge(37, 42).
edge(16, 120).
edge(112, 140).
edge(11, 132).
edge(53, 111).
edge(27, 79).
edge(18, 40).
edge(25, 137).
edge(97, 153).
edge(18, 28).
edge(34, 117).
edge(33, 56).
edge(160, 174).
edge(77, 122).
edge(41, 98).
edge(56, 78).
edge(143, 149).
edge(17, 138).
edge(42, 161).
edge(44, 134).
edge(54, 80).
edge(25, 81).
edge(52, 167).
edge(115, 166).
edge(142, 171).
edge(47, 50).
edge(20, 60).
edge(155, 169).
edge(95, 139).
edge(71, 121).
edge(31, 42).
edge(115, 149).
edge(28, 103).
edge(52, 93).
edge(2, 51).
edge(60, 88).
edge(48, 136).
edge(112, 131).
edge(71, 112).
edge(9, 64).
edge(57, 86).
edge(106, 136).
edge(56, 103).
edge(73, 143).
edge(121, 150).
edge(66, 168).
edge(93, 156).
edge(162, 167).
edge(63, 113).
edge(41, 96).
edge(4, 31).
edge(5, 150).
edge(7, 146).
edge(7, 108).
edge(141, 170).
edge(10, 156).
edge(39, 150).
edge(124, 126).
edge(4, 29).
edge(66, 151).
edge(25, 109).
edge(99, 101).
edge(27, 141).
edge(128, 129).
edge(28, 121).
edge(33, 59).
edge(11, 133).
edge(52, 94).
edge(31, 35).
edge(105, 153).
edge(11, 61).
edge(85, 108).
edge(162, 164).
edge(84, 172).
edge(38, 127).
edge(66, 74).
edge(14, 159).
edge(55, 132).
edge(78, 98).
edge(69, 94).
edge(115, 145).
edge(153, 168).
edge(103, 117).
edge(18, 125).
edge(97, 174).
edge(119, 131).
edge(21, 86).
edge(97, 170).
edge(26, 124).
edge(100, 154).
edge(61, 117).
edge(8, 159).
edge(36, 115).
edge(37, 158).
edge(114, 156).
edge(19, 123).
edge(93, 101).
edge(52, 108).
edge(32, 90).
edge(100, 113).
edge(126, 172).
edge(3, 163).
edge(111, 153).
edge(44, 132).
edge(103, 149).
edge(1, 88).
edge(21, 49).
edge(1, 31).
edge(59, 86).
edge(15, 27).
edge(35, 43).
edge(14, 73).
edge(112, 141).
edge(57, 164).
edge(6, 117).
edge(36, 135).
edge(86, 158).
edge(108, 144).
edge(65, 164).
edge(79, 109).
edge(1, 128).
edge(148, 173).
edge(50, 174).
edge(48, 123).
edge(39, 61).
edge(72, 108).
edge(91, 102).
edge(0, 7).
edge(10, 160).
edge(26, 79).
edge(59, 73).
edge(14, 160).
edge(129, 146).
edge(27, 123).
edge(35, 159).
edge(17, 123).
edge(136, 160).
edge(134, 156).
edge(67, 158).
edge(34, 42).
edge(93, 168).
edge(4, 156).
edge(17, 57).
edge(24, 157).
edge(16, 79).
edge(132, 173).
edge(145, 160).
edge(58, 147).
edge(61, 116).
edge(18, 89).
edge(99, 120).
edge(64, 139).
edge(35, 47).
edge(35, 150).
edge(102, 165).
edge(57, 62).
edge(96, 171).
edge(66, 173).
edge(3, 26).
edge(21, 160).
edge(77, 166).
edge(9, 145).
edge(31, 102).
edge(59, 66).
edge(25, 92).
edge(101, 110).
edge(6, 130).
edge(35, 145).
edge(5, 163).
edge(89, 122).
edge(118, 139).
edge(134, 167).
edge(3, 155).
edge(60, 154).
edge(71, 130).
edge(135, 152).
edge(44, 166).
edge(12, 110).
edge(136, 137).
edge(66, 72).
edge(63, 132).
edge(35, 115).
edge(111, 128).
edge(21, 124).
edge(37, 109).
edge(16, 60).
edge(9, 161).
edge(53, 91).
edge(29, 59).
edge(133, 141).
edge(30, 64).
edge(62, 77).
edge(39, 45).
edge(41, 113).
edge(14, 143).
edge(66, 94).
edge(51, 74).
edge(6, 131).
edge(65, 133).
edge(101, 174).
edge(47, 105).
edge(58, 120).
edge(26, 57).
edge(42, 142).
edge(8, 92).
edge(80, 120).
edge(67, 164).
edge(21, 170).
edge(65, 83).
edge(71, 152).
edge(36, 52).
edge(12, 161).
edge(73, 104).
edge(35, 48).
edge(98, 168).
edge(97, 124).
edge(104, 125).
edge(22, 33).
edge(50, 163).
edge(117, 118).
edge(42, 113).
edge(62, 141).
edge(43, 85).
edge(9, 72).
edge(106, 143).
edge(78, 104).
edge(19, 115).
edge(45, 94).
edge(71, 102).
edge(45, 118).
edge(68, 88).
edge(91, 130).
edge(43, 141).
edge(25, 65).
edge(39, 155).
edge(5, 77).
edge(71, 114).
edge(0, 9).
edge(45, 170).
edge(53, 109).
edge(5, 27).
edge(33, 148).
edge(19, 79).
edge(126, 157).
edge(77, 115).
edge(111, 120).
edge(90, 153).
edge(75, 132).
edge(117, 127).
edge(67, 70).
edge(109, 119).
edge(7, 99).
edge(22, 68).
edge(83, 149).
edge(7, 100).
edge(9, 124).
edge(10, 163).
edge(68, 80).
edge(135, 163).
edge(13, 108).
edge(12, 152).
edge(80, 142).
edge(124, 136).
edge(7, 135).
edge(7, 134).
edge(26, 119).
edge(78, 105).
edge(97, 167).
edge(5, 120).
edge(131, 141).
edge(29, 51).
edge(34, 53).
edge(49, 50).
edge(51, 90).
edge(21, 121).
edge(29, 123).
edge(0, 172).
edge(84, 98).
edge(65, 152).
edge(52, 111).
edge(56, 163).
edge(168, 169).
edge(5, 25).
edge(12, 106).
edge(77, 88).
edge(109, 149).
edge(19, 164).
edge(3, 84).
edge(39, 142).
edge(34, 170).
edge(67, 72).
edge(39, 133).
edge(53, 138).
edge(109, 170).
edge(134, 135).
edge(87, 150).
edge(97, 119).
edge(34, 36).
edge(13, 151).
edge(15, 130).
edge(58, 145).
edge(138, 165).
edge(43, 68).
edge(41, 153).
edge(32, 110).
edge(140, 141).
edge(92, 101).
edge(12, 92).
edge(4, 22).
edge(37, 94).
edge(23, 79).
edge(99, 111).
edge(28, 154).
edge(30, 78).
edge(14, 172).
edge(34, 133).
edge(100, 122).
edge(57, 65).
edge(50, 119).
edge(135, 149).
edge(122, 130).
edge(9, 63).
edge(96, 114).
edge(3, 76).
edge(144, 174).
edge(3, 8).
edge(126, 171).
edge(83, 109).
edge(116, 162).
edge(154, 161).
edge(74, 86).
edge(55, 157).
edge(17, 112).
edge(22, 61).
edge(36, 146).
edge(60, 74).
edge(80, 123).
edge(30, 106).
edge(56, 135).
edge(123, 151).
edge(27, 107).
edge(35, 55).
edge(75, 80).
edge(32, 84).
edge(28, 42).
edge(64, 133).
edge(44, 76).
edge(1, 136).
edge(85, 111).
edge(89, 167).
edge(13, 41).
edge(64, 108).
edge(70, 78).
edge(146, 153).
edge(14, 113).
edge(23, 35).
edge(16, 124).
edge(25, 28).
edge(31, 67).
edge(99, 116).
edge(45, 56).
edge(10, 147).
edge(120, 168).
edge(92, 159).
edge(159, 165).
edge(3, 135).
edge(6, 13).
edge(61, 104).
edge(24, 152).
edge(51, 52).
edge(81, 108).
edge(19, 60).
edge(13, 65).
edge(16, 152).
edge(46, 124).
edge(38, 123).
edge(123, 132).
edge(48, 103).
edge(102, 130).
edge(35, 69).
edge(13, 70).
edge(47, 139).
edge(2, 30).
edge(8, 112).
edge(54, 104).
edge(29, 93).
edge(40, 168).
edge(26, 137).
edge(4, 97).
edge(74, 79).
edge(89, 114).
edge(6, 62).
edge(159, 163).
edge(130, 140).
edge(62, 147).
edge(80, 151).
edge(43, 106).
edge(37, 99).
edge(11, 62).
edge(66, 149).
edge(114, 127).
edge(9, 115).
edge(19, 170).
edge(15, 47).
edge(42, 154).
edge(13, 22).
edge(54, 157).
edge(77, 87).
edge(67, 172).
edge(88, 95).
edge(27, 149).
edge(92, 112).
edge(120, 131).
edge(92, 98).
edge(71, 85).
edge(110, 169).
edge(109, 144).
edge(10, 164).
edge(35, 153).
edge(26, 128).
edge(16, 77).
edge(116, 132).
edge(115, 162).
edge(81, 167).
edge(0, 55).
edge(8, 20).
edge(109, 146).
edge(31, 54).
edge(88, 168).
edge(69, 158).
edge(163, 172).
edge(5, 64).
edge(133, 139).
edge(104, 137).
edge(5, 44).
edge(59, 93).
edge(91, 92).
edge(61, 154).
edge(44, 118).
edge(14, 145).
edge(142, 154).
edge(107, 152).
edge(120, 154).
edge(33, 173).
edge(36, 154).
edge(89, 130).
edge(13, 138).
edge(108, 152).
edge(34, 146).
edge(31, 40).
edge(81, 121).
edge(87, 158).
edge(65, 169).
edge(18, 145).
edge(142, 170).
edge(87, 168).
edge(3, 131).
edge(12, 139).
edge(19, 102).
edge(2, 62).
edge(11, 16).
edge(45, 79).
edge(80, 88).
edge(18, 62).
edge(25, 32).
edge(20, 42).
edge(114, 155).
edge(20, 84).
edge(25, 149).
edge(20, 34).
edge(124, 137).
edge(27, 69).
edge(15, 146).
edge(5, 6).
edge(7, 44).
edge(52, 133).
edge(40, 132).
edge(9, 22).
edge(0, 96).
edge(73, 128).
edge(42, 68).
edge(102, 134).
edge(80, 149).
edge(34, 87).
edge(105, 162).
edge(67, 168).
edge(38, 146).
edge(21, 39).
edge(137, 163).
edge(11, 127).
edge(89, 151).
edge(133, 164).
edge(61, 159).
edge(83, 88).
edge(93, 155).
edge(32, 42).
edge(80, 104).
edge(48, 124).
edge(57, 102).
edge(123, 158).
edge(52, 73).
edge(42, 122).
edge(93, 130).
edge(28, 162).
edge(87, 101).
edge(95, 154).
edge(49, 146).
edge(51, 116).
edge(75, 100).
edge(132, 133).
edge(40, 129).
edge(40, 86).
edge(83, 99).
edge(22, 138).
edge(153, 174).
edge(36, 102).
edge(59, 118).
edge(12, 43).
edge(45, 117).
edge(51, 54).
edge(20, 69).
edge(61, 122).
edge(92, 99).
edge(16, 164).
edge(109, 110).
edge(117, 136).
edge(5, 125).
edge(42, 123).
edge(53, 115).
edge(128, 169).
edge(93, 157).
edge(49, 152).
edge(3, 159).
edge(9, 52).
edge(8, 174).
edge(13, 164).
edge(41, 147).
edge(23, 96).
edge(4, 71).
edge(27, 155).
edge(6, 39).
edge(40, 137).
edge(1, 15).
edge(158, 159).
edge(27, 164).
edge(68, 170).
edge(36, 86).
edge(76, 156).
edge(72, 114).
edge(27, 146).
edge(70, 108).
edge(34, 115).
edge(16, 146).
edge(12, 70).
edge(28, 101).
edge(35, 51).
edge(35, 54).
edge(79, 174).
edge(89, 162).
edge(92, 96).
edge(1, 132).
edge(43, 159).
edge(70, 117).
edge(74, 155).
edge(83, 138).
edge(78, 121).
edge(10, 76).
edge(75, 142).
edge(40, 133).
edge(45, 101).
edge(45, 53).
edge(109, 121).
edge(2, 60).
edge(76, 121).
edge(129, 132).
edge(48, 96).
edge(132, 152).
edge(25, 34).
edge(2, 19).
edge(159, 171).
edge(132, 166).
edge(117, 174).
edge(127, 135).
edge(78, 162).
edge(27, 120).
edge(6, 143).
edge(57, 101).
edge(111, 139).
edge(82, 89).
edge(29, 156).
edge(128, 134).
edge(27, 130).
edge(73, 134).
edge(106, 144).
edge(16, 121).
edge(121, 151).
edge(48, 145).
edge(135, 136).
edge(80, 103).
edge(10, 67).
edge(13, 141).
edge(33, 94).
edge(105, 119).
edge(20, 88).
edge(3, 77).
edge(42, 140).
edge(13, 92).
edge(62, 135).
edge(4, 95).
edge(140, 154).
edge(126, 138).
edge(3, 104).
edge(17, 50).
edge(1, 40).
edge(38, 157).
edge(78, 146).
edge(43, 116).
edge(29, 155).
edge(70, 87).
edge(35, 117).
edge(15, 72).
edge(95, 134).
edge(30, 33).
edge(47, 66).
edge(43, 83).
edge(63, 106).
edge(13, 117).
edge(58, 136).
edge(145, 149).
edge(27, 88).
edge(94, 173).
edge(4, 168).
edge(21, 99).
edge(21, 26).
edge(45, 146).
edge(57, 146).
edge(116, 172).
edge(109, 117).
edge(24, 131).
edge(19, 35).
edge(16, 86).
edge(8, 78).
edge(84, 126).
edge(34, 156).
edge(111, 118).
edge(39, 74).
edge(2, 86).
edge(89, 109).
edge(11, 100).
edge(17, 137).
edge(74, 122).
edge(103, 107).
edge(55, 100).
edge(107, 118).
edge(41, 44).
edge(31, 162).
edge(170, 174).
edge(18, 54).
edge(45, 141).
edge(26, 107).
edge(12, 77).
edge(104, 109).
edge(12, 41).
edge(46, 134).
edge(74, 141).
edge(34, 45).
edge(69, 140).
edge(128, 135).
edge(55, 62).
edge(2, 167).
edge(52, 160).
edge(16, 90).
edge(4, 128).
edge(0, 18).
edge(40, 151).
edge(101, 134).
edge(107, 126).
edge(46, 89).
edge(57, 67).
edge(86, 120).
edge(56, 85).
edge(144, 160).
edge(23, 86).
edge(52, 143).
edge(73, 146).
edge(121, 158).
edge(67, 71).
edge(86, 157).
edge(97, 132).
edge(97, 142).
edge(30, 126).
edge(68, 164).
edge(87, 152).
edge(9, 133).
edge(62, 174).
edge(2, 162).
edge(63, 76).
edge(0, 160).
edge(17, 132).
edge(55, 81).
edge(114, 137).
edge(58, 156).
edge(77, 137).
edge(29, 101).
edge(10, 63).
edge(11, 158).
edge(7, 26).
edge(1, 135).
edge(35, 142).
edge(39, 89).
edge(16, 118).
edge(53, 90).
edge(26, 109).
edge(1, 56).
edge(46, 152).
edge(91, 127).
edge(25, 154).
edge(3, 60).
edge(36, 171).
edge(5, 20).
edge(41, 128).
edge(6, 88).
edge(134, 151).
edge(16, 65).
edge(69, 137).
edge(82, 151).
edge(5, 98).
edge(20, 35).
edge(119, 140).
edge(16, 59).
edge(84, 93).
edge(16, 56).
edge(152, 163).
edge(29, 144).
edge(154, 167).
edge(19, 168).
edge(10, 145).
edge(30, 70).
edge(164, 166).
edge(12, 37).
edge(31, 138).
edge(23, 169).
edge(33, 140).
edge(102, 104).
edge(112, 142).
edge(17, 122).
edge(55, 166).
edge(12, 122).
edge(146, 152).
edge(58, 79).
edge(54, 126).
edge(82, 157).
edge(42, 62).
edge(19, 92).
edge(16, 71).
edge(100, 105).
edge(2, 52).
edge(57, 171).
edge(12, 85).
edge(50, 73).
edge(163, 168).
edge(36, 136).
edge(49, 67).
edge(31, 81).
edge(89, 131).
edge(136, 156).
edge(37, 127).
edge(147, 162).
edge(55, 111).
edge(100, 145).
edge(37, 153).
edge(46, 163).
edge(139, 142).
edge(14, 117).
edge(95, 138).
edge(50, 80).
edge(10, 115).
edge(29, 137).
edge(65, 97).
edge(34, 49).
edge(38, 142).
edge(45, 103).
edge(17, 47).
edge(64, 147).
edge(47, 89).
edge(36, 88).
edge(4, 109).
edge(117, 125).
edge(37, 63).
edge(18, 109).
edge(125, 171).
edge(80, 91).
edge(6, 153).
edge(40, 82).
edge(7, 163).
edge(2, 7).
edge(40, 134).
edge(57, 116).
edge(107, 161).
edge(58, 113).
edge(118, 174).
edge(100, 165).
edge(142, 145).
edge(26, 117).
edge(145, 162).
edge(53, 144).
edge(78, 135).
edge(40, 143).
edge(57, 125).
edge(87, 133).
edge(73, 161).
edge(52, 171).
edge(12, 168).
edge(30, 160).
edge(26, 86).
edge(85, 156).
edge(117, 153).
edge(128, 132).
edge(3, 126).
edge(48, 138).
edge(55, 133).
edge(4, 79).
edge(16, 97).
edge(5, 68).
edge(19, 105).
edge(64, 91).
edge(54, 107).
edge(81, 151).
edge(77, 78).
edge(95, 115).
edge(51, 77).
edge(6, 94).
edge(94, 149).
edge(8, 40).
edge(18, 81).
edge(105, 133).
edge(5, 55).
edge(21, 103).
edge(15, 161).
edge(41, 106).
edge(104, 131).
edge(42, 134).
edge(69, 108).
edge(9, 114).
edge(28, 90).
edge(137, 143).
edge(6, 49).
edge(125, 131).
edge(85, 168).
edge(97, 161).
edge(1, 169).
edge(113, 118).
edge(133, 159).
edge(13, 35).
edge(16, 147).
edge(21, 46).
edge(40, 67).
edge(57, 147).
edge(113, 147).
edge(89, 160).
edge(37, 133).
edge(24, 67).
edge(39, 56).
edge(166, 173).
edge(18, 77).
edge(65, 155).
edge(78, 157).
edge(39, 173).
edge(36, 142).
edge(76, 90).
edge(96, 154).
edge(52, 161).
edge(80, 113).
edge(0, 31).
edge(141, 149).
edge(11, 25).
edge(100, 150).
edge(25, 102).
edge(68, 121).
edge(60, 170).
edge(29, 103).
edge(57, 162).
edge(121, 140).
edge(54, 56).
edge(9, 54).
edge(36, 54).
edge(103, 168).
edge(121, 168).
edge(20, 112).
edge(132, 134).
edge(23, 97).
edge(19, 156).
edge(123, 143).
edge(13, 31).
edge(60, 158).
edge(76, 132).
edge(38, 141).
edge(19, 134).
edge(44, 103).
edge(7, 125).
edge(92, 134).
edge(14, 67).
edge(74, 112).
edge(141, 157).
edge(17, 51).
edge(28, 51).
edge(3, 172).
edge(66, 150).
edge(69, 133).
edge(120, 128).
edge(13, 73).
edge(68, 110).
edge(81, 85).
edge(13, 162).
edge(4, 127).
edge(58, 174).
edge(54, 101).
edge(17, 110).
edge(5, 43).
edge(14, 146).
edge(21, 156).
edge(103, 118).
edge(30, 151).
edge(80, 110).
edge(2, 74).
edge(153, 161).
edge(8, 101).
edge(104, 113).
edge(70, 81).
edge(21, 168).
edge(38, 172).
edge(26, 93).
edge(26, 49).
edge(34, 56).
edge(32, 146).
edge(58, 81).
edge(0, 139).
edge(129, 135).
edge(54, 120).
edge(126, 127).
edge(77, 157).
edge(101, 163).
edge(5, 104).
edge(71, 162).
edge(20, 72).
edge(1, 101).
edge(71, 87).
edge(29, 47).
edge(169, 172).
edge(24, 127).
edge(99, 154).
edge(6, 132).
edge(17, 29).
edge(161, 164).
edge(11, 165).
edge(84, 164).
edge(68, 98).
edge(39, 102).
edge(52, 96).
edge(15, 120).
edge(81, 127).
edge(64, 164).
edge(92, 135).
edge(27, 142).
edge(25, 151).
edge(24, 71).
edge(20, 26).
edge(79, 157).
edge(21, 89).
edge(11, 101).
edge(80, 161).
edge(94, 130).
edge(109, 116).
edge(7, 74).
edge(30, 166).
edge(0, 19).
edge(17, 30).
edge(71, 80).
edge(30, 164).
edge(51, 142).
edge(62, 165).
edge(67, 149).
edge(122, 158).
edge(93, 116).
edge(26, 36).
edge(3, 81).
edge(103, 166).
edge(34, 72).
edge(1, 92).
edge(103, 164).
edge(75, 81).
edge(6, 159).
edge(15, 157).
edge(94, 153).
edge(42, 91).
edge(24, 99).
edge(29, 153).
edge(43, 99).
edge(140, 166).
edge(132, 158).
edge(5, 87).
edge(77, 146).
edge(22, 174).
edge(86, 125).
edge(123, 131).
edge(2, 171).
edge(32, 161).
edge(0, 92).
edge(111, 126).
edge(75, 143).
edge(29, 105).
edge(23, 71).
edge(151, 174).
edge(107, 164).
edge(8, 15).
edge(45, 173).
edge(1, 83).
edge(38, 67).
edge(105, 154).
edge(65, 126).
edge(155, 174).
edge(12, 128).
edge(7, 95).
edge(77, 163).
edge(29, 124).
edge(133, 169).
edge(38, 98).
edge(92, 164).
edge(47, 161).
edge(17, 56).
edge(21, 81).
edge(44, 63).
edge(44, 116).
edge(79, 101).
edge(69, 132).
edge(4, 38).
edge(13, 53).
edge(9, 174).
edge(37, 140).
edge(15, 129).
edge(23, 93).
edge(2, 91).
edge(39, 55).
edge(98, 103).
edge(106, 126).
edge(0, 130).
edge(9, 155).
edge(149, 157).
edge(52, 126).
edge(64, 75).
edge(25, 126).
edge(14, 44).
edge(19, 78).
edge(129, 143).
edge(33, 93).
edge(142, 173).
edge(27, 65).
edge(4, 70).
edge(49, 162).
edge(104, 106).
edge(25, 171).
edge(4, 24).
edge(89, 157).
edge(67, 91).
edge(109, 123).
edge(10, 57).
edge(23, 66).
edge(118, 170).
edge(20, 76).
edge(28, 161).
edge(42, 55).
edge(19, 49).
edge(42, 97).
edge(92, 142).
edge(41, 85).
edge(35, 60).
edge(73, 110).
edge(25, 40).
edge(65, 66).
edge(71, 77).
edge(121, 155).
edge(61, 170).
edge(22, 126).
edge(15, 30).
edge(130, 160).
edge(44, 171).
edge(20, 97).
edge(167, 168).
edge(26, 123).
edge(6, 12).
edge(153, 164).
edge(1, 21).
edge(8, 17).
edge(53, 87).
edge(24, 100).
edge(61, 112).
edge(12, 97).
edge(73, 108).
edge(7, 130).
edge(22, 151).
edge(66, 131).
edge(104, 161).
edge(4, 50).
edge(109, 120).
edge(38, 55).
edge(43, 151).
edge(108, 112).
edge(5, 167).
edge(22, 90).
edge(16, 47).
edge(21, 30).
edge(75, 88).
edge(40, 81).
edge(47, 71).
edge(18, 161).
edge(49, 166).
edge(17, 83).
edge(86, 99).
edge(76, 146).
edge(0, 166).
edge(37, 64).
edge(142, 172).
edge(26, 50).
edge(134, 166).
edge(16, 153).
edge(59, 74).
edge(61, 67).
edge(142, 148).
edge(127, 145).
edge(108, 130).
edge(47, 169).
edge(0, 53).
edge(122, 148).
edge(9, 168).
edge(62, 81).
edge(28, 74).
edge(114, 124).
edge(23, 124).
edge(132, 149).
edge(82, 88).
edge(86, 149).
edge(16, 80).
edge(98, 138).
edge(63, 78).
edge(36, 57).
edge(54, 155).
edge(68, 169).
edge(118, 151).
edge(49, 59).
edge(69, 79).
edge(73, 81).
edge(37, 51).
edge(72, 110).
edge(112, 119).
edge(113, 123).
edge(16, 57).
edge(129, 139).
edge(1, 112).
edge(106, 159).
edge(21, 48).
edge(27, 34).
edge(23, 55).
edge(66, 120).
edge(104, 174).
edge(17, 146).
edge(1, 138).
edge(90, 164).
edge(21, 92).
edge(70, 160).
edge(67, 140).
edge(158, 166).
edge(31, 34).
edge(148, 169).
edge(27, 89).
edge(112, 117).
edge(0, 29).
edge(17, 92).
edge(83, 101).
edge(66, 172).
edge(30, 116).
edge(62, 162).
edge(119, 159).
edge(115, 137).
edge(76, 141).
edge(105, 164).
edge(55, 123).
edge(36, 37).
edge(38, 169).
edge(70, 96).
edge(11, 13).
edge(40, 169).
edge(61, 130).
edge(73, 114).
edge(14, 60).
edge(88, 145).
edge(1, 68).
edge(7, 109).
edge(55, 174).
edge(20, 127).
edge(45, 155).
edge(76, 114).
edge(114, 121).
edge(15, 168).
edge(129, 166).
edge(53, 113).
edge(42, 99).
edge(27, 42).
edge(110, 166).
edge(21, 155).
edge(16, 127).
edge(28, 67).
edge(97, 129).
edge(52, 76).
edge(17, 36).
edge(1, 45).
edge(12, 78).
edge(111, 129).
edge(50, 126).
edge(67, 79).
edge(167, 173).
edge(107, 108).
edge(15, 160).
edge(51, 136).
edge(71, 97).
edge(5, 119).
edge(23, 125).
edge(73, 171).
edge(97, 107).
edge(57, 74).
edge(4, 107).
edge(43, 150).
edge(70, 115).
edge(114, 168).
edge(49, 85).
edge(33, 46).
edge(31, 164).
edge(52, 67).
edge(63, 92).
edge(64, 85).
edge(128, 160).
edge(47, 48).
edge(59, 64).
edge(60, 138).
edge(125, 173).
edge(43, 77).
edge(65, 149).
edge(113, 132).
edge(12, 155).
edge(8, 39).
edge(6, 89).
edge(72, 167).
edge(67, 174).
edge(51, 149).
edge(21, 125).
edge(87, 89).
edge(31, 90).
edge(29, 42).
edge(140, 150).
edge(46, 126).
edge(31, 89).
edge(18, 151).
edge(110, 149).
edge(68, 122).
edge(27, 98).
edge(16, 119).
edge(113, 143).
edge(59, 135).
edge(20, 155).
edge(7, 48).
edge(57, 88).
edge(81, 128).
edge(116, 128).
edge(26, 65).
edge(79, 99).
edge(18, 139).
edge(12, 36).
edge(141, 151).
edge(45, 129).
edge(116, 164).
edge(82, 149).
edge(118, 163).
edge(51, 144).
edge(72, 169).
edge(143, 167).
edge(79, 126).
edge(5, 96).
edge(28, 62).
edge(60, 124).
edge(71, 128).
edge(45, 152).
edge(68, 120).
edge(6, 98).
edge(25, 55).
edge(74, 104).
edge(99, 133).
edge(41, 116).
edge(127, 151).
edge(16, 109).
edge(101, 103).
edge(91, 104).
edge(73, 139).
edge(104, 162).
edge(17, 63).
edge(118, 169).
edge(57, 143).
edge(127, 149).
edge(57, 174).
edge(31, 174).
edge(60, 92).
edge(75, 121).
edge(13, 17).
edge(16, 19).
edge(142, 146).
edge(22, 114).
edge(25, 107).
edge(34, 104).
edge(71, 136).
edge(20, 151).
edge(96, 133).
edge(50, 75).
edge(64, 127).
edge(6, 164).
edge(40, 61).
edge(28, 144).
edge(19, 171).
edge(31, 72).
edge(133, 171).
edge(16, 123).
edge(136, 164).
edge(17, 131).
edge(10, 24).
edge(69, 155).
edge(1, 123).
edge(130, 156).
edge(68, 151).
edge(0, 135).
edge(120, 136).
edge(51, 169).
edge(19, 23).
edge(11, 162).
edge(26, 64).
edge(88, 119).
edge(109, 168).
edge(87, 145).
edge(28, 143).
edge(11, 115).
edge(10, 125).
edge(104, 163).
edge(31, 49).
edge(23, 80).
edge(109, 124).
edge(20, 45).
edge(91, 94).
edge(21, 106).
edge(48, 113).
edge(31, 163).
edge(16, 137).
edge(20, 172).
edge(72, 102).
edge(39, 141).
edge(80, 164).
edge(36, 118).
edge(5, 169).
edge(81, 110).
edge(76, 128).
edge(29, 102).
edge(37, 53).
edge(62, 156).
edge(34, 86).
edge(100, 126).
edge(25, 60).
edge(142, 162).
edge(6, 157).
edge(79, 155).
edge(30, 171).
edge(120, 139).
edge(111, 131).
edge(68, 160).
edge(15, 49).
edge(39, 134).
edge(2, 46).
edge(0, 168).
edge(85, 157).
edge(23, 64).
edge(93, 132).
edge(60, 113).
edge(5, 8).
edge(119, 139).
edge(120, 121).
edge(50, 58).
edge(63, 101).
edge(32, 103).
edge(62, 168).
edge(53, 78).
edge(25, 135).
edge(10, 124).
edge(4, 104).
edge(13, 107).
edge(8, 147).
edge(24, 90).
edge(19, 37).
edge(46, 99).
edge(8, 45).
edge(14, 83).
edge(90, 158).
edge(135, 159).
edge(51, 150).
edge(82, 128).
edge(48, 100).
edge(24, 137).
edge(126, 136).
edge(28, 29).
edge(79, 139).
edge(33, 167).
edge(15, 66).
edge(6, 136).
edge(30, 159).
edge(62, 63).
edge(102, 160).
edge(47, 57).
edge(96, 145).
edge(134, 140).
edge(53, 85).
edge(139, 145).
edge(46, 94).
edge(124, 164).
edge(76, 168).
edge(21, 76).
edge(12, 40).
edge(38, 75).
edge(3, 120).
edge(99, 109).
edge(32, 50).
edge(67, 170).
edge(118, 146).
edge(57, 119).
edge(50, 63).
edge(132, 146).
edge(62, 70).
edge(86, 147).
edge(72, 139).
edge(145, 155).
edge(27, 108).
edge(41, 70).
edge(40, 78).
edge(27, 93).
edge(60, 109).
edge(73, 130).
edge(11, 170).
edge(87, 165).
edge(44, 138).
edge(19, 86).
edge(33, 109).
edge(22, 23).
edge(6, 135).
edge(14, 174).
edge(15, 59).
edge(3, 116).
edge(8, 75).
edge(141, 153).
edge(14, 167).
edge(90, 144).
edge(11, 82).
edge(94, 112).
edge(36, 152).
edge(82, 113).
edge(82, 127).
edge(51, 140).
edge(15, 62).
edge(89, 171).
edge(27, 132).
edge(36, 71).
edge(26, 154).
edge(58, 114).
edge(37, 160).
edge(96, 134).
edge(117, 149).
edge(0, 42).
edge(64, 109).
edge(16, 32).
edge(8, 121).
edge(103, 106).
edge(142, 150).
edge(26, 38).
edge(82, 171).
edge(47, 160).
edge(40, 57).
edge(45, 124).
edge(6, 129).
edge(1, 140).
edge(14, 66).
edge(96, 98).
edge(119, 142).
edge(70, 144).
edge(156, 174).
edge(52, 137).
edge(40, 106).
edge(76, 103).
edge(71, 156).
edge(130, 146).
edge(97, 147).
edge(90, 126).
edge(2, 32).
edge(36, 103).
edge(116, 147).
edge(54, 144).
edge(99, 123).
edge(52, 82).
edge(31, 98).
edge(87, 166).
edge(69, 72).
edge(151, 160).
edge(0, 99).
edge(109, 163).
edge(93, 114).
edge(138, 147).
edge(67, 95).
edge(44, 130).
edge(25, 157).
edge(29, 135).
edge(17, 111).
edge(33, 70).
edge(34, 151).
edge(120, 146).
edge(12, 113).
edge(25, 30).
edge(49, 114).
edge(31, 45).
edge(30, 136).
edge(39, 48).
edge(78, 143).
edge(62, 103).
edge(20, 130).
edge(127, 133).
edge(80, 102).
edge(13, 153).
edge(14, 135).
edge(97, 118).
edge(44, 115).
edge(108, 165).
edge(60, 173).
edge(6, 83).
edge(52, 92).
edge(8, 151).
edge(4, 72).
edge(28, 171).
edge(28, 170).
edge(75, 124).
edge(26, 116).
edge(77, 151).
edge(46, 88).
edge(72, 111).
edge(13, 62).
edge(57, 58).
edge(45, 120).
edge(12, 58).
edge(48, 111).
edge(33, 54).
edge(34, 43).
edge(21, 143).
edge(37, 69).
edge(4, 167).
edge(63, 85).
edge(8, 89).
edge(141, 163).
edge(31, 37).
edge(154, 174).
edge(100, 130).
edge(102, 131).
edge(10, 106).
edge(62, 134).
edge(5, 45).
edge(95, 153).
edge(27, 166).
edge(21, 140).
edge(33, 102).
edge(56, 167).
edge(120, 124).
edge(101, 146).
edge(45, 161).
edge(33, 100).
edge(130, 158).
edge(89, 165).
edge(66, 71).
edge(53, 60).
edge(55, 117).
edge(145, 171).
edge(47, 84).
edge(18, 38).
edge(10, 98).
edge(144, 157).
edge(74, 135).
edge(19, 131).
edge(22, 171).
edge(47, 154).
edge(44, 62).
edge(48, 64).
edge(74, 129).
edge(92, 146).
edge(65, 114).
edge(162, 170).
edge(93, 143).
edge(52, 110).
edge(17, 67).
edge(9, 147).
edge(8, 173).
edge(42, 66).
edge(30, 41).
edge(98, 120).
edge(103, 122).
edge(98, 154).
edge(16, 81).
edge(5, 154).
edge(24, 130).
edge(11, 33).
edge(31, 87).
edge(127, 139).
edge(117, 164).
edge(81, 99).
edge(11, 135).
edge(38, 47).
edge(22, 103).
edge(57, 108).
edge(28, 75).
edge(7, 16).
edge(106, 115).
edge(102, 157).
edge(67, 163).
edge(24, 114).
edge(48, 55).
edge(48, 52).
edge(10, 127).
edge(125, 159).
edge(39, 76).
edge(56, 148).
edge(148, 157).
edge(6, 52).
edge(97, 98).
edge(19, 77).
edge(10, 157).
edge(10, 84).
edge(16, 106).
edge(35, 131).
edge(12, 79).
edge(64, 160).
edge(31, 99).
edge(41, 135).
edge(24, 65).
edge(37, 39).
edge(3, 40).
edge(28, 163).
edge(14, 134).
edge(9, 74).
edge(60, 142).
edge(71, 125).
edge(152, 173).
edge(39, 174).
edge(4, 34).
edge(18, 123).
edge(143, 147).
edge(49, 134).
edge(46, 150).
edge(39, 136).
edge(118, 173).
edge(26, 148).
edge(10, 132).
edge(78, 128).
edge(32, 109).
edge(159, 172).
edge(70, 150).
edge(34, 140).
edge(80, 152).
edge(35, 58).
edge(13, 86).
edge(25, 142).
edge(55, 172).
edge(10, 85).
edge(60, 85).
edge(19, 148).
edge(25, 152).
edge(38, 168).
edge(0, 173).
edge(42, 83).
edge(35, 80).
edge(45, 167).
edge(7, 70).
edge(62, 99).
edge(44, 110).
edge(4, 61).
edge(78, 140).
edge(14, 19).
edge(75, 123).
edge(22, 31).
edge(22, 131).
edge(22, 102).
edge(27, 92).
edge(59, 154).
edge(20, 33).
edge(30, 38).
edge(150, 170).
edge(125, 151).
edge(36, 111).
edge(67, 138).
edge(107, 159).
edge(45, 172).
edge(11, 149).
edge(95, 170).
edge(86, 132).
edge(77, 142).
edge(10, 35).
edge(11, 114).
edge(57, 149).
edge(54, 82).
edge(147, 164).
edge(30, 114).
edge(73, 129).
edge(58, 107).
edge(7, 18).
edge(146, 148).
edge(99, 108).
edge(122, 123).
edge(28, 60).
edge(9, 134).
edge(19, 87).
edge(6, 31).
edge(90, 141).
edge(9, 10).
edge(6, 142).
edge(1, 28).
edge(28, 30).
edge(21, 43).
edge(38, 145).
edge(21, 116).
edge(16, 31).
edge(36, 117).
edge(3, 169).
edge(88, 160).
edge(11, 42).
edge(38, 124).
edge(144, 169).
edge(29, 65).
edge(62, 94).
edge(7, 168).
edge(57, 82).
edge(96, 141).
edge(121, 166).
edge(108, 173).
edge(48, 152).
edge(115, 129).
edge(41, 67).
edge(2, 54).
edge(95, 143).
edge(69, 173).
edge(96, 142).
edge(33, 136).
edge(10, 134).
edge(154, 158).
edge(34, 91).
edge(77, 158).
edge(60, 135).
edge(21, 47).
edge(61, 76).
edge(59, 104).
edge(77, 136).
edge(42, 102).
edge(84, 110).
edge(106, 128).
edge(112, 157).
edge(69, 163).
edge(2, 117).
edge(90, 146).
edge(68, 119).
edge(1, 173).
edge(71, 163).
edge(24, 52).
edge(77, 124).
edge(65, 161).
edge(32, 95).
edge(84, 90).
edge(126, 145).
edge(48, 125).
edge(108, 158).
edge(37, 48).
edge(5, 94).
edge(1, 10).
edge(98, 165).
edge(52, 56).
edge(9, 135).
edge(70, 73).
edge(22, 89).
edge(151, 165).
edge(82, 166).
edge(137, 170).
edge(121, 164).
edge(46, 169).
edge(3, 88).
edge(115, 134).
edge(80, 172).
edge(147, 172).
edge(19, 173).
edge(158, 161).
edge(87, 124).
edge(22, 120).
edge(112, 129).
edge(54, 138).
edge(13, 140).
edge(86, 108).
edge(35, 44).
edge(51, 65).
edge(2, 144).
edge(14, 72).
edge(21, 100).
edge(16, 49).
edge(57, 133).
edge(0, 147).
edge(96, 150).
edge(84, 96).
edge(63, 74).
edge(65, 139).
edge(120, 162).
edge(55, 135).
edge(6, 119).
edge(25, 39).
edge(49, 91).
edge(67, 92).
edge(41, 132).
edge(25, 128).
edge(44, 71).
edge(18, 58).
edge(26, 166).
edge(38, 118).
edge(93, 162).
edge(95, 97).
edge(119, 174).
edge(65, 72).
edge(5, 106).
edge(65, 69).
edge(122, 160).
edge(34, 148).
edge(72, 155).
edge(6, 92).
edge(136, 139).
edge(27, 117).
edge(58, 144).
edge(70, 121).
edge(46, 102).
edge(2, 102).
edge(61, 107).
edge(26, 113).
edge(85, 142).
edge(61, 84).
edge(38, 56).
edge(40, 52).
edge(78, 87).
edge(76, 109).
edge(128, 144).
edge(32, 61).
edge(3, 146).
edge(27, 72).
edge(31, 41).
edge(39, 127).
edge(51, 87).
edge(123, 152).
edge(18, 122).
edge(25, 38).
edge(2, 127).
edge(108, 125).
edge(76, 120).
edge(29, 32).
edge(71, 173).
edge(6, 99).
edge(15, 134).
edge(97, 135).
edge(18, 60).
edge(23, 113).
edge(49, 117).
edge(80, 160).
edge(150, 165).
edge(53, 153).
edge(37, 44).
edge(26, 110).
edge(78, 84).
edge(62, 96).
edge(76, 80).
edge(3, 45).
edge(94, 116).
edge(64, 105).
edge(53, 129).
edge(0, 107).
edge(18, 41).
edge(20, 94).
edge(87, 106).
edge(135, 150).
edge(41, 173).
edge(36, 99).
edge(21, 35).
edge(31, 148).
edge(85, 107).
edge(84, 166).
edge(45, 105).
edge(18, 83).
edge(20, 22).
edge(13, 74).
edge(107, 137).
edge(85, 139).
edge(51, 94).
edge(5, 66).
edge(27, 73).
edge(77, 153).
edge(5, 95).
edge(42, 92).
edge(19, 42).
edge(8, 28).
edge(50, 145).
edge(75, 134).
edge(27, 115).
edge(2, 129).
edge(36, 53).
edge(94, 162).
edge(110, 129).
edge(50, 129).
edge(86, 130).
edge(34, 113).
edge(94, 166).
edge(126, 174).
edge(36, 174).
edge(110, 167).
edge(1, 78).
edge(24, 105).
edge(159, 173).
edge(118, 132).
edge(24, 25).
edge(25, 52).
edge(21, 22).
edge(69, 106).
edge(146, 149).
edge(26, 76).
edge(154, 163).
edge(85, 90).
edge(29, 145).
edge(61, 137).
edge(31, 85).
edge(38, 134).
edge(42, 116).
edge(28, 172).
edge(108, 124).
edge(126, 156).
edge(44, 104).
edge(75, 163).
edge(35, 157).
edge(42, 128).
edge(127, 174).
edge(95, 152).
edge(2, 68).
edge(107, 132).
edge(63, 116).
edge(26, 67).
edge(31, 128).
edge(18, 55).
edge(115, 130).
edge(14, 130).
edge(71, 100).
edge(63, 80).
edge(39, 71).
edge(42, 158).
edge(71, 127).
edge(17, 71).
edge(100, 131).
edge(39, 72).
edge(7, 107).
edge(112, 163).
edge(36, 129).
edge(112, 113).
edge(6, 46).
edge(161, 172).
edge(86, 131).
edge(110, 147).
edge(44, 96).
edge(134, 154).
edge(39, 59).
edge(24, 138).
edge(81, 124).
edge(6, 38).
edge(60, 117).
edge(34, 63).
edge(97, 103).
edge(124, 173).
edge(36, 126).
edge(49, 122).
edge(29, 134).
edge(65, 82).
edge(13, 129).
edge(30, 104).
edge(71, 170).
edge(15, 125).
edge(19, 76).
edge(54, 119).
edge(70, 162).
edge(89, 156).
edge(46, 90).
edge(57, 127).
edge(82, 142).
edge(166, 170).
edge(21, 132).
edge(23, 54).
edge(117, 124).
edge(66, 79).
edge(47, 119).
edge(77, 91).
edge(5, 110).
edge(112, 166).
edge(69, 143).
edge(32, 156).
edge(59, 156).
edge(12, 93).
edge(0, 124).
edge(33, 43).
edge(7, 21).
edge(22, 99).
edge(50, 107).
edge(79, 129).
edge(92, 122).
edge(50, 121).
edge(150, 153).
edge(69, 149).
edge(36, 169).
edge(41, 127).
edge(121, 148).
edge(7, 102).
edge(120, 152).
edge(117, 169).
edge(24, 62).
edge(96, 140).
edge(139, 153).
edge(12, 102).
edge(39, 97).
edge(8, 18).
edge(163, 169).
edge(119, 162).
edge(12, 63).
edge(2, 15).
edge(26, 44).
edge(24, 147).
edge(85, 87).
edge(15, 165).
edge(84, 144).
edge(7, 115).
edge(3, 156).
edge(57, 75).
edge(42, 89).
edge(11, 15).
edge(27, 64).
edge(79, 162).
edge(128, 163).
edge(85, 160).
edge(99, 169).
edge(33, 144).
edge(48, 122).
edge(6, 60).
edge(41, 102).
edge(28, 111).
edge(157, 174).
edge(49, 174).
edge(34, 129).
edge(29, 109).
edge(6, 169).
edge(1, 73).
edge(116, 139).
edge(100, 102).
edge(0, 35).
edge(0, 100).
edge(28, 146).
edge(72, 88).
edge(92, 123).
edge(101, 167).
edge(133, 153).
edge(32, 108).
edge(49, 96).
edge(6, 69).
edge(72, 105).
edge(60, 153).
edge(66, 110).
edge(53, 103).
edge(85, 155).
edge(59, 130).
edge(36, 109).
edge(72, 118).
edge(115, 123).
edge(58, 83).
edge(107, 170).
edge(40, 140).
edge(88, 111).
edge(64, 66).
edge(11, 167).
edge(80, 122).
edge(110, 137).
edge(6, 154).
edge(29, 62).
edge(33, 71).
edge(11, 164).
edge(0, 47).
edge(95, 165).
edge(22, 123).
edge(50, 51).
edge(40, 105).
edge(44, 74).
edge(132, 145).
edge(27, 50).
edge(89, 173).
edge(61, 136).
edge(34, 121).
edge(140, 151).
edge(3, 130).
edge(47, 86).
edge(1, 9).
edge(29, 150).
edge(19, 59).
edge(68, 162).
edge(158, 169).
edge(124, 128).
edge(57, 79).
edge(0, 75).
edge(33, 157).
edge(52, 98).
edge(116, 149).
edge(53, 64).
edge(2, 136).
edge(17, 93).
edge(91, 155).
edge(43, 125).
edge(32, 94).
edge(0, 101).
edge(57, 105).
edge(47, 75).
edge(8, 84).
edge(59, 120).
edge(86, 148).
edge(62, 153).
edge(130, 171).
edge(118, 160).
edge(68, 149).
edge(54, 114).
edge(15, 17).
edge(81, 148).
edge(33, 64).
edge(97, 154).
edge(96, 147).
edge(47, 108).
edge(3, 144).
edge(67, 159).
edge(1, 116).
edge(11, 18).
edge(97, 173).
edge(11, 81).
edge(143, 161).
edge(98, 149).
edge(34, 59).
edge(53, 172).
edge(17, 127).
edge(148, 163).
edge(50, 124).
edge(35, 144).
edge(55, 105).
edge(31, 157).
edge(97, 126).
edge(81, 162).
edge(66, 117).
edge(34, 135).
edge(83, 134).
edge(44, 54).
edge(116, 123).
edge(101, 117).
edge(53, 119).
edge(27, 128).
edge(12, 173).
edge(57, 139).
edge(48, 155).
edge(53, 97).
edge(77, 170).
edge(9, 93).
edge(92, 120).
edge(70, 167).
edge(73, 106).
edge(20, 114).
edge(91, 172).
edge(83, 166).
edge(20, 43).
edge(52, 149).
edge(8, 77).
edge(13, 76).
edge(100, 127).
edge(9, 44).
edge(139, 147).
edge(1, 81).
edge(63, 167).
edge(83, 156).
edge(38, 84).
edge(28, 58).
edge(54, 61).
edge(33, 172).
edge(164, 170).
edge(5, 142).
edge(105, 126).
edge(1, 118).
edge(119, 153).
edge(158, 174).
edge(56, 136).
edge(28, 114).
edge(0, 5).
edge(0, 40).
edge(145, 150).
edge(77, 105).
edge(47, 101).
edge(14, 162).
edge(95, 137).
edge(67, 100).
edge(1, 64).
edge(45, 89).
edge(155, 163).
edge(97, 131).
edge(21, 149).
edge(14, 26).
edge(130, 154).
edge(27, 104).
edge(4, 16).
edge(11, 141).
edge(72, 153).
edge(83, 94).
edge(8, 66).
edge(39, 113).
edge(48, 166).
edge(59, 82).
edge(101, 130).
edge(7, 170).
edge(147, 160).
edge(31, 77).
edge(35, 41).
edge(124, 174).
edge(12, 66).
edge(21, 163).
edge(77, 107).
edge(140, 142).
edge(46, 61).
edge(35, 72).
edge(100, 133).
edge(159, 167).
edge(37, 164).
edge(24, 161).
edge(66, 73).
edge(4, 112).
edge(43, 149).
edge(78, 114).
edge(16, 45).
edge(50, 81).
edge(101, 120).
edge(46, 100).
edge(45, 100).
edge(69, 91).
edge(105, 131).
edge(26, 168).
edge(96, 174).
edge(32, 157).
edge(170, 173).
edge(7, 25).
edge(110, 143).
edge(8, 76).
edge(14, 27).
edge(87, 121).
edge(79, 159).
edge(59, 94).
edge(6, 172).
edge(10, 59).
edge(85, 117).
edge(19, 162).
edge(98, 155).
edge(7, 12).
edge(92, 170).
edge(41, 75).
edge(132, 163).
edge(45, 49).
edge(117, 155).
edge(15, 136).
edge(17, 45).
edge(116, 125).
edge(88, 102).
edge(138, 152).
edge(131, 148).
edge(111, 145).
edge(29, 83).
edge(48, 51).
edge(50, 57).
edge(27, 106).
edge(88, 148).
edge(47, 162).
edge(69, 100).
edge(5, 9).
edge(47, 134).
edge(50, 91).
edge(114, 172).
edge(63, 102).
edge(87, 98).
edge(83, 140).
edge(31, 145).
edge(114, 165).
edge(19, 83).
edge(145, 174).
edge(50, 159).
edge(31, 83).
edge(154, 160).
edge(80, 173).
edge(74, 83).
edge(14, 43).
edge(6, 35).
edge(88, 135).
edge(15, 107).
edge(92, 126).
edge(9, 121).
edge(23, 109).
edge(34, 73).
edge(59, 80).
edge(6, 28).
edge(61, 166).
edge(13, 143).
edge(121, 125).
edge(45, 119).
edge(106, 150).
edge(37, 43).
edge(111, 154).
edge(104, 143).
edge(138, 173).
edge(106, 142).
edge(100, 151).
edge(137, 145).
edge(113, 144).
edge(11, 34).
edge(54, 55).
edge(32, 111).
edge(11, 106).
edge(84, 99).
edge(40, 117).
edge(88, 117).
edge(16, 115).
edge(14, 95).
edge(21, 108).
edge(18, 87).
edge(6, 82).
edge(77, 156).
edge(32, 104).
edge(24, 77).
edge(36, 69).
edge(40, 88).
edge(38, 78).
edge(24, 143).
edge(85, 148).
edge(20, 44).
edge(31, 70).
edge(40, 59).
edge(132, 140).
edge(48, 101).
edge(72, 112).
edge(57, 172).
edge(51, 92).
edge(67, 68).
edge(45, 97).
edge(12, 33).
edge(46, 87).
edge(79, 102).
edge(54, 165).
edge(81, 131).
edge(122, 168).
edge(61, 128).
edge(28, 164).
edge(36, 90).
edge(56, 113).
edge(96, 102).
edge(70, 173).
edge(91, 123).
edge(122, 135).
edge(44, 69).
edge(0, 165).
edge(21, 61).
edge(45, 145).
edge(26, 58).
edge(105, 112).
edge(33, 85).
edge(53, 76).
edge(75, 173).
edge(9, 119).
edge(79, 156).
edge(7, 54).
edge(109, 136).
edge(19, 26).
edge(72, 141).
edge(94, 170).
edge(24, 72).
edge(18, 82).
edge(8, 9).
edge(126, 146).
edge(9, 31).
edge(29, 120).
edge(30, 82).
edge(46, 117).
edge(19, 54).
edge(22, 137).
edge(67, 121).
edge(11, 102).
edge(138, 168).
edge(4, 66).
edge(83, 155).
edge(37, 141).
edge(110, 174).
edge(40, 53).
edge(60, 160).
edge(31, 169).
edge(36, 45).
edge(60, 93).
edge(1, 137).
edge(97, 148).
edge(28, 117).
edge(27, 60).
edge(96, 135).
edge(106, 107).
edge(87, 136).
edge(136, 146).
edge(56, 126).
edge(61, 89).
edge(30, 118).
edge(6, 171).
edge(56, 149).
edge(3, 102).
edge(47, 147).
edge(26, 122).
edge(22, 134).
edge(60, 140).
edge(84, 121).
edge(0, 38).
edge(59, 126).
edge(14, 94).
edge(17, 142).
edge(131, 162).
edge(2, 101).
edge(7, 86).
edge(144, 165).
edge(58, 78).
edge(63, 174).
edge(2, 66).
edge(103, 109).
edge(15, 75).
edge(85, 143).
edge(12, 99).
edge(17, 53).
edge(47, 113).
edge(127, 132).
edge(46, 104).
edge(142, 160).
edge(84, 116).
edge(76, 112).
edge(95, 120).
edge(54, 105).
edge(109, 164).
edge(27, 99).
edge(158, 171).
edge(51, 62).
edge(40, 111).
edge(12, 158).
edge(59, 85).
edge(58, 65).
edge(121, 161).
edge(61, 161).
edge(41, 162).
edge(36, 114).
edge(95, 126).
edge(53, 142).
edge(119, 161).
edge(43, 130).
edge(37, 111).
edge(17, 129).
edge(72, 103).
edge(13, 106).
edge(39, 100).
edge(1, 86).
edge(61, 64).
edge(76, 173).
edge(12, 71).
edge(43, 144).
edge(34, 111).
edge(91, 99).
edge(98, 132).
edge(43, 167).
edge(28, 129).
edge(7, 143).
edge(17, 147).
edge(110, 120).
edge(9, 43).
edge(16, 76).
edge(7, 49).
edge(8, 85).
edge(21, 55).
edge(5, 34).
edge(50, 82).
edge(65, 150).
edge(90, 162).
edge(11, 121).
edge(8, 26).
edge(4, 130).
edge(107, 143).
edge(3, 94).
edge(2, 148).
edge(130, 147).
edge(114, 126).
edge(88, 150).
edge(98, 119).
edge(25, 33).
edge(15, 159).
edge(60, 148).
edge(62, 121).
edge(153, 165).
edge(98, 121).
edge(20, 162).
edge(84, 147).
edge(26, 41).
edge(108, 115).
edge(25, 172).
edge(3, 44).
edge(104, 122).
edge(67, 157).
edge(16, 125).
edge(52, 78).
edge(102, 173).
edge(53, 160).
edge(0, 122).
edge(42, 58).
edge(92, 167).
edge(18, 56).
edge(69, 78).
edge(9, 102).
edge(90, 168).
edge(60, 84).
edge(2, 173).
edge(79, 86).
edge(59, 157).
edge(89, 147).
edge(33, 117).
edge(43, 110).
edge(37, 151).
edge(135, 146).
edge(91, 138).
edge(58, 95).
edge(151, 154).
edge(31, 66).
edge(27, 171).
edge(97, 130).
edge(9, 24).
edge(12, 127).
edge(95, 108).
edge(94, 97).
edge(148, 161).
edge(85, 137).
edge(25, 123).
edge(93, 152).
edge(147, 170).
edge(137, 150).
edge(87, 88).
edge(22, 110).
edge(119, 156).
edge(17, 21).
edge(30, 156).
edge(112, 121).
edge(104, 139).
edge(49, 81).
edge(37, 38).
edge(135, 143).
edge(138, 139).
edge(27, 91).
edge(51, 134).
edge(74, 115).
edge(55, 125).
edge(103, 165).
edge(24, 68).
edge(82, 92).
edge(43, 133).
edge(19, 36).
edge(55, 97).
edge(12, 22).
edge(120, 142).
edge(8, 115).
edge(123, 149).
edge(24, 47).
edge(46, 131).
edge(90, 150).
edge(79, 124).
edge(29, 91).
edge(39, 147).
edge(80, 121).
edge(70, 130).
edge(135, 171).
edge(47, 55).
edge(13, 42).
edge(52, 163).
edge(113, 166).
edge(58, 140).
edge(36, 106).
edge(90, 171).
edge(75, 101).
edge(125, 132).
edge(22, 98).
edge(15, 23).
edge(87, 131).
edge(11, 53).
edge(36, 165).
edge(74, 111).
edge(62, 79).
edge(52, 113).
edge(89, 152).
edge(130, 168).
edge(15, 16).
edge(78, 144).
edge(15, 163).
edge(69, 97).
edge(40, 64).
edge(4, 164).
edge(66, 67).
edge(32, 96).
edge(14, 41).
edge(50, 100).
edge(30, 167).
edge(111, 159).
edge(14, 25).
edge(82, 84).
edge(104, 111).
edge(13, 125).
edge(15, 156).
edge(66, 136).
edge(22, 169).
edge(163, 166).
edge(17, 90).
edge(74, 100).
edge(109, 151).
edge(47, 74).
edge(19, 56).
edge(87, 146).
edge(60, 112).
edge(23, 137).
edge(40, 141).
edge(155, 170).
edge(5, 54).
edge(35, 170).
edge(37, 58).
edge(2, 64).
edge(5, 81).
edge(5, 151).
edge(7, 75).
edge(19, 151).
edge(126, 133).
edge(6, 51).
edge(34, 62).
edge(76, 130).
edge(31, 114).
edge(25, 138).
edge(59, 132).
edge(67, 160).
edge(36, 100).
edge(5, 97).
edge(18, 50).
edge(67, 139).
edge(73, 156).
edge(45, 74).
edge(59, 147).
edge(75, 95).
edge(82, 95).
edge(72, 152).
edge(21, 90).
edge(54, 75).
edge(0, 48).
edge(39, 152).
edge(52, 125).
edge(126, 141).
edge(85, 115).
edge(44, 117).
edge(21, 37).
edge(101, 132).
edge(25, 167).
edge(54, 100).
edge(13, 61).
edge(28, 155).
edge(30, 150).
edge(141, 158).
edge(36, 164).
edge(62, 137).
edge(127, 137).
edge(72, 98).
edge(6, 134).
edge(1, 54).
edge(127, 164).
edge(50, 54).
edge(108, 109).
edge(19, 146).
edge(71, 82).
edge(85, 92).
edge(8, 24).
edge(138, 146).
edge(117, 163).
edge(9, 41).
edge(79, 137).
edge(52, 173).
edge(0, 14).
edge(37, 101).
edge(1, 134).
edge(63, 169).
edge(17, 58).
edge(76, 169).
edge(73, 92).
edge(52, 165).
edge(14, 16).
edge(56, 122).
edge(1, 36).
edge(7, 34).
edge(93, 103).
edge(12, 16).
edge(33, 137).
edge(93, 104).
edge(78, 134).
edge(49, 62).
edge(59, 68).
edge(3, 152).
edge(29, 76).
edge(34, 84).
edge(165, 166).
edge(5, 93).
edge(127, 162).
edge(50, 60).
edge(60, 119).
edge(44, 50).
edge(76, 154).
edge(89, 116).
edge(53, 148).
edge(34, 61).
edge(51, 66).
edge(32, 33).
edge(43, 50).
edge(95, 136).
edge(31, 112).
edge(8, 95).
edge(26, 151).
edge(18, 104).
edge(25, 50).
edge(50, 64).
edge(51, 119).
edge(63, 69).
edge(119, 144).
edge(58, 127).
edge(51, 67).
edge(26, 62).
edge(14, 58).
edge(35, 167).
edge(62, 92).
edge(124, 157).
edge(79, 98).
edge(15, 166).
edge(121, 122).
edge(14, 80).
edge(116, 129).
edge(50, 79).
edge(38, 119).
edge(31, 76).
edge(143, 173).
edge(58, 82).
edge(27, 83).
edge(36, 91).
edge(55, 79).
edge(106, 131).
edge(50, 84).
edge(22, 40).
edge(33, 162).
edge(34, 98).
edge(22, 147).
edge(48, 69).
edge(23, 90).
edge(9, 21).
edge(61, 97).
edge(23, 32).
edge(1, 52).
edge(55, 173).
edge(37, 79).
edge(15, 68).
edge(70, 105).
edge(22, 36).
edge(1, 152).
edge(87, 109).
edge(18, 24).
edge(45, 162).
edge(3, 145).
edge(54, 122).
edge(50, 113).
edge(113, 161).
edge(23, 89).
edge(90, 125).
edge(33, 174).
edge(3, 39).
edge(146, 173).
edge(78, 99).
edge(131, 171).
edge(99, 128).
edge(80, 165).
edge(28, 35).
edge(53, 128).
edge(121, 157).
edge(80, 131).
edge(68, 75).
edge(105, 120).
edge(74, 114).
edge(97, 122).
edge(49, 129).
edge(129, 162).
edge(127, 158).
edge(79, 114).
edge(66, 70).
edge(46, 170).
edge(43, 165).
edge(40, 166).
edge(66, 163).
edge(68, 118).
edge(16, 162).
edge(32, 159).
edge(26, 121).
edge(51, 68).
edge(112, 173).
edge(155, 162).
edge(137, 154).
edge(58, 70).
edge(8, 162).
edge(79, 120).
edge(61, 101).
edge(125, 161).
edge(71, 160).
edge(110, 111).
edge(69, 162).
edge(55, 167).
edge(51, 58).
edge(2, 57).
edge(98, 164).
edge(147, 171).
edge(123, 157).
edge(9, 47).
edge(29, 39).
edge(125, 128).
edge(22, 80).
edge(12, 31).
edge(13, 48).
edge(18, 30).
edge(81, 92).
edge(8, 83).
edge(104, 116).
edge(139, 160).
edge(45, 144).
edge(90, 138).
edge(140, 144).
edge(59, 146).
edge(5, 49).
edge(21, 117).
edge(1, 171).
edge(152, 158).
edge(36, 68).
edge(86, 163).
edge(58, 62).
edge(120, 166).
edge(130, 150).
edge(69, 131).
edge(19, 68).
edge(104, 166).
edge(20, 173).
edge(53, 165).
edge(54, 95).
edge(90, 104).
edge(74, 168).
edge(71, 148).
edge(30, 46).
edge(144, 149).
edge(59, 115).
edge(70, 104).
edge(114, 150).
edge(80, 90).
edge(83, 95).
edge(62, 138).
edge(83, 103).
edge(1, 153).
edge(9, 95).
edge(5, 48).
edge(41, 110).
edge(45, 142).
edge(14, 100).
edge(86, 110).
edge(40, 72).
edge(112, 169).
edge(76, 81).
edge(6, 40).
edge(53, 89).
edge(163, 173).
edge(63, 100).
edge(88, 134).
edge(34, 116).
edge(23, 39).
edge(163, 165).
edge(44, 70).
edge(75, 152).
edge(54, 69).
edge(35, 93).
edge(103, 143).
edge(45, 109).
edge(43, 84).
edge(23, 155).
edge(38, 51).
edge(10, 107).
edge(53, 66).
edge(51, 130).
edge(51, 160).
edge(35, 118).
edge(43, 89).
edge(90, 134).
edge(13, 56).
edge(13, 91).
edge(65, 158).
edge(35, 65).
edge(152, 170).
edge(95, 150).
edge(66, 160).
edge(19, 135).
edge(15, 96).
edge(147, 173).
edge(68, 128).
edge(25, 103).
edge(51, 79).
edge(30, 35).
edge(117, 121).
edge(5, 28).
edge(25, 130).
edge(128, 173).
edge(29, 96).
edge(52, 123).
edge(34, 75).
edge(81, 147).
edge(63, 114).
edge(31, 159).
edge(59, 77).
edge(52, 91).
edge(113, 125).
edge(51, 151).
edge(66, 170).
edge(69, 128).
edge(63, 119).
edge(4, 146).
edge(16, 88).
edge(138, 151).
edge(86, 118).
edge(36, 41).
edge(7, 118).
edge(98, 143).
edge(11, 51).
edge(21, 131).
edge(16, 33).
edge(57, 111).
edge(0, 155).
edge(7, 90).
edge(91, 100).
edge(101, 105).
edge(47, 135).
edge(10, 42).
edge(56, 146).
edge(66, 92).
edge(61, 90).
edge(81, 170).
edge(65, 144).
edge(20, 138).
edge(26, 100).
edge(97, 110).
edge(43, 97).
edge(8, 150).
edge(53, 92).
edge(18, 94).
edge(23, 143).
edge(65, 110).
edge(57, 80).
edge(98, 105).
edge(119, 138).
edge(102, 153).
edge(48, 174).
edge(51, 139).
edge(113, 159).
edge(99, 159).
edge(76, 139).
edge(28, 165).
edge(109, 112).
edge(8, 119).
edge(3, 10).
edge(55, 150).
edge(66, 162).
edge(27, 85).
edge(15, 31).
edge(44, 144).
edge(88, 120).
edge(40, 71).
edge(26, 60).
edge(53, 62).
edge(21, 109).
edge(4, 126).
edge(39, 135).
edge(68, 137).
edge(35, 46).
edge(71, 76).
edge(74, 137).
edge(38, 129).
edge(109, 143).
edge(60, 65).
edge(39, 90).
edge(39, 75).
edge(66, 87).
edge(9, 16).
edge(124, 159).
edge(40, 139).
edge(50, 83).
edge(51, 101).
edge(130, 144).
edge(47, 98).
edge(63, 104).
edge(55, 82).
edge(49, 51).
edge(47, 151).
edge(118, 142).
edge(19, 21).
edge(68, 84).
edge(35, 110).
edge(16, 89).
edge(54, 85).
edge(30, 37).
edge(19, 39).
edge(7, 80).
weight(0, 8).
weight(1, 6).
weight(2, 6).
weight(3, 9).
weight(4, 6).
weight(5, 9).
weight(6, 10).
weight(7, 9).
weight(8, 5).
weight(9, 3).
weight(10, 10).
weight(11, 7).
weight(12, 6).
weight(13, 8).
weight(14, 8).
weight(15, 1).
weight(16, 5).
weight(17, 9).
weight(18, 1).
weight(19, 4).
weight(20, 10).
weight(21, 5).
weight(22, 7).
weight(23, 5).
weight(24, 10).
weight(25, 1).
weight(26, 2).
weight(27, 9).
weight(28, 5).
weight(29, 2).
weight(30, 7).
weight(31, 9).
weight(32, 2).
weight(33, 7).
weight(34, 6).
weight(35, 2).
weight(36, 9).
weight(37, 9).
weight(38, 5).
weight(39, 2).
weight(40, 8).
weight(41, 10).
weight(42, 4).
weight(43, 4).
weight(44, 9).
weight(45, 9).
weight(46, 2).
weight(47, 6).
weight(48, 8).
weight(49, 3).
weight(50, 5).
weight(51, 1).
weight(52, 4).
weight(53, 1).
weight(54, 5).
weight(55, 4).
weight(56, 3).
weight(57, 2).
weight(58, 8).
weight(59, 2).
weight(60, 6).
weight(61, 9).
weight(62, 7).
weight(63, 9).
weight(64, 3).
weight(65, 6).
weight(66, 1).
weight(67, 8).
weight(68, 6).
weight(69, 2).
weight(70, 9).
weight(71, 5).
weight(72, 5).
weight(73, 7).
weight(74, 8).
weight(75, 10).
weight(76, 5).
weight(77, 4).
weight(78, 9).
weight(79, 5).
weight(80, 5).
weight(81, 7).
weight(82, 9).
weight(83, 6).
weight(84, 2).
weight(85, 3).
weight(86, 9).
weight(87, 4).
weight(88, 5).
weight(89, 1).
weight(90, 1).
weight(91, 8).
weight(92, 4).
weight(93, 3).
weight(94, 5).
weight(95, 8).
weight(96, 10).
weight(97, 4).
weight(98, 9).
weight(99, 7).
weight(100, 6).
weight(101, 2).
weight(102, 4).
weight(103, 10).
weight(104, 10).
weight(105, 4).
weight(106, 10).
weight(107, 6).
weight(108, 5).
weight(109, 2).
weight(110, 1).
weight(111, 2).
weight(112, 7).
weight(113, 8).
weight(114, 1).
weight(115, 10).
weight(116, 5).
weight(117, 4).
weight(118, 3).
weight(119, 10).
weight(120, 8).
weight(121, 5).
weight(122, 2).
weight(123, 6).
weight(124, 9).
weight(125, 2).
weight(126, 5).
weight(127, 5).
weight(128, 3).
weight(129, 7).
weight(130, 3).
weight(131, 8).
weight(132, 1).
weight(133, 10).
weight(134, 6).
weight(135, 9).
weight(136, 3).
weight(137, 10).
weight(138, 3).
weight(139, 3).
weight(140, 5).
weight(141, 6).
weight(142, 4).
weight(143, 3).
weight(144, 3).
weight(145, 7).
weight(146, 7).
weight(147, 1).
weight(148, 9).
weight(149, 5).
weight(150, 8).
weight(151, 4).
weight(152, 7).
weight(153, 8).
weight(154, 1).
weight(155, 6).
weight(156, 10).
weight(157, 2).
weight(158, 5).
weight(159, 4).
weight(160, 3).
weight(161, 1).
weight(162, 10).
weight(163, 6).
weight(164, 5).
weight(165, 3).
weight(166, 5).
weight(167, 8).
weight(168, 2).
weight(169, 9).
weight(170, 4).
weight(171, 2).
weight(172, 6).
weight(173, 10).
weight(174, 3).
bound(106).

adj(U,V) :- edge(U,V).
adj(U,V) :- edge(V,U).
{in(V)} :- node(V).
dominated(V) :- in(V).
dominated(V) :- in(U), adj(U,V).
:- node(V), not dominated(V).
:- bound(B), #sum{W,V : in(V), weight(V,W)} > B.
:~ in(V), weight(V,W). [W@1,V]
