node(0..198).
edge(126, 191).
edge(105, 171).
edge(102, 105).
edge(48, 159).
edge(86, 88).
edge(17, 90).
edge(99, 101).
edge(11, 117).
edge(113, 137).
edge(32, 81).
edge(6, 69).
edge(2, 90).
edge(128, 185).
edge(4, 88).
edge(84, 97).
edge(165, 166).
edge(58, 94).
edge(149, 191).
edge(172, 184).
edge(34, 190).
edge(20, 158).
edge(41, 139).
edge(62, 110).
edge(18, 39).
edge(0, 20).
edge(89, 131).
edge(168, 180).
edge(8, 196).
edge(3, 186).
edge(37, 53).
edge(113, 174).
edge(126, 194).
edge(41, 75).
edge(21, 135).
edge(153, 182).
edge(145, 170).
edge(122, 150).
edge(115, 171).
edge(150, 161).
edge(30, 140).
edge(68, 97).
edge(0, 118).
edge(113, 139).
edge(36, 159).
edge(22, 186).
edge(62, 107).
edge(80, 149).
edge(130, 179).
edge(93, 191).
edge(31, 76).
edge(81, 130).
edge(44, 159).
edge(79, 183).
edge(33, 150).
edge(43, 177).
edge(0, 181).
edge(143, 197).
edge(39, 77).
edge(131, 189).
edge(19, 180).
edge(17, 110).
edge(37, 177).
edge(14, 151).
edge(29, 115).
edge(82, 197).
edge(4, 64).
edge(81, 86).
edge(159, 198).
edge(75, 131).
edge(45, 102).
edge(87, 193).
edge(5, 126).
edge(38, 55).
edge(124, 125).
edge(57, 139).
edge(69, 115).
edge(85, 113).
edge(166, 195).
edge(75, 148).
edge(132, 166).
edge(57, 114).
edge(58, 118).
edge(118, 174).
edge(113, 153).
edge(19, 126).
edge(115, 135).
edge(28, 101).
edge(44, 196).
edge(3, 32).
edge(35, 168).
edge(108, 193).
edge(51, 191).
edge(39, 173).
edge(45, 54).
edge(89, 148).
edge(1, 20).
edge(15, 57).
edge(57, 96).
edge(70, 164).
edge(104, 134).
edge(30, 54).
edge(56, 173).
edge(19, 65).
edge(17, 101).
edge(122, 152).
edge(8, 9).
edge(103, 143).
edge(79, 144).
edge(155, 186).
edge(20, 116).
edge(1, 76).
edge(40, 119).
edge(27, 35).
edge(31, 178).
edge(4, 115).
edge(13, 141).
edge(28, 73).
edge(78, 176).
edge(41, 98).
edge(138, 192).
edge(28, 116).
edge(82, 107).
edge(66, 183).
edge(10, 32).
edge(7, 179).
edge(31, 127).
edge(98, 196).
edge(22, 151).
edge(25, 80).
edge(130, 193).
edge(38, 173).
edge(56, 60).
edge(70, 173).
edge(18, 141).
edge(14, 189).
edge(15, 24).
edge(69, 147).
edge(82, 187).
edge(64, 143).
edge(66, 109).
edge(20, 193).
edge(42, 98).
edge(55, 76).
edge(109, 188).
edge(46, 145).
edge(10, 173).
edge(120, 140).
edge(159, 166).
edge(44, 115).
edge(67, 93).
edge(12, 197).
edge(95, 153).
edge(157, 192).
edge(157, 160).
edge(15, 68).
edge(30, 93).
edge(58, 98).
edge(72, 107).
edge(74, 76).
edge(31, 156).
edge(22, 167).
edge(65, 122).
edge(82, 97).
edge(69, 158).
edge(60, 171).
edge(102, 157).
edge(78, 167).
edge(154, 187).
edge(9, 91).
edge(102, 114).
edge(114, 181).
edge(46, 134).
edge(75, 112).
edge(157, 162).
edge(103, 164).
edge(28, 53).
edge(91, 137).
edge(37, 192).
edge(100, 157).
edge(88, 107).
edge(102, 151).
edge(89, 124).
edge(3, 34).
edge(55, 157).
edge(56, 162).
edge(123, 154).
edge(82, 83).
edge(122, 188).
edge(86, 146).
edge(163, 190).
edge(41, 179).
edge(41, 116).
edge(4, 158).
edge(7, 82).
edge(102, 121).
edge(25, 31).
edge(52, 143).
edge(30, 144).
edge(52, 179).
edge(118, 120).
edge(104, 183).
edge(20, 44).
edge(26, 93).
edge(57, 164).
edge(82, 193).
edge(64, 133).
edge(68, 149).
edge(46, 152).
edge(25, 155).
edge(60, 105).
edge(119, 174).
edge(7, 147).
edge(38, 159).
edge(36, 172).
edge(54, 71).
edge(89, 184).
edge(39, 119).
edge(131, 174).
edge(25, 138).
edge(136, 192).
edge(187, 193).
edge(113, 160).
edge(51, 76).
edge(17, 135).
edge(64, 197).
edge(147, 148).
edge(101, 115).
edge(189, 192).
edge(135, 185).
edge(64, 148).
edge(47, 176).
edge(111, 147).
edge(143, 172).
edge(182, 191).
edge(106, 123).
edge(125, 190).
edge(116, 191).
edge(88, 93).
edge(52, 184).
edge(58, 131).
edge(75, 156).
edge(95, 157).
edge(133, 173).
edge(70, 155).
edge(134, 167).
edge(54, 162).
edge(52, 84).
edge(174, 175).
edge(29, 159).
edge(59, 136).
edge(6, 176).
edge(36, 135).
edge(24, 169).
edge(13, 85).
edge(86, 165).
edge(71, 179).
edge(18, 134).
edge(42, 177).
edge(111, 194).
edge(142, 186).
edge(145, 195).
edge(8, 111).
edge(61, 166).
edge(53, 188).
edge(77, 141).
edge(67, 176).
edge(22, 192).
edge(3, 74).
edge(151, 190).
edge(26, 171).
edge(132, 182).
edge(32, 35).
edge(1, 173).
edge(100, 183).
edge(129, 150).
edge(155, 198).
edge(78, 129).
edge(169, 192).
edge(111, 134).
edge(43, 105).
edge(57, 155).
edge(21, 41).
edge(103, 149).
edge(45, 51).
edge(45, 64).
edge(167, 191).
edge(15, 113).
edge(90, 151).
edge(115, 127).
edge(105, 126).
edge(77, 171).
edge(35, 70).
edge(126, 170).
edge(95, 118).
edge(161, 185).
edge(14, 61).
edge(108, 192).
edge(62, 142).
edge(106, 136).
edge(10, 90).
edge(2, 29).
edge(1, 63).
edge(153, 156).
edge(6, 99).
edge(73, 177).
edge(48, 60).
edge(8, 187).
edge(34, 188).
edge(71, 197).
edge(129, 195).
edge(0, 116).
edge(91, 122).
edge(48, 115).
edge(79, 84).
edge(98, 136).
edge(32, 62).
edge(12, 24).
edge(77, 129).
edge(90, 142).
edge(48, 94).
edge(119, 164).
edge(26, 117).
edge(17, 114).
edge(148, 159).
edge(90, 150).
edge(56, 172).
edge(34, 75).
edge(80, 167).
edge(40, 144).
edge(18, 122).
edge(28, 80).
edge(85, 168).
edge(89, 173).
edge(84, 154).
edge(32, 41).
edge(21, 30).
edge(3, 38).
edge(38, 56).
edge(23, 178).
edge(49, 178).
edge(10, 77).
edge(131, 171).
edge(41, 92).
edge(126, 140).
edge(24, 82).
edge(65, 70).
edge(24, 192).
edge(49, 60).
edge(118, 150).
edge(38, 53).
edge(175, 186).
edge(15, 59).
edge(3, 44).
edge(87, 141).
edge(71, 145).
edge(20, 51).
edge(121, 194).
edge(81, 159).
edge(121, 141).
edge(22, 84).
edge(9, 97).
edge(31, 36).
edge(106, 157).
edge(113, 186).
edge(158, 171).
edge(8, 149).
edge(65, 172).
edge(58, 141).
edge(0, 58).
edge(86, 151).
edge(22, 76).
edge(25, 41).
edge(130, 188).
edge(137, 143).
edge(51, 163).
edge(128, 152).
edge(82, 85).
edge(110, 183).
edge(108, 162).
edge(12, 173).
edge(93, 124).
edge(166, 190).
edge(90, 109).
edge(31, 69).
edge(40, 168).
edge(12, 155).
edge(117, 194).
edge(112, 189).
edge(45, 150).
edge(3, 111).
edge(128, 164).
edge(38, 126).
edge(17, 61).
edge(137, 161).
edge(8, 80).
edge(65, 131).
edge(58, 128).
edge(88, 147).
edge(70, 141).
edge(40, 184).
edge(12, 156).
edge(53, 55).
edge(8, 38).
edge(69, 133).
edge(156, 179).
edge(117, 121).
edge(141, 157).
edge(41, 169).
edge(5, 155).
edge(146, 148).
edge(95, 179).
edge(42, 128).
edge(43, 91).
edge(34, 71).
edge(76, 98).
edge(81, 145).
edge(22, 106).
edge(35, 183).
edge(3, 132).
edge(30, 52).
edge(5, 104).
edge(171, 194).
edge(89, 108).
edge(66, 174).
edge(17, 127).
edge(2, 127).
edge(144, 158).
edge(28, 153).
edge(11, 127).
edge(121, 154).
edge(29, 140).
edge(63, 129).
edge(127, 154).
edge(25, 71).
edge(24, 117).
edge(161, 191).
edge(26, 89).
edge(39, 145).
edge(8, 88).
edge(121, 159).
edge(37, 120).
edge(133, 190).
edge(71, 115).
edge(66, 120).
edge(3, 77).
edge(105, 116).
edge(1, 134).
edge(117, 131).
edge(75, 111).
edge(33, 165).
edge(35, 107).
edge(4, 142).
edge(16, 47).
edge(76, 140).
edge(75, 120).
edge(80, 119).
edge(33, 62).
edge(76, 100).
edge(1, 13).
edge(147, 176).
edge(105, 158).
edge(99, 139).
edge(38, 179).
edge(76, 169).
edge(70, 126).
edge(129, 160).
edge(25, 159).
edge(86, 91).
edge(11, 98).
edge(41, 106).
edge(33, 118).
edge(24, 46).
edge(8, 105).
edge(69, 72).
edge(35, 185).
edge(119, 180).
edge(87, 189).
edge(119, 169).
edge(49, 192).
edge(124, 158).
edge(40, 128).
edge(102, 150).
edge(66, 157).
edge(27, 172).
edge(33, 195).
edge(97, 170).
edge(27, 99).
edge(166, 179).
edge(35, 179).
edge(157, 170).
edge(151, 180).
edge(84, 102).
edge(128, 156).
edge(98, 174).
edge(72, 95).
edge(70, 145).
edge(42, 71).
edge(83, 89).
edge(47, 133).
edge(92, 96).
edge(93, 153).
edge(112, 192).
edge(76, 120).
edge(97, 168).
edge(35, 138).
edge(117, 168).
edge(130, 147).
edge(22, 119).
edge(8, 46).
edge(118, 121).
edge(162, 177).
edge(110, 126).
edge(109, 153).
edge(26, 61).
edge(123, 161).
edge(105, 130).
edge(58, 169).
edge(117, 164).
edge(40, 145).
edge(30, 151).
edge(3, 86).
edge(8, 84).
edge(149, 162).
edge(81, 168).
edge(73, 173).
edge(34, 77).
edge(162, 166).
edge(139, 162).
edge(121, 175).
edge(24, 110).
edge(90, 147).
edge(9, 74).
edge(12, 16).
edge(108, 166).
edge(37, 146).
edge(12, 79).
edge(35, 129).
edge(4, 82).
edge(43, 81).
edge(51, 165).
edge(9, 163).
edge(60, 180).
edge(81, 151).
edge(29, 43).
edge(90, 126).
edge(104, 177).
edge(75, 137).
edge(74, 126).
edge(80, 141).
edge(72, 99).
edge(188, 197).
edge(11, 156).
edge(17, 131).
edge(162, 171).
edge(11, 111).
edge(100, 174).
edge(124, 135).
edge(78, 197).
edge(151, 184).
edge(29, 117).
edge(7, 168).
edge(169, 175).
edge(148, 198).
edge(7, 50).
edge(104, 168).
edge(9, 131).
edge(51, 62).
edge(51, 131).
edge(50, 99).
edge(9, 37).
edge(60, 61).
edge(33, 149).
edge(30, 110).
edge(94, 172).
edge(132, 173).
edge(122, 189).
edge(50, 82).
edge(114, 148).
edge(3, 187).
edge(85, 126).
edge(94, 99).
edge(116, 192).
edge(21, 101).
edge(48, 179).
edge(18, 86).
edge(62, 150).
edge(59, 107).
edge(52, 89).
edge(28, 109).
edge(63, 185).
edge(23, 171).
edge(33, 182).
edge(73, 141).
edge(64, 139).
edge(31, 136).
edge(84, 93).
edge(59, 154).
edge(178, 185).
edge(10, 164).
edge(4, 56).
edge(146, 192).
edge(36, 65).
edge(60, 78).
edge(129, 167).
edge(30, 139).
edge(10, 83).
edge(167, 169).
edge(3, 124).
edge(48, 154).
edge(76, 156).
edge(62, 164).
edge(194, 197).
edge(3, 148).
edge(85, 131).
edge(108, 169).
edge(154, 195).
edge(68, 180).
edge(99, 192).
edge(95, 172).
edge(83, 107).
edge(25, 126).
edge(36, 61).
edge(17, 56).
edge(3, 35).
edge(114, 154).
edge(43, 128).
edge(104, 175).
edge(31, 56).
edge(70, 75).
edge(5, 82).
edge(103, 162).
edge(79, 128).
edge(157, 166).
edge(3, 135).
edge(52, 146).
edge(31, 104).
edge(103, 150).
edge(16, 46).
edge(64, 111).
edge(42, 139).
edge(36, 51).
edge(152, 176).
edge(82, 115).
edge(108, 157).
edge(25, 120).
edge(92, 172).
edge(111, 112).
edge(42, 65).
edge(10, 187).
edge(149, 179).
edge(76, 147).
edge(111, 143).
edge(70, 178).
edge(102, 137).
edge(47, 107).
edge(97, 182).
edge(28, 114).
edge(149, 196).
edge(14, 86).
edge(42, 182).
edge(126, 146).
edge(80, 184).
edge(14, 198).
edge(37, 97).
edge(12, 134).
edge(118, 173).
edge(72, 112).
edge(5, 43).
edge(1, 95).
edge(121, 122).
edge(121, 144).
edge(4, 136).
edge(111, 166).
edge(16, 198).
edge(139, 153).
edge(53, 181).
edge(1, 146).
edge(5, 59).
edge(94, 136).
edge(7, 56).
edge(21, 181).
edge(10, 97).
edge(112, 161).
edge(145, 152).
edge(58, 162).
edge(39, 69).
edge(85, 98).
edge(43, 165).
edge(131, 158).
edge(77, 131).
edge(8, 113).
edge(19, 144).
edge(13, 186).
edge(63, 77).
edge(81, 134).
edge(54, 111).
edge(29, 121).
edge(116, 137).
edge(22, 113).
edge(51, 179).
edge(78, 107).
edge(150, 194).
edge(59, 128).
edge(10, 190).
edge(68, 122).
edge(68, 177).
edge(70, 82).
edge(87, 177).
edge(32, 43).
edge(111, 148).
edge(70, 81).
edge(76, 171).
edge(22, 46).
edge(76, 181).
edge(134, 192).
edge(11, 170).
edge(37, 92).
edge(91, 146).
edge(1, 26).
edge(107, 108).
edge(92, 122).
edge(0, 62).
edge(2, 58).
edge(52, 56).
edge(68, 165).
edge(5, 141).
edge(117, 132).
edge(66, 100).
edge(65, 157).
edge(65, 102).
edge(12, 82).
edge(162, 190).
edge(133, 183).
edge(24, 31).
edge(114, 142).
edge(167, 185).
edge(119, 140).
edge(34, 79).
edge(56, 120).
edge(185, 197).
edge(8, 133).
edge(14, 168).
edge(15, 116).
edge(106, 176).
edge(51, 53).
edge(133, 143).
edge(56, 95).
edge(39, 86).
edge(60, 175).
edge(177, 189).
edge(37, 174).
edge(20, 147).
edge(137, 198).
edge(8, 189).
edge(69, 105).
edge(127, 151).
edge(89, 119).
edge(28, 110).
edge(84, 111).
edge(17, 167).
edge(78, 81).
edge(42, 191).
edge(88, 137).
edge(175, 198).
edge(8, 85).
edge(90, 99).
edge(51, 66).
edge(38, 143).
edge(67, 124).
edge(116, 126).
edge(72, 151).
edge(35, 195).
edge(119, 129).
edge(157, 172).
edge(78, 90).
edge(59, 179).
edge(7, 134).
edge(28, 92).
edge(104, 163).
edge(144, 159).
edge(8, 79).
edge(60, 196).
edge(6, 102).
edge(50, 136).
edge(44, 130).
edge(35, 68).
edge(45, 87).
edge(46, 72).
edge(82, 89).
edge(118, 181).
edge(53, 185).
edge(83, 137).
edge(99, 117).
edge(68, 82).
edge(181, 186).
edge(55, 169).
edge(158, 174).
edge(139, 187).
edge(81, 108).
edge(17, 168).
edge(80, 121).
edge(47, 134).
edge(54, 124).
edge(122, 178).
edge(104, 164).
edge(97, 135).
edge(144, 154).
edge(119, 154).
edge(16, 173).
edge(86, 197).
edge(68, 153).
edge(121, 170).
edge(154, 161).
edge(123, 134).
edge(45, 129).
edge(55, 164).
edge(8, 148).
edge(51, 169).
edge(58, 144).
edge(0, 26).
edge(119, 144).
edge(133, 141).
edge(66, 141).
edge(106, 178).
edge(44, 134).
edge(30, 197).
edge(95, 144).
edge(5, 69).
edge(117, 174).
edge(43, 63).
edge(80, 110).
edge(164, 194).
edge(12, 31).
edge(23, 175).
edge(33, 70).
edge(62, 141).
edge(46, 166).
edge(68, 147).
edge(60, 166).
edge(157, 165).
edge(3, 108).
edge(64, 98).
edge(84, 140).
edge(14, 57).
edge(53, 146).
edge(19, 134).
edge(67, 131).
edge(164, 172).
edge(4, 89).
edge(114, 149).
edge(7, 126).
edge(118, 156).
edge(105, 110).
edge(62, 147).
edge(91, 174).
edge(99, 137).
edge(116, 143).
edge(30, 41).
edge(82, 126).
edge(152, 183).
edge(68, 166).
edge(11, 56).
edge(53, 72).
edge(11, 94).
edge(117, 180).
edge(5, 120).
edge(65, 127).
edge(79, 162).
edge(8, 45).
edge(50, 63).
edge(3, 24).
edge(132, 159).
edge(153, 159).
edge(17, 68).
edge(168, 193).
edge(11, 168).
edge(137, 177).
edge(86, 177).
edge(89, 102).
edge(154, 159).
edge(50, 155).
edge(86, 194).
edge(32, 108).
edge(139, 185).
edge(21, 193).
edge(152, 185).
edge(42, 73).
edge(93, 162).
edge(8, 11).
edge(27, 147).
edge(77, 173).
edge(115, 133).
edge(47, 69).
edge(99, 187).
edge(20, 68).
edge(22, 187).
edge(30, 155).
edge(156, 177).
edge(18, 126).
edge(62, 161).
edge(76, 133).
edge(55, 172).
edge(24, 114).
edge(51, 65).
edge(49, 190).
edge(154, 180).
edge(94, 158).
edge(74, 165).
edge(91, 134).
edge(81, 170).
edge(38, 104).
edge(152, 186).
edge(186, 193).
edge(56, 180).
edge(68, 164).
edge(43, 96).
edge(10, 160).
edge(32, 138).
edge(19, 131).
edge(9, 197).
edge(0, 24).
edge(33, 34).
edge(55, 97).
edge(42, 120).
edge(51, 93).
edge(68, 130).
edge(181, 184).
edge(40, 131).
edge(46, 117).
edge(6, 75).
edge(29, 96).
edge(52, 82).
edge(135, 182).
edge(138, 139).
edge(103, 170).
edge(98, 131).
edge(89, 172).
edge(21, 22).
edge(86, 117).
edge(23, 157).
edge(131, 159).
edge(65, 80).
edge(62, 111).
edge(137, 173).
edge(44, 155).
edge(16, 91).
edge(20, 197).
edge(168, 174).
edge(58, 157).
edge(3, 92).
edge(57, 120).
edge(12, 86).
edge(154, 186).
edge(132, 145).
edge(65, 91).
edge(170, 171).
edge(141, 151).
edge(125, 180).
edge(33, 75).
edge(84, 164).
edge(85, 128).
edge(53, 112).
edge(71, 148).
edge(53, 123).
edge(2, 131).
edge(84, 160).
edge(174, 183).
edge(27, 38).
edge(68, 196).
edge(4, 122).
edge(109, 139).
edge(159, 197).
edge(30, 150).
edge(17, 97).
edge(83, 111).
edge(50, 93).
edge(38, 98).
edge(70, 98).
edge(72, 196).
edge(32, 37).
edge(26, 192).
edge(61, 118).
edge(74, 84).
edge(24, 88).
edge(73, 143).
edge(29, 86).
edge(31, 142).
edge(18, 113).
edge(62, 76).
edge(106, 196).
edge(116, 177).
edge(159, 188).
edge(96, 160).
edge(52, 187).
edge(20, 127).
edge(11, 68).
edge(127, 134).
edge(38, 43).
edge(108, 109).
edge(0, 70).
edge(95, 177).
edge(36, 143).
edge(108, 130).
edge(11, 181).
edge(56, 163).
edge(61, 179).
edge(27, 89).
edge(2, 173).
edge(20, 167).
edge(30, 44).
edge(76, 153).
edge(17, 62).
edge(64, 81).
edge(36, 95).
edge(125, 167).
edge(31, 176).
edge(86, 113).
edge(53, 161).
edge(41, 108).
edge(63, 115).
edge(92, 138).
edge(64, 67).
edge(21, 39).
edge(189, 196).
edge(132, 153).
edge(80, 161).
edge(39, 102).
edge(62, 181).
edge(149, 184).
edge(92, 148).
edge(91, 171).
edge(98, 125).
edge(50, 134).
edge(72, 156).
edge(21, 126).
edge(85, 147).
edge(45, 125).
edge(104, 173).
edge(156, 174).
edge(93, 141).
edge(168, 169).
edge(90, 139).
edge(11, 179).
edge(18, 195).
edge(12, 70).
edge(72, 82).
edge(54, 103).
edge(82, 123).
edge(38, 85).
edge(95, 183).
edge(21, 84).
edge(23, 119).
edge(123, 153).
edge(35, 187).
edge(4, 181).
edge(8, 117).
edge(74, 187).
edge(46, 73).
edge(21, 144).
edge(94, 165).
edge(50, 106).
edge(3, 102).
edge(111, 196).
edge(104, 151).
edge(86, 121).
edge(83, 92).
edge(91, 131).
edge(103, 154).
edge(6, 129).
edge(10, 182).
edge(75, 144).
edge(26, 172).
edge(45, 61).
edge(32, 50).
edge(141, 150).
edge(106, 145).
edge(4, 129).
edge(152, 165).
edge(2, 93).
edge(131, 151).
edge(25, 45).
edge(95, 114).
edge(20, 148).
edge(20, 195).
edge(17, 184).
edge(32, 85).
edge(19, 59).
edge(58, 113).
edge(71, 77).
edge(63, 179).
edge(53, 135).
edge(66, 70).
edge(57, 192).
edge(58, 60).
edge(20, 46).
edge(60, 67).
edge(115, 140).
edge(59, 146).
edge(97, 169).
edge(69, 176).
edge(42, 187).
edge(5, 41).
edge(93, 151).
edge(155, 172).
edge(29, 112).
edge(1, 194).
edge(146, 193).
edge(189, 193).
edge(22, 82).
edge(12, 26).
edge(69, 168).
edge(107, 178).
edge(155, 158).
edge(37, 73).
edge(132, 174).
edge(103, 116).
edge(10, 184).
edge(0, 73).
edge(94, 194).
edge(115, 138).
edge(49, 97).
edge(33, 83).
edge(110, 175).
edge(13, 198).
edge(25, 68).
edge(143, 170).
edge(51, 67).
edge(25, 65).
edge(140, 196).
edge(100, 106).
edge(23, 136).
edge(22, 159).
edge(12, 106).
edge(134, 148).
edge(65, 196).
edge(124, 128).
edge(84, 191).
edge(11, 174).
edge(20, 105).
edge(27, 66).
edge(124, 132).
edge(42, 178).
edge(1, 168).
edge(126, 161).
edge(143, 186).
edge(9, 107).
edge(99, 180).
edge(115, 159).
edge(143, 158).
edge(5, 125).
edge(35, 140).
edge(24, 84).
edge(40, 186).
edge(40, 43).
edge(139, 143).
edge(79, 175).
edge(0, 162).
edge(9, 48).
edge(158, 172).
edge(99, 191).
edge(20, 50).
edge(78, 141).
edge(0, 191).
edge(53, 110).
edge(69, 186).
edge(9, 27).
edge(78, 108).
edge(4, 112).
edge(27, 197).
edge(140, 180).
edge(116, 168).
edge(25, 125).
edge(62, 100).
edge(54, 193).
edge(38, 47).
edge(40, 165).
edge(83, 135).
edge(146, 170).
edge(109, 133).
edge(8, 142).
edge(2, 44).
edge(155, 190).
edge(63, 92).
edge(5, 178).
edge(173, 188).
edge(1, 153).
edge(9, 121).
edge(44, 181).
edge(106, 162).
edge(137, 138).
edge(25, 137).
edge(29, 158).
edge(51, 129).
edge(61, 156).
edge(121, 126).
edge(27, 71).
edge(39, 72).
edge(80, 125).
edge(19, 95).
edge(64, 115).
edge(99, 190).
edge(10, 70).
edge(129, 182).
edge(102, 145).
edge(66, 89).
edge(83, 198).
edge(52, 145).
edge(40, 132).
edge(7, 171).
edge(150, 181).
edge(57, 58).
edge(156, 190).
edge(89, 139).
edge(112, 188).
edge(10, 112).
edge(0, 14).
edge(26, 55).
edge(99, 102).
edge(130, 131).
edge(36, 188).
edge(30, 188).
edge(148, 177).
edge(42, 170).
edge(64, 114).
edge(73, 75).
edge(10, 123).
edge(56, 169).
edge(50, 112).
edge(14, 179).
edge(8, 128).
edge(88, 105).
edge(148, 190).
edge(64, 191).
edge(51, 111).
edge(42, 106).
edge(115, 186).
edge(111, 180).
edge(17, 32).
edge(2, 192).
edge(98, 129).
edge(9, 36).
edge(101, 154).
edge(38, 153).
edge(28, 123).
edge(122, 149).
edge(116, 189).
edge(1, 55).
edge(10, 130).
edge(14, 170).
edge(45, 105).
edge(189, 195).
edge(78, 119).
edge(122, 129).
edge(37, 153).
edge(26, 75).
edge(77, 164).
edge(79, 109).
edge(8, 31).
edge(69, 111).
edge(132, 177).
edge(112, 170).
edge(60, 120).
edge(24, 164).
edge(49, 159).
edge(91, 108).
edge(93, 112).
edge(154, 176).
edge(3, 118).
edge(60, 137).
edge(61, 131).
edge(88, 182).
edge(113, 175).
edge(121, 157).
edge(193, 194).
edge(27, 67).
edge(21, 86).
edge(7, 74).
edge(95, 125).
edge(140, 188).
edge(38, 184).
edge(97, 122).
edge(10, 93).
edge(54, 198).
edge(56, 93).
edge(27, 145).
edge(93, 110).
edge(24, 140).
edge(134, 178).
edge(90, 169).
edge(51, 188).
edge(130, 182).
edge(24, 67).
edge(47, 147).
edge(173, 181).
edge(154, 164).
edge(61, 165).
edge(27, 153).
edge(51, 144).
edge(107, 181).
edge(87, 99).
edge(9, 38).
edge(7, 70).
edge(96, 135).
edge(144, 190).
edge(53, 106).
edge(57, 163).
edge(60, 160).
edge(66, 173).
edge(146, 154).
edge(127, 164).
edge(16, 155).
edge(124, 196).
edge(75, 125).
edge(85, 179).
edge(40, 124).
edge(18, 158).
edge(12, 39).
edge(54, 169).
edge(90, 170).
edge(48, 84).
edge(95, 119).
edge(118, 167).
edge(133, 184).
edge(77, 85).
edge(167, 184).
edge(118, 170).
edge(16, 48).
edge(12, 62).
edge(66, 156).
edge(15, 135).
edge(35, 95).
edge(58, 95).
edge(3, 20).
edge(27, 159).
edge(12, 170).
edge(37, 173).
edge(94, 106).
edge(94, 103).
edge(3, 30).
edge(95, 187).
edge(0, 117).
edge(20, 174).
edge(60, 72).
edge(77, 175).
edge(66, 186).
edge(55, 150).
edge(1, 152).
edge(11, 25).
edge(95, 111).
edge(139, 173).
edge(29, 101).
edge(24, 158).
edge(122, 139).
edge(113, 129).
edge(35, 39).
edge(23, 134).
edge(145, 146).
edge(13, 61).
edge(2, 69).
edge(22, 32).
edge(18, 103).
edge(84, 153).
edge(69, 149).
edge(103, 166).
edge(10, 197).
edge(66, 137).
edge(124, 129).
edge(6, 23).
edge(78, 122).
edge(55, 109).
edge(2, 78).
edge(73, 151).
edge(46, 71).
edge(4, 8).
edge(37, 180).
edge(11, 183).
edge(14, 160).
edge(35, 192).
edge(106, 126).
edge(14, 94).
edge(143, 149).
edge(18, 109).
edge(111, 167).
edge(16, 107).
edge(33, 65).
edge(77, 92).
edge(19, 36).
edge(36, 162).
edge(10, 126).
edge(115, 141).
edge(166, 191).
edge(13, 16).
edge(67, 155).
edge(18, 41).
edge(59, 101).
edge(101, 128).
edge(82, 146).
edge(39, 164).
edge(132, 172).
edge(16, 94).
edge(173, 189).
edge(58, 121).
edge(84, 176).
edge(22, 129).
edge(134, 180).
edge(60, 193).
edge(21, 183).
edge(18, 31).
edge(151, 162).
edge(149, 192).
edge(55, 135).
edge(20, 63).
edge(144, 187).
edge(111, 133).
edge(101, 184).
edge(1, 80).
edge(109, 185).
edge(48, 182).
edge(0, 83).
edge(80, 92).
edge(165, 168).
edge(72, 166).
edge(21, 119).
edge(146, 161).
edge(121, 153).
edge(74, 147).
edge(29, 126).
edge(55, 198).
edge(61, 95).
edge(47, 115).
edge(118, 137).
edge(15, 56).
edge(79, 135).
edge(62, 138).
edge(81, 99).
edge(2, 98).
edge(32, 141).
edge(40, 65).
edge(128, 157).
edge(8, 166).
edge(74, 75).
edge(60, 140).
edge(5, 163).
edge(126, 141).
edge(16, 137).
edge(118, 145).
edge(35, 71).
edge(141, 174).
edge(159, 192).
edge(110, 166).
edge(103, 144).
edge(99, 164).
edge(69, 131).
edge(84, 184).
edge(74, 190).
edge(187, 188).
edge(95, 108).
edge(4, 98).
edge(17, 38).
edge(28, 85).
edge(55, 108).
edge(17, 165).
edge(90, 148).
edge(60, 164).
edge(114, 156).
edge(4, 150).
edge(2, 154).
edge(181, 190).
edge(18, 93).
edge(51, 100).
edge(4, 157).
edge(82, 84).
edge(42, 197).
edge(44, 82).
edge(68, 140).
edge(132, 180).
edge(21, 197).
edge(28, 112).
edge(18, 30).
edge(138, 150).
edge(8, 10).
edge(6, 86).
edge(60, 135).
edge(91, 189).
edge(153, 173).
edge(126, 166).
edge(5, 20).
edge(22, 38).
edge(19, 151).
edge(12, 30).
edge(13, 152).
edge(81, 85).
edge(80, 87).
edge(63, 166).
edge(29, 91).
edge(2, 49).
edge(118, 146).
edge(15, 171).
edge(67, 123).
edge(158, 167).
edge(51, 88).
edge(157, 183).
edge(115, 132).
edge(141, 154).
edge(53, 68).
edge(36, 90).
edge(86, 143).
edge(30, 58).
edge(45, 65).
edge(93, 150).
edge(2, 163).
edge(68, 105).
edge(14, 137).
edge(173, 175).
edge(28, 148).
edge(19, 58).
edge(16, 73).
edge(122, 155).
edge(8, 127).
edge(8, 72).
edge(76, 132).
edge(100, 132).
edge(52, 193).
edge(167, 197).
edge(1, 181).
edge(66, 193).
edge(40, 62).
edge(191, 193).
edge(75, 132).
edge(168, 181).
edge(86, 186).
edge(30, 190).
edge(47, 95).
edge(34, 172).
edge(56, 112).
edge(8, 167).
edge(9, 50).
edge(32, 116).
edge(113, 187).
edge(60, 126).
edge(177, 184).
edge(35, 82).
edge(54, 185).
edge(81, 175).
edge(19, 53).
edge(76, 168).
edge(109, 128).
edge(32, 158).
edge(28, 106).
edge(48, 151).
edge(86, 170).
edge(14, 91).
edge(44, 110).
edge(0, 107).
edge(43, 154).
edge(95, 195).
edge(50, 129).
edge(145, 151).
edge(56, 135).
edge(69, 88).
edge(35, 104).
edge(163, 177).
edge(153, 165).
edge(39, 128).
edge(5, 158).
edge(52, 93).
edge(51, 57).
edge(92, 119).
edge(87, 143).
edge(31, 62).
edge(66, 159).
edge(128, 134).
edge(13, 98).
edge(122, 184).
edge(42, 142).
edge(44, 187).
edge(2, 157).
edge(137, 140).
edge(99, 185).
edge(102, 136).
edge(10, 151).
edge(102, 162).
edge(115, 118).
edge(103, 178).
edge(133, 135).
edge(15, 41).
edge(13, 173).
edge(67, 127).
edge(150, 166).
edge(64, 71).
edge(155, 170).
edge(0, 59).
edge(45, 123).
edge(49, 135).
edge(142, 144).
edge(6, 11).
edge(53, 84).
edge(32, 34).
edge(137, 154).
edge(61, 101).
edge(2, 55).
edge(128, 179).
edge(113, 124).
edge(24, 180).
edge(140, 173).
edge(14, 176).
edge(24, 122).
edge(35, 190).
edge(134, 137).
edge(184, 196).
edge(11, 125).
edge(47, 120).
edge(40, 194).
edge(154, 163).
edge(75, 146).
edge(2, 115).
edge(5, 24).
edge(148, 193).
edge(54, 100).
edge(34, 185).
edge(59, 188).
edge(64, 195).
edge(148, 189).
edge(139, 196).
edge(81, 120).
edge(122, 126).
edge(65, 146).
edge(41, 187).
edge(24, 186).
edge(60, 119).
edge(43, 94).
edge(58, 67).
edge(57, 123).
edge(34, 87).
edge(62, 197).
edge(148, 162).
edge(82, 111).
edge(51, 148).
edge(9, 120).
edge(30, 32).
edge(79, 119).
edge(119, 128).
edge(1, 178).
edge(41, 171).
edge(124, 152).
edge(2, 31).
edge(156, 182).
edge(147, 161).
edge(21, 111).
edge(82, 172).
edge(139, 182).
edge(91, 99).
edge(5, 118).
edge(47, 177).
edge(105, 127).
edge(73, 89).
edge(51, 153).
edge(14, 113).
edge(34, 123).
edge(79, 169).
edge(88, 114).
edge(109, 189).
edge(109, 117).
edge(9, 126).
edge(100, 146).
edge(31, 70).
edge(81, 165).
edge(134, 191).
edge(93, 197).
edge(50, 58).
edge(159, 181).
edge(57, 60).
edge(67, 180).
edge(73, 180).
edge(29, 55).
edge(25, 43).
edge(39, 184).
edge(109, 130).
edge(58, 143).
edge(91, 97).
edge(46, 116).
edge(65, 165).
edge(21, 195).
edge(14, 103).
edge(107, 191).
edge(74, 159).
edge(168, 187).
edge(105, 133).
edge(50, 83).
edge(103, 171).
edge(46, 129).
edge(54, 149).
edge(60, 179).
edge(6, 149).
edge(11, 189).
edge(64, 131).
edge(187, 198).
edge(38, 91).
edge(99, 197).
edge(66, 67).
edge(141, 153).
edge(141, 161).
edge(5, 138).
edge(71, 81).
edge(5, 83).
edge(9, 22).
edge(147, 163).
edge(16, 101).
edge(50, 131).
edge(126, 130).
edge(77, 82).
edge(24, 43).
edge(109, 196).
edge(172, 193).
edge(79, 127).
edge(37, 59).
edge(153, 197).
edge(81, 106).
edge(81, 136).
edge(175, 190).
edge(52, 189).
edge(37, 104).
edge(107, 116).
edge(101, 196).
edge(38, 102).
edge(171, 178).
edge(32, 110).
edge(75, 92).
edge(95, 167).
edge(103, 111).
edge(1, 110).
edge(29, 36).
edge(45, 142).
edge(144, 194).
edge(91, 177).
edge(1, 15).
edge(109, 186).
edge(123, 131).
edge(22, 165).
edge(147, 190).
edge(136, 157).
edge(19, 167).
edge(3, 53).
edge(46, 119).
edge(29, 165).
edge(57, 100).
edge(35, 158).
edge(5, 113).
edge(114, 123).
edge(5, 157).
edge(13, 14).
edge(6, 103).
edge(15, 96).
edge(117, 133).
edge(125, 192).
edge(165, 179).
edge(130, 185).
edge(137, 188).
edge(70, 130).
edge(22, 33).
edge(28, 146).
edge(9, 180).
edge(43, 107).
edge(24, 196).
edge(38, 64).
edge(81, 179).
edge(15, 110).
edge(109, 151).
edge(115, 158).
edge(93, 94).
edge(12, 148).
edge(8, 126).
edge(27, 185).
edge(90, 173).
edge(97, 141).
edge(20, 190).
edge(54, 89).
edge(50, 64).
edge(44, 137).
edge(58, 175).
edge(104, 176).
edge(75, 109).
edge(19, 55).
edge(2, 87).
edge(0, 5).
edge(42, 88).
edge(43, 134).
edge(28, 78).
edge(73, 124).
edge(108, 167).
edge(73, 189).
edge(2, 22).
edge(113, 197).
edge(48, 124).
edge(102, 152).
edge(2, 146).
edge(10, 155).
edge(73, 172).
edge(32, 185).
edge(30, 49).
edge(115, 130).
edge(58, 177).
edge(88, 154).
edge(100, 153).
edge(7, 73).
edge(101, 168).
edge(36, 79).
edge(85, 96).
edge(41, 145).
edge(115, 150).
edge(103, 105).
edge(40, 102).
edge(93, 144).
edge(19, 191).
edge(5, 105).
edge(155, 181).
edge(23, 61).
edge(152, 189).
edge(49, 116).
edge(78, 92).
edge(81, 115).
edge(9, 25).
edge(69, 95).
edge(17, 89).
edge(38, 71).
edge(64, 154).
edge(18, 193).
edge(53, 108).
edge(83, 93).
edge(38, 134).
edge(40, 58).
edge(3, 66).
edge(10, 13).
edge(13, 119).
edge(56, 152).
edge(104, 156).
edge(123, 190).
edge(32, 130).
edge(71, 193).
edge(111, 182).
edge(20, 191).
edge(25, 91).
edge(7, 36).
edge(14, 84).
edge(114, 152).
edge(67, 85).
edge(13, 19).
edge(9, 40).
edge(101, 138).
edge(40, 88).
edge(26, 78).
edge(11, 101).
edge(35, 94).
edge(112, 169).
edge(68, 162).
edge(66, 82).
edge(130, 173).
edge(43, 155).
edge(88, 100).
edge(33, 81).
edge(16, 99).
edge(94, 112).
edge(52, 97).
edge(45, 189).
edge(21, 64).
edge(116, 154).
edge(60, 93).
edge(43, 74).
edge(30, 120).
edge(140, 145).
edge(21, 95).
edge(183, 190).
edge(69, 139).
edge(17, 70).
edge(48, 62).
edge(115, 195).
edge(63, 79).
edge(79, 152).
edge(26, 70).
edge(96, 179).
edge(30, 96).
edge(51, 82).
edge(114, 184).
edge(38, 82).
edge(29, 130).
edge(14, 154).
edge(104, 107).
edge(134, 188).
edge(183, 197).
edge(95, 169).
edge(113, 117).
edge(22, 112).
edge(24, 101).
edge(92, 159).
edge(10, 12).
edge(49, 82).
edge(26, 101).
edge(56, 118).
edge(16, 68).
edge(149, 153).
edge(100, 180).
edge(96, 130).
edge(54, 61).
edge(98, 119).
edge(1, 65).
edge(44, 75).
edge(141, 166).
edge(18, 131).
edge(77, 133).
edge(15, 140).
edge(64, 68).
edge(12, 52).
edge(151, 195).
edge(91, 105).
edge(111, 123).
edge(90, 92).
edge(42, 174).
edge(21, 166).
edge(144, 169).
edge(91, 117).
edge(8, 195).
edge(12, 180).
edge(39, 123).
edge(117, 118).
edge(109, 134).
edge(10, 110).
edge(54, 60).
edge(175, 185).
edge(125, 193).
edge(45, 132).
edge(27, 51).
edge(87, 173).
edge(35, 96).
edge(113, 176).
edge(7, 27).
edge(91, 176).
edge(61, 90).
edge(72, 177).
edge(118, 153).
edge(60, 188).
edge(88, 162).
edge(78, 179).
edge(65, 138).
edge(153, 185).
edge(72, 161).
edge(0, 160).
edge(9, 14).
edge(88, 190).
edge(61, 109).
edge(167, 196).
edge(23, 35).
edge(37, 195).
edge(45, 165).
edge(59, 100).
edge(11, 188).
edge(99, 113).
edge(76, 94).
edge(132, 192).
edge(63, 95).
edge(50, 165).
edge(34, 160).
edge(78, 152).
edge(17, 140).
edge(48, 63).
edge(43, 144).
edge(169, 198).
edge(177, 185).
edge(160, 166).
edge(35, 109).
edge(95, 110).
edge(88, 120).
edge(66, 179).
edge(44, 174).
edge(59, 118).
edge(105, 182).
edge(43, 147).
edge(76, 112).
edge(162, 180).
edge(20, 54).
edge(25, 184).
edge(100, 173).
edge(37, 154).
edge(133, 170).
edge(140, 178).
edge(71, 128).
edge(58, 107).
edge(99, 118).
edge(117, 182).
edge(132, 178).
edge(20, 33).
edge(104, 179).
edge(71, 109).
edge(119, 172).
edge(93, 165).
edge(15, 80).
edge(20, 88).
edge(6, 145).
edge(28, 65).
edge(123, 178).
edge(135, 145).
edge(13, 96).
edge(90, 171).
edge(55, 177).
edge(122, 144).
edge(127, 162).
edge(11, 99).
edge(36, 96).
edge(150, 157).
edge(26, 42).
edge(19, 127).
edge(91, 95).
edge(74, 194).
edge(131, 133).
edge(43, 173).
edge(23, 50).
edge(63, 139).
edge(96, 99).
edge(83, 181).
edge(8, 18).
edge(29, 191).
edge(139, 186).
edge(57, 175).
edge(48, 164).
edge(27, 114).
edge(91, 180).
edge(137, 191).
edge(39, 185).
edge(51, 171).
edge(12, 90).
edge(24, 147).
edge(70, 142).
edge(28, 152).
edge(135, 170).
edge(176, 190).
edge(115, 184).
edge(10, 85).
edge(129, 153).
edge(83, 97).
edge(6, 83).
edge(103, 185).
edge(98, 146).
edge(10, 107).
edge(38, 80).
edge(75, 188).
edge(44, 142).
edge(10, 92).
edge(27, 150).
edge(18, 66).
edge(56, 147).
edge(62, 75).
edge(105, 136).
edge(110, 141).
edge(36, 130).
edge(99, 195).
edge(128, 160).
edge(19, 139).
edge(37, 169).
edge(0, 108).
edge(5, 99).
edge(26, 131).
edge(3, 96).
edge(90, 163).
edge(19, 116).
edge(86, 166).
edge(9, 34).
edge(67, 107).
edge(13, 135).
edge(108, 116).
edge(102, 171).
edge(169, 189).
edge(20, 172).
edge(71, 189).
edge(93, 182).
edge(60, 110).
edge(114, 143).
edge(154, 172).
edge(88, 139).
edge(115, 139).
edge(43, 110).
edge(119, 121).
edge(96, 117).
edge(135, 180).
edge(102, 132).
edge(177, 197).
edge(46, 135).
edge(7, 144).
edge(112, 156).
edge(44, 93).
edge(88, 156).
edge(102, 127).
edge(37, 64).
edge(58, 126).
edge(87, 159).
edge(67, 119).
edge(90, 120).
edge(19, 190).
edge(98, 160).
edge(21, 83).
edge(7, 189).
edge(105, 129).
edge(137, 197).
edge(50, 161).
edge(163, 181).
edge(53, 179).
edge(17, 76).
edge(29, 111).
edge(158, 181).
edge(28, 77).
edge(62, 148).
edge(158, 185).
edge(76, 164).
edge(24, 79).
edge(149, 161).
edge(21, 105).
edge(6, 67).
edge(38, 62).
edge(53, 150).
edge(85, 105).
edge(43, 193).
edge(36, 194).
edge(117, 193).
edge(147, 173).
edge(52, 183).
edge(73, 93).
edge(106, 179).
edge(129, 169).
edge(80, 91).
edge(7, 97).
edge(78, 101).
edge(26, 41).
edge(94, 183).
edge(172, 191).
edge(61, 148).
edge(13, 132).
edge(49, 74).
edge(50, 104).
edge(51, 79).
edge(140, 195).
edge(51, 139).
edge(37, 164).
edge(133, 161).
edge(109, 122).
edge(37, 115).
edge(40, 67).
edge(11, 160).
edge(40, 113).
edge(7, 127).
edge(68, 118).
edge(21, 150).
edge(24, 36).
edge(123, 137).
edge(11, 18).
edge(56, 66).
edge(59, 74).
edge(79, 113).
edge(124, 139).
edge(139, 198).
edge(36, 115).
edge(65, 169).
edge(148, 157).
edge(28, 189).
edge(115, 190).
edge(37, 135).
edge(26, 113).
edge(145, 197).
edge(3, 59).
edge(7, 131).
edge(67, 178).
edge(32, 42).
edge(60, 172).
edge(44, 56).
edge(23, 86).
edge(63, 186).
edge(36, 193).
edge(19, 110).
edge(14, 74).
edge(65, 137).
edge(105, 156).
edge(90, 125).
edge(128, 191).
edge(57, 141).
edge(79, 104).
edge(22, 75).
edge(40, 59).
edge(5, 86).
edge(43, 52).
edge(126, 180).
edge(185, 195).
edge(162, 179).
edge(66, 88).
edge(156, 180).
edge(5, 132).
edge(49, 144).
edge(97, 181).
edge(10, 108).
edge(20, 71).
edge(62, 173).
edge(69, 187).
edge(16, 184).
edge(53, 134).
edge(60, 132).
edge(82, 106).
edge(94, 104).
edge(57, 132).
edge(27, 198).
edge(152, 168).
edge(135, 175).
edge(82, 104).
edge(23, 181).
edge(28, 134).
edge(64, 142).
edge(118, 147).
edge(163, 173).
edge(49, 68).
edge(4, 5).
edge(30, 115).
edge(9, 18).
edge(16, 119).
edge(73, 116).
edge(45, 143).
edge(8, 75).
edge(16, 149).
edge(61, 137).
edge(146, 191).
edge(101, 172).
edge(23, 125).
edge(89, 123).
edge(1, 59).
edge(167, 181).
edge(22, 130).
edge(27, 49).
edge(114, 150).
edge(1, 112).
edge(22, 120).
edge(63, 170).
edge(61, 68).
edge(24, 131).
edge(130, 167).
edge(30, 98).
edge(7, 119).
edge(93, 127).
edge(30, 132).
edge(152, 197).
edge(150, 151).
edge(13, 84).
edge(43, 188).
edge(109, 142).
edge(173, 185).
edge(46, 138).
edge(62, 192).
edge(58, 149).
edge(66, 78).
edge(140, 193).
edge(63, 127).
edge(31, 88).
edge(46, 193).
edge(47, 181).
edge(15, 50).
edge(93, 177).
edge(66, 73).
edge(86, 193).
edge(87, 110).
edge(153, 191).
edge(90, 181).
edge(59, 184).
edge(18, 168).
edge(20, 83).
edge(59, 121).
edge(60, 170).
edge(3, 185).
edge(21, 158).
edge(123, 135).
edge(12, 146).
edge(161, 163).
edge(61, 177).
edge(0, 79).
edge(78, 191).
edge(86, 133).
edge(96, 147).
edge(67, 91).
edge(34, 174).
edge(10, 29).
edge(79, 146).
edge(87, 180).
edge(184, 185).
edge(15, 115).
edge(46, 180).
edge(30, 62).
edge(11, 60).
edge(19, 31).
edge(9, 57).
edge(134, 190).
edge(83, 175).
edge(13, 52).
edge(24, 116).
edge(24, 68).
edge(30, 92).
edge(9, 186).
edge(0, 78).
edge(22, 149).
edge(11, 164).
edge(39, 98).
edge(88, 189).
edge(48, 120).
edge(47, 83).
edge(16, 130).
edge(53, 102).
edge(93, 194).
edge(43, 119).
edge(48, 83).
edge(52, 92).
edge(62, 195).
edge(115, 167).
edge(15, 181).
edge(20, 49).
edge(39, 93).
edge(5, 134).
edge(85, 148).
edge(43, 104).
edge(7, 46).
edge(133, 180).
edge(18, 197).
edge(117, 175).
edge(110, 167).
edge(20, 103).
edge(5, 72).
edge(27, 188).
edge(72, 117).
edge(96, 108).
edge(23, 42).
edge(41, 182).
edge(42, 45).
edge(34, 49).
edge(59, 71).
edge(81, 156).
edge(25, 78).
edge(0, 132).
edge(108, 134).
edge(78, 185).
edge(48, 67).
edge(76, 151).
edge(5, 166).
edge(101, 114).
edge(46, 165).
edge(89, 101).
edge(145, 154).
edge(127, 132).
edge(0, 120).
edge(120, 191).
edge(68, 102).
edge(24, 55).
edge(112, 173).
edge(171, 198).
edge(56, 121).
edge(57, 168).
edge(137, 139).
edge(15, 146).
edge(57, 145).
edge(14, 67).
edge(15, 138).
edge(14, 77).
edge(12, 28).
edge(71, 151).
edge(149, 177).
edge(89, 111).
edge(122, 173).
edge(28, 194).
edge(25, 143).
edge(85, 183).
edge(33, 101).
edge(148, 168).
edge(24, 162).
edge(60, 154).
edge(1, 19).
edge(11, 31).
edge(59, 120).
edge(52, 157).
edge(38, 136).
edge(116, 124).
edge(20, 99).
edge(163, 192).
edge(3, 100).
edge(104, 106).
edge(98, 101).
edge(77, 185).
edge(41, 183).
edge(132, 168).
edge(21, 192).
edge(58, 62).
edge(98, 167).
edge(181, 194).
edge(53, 99).
edge(39, 144).
edge(27, 111).
edge(27, 138).
edge(18, 120).
edge(29, 143).
edge(30, 35).
edge(60, 121).
edge(19, 106).
edge(113, 133).
edge(104, 124).
edge(21, 80).
edge(24, 53).
edge(130, 164).
edge(116, 194).
edge(143, 190).
edge(79, 126).
edge(38, 187).
edge(78, 95).
edge(14, 196).
edge(64, 135).
edge(80, 96).
edge(155, 195).
edge(89, 127).
edge(12, 117).
edge(175, 197).
edge(2, 109).
edge(3, 128).
edge(5, 30).
edge(92, 179).
edge(78, 170).
edge(28, 31).
edge(25, 64).
edge(93, 99).
edge(3, 31).
edge(59, 168).
edge(108, 197).
edge(106, 122).
edge(174, 185).
edge(80, 163).
edge(166, 173).
edge(158, 198).
edge(110, 136).
edge(95, 106).
edge(174, 189).
edge(8, 32).
edge(117, 187).
edge(161, 172).
edge(54, 83).
edge(27, 196).
edge(52, 124).
edge(57, 148).
edge(90, 114).
edge(147, 177).
edge(91, 103).
edge(125, 174).
edge(131, 186).
edge(101, 121).
edge(4, 156).
edge(134, 197).
edge(24, 47).
edge(9, 52).
edge(13, 32).
edge(45, 104).
edge(10, 171).
edge(15, 22).
edge(47, 140).
edge(8, 120).
edge(150, 178).
edge(58, 152).
edge(4, 194).
edge(112, 176).
edge(65, 96).
edge(127, 186).
edge(4, 111).
edge(43, 140).
edge(62, 96).
edge(2, 24).
edge(34, 150).
edge(86, 154).
edge(34, 193).
edge(17, 180).
edge(55, 137).
edge(8, 89).
edge(6, 124).
edge(139, 195).
edge(53, 126).
edge(62, 109).
edge(80, 130).
edge(10, 39).
edge(52, 100).
edge(89, 106).
edge(51, 167).
edge(129, 191).
edge(76, 119).
edge(43, 182).
edge(38, 188).
edge(89, 128).
edge(23, 152).
edge(132, 163).
edge(62, 152).
edge(74, 112).
edge(42, 140).
edge(127, 152).
edge(47, 187).
edge(64, 91).
edge(109, 164).
edge(30, 108).
edge(55, 116).
edge(38, 48).
edge(74, 83).
edge(119, 167).
edge(175, 193).
edge(67, 181).
edge(53, 90).
edge(76, 86).
edge(70, 183).
edge(41, 90).
edge(0, 56).
edge(116, 131).
edge(62, 144).
edge(34, 187).
edge(62, 182).
edge(61, 116).
edge(49, 198).
edge(9, 154).
edge(51, 196).
edge(50, 70).
edge(46, 82).
edge(59, 60).
edge(10, 150).
edge(136, 161).
edge(96, 175).
edge(80, 114).
edge(19, 89).
edge(86, 116).
edge(44, 85).
edge(4, 125).
edge(24, 143).
edge(78, 102).
edge(124, 191).
edge(59, 111).
edge(33, 55).
edge(34, 171).
edge(6, 33).
edge(25, 32).
edge(15, 161).
edge(40, 112).
edge(9, 178).
edge(97, 105).
edge(56, 140).
edge(23, 65).
edge(66, 105).
edge(64, 105).
edge(69, 182).
edge(1, 135).
edge(39, 75).
edge(107, 120).
edge(21, 141).
edge(54, 134).
edge(19, 51).
edge(161, 194).
edge(102, 149).
edge(85, 103).
edge(135, 174).
edge(120, 162).
edge(36, 39).
edge(15, 174).
edge(92, 139).
edge(105, 118).
edge(16, 98).
edge(121, 136).
edge(16, 60).
edge(84, 147).
edge(72, 187).
edge(39, 58).
edge(22, 93).
edge(41, 191).
edge(50, 196).
edge(33, 120).
edge(159, 185).
edge(14, 195).
edge(31, 123).
edge(25, 66).
edge(113, 191).
edge(12, 141).
edge(130, 192).
edge(139, 146).
edge(25, 97).
edge(49, 133).
edge(79, 139).
edge(73, 98).
edge(160, 181).
edge(9, 161).
edge(72, 126).
edge(71, 154).
edge(108, 164).
edge(19, 25).
edge(143, 187).
edge(71, 180).
edge(54, 163).
edge(55, 147).
edge(81, 189).
edge(14, 81).
edge(23, 195).
edge(41, 197).
edge(46, 86).
edge(110, 122).
edge(138, 144).
edge(93, 146).
edge(22, 195).
edge(82, 109).
edge(79, 151).
edge(87, 185).
edge(152, 172).
edge(83, 116).
edge(100, 140).
edge(72, 176).
edge(37, 116).
edge(34, 101).
edge(42, 87).
edge(108, 190).
edge(7, 93).
edge(150, 187).
edge(64, 99).
edge(105, 112).
edge(140, 147).
edge(14, 20).
edge(57, 176).
edge(35, 165).
edge(21, 124).
edge(61, 124).
edge(36, 144).
edge(65, 187).
edge(42, 117).
edge(34, 128).
edge(32, 93).
edge(153, 158).
edge(56, 98).
edge(128, 151).
edge(134, 189).
edge(127, 144).
edge(84, 194).
edge(48, 131).
edge(41, 132).
edge(115, 185).
edge(18, 183).
edge(114, 132).
edge(155, 168).
edge(40, 90).
edge(158, 161).
edge(95, 113).
edge(11, 128).
edge(118, 135).
edge(1, 75).
edge(113, 136).
edge(17, 29).
edge(74, 97).
edge(6, 114).
edge(79, 131).
edge(38, 158).
edge(31, 33).
edge(100, 154).
edge(10, 86).
edge(59, 69).
edge(7, 68).
edge(44, 141).
edge(92, 123).
edge(55, 136).
edge(59, 171).
edge(101, 165).
edge(18, 45).
edge(84, 96).
edge(39, 44).
edge(195, 196).
edge(25, 133).
edge(15, 131).
edge(2, 184).
edge(79, 97).
edge(12, 20).
edge(30, 138).
edge(86, 115).
edge(8, 65).
edge(62, 159).
edge(56, 109).
edge(87, 120).
edge(70, 165).
edge(80, 112).
edge(43, 61).
edge(20, 77).
edge(41, 140).
edge(87, 107).
edge(14, 42).
edge(130, 161).
edge(143, 161).
edge(123, 168).
edge(23, 93).
edge(18, 104).
edge(57, 77).
edge(9, 129).
edge(84, 105).
edge(11, 81).
edge(60, 71).
edge(101, 123).
edge(32, 181).
edge(148, 172).
edge(170, 192).
edge(19, 49).
edge(63, 84).
edge(143, 195).
edge(31, 39).
edge(158, 184).
edge(0, 188).
edge(4, 42).
edge(27, 60).
edge(17, 25).
edge(27, 62).
edge(170, 193).
edge(7, 63).
edge(12, 167).
edge(21, 129).
edge(23, 105).
edge(18, 20).
edge(102, 155).
edge(134, 156).
edge(81, 126).
edge(51, 118).
edge(87, 197).
edge(109, 170).
edge(60, 116).
edge(39, 107).
edge(157, 193).
edge(4, 187).
edge(38, 180).
edge(169, 182).
edge(15, 60).
edge(152, 173).
edge(57, 73).
edge(32, 115).
edge(113, 166).
edge(14, 112).
edge(94, 180).
edge(104, 195).
edge(13, 86).
edge(33, 112).
edge(144, 196).
edge(0, 147).
edge(122, 187).
edge(59, 169).
edge(24, 65).
edge(47, 154).
edge(23, 56).
edge(26, 44).
edge(14, 130).
edge(39, 108).
edge(101, 153).
edge(33, 132).
edge(109, 135).
edge(77, 113).
edge(10, 104).
edge(23, 110).
edge(15, 164).
edge(36, 82).
edge(179, 191).
edge(36, 153).
edge(131, 155).
edge(5, 131).
edge(14, 121).
edge(16, 28).
edge(63, 181).
edge(24, 58).
edge(168, 185).
edge(14, 90).
edge(152, 171).
edge(96, 114).
edge(109, 123).
edge(87, 102).
edge(83, 90).
edge(7, 132).
edge(129, 147).
edge(89, 157).
edge(4, 165).
edge(50, 140).
edge(24, 179).
edge(43, 103).
edge(35, 148).
edge(14, 163).
edge(14, 47).
edge(79, 150).
edge(93, 163).
edge(0, 197).
edge(31, 158).
edge(150, 158).
edge(8, 81).
edge(6, 122).
edge(133, 175).
edge(55, 83).
edge(74, 120).
edge(23, 102).
edge(19, 130).
edge(9, 79).
edge(135, 186).
edge(14, 88).
edge(123, 171).
edge(133, 142).
edge(66, 77).
edge(11, 107).
edge(33, 131).
edge(43, 198).
edge(8, 181).
edge(52, 95).
edge(101, 109).
edge(131, 146).
edge(138, 143).
edge(72, 116).
edge(128, 172).
edge(117, 173).
edge(42, 122).
edge(143, 192).
edge(103, 187).
edge(38, 133).
edge(105, 173).
edge(55, 92).
edge(46, 140).
edge(18, 138).
edge(137, 179).
edge(54, 129).
edge(80, 188).
edge(28, 84).
edge(109, 114).
edge(11, 52).
edge(153, 180).
edge(13, 50).
edge(80, 109).
edge(75, 103).
edge(109, 160).
edge(96, 139).
edge(183, 196).
edge(14, 22).
edge(31, 103).
edge(96, 153).
edge(74, 186).
edge(13, 164).
edge(33, 40).
edge(74, 91).
edge(5, 90).
edge(112, 114).
edge(6, 89).
edge(122, 170).
edge(11, 32).
edge(82, 118).
edge(57, 162).
edge(98, 156).
edge(22, 180).
edge(117, 169).
edge(83, 171).
edge(14, 55).
edge(107, 172).
edge(15, 101).
edge(28, 83).
edge(17, 41).
edge(72, 194).
edge(40, 157).
edge(59, 178).
edge(102, 116).
edge(87, 129).
edge(140, 156).
edge(20, 157).
edge(76, 165).
edge(42, 179).
edge(90, 175).
edge(7, 45).
edge(15, 111).
edge(49, 65).
edge(115, 155).
edge(20, 124).
edge(77, 122).
edge(77, 130).
edge(74, 172).
edge(16, 139).
edge(73, 183).
edge(92, 181).
edge(32, 128).
edge(100, 127).
edge(116, 118).
edge(11, 187).
edge(28, 94).
edge(77, 194).
edge(48, 163).
edge(140, 189).
edge(19, 124).
edge(19, 162).
edge(88, 140).
edge(50, 128).
edge(113, 184).
edge(25, 36).
edge(80, 181).
edge(30, 71).
edge(63, 116).
edge(36, 85).
edge(68, 113).
edge(67, 77).
edge(9, 101).
edge(129, 189).
edge(116, 172).
edge(96, 110).
edge(123, 156).
edge(0, 19).
edge(2, 28).
edge(71, 139).
edge(28, 158).
edge(37, 194).
edge(67, 160).
edge(49, 100).
edge(109, 146).
edge(11, 138).
edge(18, 95).
edge(57, 109).
edge(25, 148).
edge(67, 149).
edge(3, 117).
edge(11, 57).
edge(130, 194).
edge(96, 196).
edge(2, 94).
edge(112, 159).
edge(12, 191).
edge(53, 64).
edge(76, 195).
edge(51, 104).
edge(127, 140).
edge(40, 179).
edge(89, 161).
edge(125, 159).
edge(9, 31).
edge(78, 173).
edge(57, 89).
edge(22, 183).
edge(52, 99).
edge(71, 119).
edge(80, 172).
edge(73, 152).
edge(20, 107).
edge(119, 125).
edge(2, 13).
edge(55, 170).
edge(55, 63).
edge(83, 113).
edge(83, 144).
edge(38, 162).
edge(114, 192).
edge(99, 172).
edge(131, 153).
edge(129, 135).
edge(35, 124).
edge(75, 177).
edge(36, 108).
edge(56, 76).
edge(22, 175).
edge(70, 153).
edge(84, 174).
edge(2, 121).
edge(43, 45).
edge(57, 64).
edge(48, 176).
edge(9, 85).
edge(96, 186).
edge(17, 72).
edge(15, 191).
edge(16, 26).
edge(17, 19).
edge(52, 186).
edge(27, 161).
edge(91, 198).
edge(30, 122).
edge(114, 198).
edge(56, 87).
edge(66, 189).
edge(61, 147).
edge(43, 122).
edge(93, 133).
edge(68, 163).
edge(60, 107).
edge(13, 89).
edge(69, 144).
edge(94, 171).
edge(58, 72).
edge(54, 88).
edge(120, 145).
edge(39, 183).
edge(18, 184).
edge(98, 116).
edge(68, 100).
edge(136, 145).
edge(15, 120).
edge(16, 177).
edge(12, 58).
edge(40, 73).
edge(37, 105).
edge(14, 138).
edge(56, 81).
edge(147, 151).
edge(39, 149).
edge(35, 65).
edge(158, 162).
edge(74, 82).
edge(5, 128).
edge(63, 93).
edge(61, 84).
edge(11, 112).
edge(87, 126).
edge(56, 139).
edge(31, 154).
edge(65, 190).
edge(29, 174).
edge(108, 112).
edge(104, 154).
edge(17, 39).
edge(11, 114).
edge(78, 79).
edge(13, 69).
edge(176, 196).
edge(10, 49).
edge(6, 7).
edge(32, 97).
edge(35, 196).
edge(118, 154).
edge(40, 117).
edge(1, 151).
edge(63, 83).
edge(36, 146).
edge(32, 149).
edge(53, 94).
edge(51, 141).
edge(52, 121).
edge(54, 131).
edge(98, 153).
edge(21, 160).
edge(56, 190).
edge(60, 99).
edge(129, 152).
edge(61, 181).
edge(41, 130).
edge(30, 69).
edge(0, 102).
edge(2, 92).
edge(12, 119).
edge(5, 149).
edge(128, 166).
edge(38, 157).
edge(65, 119).
edge(40, 166).
edge(37, 43).
edge(85, 97).
edge(16, 156).
edge(92, 135).
edge(8, 173).
edge(118, 184).
edge(91, 154).
edge(50, 145).
edge(60, 177).
edge(81, 147).
edge(56, 134).
edge(13, 78).
edge(82, 94).
edge(30, 111).
edge(83, 108).
edge(154, 177).
edge(92, 167).
edge(88, 115).
edge(68, 190).
edge(72, 167).
edge(23, 80).
edge(84, 168).
edge(33, 50).
edge(41, 105).
edge(16, 74).
edge(69, 154).
edge(46, 89).
edge(107, 152).
edge(17, 28).
edge(20, 165).
edge(33, 198).
edge(101, 147).
edge(135, 141).
edge(48, 187).
edge(154, 179).
edge(120, 126).
edge(153, 196).
edge(108, 145).
edge(34, 62).
edge(102, 138).
edge(91, 104).
edge(90, 100).
edge(95, 159).
edge(68, 108).
edge(157, 190).
edge(1, 53).
edge(172, 176).
edge(41, 62).
edge(63, 125).
edge(115, 119).
edge(28, 120).
edge(0, 40).
edge(18, 124).
edge(41, 66).
edge(100, 178).
edge(57, 92).
edge(141, 163).
edge(102, 119).
edge(172, 180).
edge(35, 169).
edge(32, 135).
edge(81, 143).
edge(160, 163).
edge(117, 184).
edge(97, 164).
edge(97, 127).
edge(165, 190).
edge(19, 105).
edge(19, 54).
edge(48, 97).
edge(73, 117).
edge(85, 121).
edge(103, 145).
edge(79, 111).
edge(61, 102).
edge(125, 130).
edge(46, 108).
edge(49, 99).
edge(6, 152).
edge(66, 197).
edge(132, 169).
edge(14, 50).
edge(142, 172).
edge(15, 78).
edge(52, 188).
edge(39, 43).
edge(70, 174).
edge(31, 120).
edge(21, 163).
edge(1, 170).
edge(25, 96).
edge(6, 71).
edge(63, 101).
edge(45, 113).
edge(151, 179).
edge(74, 179).
edge(82, 147).
edge(103, 173).
edge(33, 48).
edge(20, 120).
edge(8, 48).
edge(18, 75).
edge(103, 131).
edge(20, 97).
edge(41, 184).
edge(30, 63).
edge(10, 96).
edge(69, 84).
edge(114, 197).
edge(106, 170).
edge(17, 40).
edge(73, 112).
edge(48, 144).
edge(59, 119).
edge(34, 124).
edge(16, 67).
edge(74, 114).
edge(24, 177).
edge(13, 123).
edge(100, 119).
edge(85, 149).
edge(16, 175).
edge(143, 171).
edge(46, 151).
edge(94, 140).
edge(125, 169).
edge(47, 130).
edge(41, 88).
edge(68, 160).
edge(150, 159).
edge(91, 136).
edge(18, 83).
edge(55, 139).
edge(83, 179).
edge(27, 39).
edge(31, 78).
edge(97, 149).
edge(18, 128).
edge(33, 137).
edge(119, 196).
edge(55, 175).
edge(12, 159).
edge(7, 58).
edge(123, 126).
edge(4, 85).
edge(7, 192).
edge(120, 124).
edge(66, 154).
edge(10, 129).
edge(16, 103).
edge(73, 107).
edge(77, 83).
edge(81, 160).
edge(131, 137).
edge(1, 54).
edge(72, 193).
edge(87, 88).
edge(172, 177).
edge(93, 119).
edge(4, 26).
edge(26, 164).
edge(119, 137).
edge(2, 18).
edge(60, 141).
edge(61, 129).
edge(63, 183).
edge(24, 120).
edge(178, 186).
edge(6, 126).
edge(26, 39).
edge(138, 187).
edge(97, 109).
edge(34, 197).
edge(15, 196).
edge(36, 107).
edge(111, 124).
edge(70, 137).
edge(83, 138).
edge(3, 41).
edge(53, 192).
edge(128, 196).
edge(48, 155).
edge(110, 184).
edge(102, 193).
edge(33, 136).
edge(78, 164).
edge(49, 73).
edge(95, 189).
edge(3, 103).
edge(96, 178).
edge(7, 194).
edge(75, 167).
edge(79, 149).
edge(106, 160).
edge(61, 126).
edge(33, 80).
edge(37, 161).
edge(131, 197).
edge(30, 56).
edge(105, 146).
edge(18, 127).
edge(5, 76).
edge(95, 140).
edge(0, 34).
edge(61, 112).
edge(180, 187).
edge(16, 135).
edge(121, 140).
edge(53, 71).
edge(136, 155).
edge(73, 138).
edge(114, 180).
edge(105, 149).
edge(15, 178).
edge(131, 167).
edge(39, 157).
edge(114, 165).
edge(78, 114).
edge(78, 98).
edge(0, 139).
edge(157, 164).
edge(61, 183).
edge(102, 166).
edge(17, 65).
edge(8, 112).
edge(44, 101).
edge(152, 159).
edge(52, 104).
edge(68, 109).
edge(2, 48).
edge(159, 179).
edge(78, 183).
edge(116, 167).
edge(106, 148).
edge(4, 197).
edge(84, 110).
edge(77, 135).
edge(42, 145).
edge(143, 173).
edge(139, 193).
edge(114, 158).
edge(42, 183).
edge(93, 181).
edge(44, 61).
edge(69, 122).
edge(69, 123).
edge(83, 115).
edge(60, 195).
edge(21, 130).
edge(47, 96).
edge(16, 192).
edge(13, 71).
edge(52, 91).
edge(25, 123).
edge(70, 185).
edge(101, 186).
edge(91, 139).
edge(7, 72).
edge(56, 74).
edge(113, 178).
edge(49, 127).
edge(15, 136).
edge(33, 154).
edge(79, 184).
edge(44, 136).
edge(33, 39).
edge(124, 198).
edge(31, 181).
edge(56, 144).
edge(3, 26).
edge(81, 166).
edge(176, 183).
edge(55, 104).
edge(70, 120).
edge(2, 65).
edge(76, 105).
edge(170, 173).
edge(26, 95).
edge(73, 82).
edge(9, 69).
edge(15, 158).
edge(24, 50).
edge(7, 30).
edge(135, 194).
edge(52, 105).
edge(9, 192).
edge(5, 180).
edge(59, 152).
edge(50, 71).
edge(85, 184).
edge(26, 76).
edge(133, 172).
edge(157, 169).
edge(43, 196).
edge(27, 46).
edge(69, 193).
edge(66, 158).
edge(54, 140).
edge(52, 194).
edge(50, 98).
edge(9, 118).
edge(165, 187).
edge(144, 147).
edge(0, 55).
edge(48, 132).
edge(37, 129).
edge(66, 104).
edge(158, 189).
edge(4, 177).
edge(168, 176).
edge(92, 100).
edge(34, 99).
edge(40, 118).
edge(72, 78).
edge(188, 190).
edge(173, 183).
edge(4, 154).
edge(1, 38).
edge(21, 131).
edge(12, 175).
edge(38, 46).
edge(29, 147).
edge(181, 196).
edge(56, 128).
edge(5, 161).
edge(2, 30).
edge(101, 136).
edge(6, 57).
edge(20, 192).
edge(81, 153).
edge(85, 173).
edge(80, 193).
edge(36, 69).
edge(118, 194).
edge(87, 179).
edge(124, 184).
edge(105, 109).
edge(35, 152).
edge(9, 84).
edge(0, 195).
edge(28, 126).
edge(6, 194).
edge(45, 179).
edge(35, 108).
edge(46, 146).
edge(70, 159).
edge(61, 72).
edge(3, 40).
edge(8, 14).
edge(115, 175).
edge(166, 171).
edge(93, 95).
edge(42, 193).
edge(95, 149).
edge(145, 165).
edge(118, 130).
edge(131, 138).
edge(8, 71).
edge(119, 173).
edge(14, 117).
edge(14, 63).
edge(56, 114).
edge(31, 174).
edge(8, 98).
edge(113, 171).
edge(11, 147).
edge(17, 136).
edge(19, 155).
edge(11, 133).
edge(162, 192).
edge(95, 197).
edge(3, 60).
edge(91, 165).
edge(46, 141).
edge(14, 15).
edge(59, 81).
edge(107, 166).
edge(64, 104).
edge(89, 143).
edge(174, 181).
edge(143, 179).
edge(12, 160).
edge(108, 136).
edge(51, 166).
edge(56, 149).
edge(79, 134).
edge(89, 98).
edge(7, 184).
edge(52, 54).
edge(10, 46).
edge(10, 56).
edge(26, 191).
edge(65, 144).
edge(23, 32).
edge(84, 95).
edge(59, 153).
edge(86, 114).
edge(155, 187).
edge(60, 128).
edge(101, 137).
edge(22, 60).
edge(80, 133).
edge(108, 117).
edge(28, 138).
edge(11, 185).
edge(31, 173).
edge(53, 78).
edge(119, 132).
edge(103, 120).
edge(12, 89).
edge(133, 158).
edge(21, 33).
edge(105, 178).
edge(88, 150).
edge(95, 135).
edge(59, 104).
edge(0, 75).
edge(81, 167).
edge(32, 147).
edge(89, 151).
edge(59, 113).
edge(128, 170).
edge(44, 149).
edge(73, 159).
edge(131, 176).
edge(72, 97).
edge(22, 164).
edge(135, 144).
edge(184, 195).
edge(157, 196).
edge(72, 128).
edge(31, 189).
edge(50, 156).
edge(125, 154).
edge(126, 197).
edge(27, 34).
edge(74, 88).
edge(69, 150).
edge(177, 186).
edge(6, 151).
edge(42, 78).
edge(33, 84).
edge(18, 44).
edge(13, 65).
edge(192, 194).
edge(73, 81).
edge(144, 183).
edge(78, 165).
edge(136, 166).
edge(24, 42).
edge(142, 187).
edge(68, 125).
edge(63, 64).
edge(71, 169).
edge(104, 149).
edge(0, 177).
edge(119, 166).
edge(70, 143).
edge(120, 170).
edge(73, 168).
edge(26, 103).
edge(12, 188).
edge(71, 86).
edge(55, 156).
edge(67, 108).
edge(155, 179).
edge(6, 16).
edge(8, 175).
edge(96, 167).
edge(33, 106).
edge(133, 154).
edge(12, 124).
edge(90, 105).
edge(37, 78).
edge(79, 83).
edge(6, 166).
edge(83, 167).
edge(97, 126).
edge(38, 135).
edge(40, 99).
edge(98, 186).
edge(8, 198).
edge(26, 28).
edge(78, 127).
edge(122, 177).
edge(120, 154).
edge(37, 155).
edge(23, 180).
edge(11, 131).
edge(21, 191).
edge(53, 113).
edge(36, 163).
edge(54, 172).
edge(68, 152).
edge(71, 184).
edge(136, 181).
edge(4, 62).
edge(86, 157).
edge(76, 173).
edge(12, 184).
edge(36, 104).
edge(71, 157).
edge(10, 174).
edge(79, 106).
edge(38, 154).
edge(129, 166).
edge(143, 182).
edge(77, 86).
edge(111, 181).
edge(47, 100).
edge(152, 167).
edge(0, 156).
edge(54, 84).
edge(95, 192).
edge(86, 189).
edge(42, 85).
edge(73, 182).
edge(144, 161).
edge(121, 196).
edge(98, 182).
edge(40, 146).
edge(120, 177).
edge(17, 170).
edge(41, 112).
edge(31, 187).
edge(76, 180).
edge(63, 78).
edge(69, 74).
edge(86, 163).
edge(9, 35).
edge(12, 56).
edge(40, 129).
edge(108, 122).
edge(73, 99).
edge(46, 106).
edge(172, 181).
edge(49, 155).
edge(45, 163).
edge(83, 169).
edge(14, 181).
edge(100, 192).
edge(6, 127).
edge(104, 112).
edge(23, 160).
edge(133, 178).
edge(82, 125).
edge(103, 195).
edge(140, 163).
edge(137, 195).
edge(56, 88).
edge(2, 54).
edge(46, 64).
edge(146, 186).
edge(22, 103).
edge(137, 196).
edge(37, 151).
edge(70, 97).
edge(189, 198).
edge(3, 23).
edge(81, 113).
edge(16, 117).
edge(41, 165).
edge(24, 159).
edge(16, 102).
edge(5, 88).
edge(133, 166).
edge(28, 125).
edge(43, 162).
edge(91, 160).
edge(44, 186).
edge(37, 149).
edge(0, 186).
edge(8, 63).
edge(10, 78).
edge(23, 112).
edge(0, 101).
edge(34, 98).
edge(69, 82).
edge(106, 130).
edge(28, 41).
edge(143, 166).
edge(110, 190).
edge(30, 97).
edge(93, 149).
edge(164, 192).
edge(79, 116).
edge(29, 125).
edge(0, 38).
edge(56, 129).
edge(35, 157).
edge(72, 137).
edge(166, 176).
edge(123, 143).
edge(25, 180).
edge(6, 36).
edge(49, 96).
edge(40, 176).
edge(143, 155).
edge(160, 165).
edge(7, 69).
edge(143, 154).
edge(42, 162).
edge(63, 109).
edge(180, 191).
edge(139, 194).
edge(26, 97).
edge(6, 21).
edge(64, 125).
edge(74, 92).
edge(57, 108).
edge(20, 72).
edge(107, 136).
edge(61, 103).
edge(39, 106).
edge(155, 196).
edge(1, 120).
edge(19, 103).
edge(186, 191).
edge(177, 180).
edge(73, 178).
edge(186, 189).
edge(6, 155).
edge(102, 129).
edge(53, 194).
edge(88, 192).
edge(22, 26).
edge(60, 185).
edge(46, 142).
edge(85, 133).
edge(46, 198).
edge(93, 103).
edge(36, 147).
edge(176, 197).
edge(163, 196).
edge(58, 176).
edge(59, 63).
edge(134, 176).
edge(35, 52).
edge(131, 191).
edge(87, 128).
edge(69, 189).
edge(7, 112).
edge(76, 124).
edge(88, 197).
edge(57, 149).
edge(64, 89).
edge(80, 115).
edge(43, 48).
edge(11, 152).
edge(167, 183).
edge(50, 89).
edge(77, 167).
edge(146, 156).
edge(28, 88).
edge(19, 123).
edge(20, 81).
edge(120, 149).
edge(13, 76).
edge(137, 149).
edge(84, 169).
edge(10, 103).
edge(82, 127).
edge(85, 198).
edge(93, 134).
edge(11, 71).
edge(29, 35).
edge(66, 185).
edge(31, 193).
edge(3, 27).
edge(92, 114).
edge(115, 177).
edge(122, 180).
edge(1, 51).
edge(120, 121).
edge(17, 22).
edge(47, 192).
edge(51, 115).
edge(28, 97).
edge(45, 48).
edge(13, 170).
edge(149, 152).
edge(127, 169).
edge(146, 171).
edge(186, 190).
edge(61, 76).
edge(27, 90).
edge(15, 119).
edge(67, 105).
edge(109, 115).
edge(92, 142).
edge(138, 159).
edge(122, 135).
edge(129, 162).
edge(16, 172).
edge(47, 142).
edge(4, 168).
edge(13, 47).
edge(33, 41).
edge(64, 94).
edge(41, 126).
edge(152, 175).
edge(4, 54).
edge(152, 158).
edge(31, 138).
edge(21, 76).
edge(3, 45).
edge(74, 110).
edge(8, 178).
edge(54, 147).
edge(57, 136).
edge(23, 133).
edge(12, 142).
edge(72, 90).
edge(39, 146).
edge(145, 160).
edge(86, 134).
edge(4, 141).
edge(122, 159).
edge(60, 81).
edge(60, 151).
edge(132, 152).
edge(12, 158).
edge(47, 101).
edge(19, 153).
edge(71, 149).
edge(101, 110).
edge(144, 192).
edge(69, 184).
edge(98, 184).
edge(114, 133).
edge(16, 44).
edge(19, 39).
edge(99, 141).
edge(21, 102).
edge(53, 142).
edge(35, 116).
edge(63, 184).
edge(177, 178).
edge(147, 168).
edge(6, 62).
edge(175, 180).
edge(83, 117).
edge(135, 184).
edge(43, 118).
edge(95, 194).
edge(3, 195).
edge(97, 125).
edge(28, 160).
edge(120, 150).
edge(49, 146).
edge(57, 76).
edge(79, 188).
edge(56, 188).
edge(27, 192).
edge(49, 183).
edge(60, 102).
edge(37, 123).
edge(156, 186).
edge(33, 113).
edge(3, 67).
edge(67, 179).
edge(3, 106).
edge(34, 129).
edge(40, 162).
edge(44, 189).
edge(66, 110).
edge(123, 150).
edge(34, 69).
edge(163, 182).
edge(84, 94).
edge(67, 189).
edge(160, 162).
edge(28, 191).
edge(7, 54).
edge(37, 133).
edge(138, 191).
edge(50, 177).
edge(160, 182).
edge(25, 35).
edge(101, 185).
edge(35, 151).
edge(11, 197).
edge(33, 98).
edge(22, 189).
edge(92, 189).
edge(131, 144).
edge(35, 127).
edge(5, 95).
edge(69, 173).
edge(105, 193).
edge(100, 195).
edge(13, 176).
edge(83, 143).
edge(0, 95).
edge(70, 83).
edge(53, 169).
edge(178, 182).
edge(34, 104).
edge(111, 179).
edge(109, 143).
edge(9, 60).
edge(49, 140).
edge(101, 111).
edge(14, 127).
edge(143, 184).
edge(57, 86).
edge(6, 58).
edge(104, 138).
edge(23, 62).
edge(39, 90).
edge(171, 174).
edge(173, 190).
edge(78, 163).
edge(59, 183).
edge(86, 87).
edge(64, 155).
edge(128, 133).
edge(44, 98).
edge(9, 94).
edge(92, 183).
edge(37, 141).
edge(106, 146).
edge(1, 185).
edge(157, 167).
edge(127, 157).
edge(86, 103).
edge(27, 58).
edge(54, 158).
edge(45, 101).
edge(71, 123).
edge(144, 197).
edge(2, 122).
edge(14, 80).
edge(83, 186).
edge(30, 123).
edge(52, 60).
edge(84, 108).
edge(98, 170).
edge(6, 157).
edge(47, 159).
edge(33, 56).
edge(7, 48).
edge(62, 82).
edge(53, 116).
edge(58, 84).
edge(22, 65).
edge(8, 193).
edge(44, 188).
edge(46, 113).
edge(85, 108).
edge(94, 157).
edge(136, 167).
edge(53, 70).
edge(22, 145).
edge(102, 183).
edge(44, 132).
edge(28, 184).
edge(66, 69).
edge(9, 169).
edge(47, 103).
edge(19, 178).
edge(30, 118).
edge(138, 152).
edge(56, 177).
edge(5, 80).
edge(53, 153).
edge(39, 112).
edge(40, 79).
edge(23, 106).
edge(10, 66).
edge(0, 15).
edge(19, 194).
edge(72, 184).
edge(28, 144).
edge(77, 144).
edge(18, 36).
edge(74, 102).
edge(3, 179).
edge(139, 152).
edge(116, 146).
edge(115, 148).
edge(10, 149).
edge(43, 55).
edge(3, 82).
edge(9, 149).
edge(143, 196).
edge(2, 59).
edge(73, 94).
edge(9, 82).
edge(104, 150).
edge(29, 85).
edge(20, 36).
edge(6, 134).
edge(182, 196).
edge(142, 190).
edge(0, 68).
edge(34, 53).
edge(67, 87).
edge(58, 186).
edge(0, 180).
edge(19, 107).
edge(151, 178).
edge(103, 156).
edge(6, 73).
edge(131, 147).
edge(2, 113).
edge(45, 98).
edge(42, 136).
edge(59, 79).
edge(62, 170).
edge(141, 148).
edge(50, 193).
edge(45, 120).
edge(3, 80).
edge(9, 17).
edge(92, 102).
edge(21, 82).
edge(118, 144).
edge(81, 180).
edge(45, 186).
edge(39, 84).
edge(9, 110).
edge(55, 85).
edge(62, 169).
edge(101, 159).
edge(67, 79).
edge(93, 186).
edge(40, 136).
edge(18, 190).
edge(59, 134).
edge(87, 191).
edge(67, 128).
edge(36, 183).
edge(128, 165).
edge(98, 137).
edge(45, 153).
edge(102, 168).
edge(70, 160).
edge(98, 179).
edge(5, 61).
edge(10, 178).
edge(132, 187).
edge(72, 141).
edge(79, 194).
edge(15, 52).
edge(3, 130).
edge(54, 177).
edge(6, 70).
edge(58, 179).
edge(42, 149).
edge(179, 180).
edge(150, 180).
edge(26, 82).
edge(55, 78).
edge(49, 179).
edge(36, 83).
edge(54, 154).
edge(85, 151).
edge(9, 147).
edge(98, 197).
edge(112, 171).
edge(100, 122).
edge(14, 142).
edge(54, 153).
edge(130, 189).
edge(56, 71).
edge(35, 181).
edge(51, 125).
edge(36, 180).
edge(32, 53).
edge(33, 178).
edge(137, 187).
edge(65, 104).
edge(21, 103).
edge(20, 122).
edge(0, 144).
edge(41, 137).
edge(82, 137).
edge(126, 163).
edge(148, 179).
edge(115, 122).
edge(5, 57).
edge(25, 140).
edge(128, 182).
edge(37, 125).
edge(19, 185).
edge(22, 59).
edge(14, 162).
edge(166, 167).
edge(18, 112).
edge(12, 51).
edge(92, 111).
edge(21, 186).
edge(31, 134).
edge(64, 138).
edge(47, 151).
edge(132, 136).
edge(108, 119).
edge(1, 56).
edge(34, 37).
edge(32, 196).
edge(101, 102).
edge(136, 176).
edge(123, 184).
edge(145, 198).
edge(40, 96).
edge(67, 194).
edge(132, 191).
edge(17, 107).
edge(40, 130).
edge(4, 153).
edge(8, 121).
edge(27, 55).
edge(73, 103).
edge(158, 170).
edge(85, 150).
edge(9, 142).
edge(60, 84).
edge(122, 166).
edge(32, 76).
edge(26, 188).
edge(50, 164).
edge(45, 144).
edge(159, 184).
edge(9, 100).
edge(6, 178).
edge(149, 189).
edge(79, 107).
edge(16, 33).
edge(163, 193).
edge(20, 79).
edge(6, 84).
edge(138, 181).
edge(37, 79).
edge(52, 126).
edge(143, 167).
edge(33, 126).
edge(168, 170).
edge(13, 45).
edge(31, 67).
edge(11, 61).
edge(8, 15).
edge(101, 125).
edge(154, 196).
edge(8, 194).
edge(10, 82).
edge(4, 190).
edge(22, 24).
edge(100, 188).
edge(63, 193).
edge(131, 169).
edge(122, 162).
edge(13, 185).
edge(40, 133).
edge(52, 119).
edge(37, 89).
edge(75, 175).
edge(9, 160).
edge(117, 197).
edge(73, 135).
edge(89, 195).
edge(94, 182).
edge(14, 23).
edge(58, 111).
edge(6, 88).
edge(64, 186).
edge(7, 51).
edge(15, 175).
edge(65, 132).
edge(2, 64).
edge(140, 141).
edge(72, 150).
edge(35, 63).
edge(65, 126).
edge(42, 185).
edge(25, 193).
edge(34, 96).
edge(6, 172).
edge(15, 172).
edge(13, 148).
edge(42, 75).
edge(67, 84).
edge(65, 154).
edge(76, 189).
edge(38, 196).
edge(1, 198).
edge(63, 197).
edge(169, 184).
edge(156, 166).
edge(95, 97).
edge(46, 115).
edge(32, 51).
edge(7, 43).
edge(83, 124).
edge(85, 146).
edge(59, 194).
edge(84, 98).
edge(29, 59).
edge(30, 171).
edge(29, 76).
edge(1, 21).
edge(73, 85).
edge(94, 179).
edge(82, 113).
edge(30, 116).
edge(16, 52).
edge(58, 195).
edge(91, 151).
edge(68, 121).
edge(39, 167).
edge(10, 30).
edge(46, 133).
edge(37, 156).
edge(144, 195).
edge(100, 130).
edge(22, 127).
edge(23, 88).
edge(114, 188).
edge(82, 158).
edge(14, 82).
edge(32, 87).
edge(45, 154).
edge(42, 114).
edge(49, 180).
edge(19, 160).
edge(31, 162).
edge(29, 64).
edge(36, 46).
edge(44, 125).
edge(15, 34).
edge(152, 169).
edge(158, 164).
edge(131, 181).
edge(6, 97).
edge(67, 68).
edge(166, 180).
edge(75, 97).
edge(36, 186).
edge(128, 145).
edge(95, 151).
edge(78, 106).
edge(8, 154).
edge(32, 180).
edge(106, 174).
edge(21, 134).
edge(29, 169).
edge(100, 125).
edge(94, 120).
edge(61, 128).
edge(29, 51).
edge(90, 129).
edge(121, 189).
edge(44, 67).
edge(61, 196).
edge(155, 176).
edge(5, 26).
edge(87, 94).
edge(109, 169).
edge(11, 173).
edge(5, 183).
edge(98, 126).
edge(8, 160).
edge(10, 55).
edge(8, 102).
edge(176, 179).
edge(101, 104).
edge(16, 185).
edge(88, 153).
edge(11, 121).
edge(54, 144).
edge(15, 118).
edge(55, 123).
edge(48, 147).
edge(73, 78).
edge(89, 93).
edge(164, 177).
edge(152, 194).
edge(62, 128).
edge(49, 147).
edge(44, 156).
edge(63, 108).
edge(43, 102).
edge(52, 197).
edge(41, 94).
edge(37, 75).
edge(103, 163).
edge(80, 154).
edge(23, 38).
edge(1, 45).
edge(27, 180).
edge(87, 161).
edge(76, 118).
edge(44, 164).
edge(41, 101).
edge(4, 13).
edge(65, 93).
edge(96, 141).
edge(87, 186).
edge(109, 166).
edge(16, 53).
edge(74, 191).
edge(5, 55).
edge(130, 143).
edge(87, 158).
edge(47, 165).
edge(42, 94).
edge(144, 157).
edge(107, 159).
edge(54, 119).
edge(48, 74).
edge(129, 146).
edge(21, 44).
edge(160, 179).
edge(11, 19).
edge(46, 186).
edge(166, 183).
edge(18, 125).
edge(133, 164).
edge(97, 148).
edge(94, 139).
edge(43, 116).
edge(61, 111).
edge(123, 142).
edge(3, 192).
edge(15, 139).
edge(39, 134).
edge(15, 18).
edge(156, 188).
edge(44, 190).
edge(0, 49).
edge(19, 85).
edge(10, 105).
edge(102, 174).
edge(137, 172).
edge(71, 156).
edge(15, 155).
edge(21, 180).
edge(81, 127).
edge(192, 198).
edge(63, 100).
edge(21, 184).
edge(106, 181).
edge(37, 172).
edge(22, 94).
edge(70, 172).
edge(30, 125).
edge(53, 137).
edge(37, 65).
edge(25, 56).
edge(31, 32).
edge(18, 118).
edge(31, 191).
edge(73, 76).
edge(58, 105).
edge(31, 180).
edge(25, 131).
edge(39, 170).
edge(48, 149).
edge(32, 122).
edge(149, 156).
edge(25, 75).
edge(41, 103).
edge(1, 24).
edge(34, 162).
edge(58, 85).
edge(165, 170).
edge(24, 51).
edge(114, 121).
edge(68, 134).
edge(20, 108).
edge(32, 188).
edge(121, 160).
edge(4, 184).
edge(113, 155).
edge(76, 139).
edge(95, 155).
edge(29, 190).
edge(165, 172).
edge(137, 152).
edge(166, 182).
edge(150, 165).
edge(99, 184).
edge(104, 178).
edge(6, 66).
edge(39, 166).
edge(40, 72).
edge(60, 178).
edge(162, 196).
edge(36, 84).
edge(60, 95).
edge(26, 196).
edge(107, 174).
edge(64, 174).
edge(3, 188).
edge(1, 68).
edge(34, 189).
edge(15, 104).
edge(56, 125).
edge(44, 87).
edge(3, 139).
edge(66, 97).
edge(134, 184).
edge(80, 88).
edge(146, 176).
edge(59, 185).
edge(58, 75).
edge(51, 107).
edge(101, 177).
edge(155, 193).
edge(36, 91).
edge(29, 52).
edge(179, 193).
edge(54, 176).
edge(62, 157).
edge(178, 184).
edge(8, 26).
edge(32, 182).
edge(2, 172).
edge(2, 72).
edge(113, 151).
edge(151, 183).
edge(46, 123).
edge(0, 130).
edge(51, 162).
edge(48, 153).
edge(30, 48).
edge(135, 136).
edge(58, 73).
edge(57, 71).
edge(37, 52).
edge(4, 22).
edge(22, 121).
edge(49, 113).
edge(6, 49).
edge(95, 128).
edge(132, 150).
edge(97, 187).
edge(118, 178).
edge(68, 79).
edge(48, 95).
edge(51, 116).
edge(69, 175).
edge(13, 175).
edge(73, 147).
edge(120, 125).
edge(33, 197).
edge(27, 135).
edge(101, 118).
edge(44, 104).
edge(24, 77).
edge(97, 103).
edge(4, 25).
edge(101, 116).
edge(53, 156).
edge(156, 158).
edge(137, 168).
edge(63, 163).
edge(20, 25).
edge(93, 130).
edge(1, 106).
edge(18, 33).
edge(73, 113).
edge(45, 171).
edge(99, 169).
edge(162, 167).
edge(35, 164).
edge(98, 195).
edge(24, 184).
edge(0, 173).
edge(43, 73).
edge(73, 90).
edge(87, 160).
edge(80, 97).
edge(2, 50).
edge(124, 156).
edge(23, 162).
edge(42, 135).
edge(55, 176).
edge(33, 58).
edge(78, 103).
edge(54, 59).
edge(14, 75).
edge(110, 129).
edge(2, 11).
edge(31, 109).
edge(10, 88).
edge(74, 113).
edge(132, 164).
edge(77, 136).
edge(66, 178).
edge(162, 169).
edge(143, 193).
edge(22, 92).
edge(56, 122).
edge(27, 176).
edge(47, 55).
edge(13, 70).
edge(115, 147).
edge(155, 165).
edge(50, 183).
edge(127, 173).
edge(4, 179).
edge(34, 126).
edge(3, 149).
edge(41, 97).
edge(67, 83).
edge(19, 98).
edge(41, 111).
edge(33, 127).
edge(13, 191).
edge(114, 141).
edge(22, 48).
edge(58, 147).
edge(18, 170).
edge(84, 128).
edge(121, 161).
edge(15, 108).
edge(4, 79).
edge(108, 174).
edge(41, 125).
edge(70, 156).
edge(13, 159).
edge(96, 98).
edge(88, 152).
edge(8, 35).
edge(156, 178).
edge(36, 89).
edge(35, 74).
edge(98, 188).
edge(52, 181).
edge(5, 181).
edge(43, 191).
edge(59, 123).
edge(86, 184).
edge(0, 192).
edge(4, 162).
edge(47, 152).
edge(164, 187).
edge(129, 151).
edge(73, 123).
edge(42, 93).
edge(60, 147).
edge(114, 139).
edge(56, 116).
edge(47, 132).
edge(78, 174).
edge(94, 177).
edge(37, 186).
edge(107, 114).
edge(53, 89).
edge(13, 172).
edge(73, 84).
edge(1, 113).
edge(14, 37).
edge(70, 129).
edge(18, 119).
edge(84, 165).
edge(85, 101).
edge(10, 139).
edge(16, 125).
edge(53, 104).
edge(118, 196).
edge(86, 173).
edge(155, 189).
edge(57, 72).
edge(99, 150).
edge(15, 194).
edge(84, 90).
edge(176, 187).
edge(36, 56).
edge(94, 153).
edge(65, 149).
edge(11, 122).
edge(45, 185).
edge(66, 181).
edge(63, 148).
edge(105, 186).
edge(44, 179).
edge(64, 177).
edge(32, 198).
edge(147, 182).
edge(78, 111).
edge(31, 54).
edge(3, 95).
edge(14, 190).
edge(47, 162).
edge(29, 44).
edge(27, 193).
edge(69, 162).
edge(53, 196).
edge(38, 122).
edge(72, 157).
edge(70, 116).
edge(139, 183).
edge(38, 140).
edge(56, 141).
edge(28, 185).
edge(17, 77).
edge(69, 194).
edge(4, 96).
edge(72, 174).
edge(47, 70).
edge(149, 157).
edge(119, 130).
edge(63, 130).
edge(186, 198).
edge(35, 180).
edge(12, 40).
edge(43, 168).
edge(130, 148).
edge(47, 121).
edge(45, 178).
edge(108, 151).
edge(23, 144).
edge(28, 172).
edge(48, 118).
edge(107, 182).
edge(44, 116).
edge(0, 29).
edge(1, 155).
edge(126, 159).
edge(49, 130).
edge(70, 85).
edge(3, 70).
edge(94, 196).
edge(138, 154).
edge(157, 188).
edge(143, 163).
edge(75, 186).
edge(155, 166).
edge(22, 135).
edge(127, 172).
edge(114, 168).
edge(81, 111).
edge(60, 158).
edge(34, 158).
edge(63, 164).
edge(31, 111).
edge(76, 158).
edge(162, 188).
edge(74, 90).
edge(172, 192).
edge(59, 117).
edge(61, 92).
edge(160, 176).
edge(9, 83).
edge(7, 176).
edge(41, 143).
edge(48, 50).
edge(46, 160).
edge(110, 161).
edge(91, 132).
edge(10, 147).
edge(19, 60).
edge(137, 141).
edge(151, 197).
edge(50, 107).
edge(9, 20).
edge(85, 124).
edge(125, 149).
edge(116, 176).
edge(120, 151).
edge(49, 153).
edge(8, 191).
edge(29, 71).
edge(34, 55).
edge(6, 159).
edge(33, 97).
edge(77, 109).
edge(12, 187).
edge(58, 81).
edge(122, 146).
edge(7, 96).
edge(22, 30).
edge(61, 120).
edge(42, 181).
edge(8, 41).
edge(94, 174).
edge(102, 125).
edge(96, 190).
edge(50, 133).
edge(37, 158).
edge(73, 161).
edge(8, 153).
edge(133, 148).
edge(106, 110).
edge(91, 94).
edge(15, 193).
edge(81, 142).
edge(124, 155).
edge(74, 104).
edge(71, 113).
edge(28, 149).
edge(96, 129).
edge(41, 42).
edge(126, 157).
edge(9, 113).
edge(1, 11).
edge(47, 168).
edge(39, 187).
edge(91, 138).
edge(178, 189).
edge(21, 161).
edge(101, 145).
edge(30, 156).
edge(6, 158).
edge(32, 111).
edge(12, 93).
edge(170, 191).
edge(8, 151).
edge(27, 70).
edge(49, 154).
edge(67, 133).
edge(113, 127).
edge(28, 40).
edge(65, 103).
edge(81, 185).
edge(46, 52).
edge(77, 137).
edge(48, 186).
edge(84, 101).
edge(11, 74).
edge(4, 132).
edge(70, 101).
edge(83, 114).
edge(20, 186).
edge(138, 197).
edge(101, 179).
edge(63, 65).
edge(110, 125).
edge(3, 125).
edge(27, 177).
edge(13, 113).
edge(90, 157).
edge(71, 117).
edge(56, 77).
edge(27, 189).
edge(93, 156).
edge(113, 179).
edge(3, 97).
edge(56, 183).
edge(27, 117).
edge(9, 78).
edge(32, 39).
edge(45, 112).
edge(27, 50).
edge(10, 38).
edge(80, 89).
edge(92, 169).
edge(109, 155).
edge(0, 140).
edge(64, 192).
edge(148, 160).
edge(88, 196).
edge(34, 78).
edge(140, 152).
edge(124, 163).
edge(164, 191).
edge(4, 19).
edge(121, 172).
edge(72, 164).
edge(61, 71).
edge(29, 132).
edge(12, 104).
edge(72, 80).
edge(48, 81).
edge(138, 145).
edge(109, 178).
edge(37, 175).
edge(10, 163).
edge(42, 198).
edge(76, 174).
edge(15, 70).
edge(46, 79).
edge(119, 162).
edge(115, 129).
edge(108, 148).
edge(194, 198).
edge(123, 139).
edge(17, 122).
edge(57, 113).
edge(150, 185).
edge(21, 59).
edge(0, 112).
edge(31, 64).
edge(39, 78).
edge(53, 130).
edge(4, 16).
edge(14, 164).
edge(15, 48).
edge(51, 174).
edge(71, 129).
edge(3, 176).
edge(45, 191).
edge(27, 108).
edge(83, 94).
edge(160, 191).
edge(23, 143).
edge(159, 196).
edge(78, 126).
edge(133, 177).
edge(71, 96).
edge(59, 73).
edge(46, 107).
edge(114, 157).
edge(85, 142).
edge(129, 157).
edge(0, 30).
edge(137, 193).
edge(90, 116).
edge(5, 196).
edge(85, 160).
edge(7, 42).
edge(23, 141).
edge(4, 52).
edge(167, 173).
edge(28, 193).
edge(27, 110).
edge(76, 196).
edge(70, 176).
edge(105, 154).
edge(87, 178).
edge(39, 154).
edge(96, 136).
edge(12, 44).
edge(65, 128).
edge(118, 122).
edge(88, 188).
edge(16, 18).
edge(123, 179).
edge(86, 128).
edge(116, 141).
edge(91, 107).
edge(107, 192).
edge(96, 162).
edge(0, 85).
edge(33, 133).
edge(163, 195).
edge(31, 184).
edge(48, 122).
edge(21, 176).
edge(169, 193).
edge(38, 111).
edge(24, 193).
edge(93, 171).
edge(65, 120).
edge(85, 153).
edge(79, 197).
edge(48, 130).
edge(52, 191).
edge(76, 185).
edge(83, 163).
edge(85, 112).
edge(11, 92).
edge(163, 185).
edge(140, 194).
edge(159, 171).
edge(32, 166).
edge(124, 159).
edge(113, 193).
edge(101, 143).
edge(63, 144).
edge(79, 176).
edge(80, 160).
edge(0, 17).
edge(87, 111).
edge(130, 170).
edge(44, 47).
edge(63, 90).
edge(77, 119).
edge(19, 64).
edge(136, 168).
edge(20, 96).
edge(165, 167).
edge(74, 101).
edge(84, 133).
edge(4, 146).
edge(44, 154).
edge(164, 170).
edge(21, 127).
edge(16, 39).
edge(4, 178).
edge(31, 163).
edge(17, 103).
edge(18, 77).
edge(97, 193).
edge(15, 69).
edge(139, 184).
edge(9, 90).
edge(16, 161).
edge(33, 43).
edge(30, 186).
edge(35, 66).
edge(77, 179).
edge(62, 112).
edge(10, 69).
edge(80, 82).
edge(144, 182).
edge(57, 65).
edge(92, 117).
edge(76, 91).
edge(136, 180).
edge(110, 168).
edge(31, 171).
edge(129, 180).
edge(151, 181).
edge(72, 148).
edge(53, 190).
edge(89, 130).
edge(30, 90).
edge(126, 149).
edge(7, 89).
edge(154, 181).
edge(27, 105).
edge(22, 80).
edge(11, 47).
edge(28, 181).
edge(91, 168).
edge(0, 50).
edge(19, 50).
edge(77, 155).
edge(10, 179).
edge(110, 140).
edge(153, 167).
edge(73, 198).
edge(51, 114).
edge(157, 181).
edge(59, 99).
edge(32, 92).
edge(93, 195).
edge(11, 194).
edge(18, 34).
edge(35, 126).
edge(41, 154).
edge(25, 144).
edge(24, 190).
edge(115, 194).
edge(77, 126).
edge(118, 158).
edge(41, 189).
edge(82, 165).
edge(10, 94).
edge(145, 149).
edge(56, 57).
edge(135, 181).
edge(8, 136).
edge(103, 193).
edge(97, 136).
edge(63, 165).
edge(15, 150).
edge(119, 195).
edge(63, 106).
edge(76, 99).
edge(80, 180).
edge(25, 49).
edge(123, 149).
edge(111, 120).
edge(90, 91).
edge(78, 198).
edge(11, 176).
edge(5, 100).
edge(61, 64).
edge(71, 146).
edge(6, 13).
edge(51, 109).
edge(58, 78).
edge(144, 155).
edge(120, 152).
edge(115, 144).
edge(68, 169).
edge(3, 183).
edge(113, 173).
edge(9, 106).
edge(48, 66).
edge(44, 139).
edge(52, 173).
edge(112, 181).
edge(142, 188).
edge(38, 182).
edge(115, 149).
edge(95, 181).
edge(117, 139).
edge(82, 87).
edge(15, 117).
edge(163, 184).
edge(140, 186).
edge(20, 60).
edge(74, 192).
edge(14, 30).
edge(89, 166).
edge(21, 194).
edge(29, 62).
edge(172, 179).
edge(117, 144).
edge(7, 35).
edge(21, 46).
edge(46, 78).
edge(156, 195).
edge(56, 91).
edge(109, 162).
edge(143, 168).
edge(40, 171).
edge(55, 166).
edge(47, 178).
edge(113, 149).
edge(1, 174).
edge(85, 145).
edge(28, 45).
edge(154, 168).
edge(108, 191).
edge(38, 92).
edge(43, 82).
edge(49, 174).
edge(12, 53).
edge(65, 151).
edge(55, 167).
edge(7, 23).
edge(67, 113).
edge(115, 160).
edge(63, 110).
edge(79, 164).
edge(167, 180).
edge(62, 66).
edge(64, 88).
edge(38, 141).
edge(145, 184).
edge(61, 133).
edge(122, 161).
edge(26, 67).
edge(39, 100).
edge(19, 132).
edge(99, 147).
edge(84, 156).
edge(143, 153).
edge(29, 173).
edge(51, 86).
edge(2, 12).
edge(33, 185).
edge(35, 134).
edge(86, 182).
edge(134, 155).
edge(22, 104).
edge(42, 160).
edge(138, 178).
edge(60, 191).
edge(96, 140).
edge(115, 176).
edge(29, 33).
edge(127, 167).
edge(55, 57).
edge(168, 175).
edge(5, 48).
edge(46, 159).
edge(154, 185).
edge(31, 101).
edge(7, 44).
edge(141, 147).
edge(186, 197).
edge(182, 184).
edge(70, 107).
edge(25, 47).
edge(2, 82).
edge(56, 137).
edge(11, 43).
edge(114, 124).
edge(16, 42).
edge(24, 99).
edge(91, 127).
edge(45, 167).
edge(76, 138).
edge(84, 116).
edge(83, 91).
edge(88, 94).
edge(89, 112).
edge(60, 86).
edge(89, 116).
edge(19, 40).
edge(17, 95).
edge(37, 165).
edge(39, 147).
edge(80, 189).
edge(46, 183).
edge(3, 6).
edge(107, 193).
edge(146, 189).
edge(105, 172).
edge(12, 194).
edge(138, 172).
edge(33, 87).
edge(24, 142).
edge(9, 134).
edge(56, 104).
edge(107, 132).
edge(35, 44).
edge(83, 194).
edge(47, 169).
edge(36, 121).
edge(83, 140).
edge(67, 164).
edge(138, 175).
edge(27, 163).
edge(26, 173).
edge(15, 85).
edge(46, 164).
edge(31, 153).
edge(75, 139).
edge(45, 168).
edge(112, 120).
edge(23, 82).
edge(43, 186).
edge(7, 81).
edge(0, 96).
edge(103, 189).
edge(40, 115).
edge(16, 187).
edge(31, 83).
edge(101, 187).
edge(45, 197).
edge(43, 70).
edge(2, 110).
edge(31, 160).
edge(100, 129).
edge(92, 95).
edge(63, 161).
edge(138, 176).
edge(112, 119).
edge(38, 130).
edge(15, 66).
edge(167, 176).
edge(3, 105).
edge(24, 25).
edge(41, 55).
edge(63, 135).
edge(43, 50).
edge(83, 172).
edge(27, 134).
edge(136, 153).
edge(27, 41).
edge(70, 102).
edge(61, 108).
edge(141, 190).
edge(34, 76).
edge(64, 151).
edge(85, 175).
edge(39, 142).
edge(92, 143).
edge(66, 146).
edge(10, 52).
edge(14, 76).
edge(29, 41).
edge(82, 91).
edge(9, 80).
edge(42, 90).
edge(83, 84).
edge(100, 148).
edge(36, 106).
edge(53, 143).
edge(18, 102).
edge(7, 160).
edge(16, 106).
edge(44, 170).
edge(143, 188).
edge(39, 186).
edge(18, 32).
edge(87, 100).
edge(25, 93).
edge(35, 136).
edge(96, 145).
edge(63, 73).
edge(118, 169).
edge(126, 172).
edge(68, 178).
edge(67, 92).
edge(131, 162).
edge(72, 168).
edge(64, 72).
edge(58, 171).
edge(65, 195).
edge(56, 89).
edge(162, 198).
edge(70, 96).
edge(47, 166).
edge(11, 177).
edge(48, 64).
edge(86, 111).
edge(33, 196).
edge(18, 79).
edge(21, 73).
edge(130, 146).
edge(15, 92).
edge(47, 167).
edge(63, 175).
edge(25, 124).
edge(141, 176).
edge(162, 195).
edge(25, 146).
edge(52, 98).
edge(99, 153).
edge(24, 139).
edge(77, 177).
edge(69, 180).
edge(78, 177).
edge(131, 175).
edge(88, 109).
edge(23, 96).
edge(106, 132).
edge(67, 98).
edge(158, 166).
edge(4, 147).
edge(51, 69).
edge(120, 132).
edge(47, 183).
edge(88, 198).
edge(135, 169).
edge(69, 164).
edge(83, 130).
edge(27, 141).
edge(13, 55).
edge(118, 179).
edge(167, 193).
edge(108, 156).
edge(59, 175).
edge(49, 83).
edge(90, 95).
edge(161, 187).
edge(56, 96).
edge(60, 66).
edge(144, 173).
edge(15, 167).
edge(110, 160).
edge(84, 187).
edge(119, 153).
edge(4, 7).
edge(0, 146).
edge(80, 83).
edge(17, 66).
edge(11, 100).
edge(80, 191).
edge(162, 172).
edge(37, 119).
edge(99, 148).
edge(102, 134).
edge(6, 59).
edge(38, 88).
edge(73, 108).
edge(190, 196).
edge(8, 157).
edge(26, 140).
edge(112, 152).
edge(97, 132).
edge(82, 163).
edge(0, 194).
edge(81, 104).
edge(123, 198).
edge(37, 176).
edge(116, 195).
edge(49, 175).
edge(33, 114).
edge(89, 96).
edge(126, 156).
edge(33, 63).
edge(56, 117).
edge(91, 188).
edge(92, 149).
edge(56, 189).
edge(43, 111).
edge(188, 191).
edge(132, 162).
edge(129, 198).
edge(3, 72).
edge(97, 146).
edge(52, 196).
edge(13, 66).
edge(39, 74).
edge(28, 164).
edge(42, 66).
edge(151, 166).
edge(17, 128).
edge(83, 151).
edge(13, 169).
edge(33, 180).
edge(11, 166).
edge(12, 87).
edge(136, 175).
edge(55, 145).
edge(39, 175).
edge(34, 173).
edge(107, 124).
edge(11, 88).
edge(24, 81).
edge(39, 191).
edge(149, 186).
edge(0, 8).
edge(86, 112).
edge(119, 193).
edge(0, 185).
edge(1, 50).
edge(68, 126).
edge(124, 148).
edge(71, 94).
edge(186, 188).
edge(32, 80).
edge(96, 198).
edge(39, 55).
edge(68, 94).
edge(94, 184).
edge(25, 147).
edge(90, 111).
edge(75, 179).
edge(34, 154).
edge(152, 161).
edge(7, 180).
edge(44, 94).
edge(104, 174).
edge(47, 122).
edge(23, 148).
edge(160, 192).
edge(7, 154).
edge(57, 84).
edge(18, 156).
edge(123, 163).
edge(14, 153).
edge(46, 50).
edge(3, 36).
edge(51, 89).
edge(10, 21).
edge(102, 178).
edge(75, 187).
edge(169, 195).
edge(157, 171).
edge(46, 75).
edge(128, 171).
edge(15, 126).
edge(33, 139).
edge(29, 124).
edge(84, 198).
edge(187, 189).
edge(32, 102).
edge(1, 58).
edge(121, 142).
edge(4, 116).
edge(36, 177).
edge(65, 124).
edge(25, 168).
edge(27, 191).
edge(133, 153).
edge(154, 182).
edge(34, 100).
edge(149, 164).
edge(44, 121).
edge(85, 135).
edge(26, 35).
edge(41, 135).
edge(53, 127).
edge(35, 194).
edge(6, 162).
edge(92, 157).
edge(17, 150).
edge(22, 37).
edge(23, 146).
edge(19, 159).
edge(165, 174).
edge(126, 158).
edge(11, 72).
edge(49, 104).
edge(53, 56).
edge(140, 198).
edge(102, 143).
edge(1, 188).
edge(110, 171).
edge(138, 183).
edge(54, 55).
edge(155, 197).
edge(102, 135).
edge(101, 150).
edge(135, 171).
edge(123, 170).
edge(21, 58).
edge(48, 103).
edge(16, 121).
edge(70, 161).
edge(74, 98).
edge(29, 134).
edge(4, 94).
edge(76, 90).
edge(6, 34).
edge(99, 154).
edge(96, 150).
edge(33, 35).
edge(40, 63).
edge(167, 175).
edge(33, 115).
edge(6, 142).
edge(15, 77).
edge(16, 25).
edge(79, 81).
edge(136, 194).
edge(3, 37).
edge(70, 77).
edge(140, 174).
edge(35, 105).
edge(51, 187).
edge(95, 132).
edge(11, 110).
edge(101, 155).
edge(83, 134).
edge(22, 198).
edge(17, 23).
edge(142, 156).
edge(66, 192).
edge(55, 71).
edge(33, 190).
edge(117, 124).
edge(7, 148).
edge(0, 148).
edge(64, 193).
edge(140, 175).
edge(77, 189).
edge(84, 177).
edge(39, 156).
edge(39, 159).
edge(95, 138).
edge(79, 121).
edge(55, 190).
edge(24, 63).
edge(136, 185).
edge(65, 178).
edge(148, 161).
edge(2, 70).
edge(144, 163).
edge(76, 193).
edge(52, 169).
edge(22, 98).
edge(152, 162).
edge(166, 178).
edge(61, 176).
edge(28, 157).
edge(71, 166).
edge(136, 178).
edge(125, 161).
edge(66, 194).
edge(62, 122).
edge(92, 106).
edge(14, 39).
edge(125, 143).
edge(31, 68).
edge(13, 53).
edge(148, 185).
edge(29, 131).
edge(4, 67).
edge(26, 45).
edge(86, 191).
edge(0, 89).
edge(62, 89).
edge(107, 156).
edge(107, 186).
edge(123, 186).
edge(2, 150).
edge(8, 83).
edge(50, 88).
edge(0, 28).
edge(141, 171).
edge(120, 182).
edge(85, 166).
edge(106, 152).
edge(67, 139).
edge(17, 129).
edge(50, 119).
edge(111, 176).
edge(22, 166).
edge(130, 160).
edge(26, 106).
edge(5, 156).
edge(116, 117).
edge(47, 172).
edge(61, 135).
edge(128, 137).
edge(74, 167).
edge(26, 155).
edge(75, 90).
edge(2, 198).
edge(31, 74).
edge(161, 196).
edge(44, 57).
edge(75, 108).
edge(42, 62).
edge(17, 43).
edge(10, 61).
edge(36, 76).
edge(33, 103).
edge(3, 21).
edge(21, 156).
edge(76, 83).
edge(72, 172).
edge(24, 188).
edge(32, 184).
edge(29, 164).
edge(11, 198).
edge(32, 36).
edge(55, 174).
edge(140, 164).
edge(69, 116).
edge(44, 88).
edge(39, 59).
edge(31, 51).
edge(32, 177).
edge(36, 118).
edge(2, 33).
edge(180, 194).
edge(46, 111).
edge(13, 192).
edge(77, 150).
edge(80, 169).
edge(65, 143).
edge(49, 52).
edge(38, 87).
edge(39, 76).
edge(40, 97).
edge(121, 148).
edge(99, 196).
edge(25, 161).
edge(132, 135).
edge(19, 193).
edge(118, 183).
edge(108, 143).
edge(46, 173).
edge(122, 134).
edge(69, 117).
edge(149, 167).
edge(9, 175).
edge(70, 167).
edge(68, 182).
edge(58, 116).
edge(99, 175).
edge(16, 40).
edge(57, 61).
edge(19, 161).
edge(79, 163).
edge(2, 117).
edge(71, 87).
edge(16, 145).
edge(109, 156).
edge(39, 95).
edge(59, 139).
edge(8, 169).
edge(180, 189).
edge(0, 57).
edge(96, 134).
edge(192, 196).
edge(111, 121).
edge(31, 63).
edge(0, 41).
edge(40, 44).
edge(42, 189).
edge(122, 195).
edge(41, 77).
edge(2, 191).
edge(146, 167).
edge(28, 108).
edge(135, 167).
edge(54, 180).
edge(126, 177).
edge(90, 176).
edge(34, 86).
edge(25, 83).
edge(90, 168).
edge(52, 174).
edge(69, 130).
edge(127, 130).
edge(26, 52).
edge(8, 22).
edge(98, 108).
edge(126, 135).
edge(102, 144).
edge(48, 61).
edge(69, 142).
edge(29, 83).
edge(63, 124).
edge(94, 152).
edge(125, 198).
edge(76, 110).
edge(88, 112).
edge(79, 158).
edge(6, 104).
edge(52, 140).
edge(129, 185).
edge(95, 193).
edge(3, 4).
edge(157, 177).
edge(4, 60).
edge(57, 129).
edge(71, 192).
edge(18, 29).
edge(78, 128).
edge(4, 186).
edge(49, 123).
edge(107, 115).
edge(53, 187).
edge(67, 182).
edge(163, 183).
edge(23, 176).
edge(46, 127).
edge(10, 146).
edge(25, 195).
edge(149, 198).
edge(60, 117).
edge(70, 194).
edge(9, 181).
edge(24, 41).
edge(22, 25).
edge(100, 114).
edge(105, 117).
edge(52, 136).
edge(119, 187).
edge(51, 105).
edge(80, 127).
edge(125, 176).
edge(126, 144).
edge(30, 149).
edge(8, 110).
edge(109, 148).
edge(159, 167).
edge(79, 110).
edge(141, 162).
edge(13, 17).
edge(147, 180).
edge(121, 123).
edge(142, 182).
edge(85, 189).
edge(133, 163).
edge(84, 188).
edge(51, 198).
edge(7, 26).
edge(61, 141).
edge(133, 140).
edge(27, 132).
edge(7, 133).
edge(73, 167).
edge(14, 64).
edge(105, 132).
edge(40, 161).
edge(7, 188).
edge(108, 186).
edge(51, 112).
edge(33, 67).
edge(93, 137).
edge(96, 127).
edge(18, 173).
edge(94, 185).
edge(1, 23).
edge(58, 120).
edge(100, 151).
edge(136, 188).
edge(46, 137).
edge(138, 156).
edge(64, 164).
edge(55, 64).
edge(55, 58).
edge(112, 138).
edge(53, 65).
edge(35, 121).
edge(186, 187).
edge(8, 47).
edge(58, 103).
edge(73, 174).
edge(25, 113).
edge(45, 169).
edge(71, 158).
edge(27, 102).
edge(39, 48).
edge(62, 87).
edge(70, 112).
edge(57, 70).
edge(98, 102).
edge(116, 127).
edge(25, 46).
edge(63, 141).
edge(114, 131).
edge(120, 156).
edge(33, 54).
edge(18, 80).
edge(130, 181).
edge(50, 152).
edge(38, 169).
edge(84, 99).
edge(33, 153).
edge(185, 192).
edge(44, 70).
edge(107, 119).
edge(10, 68).
edge(49, 103).
edge(101, 106).
edge(81, 116).
edge(97, 143).
edge(67, 121).
edge(25, 109).
edge(41, 192).
edge(20, 66).
edge(2, 89).
edge(10, 120).
edge(38, 51).
edge(92, 165).
edge(8, 97).
edge(90, 178).
edge(95, 162).
edge(43, 181).
edge(34, 161).
edge(62, 65).
edge(39, 129).
edge(103, 160).
edge(18, 87).
edge(1, 149).
edge(74, 140).
edge(36, 164).
edge(156, 187).
edge(112, 113).
edge(12, 171).
edge(100, 150).
edge(96, 157).
edge(4, 50).
edge(172, 196).
edge(138, 198).
edge(132, 190).
edge(30, 94).
edge(75, 136).
edge(9, 143).
edge(30, 43).
edge(16, 32).
edge(64, 137).
edge(53, 93).
edge(20, 41).
edge(4, 75).
edge(134, 140).
edge(148, 155).
edge(47, 138).
edge(43, 157).
edge(143, 189).
edge(8, 53).
edge(18, 111).
edge(22, 160).
edge(30, 189).
edge(84, 161).
edge(168, 172).
edge(89, 179).
edge(59, 61).
edge(10, 183).
edge(6, 53).
edge(84, 152).
edge(46, 67).
edge(19, 80).
edge(136, 149).
edge(129, 192).
edge(37, 178).
edge(41, 124).
edge(14, 27).
edge(79, 157).
edge(134, 152).
edge(21, 113).
edge(111, 129).
edge(22, 111).
edge(21, 55).
edge(12, 102).
edge(23, 27).
edge(30, 86).
edge(71, 92).
edge(45, 155).
edge(1, 159).
edge(106, 188).
edge(44, 60).
edge(142, 165).
edge(23, 186).
edge(138, 194).
edge(23, 47).
edge(64, 196).
edge(62, 64).
edge(82, 140).
edge(17, 120).
edge(30, 113).
edge(40, 120).
edge(8, 137).
edge(15, 177).
edge(125, 141).
edge(16, 190).
edge(10, 59).
edge(38, 137).
edge(87, 166).
edge(104, 153).
edge(12, 107).
edge(100, 184).
edge(138, 141).
edge(22, 47).
edge(15, 125).
edge(67, 158).
edge(97, 198).
edge(44, 108).
edge(58, 87).
edge(16, 166).
edge(75, 93).
edge(147, 156).
edge(0, 168).
edge(78, 150).
edge(35, 83).
edge(0, 135).
edge(99, 125).
edge(98, 134).
edge(51, 135).
edge(79, 102).
edge(144, 146).
edge(188, 194).
edge(95, 182).
edge(130, 144).
edge(67, 161).
edge(92, 118).
edge(133, 146).
edge(61, 152).
edge(67, 143).
edge(11, 20).
edge(34, 133).
edge(17, 78).
edge(71, 133).
edge(74, 145).
edge(75, 194).
edge(115, 182).
edge(28, 163).
edge(83, 156).
edge(8, 64).
edge(61, 69).
edge(76, 130).
edge(122, 145).
edge(4, 170).
edge(133, 145).
edge(3, 50).
edge(140, 154).
edge(76, 129).
edge(49, 131).
edge(12, 138).
edge(146, 149).
edge(16, 75).
edge(188, 195).
edge(158, 175).
edge(38, 132).
edge(20, 87).
edge(89, 145).
edge(37, 87).
edge(64, 69).
edge(14, 56).
edge(15, 186).
edge(75, 193).
edge(13, 63).
edge(22, 169).
edge(20, 118).
edge(44, 96).
edge(5, 111).
edge(66, 107).
edge(61, 151).
edge(22, 89).
edge(45, 159).
edge(8, 30).
edge(57, 195).
edge(35, 191).
edge(6, 108).
edge(126, 164).
edge(12, 130).
edge(100, 166).
edge(10, 176).
edge(183, 191).
edge(33, 142).
edge(4, 76).
edge(165, 176).
edge(75, 105).
edge(23, 51).
edge(21, 24).
edge(18, 62).
edge(15, 165).
edge(15, 23).
edge(9, 190).
edge(78, 123).
edge(53, 121).
edge(8, 57).
edge(54, 181).
edge(114, 115).
edge(19, 197).
edge(110, 176).
edge(134, 160).
edge(22, 196).
edge(125, 129).
edge(110, 121).
edge(64, 172).
edge(118, 161).
edge(29, 198).
edge(26, 46).
edge(36, 174).
edge(71, 132).
edge(7, 155).
edge(40, 45).
edge(141, 152).
edge(48, 49).
edge(9, 176).
edge(12, 35).
edge(129, 174).
edge(29, 128).
edge(104, 193).
edge(40, 151).
edge(3, 141).
edge(138, 196).
edge(47, 143).
edge(101, 149).
edge(135, 157).
edge(167, 174).
edge(20, 82).
edge(20, 78).
edge(49, 196).
edge(112, 117).
edge(12, 161).
edge(179, 186).
edge(127, 194).
edge(89, 178).
edge(51, 121).
edge(124, 192).
edge(7, 76).
edge(99, 111).
edge(117, 176).
edge(120, 143).
edge(3, 113).
edge(91, 166).
edge(85, 177).
edge(8, 99).
edge(105, 135).
edge(133, 189).
edge(29, 37).
edge(29, 192).
edge(14, 19).
edge(94, 132).
edge(95, 98).
edge(6, 9).
edge(57, 85).
edge(30, 147).
edge(119, 185).
edge(128, 183).
edge(69, 160).
edge(73, 195).
edge(96, 173).
edge(33, 156).
edge(42, 49).
edge(14, 123).
edge(56, 108).
edge(61, 94).
edge(12, 61).
edge(55, 197).
edge(54, 123).
edge(140, 192).
edge(77, 89).
edge(44, 131).
edge(121, 145).
edge(8, 141).
edge(24, 191).
edge(89, 109).
edge(128, 132).
edge(28, 177).
edge(94, 192).
edge(87, 108).
edge(82, 176).
edge(35, 128).
edge(49, 50).
edge(75, 190).
edge(14, 25).
edge(122, 172).
edge(71, 175).
edge(124, 157).
edge(20, 130).
edge(136, 148).
edge(15, 105).
edge(132, 141).
edge(28, 111).
edge(44, 84).
edge(37, 61).
edge(74, 188).
edge(114, 175).
edge(95, 150).
edge(22, 70).
edge(30, 167).
edge(90, 93).
edge(23, 98).
edge(62, 189).
weight(0, 11).
weight(1, 6).
weight(2, 7).
weight(3, 7).
weight(4, 2).
weight(5, 10).
weight(6, 2).
weight(7, 7).
weight(8, 2).
weight(9, 8).
weight(10, 2).
weight(11, 2).
weight(12, 4).
weight(13, 7).
weight(14, 2).
weight(15, 5).
weight(16, 4).
weight(17, 11).
weight(18, 1).
weight(19, 10).
weight(20, 2).
weight(21, 10).
weight(22, 8).
weight(23, 10).
weight(24, 6).
weight(25, 8).
weight(26, 8).
weight(27, 3).
weight(28, 1).
weight(29, 7).
weight(30, 10).
weight(31, 11).
weight(32, 8).
weight(33, 9).
weight(34, 8).
weight(35, 11).
weight(36, 6).
weight(37, 3).
weight(38, 4).
weight(39, 6).
weight(40, 5).
weight(41, 1).
weight(42, 11).
weight(43, 2).
weight(44, 5).
weight(45, 6).
weight(46, 4).
weight(47, 8).
weight(48, 3).
weight(49, 3).
weight(50, 7).
weight(51, 3).
weight(52, 10).
weight(53, 10).
weight(54, 2).
weight(55, 7).
weight(56, 5).
weight(57, 8).
weight(58, 7).
weight(59, 3).
weight(60, 5).
weight(61, 4).
weight(62, 6).
weight(63, 4).
weight(64, 9).
weight(65, 2).
weight(66, 6).
weight(67, 1).
weight(68, 4).
weight(69, 1).
weight(70, 1).
weight(71, 3).
weight(72, 3).
weight(73, 2).
weight(74, 5).
weight(75, 3).
weight(76, 5).
weight(77, 6).
weight(78, 9).
weight(79, 7).
weight(80, 7).
weight(81, 3).
weight(82, 6).
weight(83, 11).
weight(84, 7).
weight(85, 4).
weight(86, 9).
weight(87, 2).
weight(88, 6).
weight(89, 1).
weight(90, 1).
weight(91, 11).
weight(92, 10).
weight(93, 3).
weight(94, 4).
weight(95, 5).
weight(96, 9).
weight(97, 2).
weight(98, 11).
weight(99, 10).
weight(100, 8).
weight(101, 3).
weight(102, 10).
weight(103, 3).
weight(104, 8).
weight(105, 1).
weight(106, 2).
weight(107, 10).
weight(108, 3).
weight(109, 6).
weight(110, 3).
weight(111, 6).
weight(112, 2).
weight(113, 10).
weight(114, 6).
weight(115, 11).
weight(116, 5).
weight(117, 4).
weight(118, 6).
weight(119, 10).
weight(120, 9).
weight(121, 5).
weight(122, 6).
weight(123, 10).
weight(124, 7).
weight(125, 5).
weight(126, 5).
weight(127, 8).
weight(128, 1).
weight(129, 3).
weight(130, 2).
weight(131, 3).
weight(132, 3).
weight(133, 9).
weight(134, 8).
weight(135, 3).
weight(136, 1).
weight(137, 8).
weight(138, 10).
weight(139, 3).
weight(140, 2).
weight(141, 1).
weight(142, 7).
weight(143, 3).
weight(144, 8).
weight(145, 1).
weight(146, 4).
weight(147, 2).
weight(148, 10).
weight(149, 11).
weight(150, 5).
weight(151, 2).
weight(152, 5).
weight(153, 10).
weight(154, 11).
weight(155, 3).
weight(156, 5).
weight(157, 5).
weight(158, 10).
weight(159, 4).
weight(160, 6).
weight(161, 8).
weight(162, 8).
weight(163, 5).
weight(164, 1).
weight(165, 2).
weight(166, 6).
weight(167, 9).
weight(168, 8).
weight(169, 11).
weight(170, 5).
weight(171, 7).
weight(172, 2).
weight(173, 11).
weight(174, 3).
weight(175, 3).
weight(176, 1).
weight(177, 4).
weight(178, 9).
weight(179, 8).
weight(180, 2).
weight(181, 9).
weight(182, 7).
weight(183, 1).
weight(184, 1).
weight(185, 5).
weight(186, 5).
weight(187, 5).
weight(188, 9).
weight(189, 5).
weight(190, 8).
weight(191, 6).
weight(192, 3).
weight(193, 3).
weight(194, 8).
weight(195, 1).
weight(196, 1).
weight(197, 11).
weight(198, 10).
bound(132).

adj(U,V) :- edge(U,V).
adj(U,V) :- edge(V,U).
{in(V)} :- node(V).
dominated(V) :- in(V).
dominated(V) :- in(U), adj(U,V).
:- node(V), not dominated(V).
:- bound(B), #sum{W,V : in(V), weight(V,W)} > B.
:~ in(V), weight(V,W). [W@1,V]
