node(0..177).
edge(18, 98).
edge(63, 132).
edge(17, 61).
edge(78, 99).
edge(131, 133).
edge(16, 36).
edge(80, 96).
edge(2, 164).
edge(26, 140).
edge(31, 54).
edge(24, 100).
edge(25, 48).
edge(121, 141).
edge(75, 147).
edge(7, 138).
edge(72, 152).
edge(140, 150).
edge(81, 116).
edge(50, 119).
edge(50, 158).
edge(16, 103).
edge(51, 163).
edge(110, 134).
edge(53, 162).
edge(19, 80).
edge(112, 126).
edge(119, 136).
edge(25, 146).
edge(9, 93).
edge(39, 87).
edge(104, 129).
edge(45, 123).
edge(57, 67).
edge(71, 107).
edge(13, 166).
edge(67, 83).
edge(54, 126).
edge(1, 92).
edge(108, 163).
edge(26, 58).
edge(76, 84).
edge(22, 173).
edge(8, 151).
edge(21, 162).
edge(81, 129).
edge(91, 126).
edge(38, 147).
edge(79, 88).
edge(125, 127).
edge(76, 105).
edge(50, 160).
edge(9, 123).
edge(102, 149).
edge(21, 117).
edge(56, 135).
edge(90, 104).
edge(87, 114).
edge(88, 129).
edge(44, 111).
edge(9, 161).
edge(77, 137).
edge(41, 174).
edge(159, 165).
edge(37, 67).
edge(15, 19).
edge(19, 148).
edge(55, 73).
edge(74, 143).
edge(51, 167).
edge(143, 166).
edge(51, 114).
edge(54, 96).
edge(90, 128).
edge(42, 150).
edge(34, 113).
edge(59, 171).
edge(111, 120).
edge(131, 144).
edge(56, 128).
edge(88, 137).
edge(73, 106).
edge(111, 117).
edge(61, 113).
edge(82, 165).
edge(44, 168).
edge(78, 149).
edge(27, 62).
edge(9, 143).
edge(29, 160).
edge(66, 89).
edge(7, 120).
edge(20, 162).
edge(67, 153).
edge(25, 168).
edge(51, 70).
edge(52, 55).
edge(37, 95).
edge(51, 71).
edge(86, 127).
edge(98, 114).
edge(62, 87).
edge(82, 157).
edge(82, 172).
edge(94, 120).
edge(107, 109).
edge(110, 148).
edge(28, 98).
edge(10, 138).
edge(51, 139).
edge(7, 115).
edge(165, 171).
edge(54, 107).
edge(12, 107).
edge(6, 131).
edge(148, 164).
edge(52, 117).
edge(10, 39).
edge(0, 25).
edge(70, 97).
edge(84, 100).
edge(12, 44).
edge(48, 62).
edge(75, 135).
edge(39, 54).
edge(6, 130).
edge(13, 108).
edge(22, 126).
edge(46, 165).
edge(17, 155).
edge(28, 116).
edge(60, 88).
edge(37, 93).
edge(72, 79).
edge(40, 171).
edge(76, 92).
edge(36, 95).
edge(29, 136).
edge(34, 65).
edge(77, 78).
edge(10, 136).
edge(98, 145).
edge(9, 150).
edge(33, 161).
edge(21, 155).
edge(115, 170).
edge(61, 115).
edge(81, 121).
edge(4, 70).
edge(156, 173).
edge(20, 60).
edge(7, 30).
edge(15, 126).
edge(40, 133).
edge(93, 174).
edge(59, 134).
edge(39, 64).
edge(100, 112).
edge(30, 110).
edge(28, 49).
edge(43, 76).
edge(102, 114).
edge(95, 127).
edge(44, 104).
edge(26, 30).
edge(112, 165).
edge(51, 130).
edge(59, 108).
edge(105, 122).
edge(119, 123).
edge(80, 93).
edge(101, 115).
edge(67, 146).
edge(132, 166).
edge(54, 166).
edge(12, 22).
edge(116, 140).
edge(9, 176).
edge(46, 82).
edge(70, 117).
edge(26, 119).
edge(12, 41).
edge(119, 142).
edge(80, 119).
edge(102, 104).
edge(25, 69).
edge(22, 39).
edge(1, 48).
edge(33, 85).
edge(87, 171).
edge(38, 141).
edge(127, 151).
edge(128, 169).
edge(92, 126).
edge(85, 142).
edge(67, 106).
edge(84, 133).
edge(54, 115).
edge(71, 104).
edge(66, 95).
edge(55, 167).
edge(10, 144).
edge(4, 17).
edge(30, 113).
edge(108, 170).
edge(54, 64).
edge(51, 125).
edge(29, 170).
edge(115, 119).
edge(169, 170).
edge(75, 86).
edge(58, 105).
edge(54, 176).
edge(26, 68).
edge(16, 75).
edge(11, 166).
edge(7, 85).
edge(74, 163).
edge(62, 153).
edge(32, 150).
edge(76, 139).
edge(135, 169).
edge(23, 145).
edge(31, 70).
edge(116, 174).
edge(49, 84).
edge(42, 87).
edge(81, 124).
edge(12, 115).
edge(43, 77).
edge(29, 165).
edge(83, 117).
edge(94, 172).
edge(116, 173).
edge(79, 124).
edge(128, 162).
edge(21, 47).
edge(74, 108).
edge(13, 132).
edge(30, 123).
edge(29, 159).
edge(34, 69).
edge(59, 144).
edge(34, 175).
edge(7, 82).
edge(2, 15).
edge(33, 158).
edge(110, 118).
edge(42, 112).
edge(123, 150).
edge(50, 157).
edge(27, 170).
edge(102, 126).
edge(22, 87).
edge(64, 76).
edge(60, 91).
edge(29, 78).
edge(29, 107).
edge(35, 113).
edge(20, 98).
edge(0, 102).
edge(8, 116).
edge(109, 154).
edge(69, 171).
edge(35, 96).
edge(18, 22).
edge(31, 45).
edge(42, 139).
edge(17, 72).
edge(25, 109).
edge(81, 157).
edge(61, 116).
edge(142, 172).
edge(28, 89).
edge(24, 132).
edge(9, 102).
edge(41, 52).
edge(122, 133).
edge(56, 73).
edge(123, 129).
edge(44, 98).
edge(22, 86).
edge(4, 38).
edge(14, 146).
edge(7, 128).
edge(50, 154).
edge(156, 158).
edge(29, 62).
edge(89, 164).
edge(91, 137).
edge(93, 97).
edge(26, 155).
edge(35, 165).
edge(56, 88).
edge(15, 41).
edge(116, 118).
edge(114, 136).
edge(93, 176).
edge(19, 69).
edge(68, 69).
edge(46, 123).
edge(75, 176).
edge(95, 167).
edge(67, 97).
edge(3, 37).
edge(87, 153).
edge(37, 118).
edge(6, 173).
edge(114, 137).
edge(60, 102).
edge(44, 134).
edge(119, 152).
edge(15, 127).
edge(74, 127).
edge(55, 97).
edge(20, 99).
edge(89, 144).
edge(11, 20).
edge(98, 124).
edge(45, 70).
edge(8, 176).
edge(117, 123).
edge(23, 82).
edge(2, 28).
edge(36, 76).
edge(20, 123).
edge(110, 120).
edge(37, 148).
edge(91, 156).
edge(51, 159).
edge(20, 100).
edge(65, 137).
edge(44, 87).
edge(50, 167).
edge(30, 115).
edge(76, 176).
edge(33, 118).
edge(62, 127).
edge(42, 115).
edge(102, 124).
edge(67, 152).
edge(155, 175).
edge(2, 173).
edge(154, 167).
edge(69, 131).
edge(20, 147).
edge(27, 149).
edge(10, 42).
edge(17, 149).
edge(77, 112).
edge(47, 155).
edge(144, 145).
edge(52, 85).
edge(43, 104).
edge(14, 64).
edge(51, 88).
edge(45, 122).
edge(71, 115).
edge(69, 163).
edge(73, 132).
edge(57, 123).
edge(19, 142).
edge(105, 133).
edge(52, 119).
edge(55, 122).
edge(28, 157).
edge(51, 137).
edge(54, 111).
edge(134, 173).
edge(12, 79).
edge(140, 154).
edge(102, 144).
edge(22, 53).
edge(22, 38).
edge(2, 5).
edge(118, 167).
edge(18, 155).
edge(51, 76).
edge(22, 35).
edge(129, 160).
edge(155, 158).
edge(72, 138).
edge(38, 172).
edge(68, 139).
edge(124, 163).
edge(25, 174).
edge(57, 59).
edge(100, 161).
edge(36, 80).
edge(8, 145).
edge(142, 151).
edge(37, 140).
edge(55, 90).
edge(29, 156).
edge(57, 85).
edge(147, 171).
edge(107, 143).
edge(43, 45).
edge(87, 89).
edge(72, 129).
edge(85, 101).
edge(30, 175).
edge(54, 131).
edge(111, 159).
edge(59, 135).
edge(33, 49).
edge(32, 167).
edge(107, 134).
edge(34, 123).
edge(14, 54).
edge(58, 138).
edge(75, 114).
edge(38, 113).
edge(36, 147).
edge(34, 160).
edge(16, 132).
edge(50, 143).
edge(102, 113).
edge(82, 161).
edge(7, 63).
edge(11, 144).
edge(0, 7).
edge(116, 165).
edge(52, 126).
edge(77, 149).
edge(43, 114).
edge(107, 110).
edge(58, 134).
edge(119, 129).
edge(39, 89).
edge(5, 126).
edge(13, 122).
edge(88, 176).
edge(116, 147).
edge(22, 44).
edge(25, 93).
edge(8, 99).
edge(41, 130).
edge(97, 123).
edge(36, 69).
edge(71, 92).
edge(75, 119).
edge(50, 166).
edge(57, 119).
edge(55, 150).
edge(52, 86).
edge(44, 147).
edge(64, 111).
edge(96, 109).
edge(16, 133).
edge(48, 176).
edge(41, 160).
edge(58, 106).
edge(22, 37).
edge(164, 169).
edge(81, 123).
edge(64, 157).
edge(40, 107).
edge(134, 140).
edge(47, 63).
edge(88, 166).
edge(3, 164).
edge(121, 149).
edge(16, 40).
edge(69, 128).
edge(33, 163).
edge(23, 139).
edge(0, 142).
edge(131, 145).
edge(30, 107).
edge(73, 90).
edge(9, 154).
edge(90, 93).
edge(40, 65).
edge(45, 56).
edge(24, 41).
edge(65, 167).
edge(8, 148).
edge(40, 120).
edge(77, 133).
edge(19, 36).
edge(75, 109).
edge(151, 163).
edge(45, 139).
edge(142, 175).
edge(27, 47).
edge(11, 116).
edge(27, 106).
edge(163, 166).
edge(86, 161).
edge(109, 111).
edge(61, 157).
edge(13, 22).
edge(121, 142).
edge(90, 162).
edge(77, 165).
edge(5, 141).
edge(63, 172).
edge(72, 73).
edge(11, 32).
edge(33, 145).
edge(119, 132).
edge(86, 128).
edge(29, 80).
edge(19, 77).
edge(95, 122).
edge(130, 141).
edge(82, 176).
edge(42, 169).
edge(11, 175).
edge(0, 68).
edge(45, 153).
edge(51, 147).
edge(72, 148).
edge(0, 79).
edge(51, 55).
edge(84, 88).
edge(52, 137).
edge(88, 114).
edge(70, 99).
edge(88, 121).
edge(102, 170).
edge(111, 173).
edge(93, 160).
edge(34, 90).
edge(38, 159).
edge(152, 157).
edge(89, 136).
edge(64, 65).
edge(104, 172).
edge(132, 146).
edge(96, 105).
edge(97, 167).
edge(18, 133).
edge(49, 88).
edge(137, 146).
edge(4, 19).
edge(22, 63).
edge(98, 164).
edge(60, 73).
edge(128, 140).
edge(72, 144).
edge(50, 82).
edge(61, 170).
edge(89, 130).
edge(52, 75).
edge(57, 158).
edge(86, 173).
edge(3, 105).
edge(73, 92).
edge(85, 174).
edge(72, 168).
edge(12, 53).
edge(143, 153).
edge(35, 61).
edge(28, 146).
edge(46, 125).
edge(8, 62).
edge(150, 157).
edge(56, 66).
edge(113, 123).
edge(171, 173).
edge(42, 129).
edge(56, 85).
edge(49, 142).
edge(87, 158).
edge(54, 156).
edge(127, 163).
edge(1, 158).
edge(13, 123).
edge(78, 103).
edge(1, 115).
edge(78, 90).
edge(75, 102).
edge(83, 101).
edge(67, 95).
edge(74, 160).
edge(113, 114).
edge(69, 89).
edge(75, 165).
edge(34, 51).
edge(49, 55).
edge(105, 109).
edge(82, 177).
edge(100, 124).
edge(43, 70).
edge(69, 85).
edge(14, 162).
edge(49, 117).
edge(1, 148).
edge(15, 38).
edge(19, 42).
edge(8, 88).
edge(85, 171).
edge(14, 29).
edge(43, 120).
edge(23, 119).
edge(74, 95).
edge(91, 107).
edge(77, 136).
edge(92, 155).
edge(41, 144).
edge(136, 147).
edge(93, 145).
edge(35, 51).
edge(37, 65).
edge(57, 106).
edge(2, 114).
edge(77, 99).
edge(14, 23).
edge(128, 150).
edge(88, 168).
edge(12, 30).
edge(123, 155).
edge(53, 111).
edge(9, 33).
edge(47, 110).
edge(44, 92).
edge(130, 131).
edge(53, 122).
edge(162, 164).
edge(111, 133).
edge(0, 170).
edge(161, 165).
edge(49, 102).
edge(42, 168).
edge(41, 63).
edge(3, 120).
edge(81, 136).
edge(13, 93).
edge(53, 96).
edge(59, 94).
edge(65, 127).
edge(23, 166).
edge(53, 129).
edge(85, 162).
edge(21, 176).
edge(14, 30).
edge(119, 173).
edge(86, 134).
edge(144, 162).
edge(15, 50).
edge(31, 36).
edge(96, 125).
edge(49, 76).
edge(128, 153).
edge(79, 148).
edge(34, 88).
edge(33, 52).
edge(0, 130).
edge(2, 132).
edge(21, 32).
edge(11, 95).
edge(18, 135).
edge(158, 174).
edge(2, 175).
edge(130, 160).
edge(69, 78).
edge(72, 165).
edge(55, 115).
edge(12, 85).
edge(37, 97).
edge(127, 155).
edge(50, 117).
edge(120, 155).
edge(75, 163).
edge(126, 144).
edge(85, 175).
edge(87, 172).
edge(156, 160).
edge(50, 81).
edge(73, 81).
edge(17, 139).
edge(46, 150).
edge(114, 125).
edge(138, 141).
edge(89, 158).
edge(39, 142).
edge(27, 129).
edge(70, 154).
edge(92, 142).
edge(55, 67).
edge(45, 76).
edge(15, 141).
edge(5, 22).
edge(19, 161).
edge(14, 69).
edge(10, 153).
edge(154, 176).
edge(121, 152).
edge(29, 132).
edge(56, 99).
edge(112, 151).
edge(55, 162).
edge(18, 100).
edge(95, 155).
edge(28, 115).
edge(14, 169).
edge(66, 126).
edge(55, 132).
edge(82, 144).
edge(80, 90).
edge(13, 45).
edge(55, 58).
edge(22, 137).
edge(39, 130).
edge(27, 128).
edge(36, 137).
edge(49, 53).
edge(60, 165).
edge(42, 146).
edge(4, 133).
edge(46, 84).
edge(41, 71).
edge(45, 81).
edge(17, 97).
edge(70, 80).
edge(67, 172).
edge(57, 152).
edge(30, 88).
edge(30, 69).
edge(5, 173).
edge(16, 170).
edge(39, 102).
edge(56, 134).
edge(33, 160).
edge(92, 132).
edge(101, 148).
edge(52, 56).
edge(13, 83).
edge(114, 116).
edge(54, 148).
edge(82, 149).
edge(8, 101).
edge(40, 97).
edge(31, 38).
edge(5, 146).
edge(154, 169).
edge(124, 130).
edge(161, 175).
edge(64, 131).
edge(66, 160).
edge(88, 111).
edge(30, 122).
edge(18, 56).
edge(141, 151).
edge(10, 50).
edge(30, 158).
edge(112, 121).
edge(163, 176).
edge(30, 172).
edge(1, 86).
edge(51, 83).
edge(70, 160).
edge(33, 142).
edge(33, 139).
edge(80, 150).
edge(40, 85).
edge(90, 163).
edge(31, 64).
edge(69, 99).
edge(24, 81).
edge(123, 163).
edge(20, 175).
edge(113, 129).
edge(108, 168).
edge(68, 163).
edge(6, 83).
edge(8, 110).
edge(30, 135).
edge(19, 37).
edge(93, 161).
edge(5, 106).
edge(7, 28).
edge(136, 152).
edge(55, 123).
edge(51, 141).
edge(75, 138).
edge(12, 174).
edge(19, 41).
edge(6, 43).
edge(153, 172).
edge(26, 79).
edge(118, 139).
edge(64, 128).
edge(36, 50).
edge(73, 124).
edge(25, 135).
edge(54, 88).
edge(59, 60).
edge(4, 60).
edge(10, 89).
edge(62, 149).
edge(120, 131).
edge(125, 170).
edge(138, 151).
edge(11, 54).
edge(87, 160).
edge(1, 155).
edge(47, 114).
edge(97, 104).
edge(77, 153).
edge(112, 177).
edge(11, 64).
edge(1, 76).
edge(12, 75).
edge(89, 110).
edge(6, 75).
edge(11, 77).
edge(66, 104).
edge(26, 63).
edge(102, 148).
edge(14, 81).
edge(40, 147).
edge(93, 110).
edge(54, 147).
edge(64, 154).
edge(75, 96).
edge(81, 125).
edge(64, 155).
edge(9, 19).
edge(56, 102).
edge(63, 91).
edge(20, 149).
edge(1, 70).
edge(54, 61).
edge(48, 104).
edge(18, 130).
edge(90, 146).
edge(62, 146).
edge(111, 152).
edge(71, 158).
edge(39, 45).
edge(32, 36).
edge(18, 131).
edge(5, 165).
edge(31, 142).
edge(83, 129).
edge(45, 77).
edge(15, 116).
edge(36, 102).
edge(6, 68).
edge(111, 174).
edge(35, 68).
edge(46, 68).
edge(18, 86).
edge(90, 100).
edge(111, 118).
edge(98, 106).
edge(36, 106).
edge(58, 80).
edge(61, 156).
edge(105, 163).
edge(37, 130).
edge(29, 164).
edge(19, 135).
edge(61, 112).
edge(31, 119).
edge(79, 103).
edge(128, 176).
edge(83, 96).
edge(12, 112).
edge(42, 88).
edge(45, 65).
edge(8, 102).
edge(129, 173).
edge(3, 27).
edge(65, 79).
edge(8, 35).
edge(68, 134).
edge(0, 16).
edge(62, 150).
edge(94, 163).
edge(142, 169).
edge(52, 124).
edge(9, 87).
edge(20, 35).
edge(76, 98).
edge(46, 57).
edge(60, 174).
edge(38, 137).
edge(16, 51).
edge(155, 167).
edge(21, 135).
edge(18, 138).
edge(13, 165).
edge(146, 160).
edge(114, 148).
edge(11, 97).
edge(16, 35).
edge(123, 138).
edge(52, 139).
edge(88, 101).
edge(4, 51).
edge(53, 67).
edge(4, 94).
edge(91, 165).
edge(17, 92).
edge(72, 110).
edge(133, 144).
edge(36, 67).
edge(143, 148).
edge(78, 85).
edge(163, 174).
edge(3, 26).
edge(122, 160).
edge(12, 162).
edge(76, 143).
edge(12, 142).
edge(8, 133).
edge(122, 127).
edge(80, 131).
edge(129, 159).
edge(41, 75).
edge(4, 26).
edge(153, 157).
edge(48, 97).
edge(124, 161).
edge(46, 140).
edge(51, 89).
edge(89, 135).
edge(16, 160).
edge(54, 73).
edge(91, 108).
edge(33, 151).
edge(59, 81).
edge(102, 155).
edge(17, 121).
edge(59, 158).
edge(45, 97).
edge(16, 49).
edge(44, 59).
edge(8, 72).
edge(75, 143).
edge(2, 37).
edge(81, 110).
edge(87, 90).
edge(60, 129).
edge(4, 72).
edge(34, 166).
edge(46, 98).
edge(35, 97).
edge(92, 109).
edge(26, 108).
edge(54, 55).
edge(87, 148).
edge(140, 152).
edge(18, 147).
edge(0, 83).
edge(36, 108).
edge(18, 74).
edge(80, 86).
edge(45, 50).
edge(90, 96).
edge(43, 106).
edge(9, 164).
edge(104, 134).
edge(121, 144).
edge(5, 120).
edge(33, 117).
edge(42, 119).
edge(18, 120).
edge(87, 120).
edge(103, 126).
edge(16, 58).
edge(21, 131).
edge(151, 156).
edge(9, 119).
edge(70, 153).
edge(21, 59).
edge(20, 107).
edge(41, 150).
edge(11, 112).
edge(32, 57).
edge(34, 59).
edge(87, 128).
edge(5, 96).
edge(118, 143).
edge(41, 177).
edge(28, 135).
edge(31, 138).
edge(145, 156).
edge(75, 140).
edge(18, 115).
edge(140, 144).
edge(75, 84).
edge(113, 144).
edge(55, 120).
edge(33, 149).
edge(137, 144).
edge(70, 145).
edge(32, 154).
edge(7, 36).
edge(111, 144).
edge(45, 134).
edge(12, 106).
edge(99, 156).
edge(172, 175).
edge(24, 92).
edge(15, 40).
edge(102, 132).
edge(66, 69).
edge(10, 70).
edge(111, 136).
edge(40, 104).
edge(18, 82).
edge(1, 60).
edge(101, 132).
edge(111, 147).
edge(160, 175).
edge(58, 135).
edge(2, 76).
edge(12, 129).
edge(83, 161).
edge(77, 129).
edge(35, 124).
edge(26, 55).
edge(17, 169).
edge(17, 161).
edge(127, 146).
edge(92, 95).
edge(0, 163).
edge(15, 61).
edge(16, 127).
edge(104, 128).
edge(134, 146).
edge(56, 125).
edge(69, 135).
edge(2, 121).
edge(72, 150).
edge(127, 145).
edge(25, 104).
edge(85, 133).
edge(93, 121).
edge(25, 50).
edge(6, 70).
edge(52, 107).
edge(43, 90).
edge(46, 83).
edge(76, 122).
edge(21, 160).
edge(4, 10).
edge(19, 59).
edge(125, 146).
edge(43, 175).
edge(106, 150).
edge(0, 145).
edge(4, 96).
edge(125, 143).
edge(1, 99).
edge(34, 70).
edge(62, 125).
edge(48, 173).
edge(19, 163).
edge(110, 143).
edge(132, 162).
edge(77, 119).
edge(75, 152).
edge(5, 27).
edge(6, 17).
edge(14, 15).
edge(125, 134).
edge(87, 92).
edge(78, 117).
edge(96, 160).
edge(95, 116).
edge(26, 106).
edge(47, 106).
edge(73, 176).
edge(68, 71).
edge(46, 96).
edge(101, 157).
edge(25, 170).
edge(5, 47).
edge(7, 107).
edge(29, 174).
edge(32, 174).
edge(21, 114).
edge(82, 83).
edge(110, 177).
edge(81, 169).
edge(2, 103).
edge(29, 163).
edge(98, 129).
edge(7, 114).
edge(8, 82).
edge(112, 149).
edge(16, 122).
edge(34, 127).
edge(100, 128).
edge(73, 158).
edge(6, 159).
edge(86, 153).
edge(131, 159).
edge(136, 142).
edge(151, 170).
edge(80, 101).
edge(108, 113).
edge(84, 146).
edge(78, 153).
edge(13, 124).
edge(152, 158).
edge(41, 128).
edge(123, 131).
edge(33, 171).
edge(46, 56).
edge(0, 114).
edge(95, 153).
edge(10, 59).
edge(48, 174).
edge(5, 58).
edge(2, 149).
edge(92, 115).
edge(11, 92).
edge(94, 114).
edge(55, 156).
edge(9, 35).
edge(161, 169).
edge(106, 128).
edge(58, 155).
edge(84, 114).
edge(14, 100).
edge(146, 155).
edge(32, 165).
edge(118, 176).
edge(155, 169).
edge(23, 141).
edge(36, 140).
edge(6, 29).
edge(53, 146).
edge(135, 164).
edge(101, 146).
edge(54, 149).
edge(84, 92).
edge(13, 14).
edge(37, 163).
edge(158, 163).
edge(124, 133).
edge(127, 157).
edge(67, 151).
edge(99, 163).
edge(43, 93).
edge(122, 162).
edge(42, 110).
edge(3, 128).
edge(1, 133).
edge(20, 174).
edge(60, 147).
edge(74, 141).
edge(31, 135).
edge(33, 77).
edge(142, 158).
edge(90, 111).
edge(91, 106).
edge(30, 46).
edge(74, 142).
edge(8, 95).
edge(76, 103).
edge(52, 100).
edge(103, 143).
edge(97, 168).
edge(70, 165).
edge(61, 154).
edge(109, 131).
edge(10, 77).
edge(37, 158).
edge(91, 114).
edge(82, 158).
edge(68, 100).
edge(154, 161).
edge(83, 156).
edge(46, 163).
edge(9, 169).
edge(132, 155).
edge(16, 99).
edge(21, 143).
edge(91, 125).
edge(69, 160).
edge(8, 15).
edge(36, 66).
edge(4, 84).
edge(37, 57).
edge(31, 79).
edge(25, 153).
edge(56, 172).
edge(35, 135).
edge(103, 172).
edge(151, 159).
edge(45, 99).
edge(124, 143).
edge(89, 124).
edge(5, 20).
edge(160, 171).
edge(97, 109).
edge(36, 113).
edge(0, 96).
edge(25, 56).
edge(3, 99).
edge(66, 130).
edge(32, 77).
edge(2, 138).
edge(19, 106).
edge(127, 166).
edge(37, 85).
edge(26, 74).
edge(11, 33).
edge(70, 125).
edge(96, 164).
edge(169, 177).
edge(19, 22).
edge(57, 99).
edge(0, 103).
edge(148, 160).
edge(158, 173).
edge(106, 134).
edge(0, 95).
edge(21, 108).
edge(45, 51).
edge(157, 172).
edge(122, 172).
edge(11, 169).
edge(125, 162).
edge(3, 127).
edge(106, 110).
edge(41, 151).
edge(1, 103).
edge(168, 175).
edge(43, 50).
edge(73, 163).
edge(23, 69).
edge(28, 138).
edge(74, 169).
edge(156, 159).
edge(50, 103).
edge(102, 163).
edge(29, 68).
edge(72, 81).
edge(65, 147).
edge(133, 166).
edge(1, 144).
edge(38, 163).
edge(33, 35).
edge(8, 53).
edge(10, 87).
edge(75, 146).
edge(17, 42).
edge(47, 123).
edge(82, 136).
edge(90, 171).
edge(16, 86).
edge(18, 104).
edge(138, 170).
edge(86, 140).
edge(150, 151).
edge(73, 150).
edge(12, 83).
edge(56, 131).
edge(55, 71).
edge(75, 107).
edge(84, 108).
edge(29, 37).
edge(23, 99).
edge(160, 163).
edge(69, 125).
edge(60, 104).
edge(4, 45).
edge(1, 40).
edge(5, 147).
edge(23, 110).
edge(93, 164).
edge(154, 170).
edge(103, 175).
edge(10, 18).
edge(40, 52).
edge(9, 152).
edge(25, 33).
edge(30, 85).
edge(113, 162).
edge(6, 47).
edge(48, 159).
edge(96, 173).
edge(94, 145).
edge(160, 168).
edge(12, 144).
edge(61, 139).
edge(4, 163).
edge(51, 174).
edge(81, 107).
edge(39, 175).
edge(82, 132).
edge(52, 62).
edge(45, 107).
edge(28, 53).
edge(131, 152).
edge(83, 163).
edge(46, 119).
edge(26, 145).
edge(13, 161).
edge(148, 170).
edge(32, 137).
edge(43, 170).
edge(89, 93).
edge(119, 137).
edge(23, 173).
edge(31, 89).
edge(1, 100).
edge(12, 77).
edge(50, 116).
edge(9, 44).
edge(13, 106).
edge(153, 165).
edge(45, 115).
edge(19, 115).
edge(7, 52).
edge(18, 55).
edge(86, 163).
edge(29, 31).
edge(40, 140).
edge(50, 96).
edge(56, 108).
edge(68, 98).
edge(175, 176).
edge(8, 111).
edge(87, 137).
edge(150, 162).
edge(44, 80).
edge(39, 146).
edge(145, 166).
edge(58, 89).
edge(34, 108).
edge(11, 30).
edge(51, 101).
edge(33, 119).
edge(27, 58).
edge(121, 139).
edge(44, 117).
edge(56, 81).
edge(92, 105).
edge(77, 138).
edge(23, 111).
edge(55, 163).
edge(37, 105).
edge(41, 65).
edge(96, 101).
edge(106, 174).
edge(25, 121).
edge(108, 132).
edge(67, 161).
edge(63, 164).
edge(57, 88).
edge(70, 119).
edge(84, 91).
edge(52, 53).
edge(120, 164).
edge(140, 147).
edge(121, 157).
edge(52, 64).
edge(54, 158).
edge(77, 147).
edge(90, 154).
edge(11, 72).
edge(165, 175).
edge(44, 141).
edge(130, 163).
edge(51, 133).
edge(157, 174).
edge(89, 157).
edge(118, 150).
edge(53, 108).
edge(105, 121).
edge(19, 73).
edge(20, 105).
edge(21, 121).
edge(84, 122).
edge(162, 172).
edge(83, 137).
edge(70, 128).
edge(28, 51).
edge(70, 100).
edge(29, 94).
edge(107, 156).
edge(70, 115).
edge(20, 138).
edge(16, 28).
edge(25, 89).
edge(148, 175).
edge(130, 176).
edge(14, 122).
edge(141, 148).
edge(49, 82).
edge(58, 78).
edge(67, 69).
edge(139, 177).
edge(39, 65).
edge(35, 136).
edge(66, 78).
edge(65, 139).
edge(35, 133).
edge(120, 173).
edge(55, 154).
edge(36, 153).
edge(16, 78).
edge(48, 166).
edge(113, 132).
edge(121, 153).
edge(86, 167).
edge(79, 90).
edge(26, 95).
edge(65, 99).
edge(127, 174).
edge(56, 142).
edge(52, 151).
edge(56, 79).
edge(20, 127).
edge(78, 116).
edge(96, 176).
edge(86, 158).
edge(57, 79).
edge(136, 172).
edge(42, 174).
edge(84, 166).
edge(62, 142).
edge(62, 81).
edge(147, 156).
edge(33, 120).
edge(24, 72).
edge(123, 164).
edge(22, 68).
edge(166, 169).
edge(110, 172).
edge(89, 153).
edge(71, 84).
edge(4, 136).
edge(119, 155).
edge(0, 119).
edge(46, 141).
edge(110, 154).
edge(82, 137).
edge(8, 137).
edge(21, 29).
edge(34, 142).
edge(8, 147).
edge(51, 110).
edge(50, 169).
edge(125, 147).
edge(2, 126).
edge(10, 85).
edge(106, 132).
edge(6, 44).
edge(32, 52).
edge(75, 104).
edge(46, 78).
edge(30, 145).
edge(32, 158).
edge(20, 29).
edge(77, 150).
edge(34, 168).
edge(29, 42).
edge(38, 129).
edge(52, 170).
edge(136, 165).
edge(0, 89).
edge(80, 176).
edge(22, 66).
edge(144, 147).
edge(25, 148).
edge(18, 83).
edge(94, 108).
edge(90, 152).
edge(13, 168).
edge(5, 40).
edge(46, 172).
edge(95, 126).
edge(54, 87).
edge(87, 108).
edge(0, 11).
edge(20, 49).
edge(130, 150).
edge(40, 68).
edge(113, 154).
edge(75, 94).
edge(31, 43).
edge(130, 166).
edge(33, 44).
edge(39, 125).
edge(100, 126).
edge(134, 145).
edge(48, 111).
edge(95, 177).
edge(5, 29).
edge(148, 174).
edge(22, 122).
edge(87, 124).
edge(78, 177).
edge(154, 165).
edge(23, 176).
edge(95, 176).
edge(14, 21).
edge(50, 175).
edge(30, 68).
edge(35, 123).
edge(65, 171).
edge(8, 75).
edge(16, 149).
edge(61, 102).
edge(31, 76).
edge(100, 171).
edge(92, 97).
edge(40, 110).
edge(51, 126).
edge(45, 69).
edge(4, 167).
edge(15, 77).
edge(126, 140).
edge(2, 13).
edge(67, 124).
edge(53, 54).
edge(15, 136).
edge(11, 63).
edge(79, 102).
edge(10, 71).
edge(145, 173).
edge(123, 161).
edge(75, 122).
edge(63, 94).
edge(13, 144).
edge(13, 104).
edge(60, 64).
edge(76, 156).
edge(18, 62).
edge(45, 174).
edge(22, 24).
edge(12, 118).
edge(81, 106).
edge(72, 161).
edge(74, 118).
edge(72, 154).
edge(95, 151).
edge(72, 137).
edge(72, 175).
edge(81, 153).
edge(28, 117).
edge(70, 105).
edge(17, 106).
edge(21, 93).
edge(74, 168).
edge(49, 124).
edge(25, 95).
edge(43, 62).
edge(38, 140).
edge(74, 172).
edge(82, 116).
edge(21, 61).
edge(41, 85).
edge(102, 158).
edge(114, 135).
edge(11, 37).
edge(133, 136).
edge(2, 29).
edge(42, 128).
edge(32, 138).
edge(30, 98).
edge(62, 122).
edge(109, 141).
edge(89, 173).
edge(41, 152).
edge(18, 108).
edge(10, 20).
edge(14, 150).
edge(64, 173).
edge(49, 68).
edge(86, 116).
edge(7, 89).
edge(78, 125).
edge(41, 109).
edge(25, 101).
edge(135, 158).
edge(35, 152).
edge(96, 127).
edge(8, 100).
edge(24, 57).
edge(29, 69).
edge(1, 154).
edge(55, 146).
edge(14, 42).
edge(75, 131).
edge(95, 109).
edge(39, 131).
edge(47, 150).
edge(1, 171).
edge(37, 159).
edge(35, 120).
edge(30, 87).
edge(40, 79).
edge(83, 173).
edge(28, 141).
edge(50, 93).
edge(11, 91).
edge(132, 150).
edge(2, 18).
edge(44, 152).
edge(83, 88).
edge(72, 164).
edge(76, 81).
edge(73, 138).
edge(20, 72).
edge(26, 120).
edge(77, 157).
edge(65, 66).
edge(96, 126).
edge(11, 105).
edge(147, 158).
edge(5, 34).
edge(45, 79).
edge(11, 58).
edge(49, 125).
edge(35, 105).
edge(111, 134).
edge(105, 111).
edge(13, 107).
edge(10, 24).
edge(39, 148).
edge(49, 156).
edge(64, 151).
edge(96, 136).
edge(75, 133).
edge(31, 78).
edge(107, 171).
edge(152, 165).
edge(109, 151).
edge(54, 171).
edge(19, 101).
edge(33, 70).
edge(1, 5).
edge(22, 115).
edge(116, 158).
edge(33, 48).
edge(55, 151).
edge(122, 144).
edge(43, 171).
edge(41, 88).
edge(95, 137).
edge(44, 154).
edge(23, 80).
edge(65, 80).
edge(77, 145).
edge(123, 154).
edge(47, 131).
edge(100, 175).
edge(10, 142).
edge(45, 163).
edge(126, 176).
edge(16, 87).
edge(7, 90).
edge(113, 158).
edge(82, 114).
edge(74, 121).
edge(90, 147).
edge(28, 143).
edge(89, 174).
edge(89, 163).
edge(143, 168).
edge(52, 61).
edge(31, 111).
edge(112, 170).
edge(74, 115).
edge(24, 105).
edge(118, 132).
edge(128, 145).
edge(52, 89).
edge(0, 65).
edge(2, 162).
edge(47, 100).
edge(70, 152).
edge(33, 94).
edge(17, 49).
edge(145, 153).
edge(148, 159).
edge(96, 149).
edge(46, 148).
edge(28, 46).
edge(62, 137).
edge(74, 113).
edge(48, 59).
edge(66, 125).
edge(6, 116).
edge(57, 110).
edge(62, 152).
edge(28, 48).
edge(38, 90).
edge(28, 34).
edge(33, 156).
edge(25, 103).
edge(89, 156).
edge(1, 53).
edge(24, 161).
edge(63, 170).
edge(67, 82).
edge(66, 108).
edge(144, 164).
edge(90, 160).
edge(47, 77).
edge(22, 158).
edge(2, 3).
edge(97, 155).
edge(141, 171).
edge(150, 173).
edge(40, 88).
edge(88, 147).
edge(77, 89).
edge(18, 140).
edge(88, 151).
edge(85, 92).
edge(32, 76).
edge(13, 174).
edge(27, 172).
edge(93, 150).
edge(79, 157).
edge(57, 78).
edge(0, 97).
edge(12, 36).
edge(123, 153).
edge(26, 144).
edge(1, 10).
edge(14, 114).
edge(70, 112).
edge(77, 177).
edge(16, 168).
edge(115, 132).
edge(24, 70).
edge(136, 160).
edge(73, 148).
edge(62, 145).
edge(22, 111).
edge(69, 141).
edge(84, 117).
edge(32, 69).
edge(113, 116).
edge(16, 97).
edge(32, 35).
edge(90, 150).
edge(129, 149).
edge(36, 97).
edge(139, 157).
edge(80, 87).
edge(38, 133).
edge(8, 44).
edge(17, 112).
edge(93, 170).
edge(23, 79).
edge(7, 134).
edge(9, 172).
edge(35, 173).
edge(122, 153).
edge(114, 144).
edge(109, 121).
edge(72, 173).
edge(18, 124).
edge(56, 113).
edge(44, 71).
edge(41, 125).
edge(125, 149).
edge(97, 157).
edge(35, 145).
edge(57, 91).
edge(38, 154).
edge(115, 127).
edge(40, 127).
edge(33, 92).
edge(27, 168).
edge(57, 156).
edge(29, 81).
edge(99, 129).
edge(126, 168).
edge(40, 138).
edge(59, 118).
edge(21, 43).
edge(25, 157).
edge(10, 170).
edge(28, 144).
edge(140, 175).
edge(98, 148).
edge(16, 154).
edge(114, 169).
edge(74, 152).
edge(31, 139).
edge(29, 113).
edge(33, 51).
edge(93, 142).
edge(96, 161).
edge(107, 140).
edge(108, 144).
edge(112, 136).
edge(94, 152).
edge(138, 174).
edge(135, 165).
edge(46, 126).
edge(122, 161).
edge(160, 169).
edge(10, 55).
edge(71, 86).
edge(123, 170).
edge(62, 130).
edge(40, 101).
edge(23, 164).
edge(71, 151).
edge(9, 30).
edge(36, 68).
edge(15, 168).
edge(107, 161).
edge(23, 24).
edge(42, 62).
edge(70, 109).
edge(35, 50).
edge(131, 136).
edge(51, 123).
edge(18, 106).
edge(70, 148).
edge(3, 22).
edge(13, 58).
edge(10, 29).
edge(29, 77).
edge(110, 117).
edge(19, 58).
edge(10, 118).
edge(17, 123).
edge(157, 167).
edge(131, 171).
edge(16, 172).
edge(71, 128).
edge(7, 104).
edge(40, 118).
edge(60, 74).
edge(20, 69).
edge(115, 154).
edge(33, 47).
edge(91, 141).
edge(155, 168).
edge(49, 56).
edge(55, 165).
edge(7, 9).
edge(50, 118).
edge(13, 70).
edge(132, 172).
edge(37, 103).
edge(115, 133).
edge(37, 78).
edge(104, 153).
edge(67, 156).
edge(93, 136).
edge(44, 127).
edge(28, 119).
edge(56, 65).
edge(52, 94).
edge(18, 97).
edge(40, 126).
edge(22, 40).
edge(119, 172).
edge(164, 170).
edge(100, 130).
edge(34, 55).
edge(26, 42).
edge(109, 132).
edge(25, 43).
edge(95, 105).
edge(79, 120).
edge(114, 128).
edge(48, 127).
edge(80, 166).
edge(51, 77).
edge(49, 67).
edge(100, 162).
edge(168, 173).
edge(17, 133).
edge(88, 156).
edge(97, 138).
edge(92, 150).
edge(101, 151).
edge(87, 107).
edge(46, 86).
edge(64, 141).
edge(61, 150).
edge(113, 174).
edge(25, 79).
edge(51, 153).
edge(67, 113).
edge(15, 86).
edge(102, 151).
edge(29, 145).
edge(42, 109).
edge(84, 162).
edge(37, 74).
edge(24, 152).
edge(16, 43).
edge(37, 121).
edge(0, 52).
edge(76, 128).
edge(49, 155).
edge(84, 170).
edge(64, 108).
edge(8, 172).
edge(50, 149).
edge(39, 112).
edge(84, 156).
edge(133, 161).
edge(70, 104).
edge(47, 149).
edge(26, 116).
edge(120, 148).
edge(27, 140).
edge(68, 172).
edge(1, 164).
edge(107, 160).
edge(47, 140).
edge(2, 63).
edge(56, 67).
edge(2, 97).
edge(10, 117).
edge(13, 129).
edge(38, 69).
edge(133, 145).
edge(140, 159).
edge(146, 174).
edge(63, 75).
edge(136, 174).
edge(131, 132).
edge(101, 142).
edge(73, 145).
edge(49, 146).
edge(79, 118).
edge(158, 159).
edge(39, 176).
edge(31, 147).
edge(41, 123).
edge(41, 70).
edge(9, 76).
edge(122, 123).
edge(71, 173).
edge(72, 141).
edge(41, 76).
edge(46, 137).
edge(85, 123).
edge(0, 87).
edge(106, 125).
edge(4, 172).
edge(63, 176).
edge(48, 153).
edge(31, 94).
edge(29, 151).
edge(65, 118).
edge(50, 61).
edge(30, 94).
edge(24, 159).
edge(23, 124).
edge(93, 119).
edge(85, 112).
edge(21, 96).
edge(39, 129).
edge(25, 44).
edge(8, 169).
edge(104, 106).
edge(13, 34).
edge(62, 141).
edge(68, 149).
edge(3, 82).
edge(137, 172).
edge(78, 80).
edge(61, 172).
edge(44, 139).
edge(8, 65).
edge(37, 62).
edge(103, 109).
edge(11, 162).
edge(104, 162).
edge(76, 104).
edge(92, 162).
edge(44, 136).
edge(33, 45).
edge(17, 45).
edge(159, 161).
edge(7, 117).
edge(58, 68).
edge(53, 77).
edge(49, 150).
edge(37, 144).
edge(0, 134).
edge(17, 80).
edge(48, 125).
edge(6, 11).
edge(60, 122).
edge(15, 58).
edge(63, 99).
edge(49, 105).
edge(73, 169).
edge(93, 155).
edge(31, 158).
edge(43, 136).
edge(106, 158).
edge(135, 166).
edge(21, 148).
edge(44, 46).
edge(6, 86).
edge(101, 109).
edge(23, 71).
edge(141, 157).
edge(85, 166).
edge(31, 61).
edge(119, 145).
edge(12, 140).
edge(7, 76).
edge(51, 54).
edge(46, 81).
edge(20, 42).
edge(144, 171).
edge(131, 162).
edge(156, 174).
edge(14, 99).
edge(132, 168).
edge(69, 116).
edge(22, 142).
edge(5, 46).
edge(17, 57).
edge(7, 131).
edge(88, 153).
edge(20, 110).
edge(17, 55).
edge(35, 164).
edge(77, 174).
edge(99, 142).
edge(18, 30).
edge(0, 18).
edge(73, 94).
edge(5, 122).
edge(11, 40).
edge(1, 102).
edge(6, 102).
edge(125, 133).
edge(68, 96).
edge(30, 89).
edge(111, 168).
edge(121, 158).
edge(7, 34).
edge(38, 95).
edge(15, 144).
edge(14, 84).
edge(57, 71).
edge(152, 174).
edge(90, 164).
edge(41, 92).
edge(144, 150).
edge(44, 177).
edge(128, 170).
edge(145, 146).
edge(16, 90).
edge(149, 162).
edge(131, 164).
edge(46, 136).
edge(96, 147).
edge(96, 177).
edge(21, 36).
edge(99, 160).
edge(25, 169).
edge(72, 92).
edge(61, 160).
edge(71, 136).
edge(118, 138).
edge(62, 147).
edge(40, 176).
edge(97, 144).
edge(1, 51).
edge(129, 151).
edge(34, 106).
edge(58, 133).
edge(3, 76).
edge(5, 164).
edge(10, 102).
edge(13, 156).
edge(5, 88).
edge(136, 146).
edge(63, 131).
edge(80, 132).
edge(20, 115).
edge(58, 167).
edge(132, 137).
edge(158, 172).
edge(9, 73).
edge(3, 14).
edge(96, 153).
edge(21, 62).
edge(75, 162).
edge(26, 66).
edge(39, 105).
edge(72, 77).
edge(95, 98).
edge(73, 151).
edge(9, 17).
edge(86, 131).
edge(91, 124).
edge(57, 113).
edge(50, 66).
edge(75, 117).
edge(21, 25).
edge(28, 60).
edge(13, 138).
edge(41, 97).
edge(16, 57).
edge(2, 102).
edge(107, 135).
edge(24, 123).
edge(40, 170).
edge(137, 150).
edge(70, 176).
edge(109, 172).
edge(11, 53).
edge(32, 71).
edge(41, 164).
edge(58, 103).
edge(50, 115).
edge(150, 154).
edge(25, 26).
edge(36, 146).
edge(124, 156).
edge(58, 143).
edge(12, 96).
edge(63, 77).
edge(73, 85).
edge(60, 120).
edge(56, 176).
edge(41, 58).
edge(42, 60).
edge(37, 161).
edge(52, 84).
edge(2, 31).
edge(139, 150).
edge(114, 165).
edge(85, 156).
edge(16, 156).
edge(66, 134).
edge(108, 125).
edge(128, 129).
edge(45, 66).
edge(37, 109).
edge(98, 153).
edge(42, 108).
edge(26, 91).
edge(50, 171).
edge(28, 84).
edge(157, 158).
edge(63, 111).
edge(20, 112).
edge(18, 88).
edge(43, 100).
edge(43, 125).
edge(149, 158).
edge(8, 67).
edge(11, 22).
edge(98, 102).
edge(18, 95).
edge(149, 177).
edge(134, 156).
edge(84, 85).
edge(7, 176).
edge(109, 135).
edge(107, 155).
edge(161, 173).
edge(145, 160).
edge(37, 153).
edge(46, 176).
edge(62, 68).
edge(46, 49).
edge(46, 99).
edge(117, 152).
edge(64, 177).
edge(112, 125).
edge(11, 28).
edge(1, 172).
edge(27, 142).
edge(0, 88).
edge(34, 153).
edge(27, 101).
edge(10, 82).
edge(27, 73).
edge(26, 51).
edge(85, 113).
edge(116, 143).
edge(64, 122).
edge(2, 154).
edge(32, 126).
edge(98, 155).
edge(160, 172).
edge(16, 110).
edge(101, 145).
edge(80, 129).
edge(99, 108).
edge(10, 171).
edge(11, 132).
edge(39, 84).
edge(33, 146).
edge(92, 136).
edge(112, 169).
edge(147, 153).
edge(102, 109).
edge(144, 176).
edge(136, 154).
edge(48, 133).
edge(151, 173).
edge(93, 127).
edge(7, 152).
edge(16, 171).
edge(99, 101).
edge(41, 80).
edge(81, 171).
edge(24, 115).
edge(135, 177).
edge(70, 173).
edge(75, 92).
edge(35, 75).
edge(96, 172).
edge(127, 158).
edge(128, 156).
edge(69, 176).
edge(63, 162).
edge(100, 139).
edge(77, 88).
edge(132, 158).
edge(87, 100).
edge(150, 174).
edge(29, 38).
edge(49, 106).
edge(137, 142).
edge(78, 109).
edge(86, 113).
edge(138, 157).
edge(113, 172).
edge(145, 169).
edge(28, 175).
edge(145, 162).
edge(99, 113).
edge(131, 139).
edge(23, 51).
edge(28, 123).
edge(17, 83).
edge(134, 144).
edge(141, 173).
edge(108, 117).
edge(83, 93).
edge(61, 141).
edge(121, 143).
edge(94, 115).
edge(55, 104).
edge(58, 126).
edge(83, 146).
edge(83, 114).
edge(43, 131).
edge(167, 172).
edge(28, 169).
edge(10, 47).
edge(10, 97).
edge(88, 119).
edge(12, 31).
edge(60, 125).
edge(19, 157).
edge(67, 164).
edge(6, 121).
edge(128, 135).
edge(89, 172).
edge(78, 123).
edge(18, 53).
edge(23, 117).
edge(18, 47).
edge(27, 42).
edge(61, 131).
edge(16, 164).
edge(8, 58).
edge(52, 140).
edge(72, 139).
edge(62, 99).
edge(22, 89).
edge(24, 87).
edge(139, 144).
edge(46, 109).
edge(14, 177).
edge(68, 137).
edge(65, 143).
edge(18, 163).
edge(87, 142).
edge(39, 174).
edge(53, 55).
edge(35, 101).
edge(21, 134).
edge(38, 97).
edge(28, 140).
edge(26, 90).
edge(25, 91).
edge(27, 50).
edge(20, 169).
edge(44, 163).
edge(9, 175).
edge(14, 50).
edge(69, 124).
edge(24, 108).
edge(5, 83).
edge(3, 147).
edge(52, 57).
edge(8, 86).
edge(67, 171).
edge(151, 162).
edge(133, 165).
edge(47, 72).
edge(40, 98).
edge(44, 114).
edge(18, 67).
edge(2, 169).
edge(8, 126).
edge(35, 74).
edge(44, 61).
edge(49, 90).
edge(44, 148).
edge(108, 118).
edge(11, 14).
edge(95, 166).
edge(17, 103).
edge(152, 166).
edge(3, 176).
edge(135, 148).
edge(0, 107).
edge(76, 149).
edge(76, 96).
edge(87, 111).
edge(55, 147).
edge(86, 94).
edge(50, 85).
edge(23, 107).
edge(83, 166).
edge(21, 167).
edge(100, 157).
edge(6, 34).
edge(58, 71).
edge(23, 174).
edge(21, 85).
edge(58, 104).
edge(3, 114).
edge(27, 112).
edge(71, 124).
edge(17, 63).
edge(62, 109).
edge(70, 102).
edge(67, 129).
edge(123, 171).
edge(2, 123).
edge(70, 85).
edge(58, 77).
edge(71, 175).
edge(75, 142).
edge(80, 136).
edge(51, 121).
edge(12, 51).
edge(19, 143).
edge(41, 119).
edge(113, 130).
edge(79, 176).
edge(15, 33).
edge(0, 58).
edge(34, 39).
edge(74, 167).
edge(147, 157).
edge(10, 123).
edge(10, 176).
edge(24, 125).
edge(46, 138).
edge(58, 76).
edge(118, 156).
edge(78, 158).
edge(2, 113).
edge(29, 133).
edge(110, 164).
edge(3, 155).
edge(49, 119).
edge(70, 136).
edge(9, 148).
edge(42, 131).
edge(60, 86).
edge(106, 146).
edge(42, 151).
edge(11, 19).
edge(65, 68).
edge(48, 148).
edge(49, 134).
edge(6, 138).
edge(22, 94).
edge(78, 102).
edge(44, 50).
edge(39, 44).
edge(3, 9).
edge(108, 139).
edge(117, 145).
edge(154, 162).
edge(110, 169).
edge(103, 127).
edge(54, 70).
edge(88, 169).
edge(132, 141).
edge(71, 177).
edge(41, 145).
edge(89, 149).
edge(44, 47).
edge(70, 143).
edge(71, 72).
edge(63, 157).
edge(119, 146).
edge(36, 129).
edge(8, 52).
edge(41, 99).
edge(41, 56).
edge(20, 104).
edge(103, 169).
edge(55, 79).
edge(46, 175).
edge(129, 143).
edge(19, 175).
edge(137, 174).
edge(20, 139).
edge(74, 100).
edge(52, 59).
edge(45, 48).
edge(25, 49).
edge(53, 103).
edge(123, 162).
edge(71, 135).
edge(20, 27).
edge(84, 138).
edge(80, 173).
edge(166, 174).
edge(136, 169).
edge(1, 167).
edge(94, 143).
edge(5, 17).
edge(21, 75).
edge(19, 92).
edge(65, 101).
edge(11, 154).
edge(46, 114).
edge(26, 143).
edge(48, 171).
edge(41, 98).
edge(111, 127).
edge(89, 108).
edge(57, 112).
edge(69, 126).
edge(11, 88).
edge(14, 83).
edge(116, 167).
edge(111, 146).
edge(68, 159).
edge(134, 157).
edge(74, 124).
edge(39, 113).
edge(92, 175).
edge(80, 104).
edge(161, 164).
edge(46, 128).
edge(92, 148).
edge(100, 114).
edge(56, 103).
edge(97, 141).
edge(36, 154).
edge(15, 76).
edge(76, 166).
edge(4, 80).
edge(8, 18).
edge(7, 116).
edge(52, 152).
edge(34, 37).
edge(97, 124).
edge(16, 140).
edge(76, 77).
edge(130, 170).
edge(69, 153).
edge(46, 113).
edge(11, 73).
edge(137, 164).
edge(121, 123).
edge(136, 139).
edge(99, 133).
edge(16, 146).
edge(138, 166).
edge(47, 167).
edge(69, 175).
edge(44, 64).
edge(38, 60).
edge(0, 136).
edge(47, 154).
edge(141, 149).
edge(10, 121).
edge(32, 119).
edge(40, 112).
edge(70, 132).
edge(49, 136).
edge(80, 139).
edge(23, 88).
edge(17, 34).
edge(119, 135).
edge(68, 104).
edge(31, 176).
edge(31, 161).
edge(84, 86).
edge(37, 112).
edge(8, 29).
edge(5, 24).
edge(9, 26).
edge(3, 138).
edge(110, 156).
edge(104, 168).
edge(48, 124).
edge(26, 56).
edge(54, 134).
edge(12, 47).
edge(42, 155).
edge(8, 154).
edge(37, 117).
edge(38, 175).
edge(132, 134).
edge(45, 89).
edge(79, 142).
edge(45, 78).
edge(46, 132).
edge(73, 111).
edge(81, 152).
edge(57, 177).
edge(26, 176).
edge(2, 143).
edge(5, 124).
edge(45, 175).
edge(46, 171).
edge(20, 148).
edge(10, 61).
edge(5, 127).
edge(81, 90).
edge(31, 46).
edge(57, 147).
edge(107, 151).
edge(134, 147).
edge(98, 108).
edge(0, 6).
edge(94, 132).
edge(102, 117).
edge(48, 50).
edge(99, 104).
edge(31, 169).
edge(19, 118).
edge(114, 156).
edge(0, 70).
edge(53, 140).
edge(12, 20).
edge(120, 153).
edge(107, 139).
edge(53, 165).
edge(17, 102).
edge(56, 124).
edge(99, 143).
edge(45, 119).
edge(15, 95).
edge(91, 148).
edge(122, 173).
edge(92, 96).
edge(19, 131).
edge(43, 86).
edge(83, 141).
edge(7, 45).
edge(32, 44).
edge(129, 177).
edge(6, 82).
edge(117, 132).
edge(25, 106).
edge(64, 172).
edge(24, 127).
edge(64, 102).
edge(100, 172).
edge(160, 174).
edge(42, 100).
edge(46, 79).
edge(133, 142).
edge(9, 163).
edge(144, 159).
edge(2, 129).
edge(86, 115).
edge(48, 79).
edge(30, 104).
edge(101, 147).
edge(30, 119).
edge(48, 141).
edge(101, 158).
edge(47, 92).
edge(20, 153).
edge(14, 176).
edge(50, 174).
edge(16, 48).
edge(2, 134).
edge(20, 177).
edge(92, 173).
edge(161, 176).
edge(70, 123).
edge(70, 88).
edge(27, 132).
edge(39, 134).
edge(76, 157).
edge(128, 136).
edge(58, 102).
edge(13, 170).
edge(96, 143).
edge(46, 72).
edge(91, 122).
edge(46, 47).
edge(71, 165).
edge(35, 46).
edge(70, 146).
edge(140, 151).
edge(52, 118).
edge(23, 54).
edge(17, 117).
edge(47, 147).
edge(12, 130).
edge(110, 136).
edge(30, 169).
edge(49, 114).
edge(107, 121).
edge(103, 104).
edge(65, 76).
edge(65, 95).
edge(133, 148).
edge(26, 129).
edge(59, 166).
edge(55, 155).
edge(11, 17).
edge(29, 175).
edge(148, 156).
edge(53, 78).
edge(84, 89).
edge(76, 80).
edge(92, 119).
edge(39, 70).
edge(43, 169).
edge(1, 57).
edge(110, 127).
edge(27, 31).
edge(1, 67).
edge(1, 30).
edge(38, 160).
edge(77, 125).
edge(120, 136).
edge(93, 168).
edge(71, 155).
edge(69, 127).
edge(49, 96).
edge(7, 99).
edge(20, 88).
edge(53, 166).
edge(75, 85).
edge(36, 72).
edge(32, 82).
edge(171, 172).
edge(152, 163).
edge(124, 164).
edge(4, 87).
edge(13, 119).
edge(10, 76).
edge(112, 158).
edge(118, 160).
edge(28, 42).
edge(115, 148).
edge(89, 101).
edge(65, 78).
edge(10, 33).
edge(33, 82).
edge(21, 138).
edge(51, 150).
edge(52, 120).
edge(3, 112).
edge(39, 169).
edge(6, 51).
edge(108, 138).
edge(33, 90).
edge(58, 118).
edge(95, 159).
edge(14, 73).
edge(83, 104).
edge(103, 140).
edge(3, 106).
edge(43, 47).
edge(14, 37).
edge(26, 29).
edge(74, 89).
edge(93, 128).
edge(29, 176).
edge(119, 156).
edge(66, 153).
edge(1, 145).
edge(100, 143).
edge(79, 111).
edge(116, 166).
edge(0, 45).
edge(115, 150).
edge(49, 127).
edge(60, 80).
edge(120, 142).
edge(59, 143).
edge(110, 145).
edge(17, 163).
edge(73, 75).
edge(31, 82).
edge(45, 92).
edge(19, 166).
edge(21, 45).
edge(77, 97).
edge(65, 175).
edge(2, 92).
edge(26, 160).
edge(39, 66).
edge(42, 102).
edge(138, 147).
edge(0, 38).
edge(103, 129).
edge(89, 166).
edge(121, 150).
edge(30, 47).
edge(17, 101).
edge(41, 82).
edge(22, 61).
edge(67, 170).
edge(150, 167).
edge(68, 140).
edge(4, 69).
edge(48, 95).
edge(65, 154).
edge(98, 165).
edge(16, 116).
edge(124, 134).
edge(81, 111).
edge(46, 54).
edge(91, 100).
edge(19, 169).
edge(4, 152).
edge(75, 90).
edge(66, 165).
edge(29, 51).
edge(3, 172).
edge(28, 91).
edge(64, 113).
edge(52, 155).
edge(4, 5).
edge(75, 156).
edge(94, 154).
edge(90, 143).
edge(103, 106).
edge(134, 166).
edge(85, 114).
edge(0, 135).
edge(22, 125).
edge(12, 50).
edge(80, 107).
edge(27, 171).
edge(166, 170).
edge(32, 84).
edge(23, 39).
edge(48, 100).
edge(105, 138).
edge(61, 144).
edge(6, 115).
edge(80, 171).
edge(63, 133).
edge(49, 116).
edge(15, 169).
edge(41, 161).
edge(52, 121).
edge(93, 144).
edge(9, 125).
edge(65, 141).
edge(55, 84).
edge(138, 142).
edge(30, 91).
edge(88, 173).
edge(23, 147).
edge(62, 78).
edge(82, 156).
edge(51, 59).
edge(67, 176).
edge(136, 166).
edge(73, 102).
edge(159, 164).
edge(59, 128).
edge(24, 126).
edge(21, 50).
edge(28, 142).
edge(4, 144).
edge(86, 109).
edge(53, 174).
edge(60, 92).
edge(69, 173).
edge(4, 29).
edge(73, 107).
edge(22, 82).
edge(25, 62).
edge(29, 172).
edge(20, 118).
edge(130, 159).
edge(56, 86).
edge(7, 53).
edge(11, 27).
edge(44, 70).
edge(61, 143).
edge(108, 177).
edge(45, 127).
edge(50, 104).
edge(35, 137).
edge(80, 112).
edge(34, 107).
edge(56, 96).
edge(26, 82).
edge(15, 115).
edge(10, 120).
edge(21, 112).
edge(81, 94).
edge(0, 81).
edge(49, 61).
edge(1, 101).
edge(78, 82).
edge(40, 86).
edge(151, 172).
edge(104, 169).
edge(86, 124).
edge(132, 174).
edge(98, 127).
edge(44, 93).
edge(92, 145).
edge(105, 166).
edge(14, 106).
edge(85, 117).
edge(64, 138).
edge(26, 139).
edge(67, 117).
edge(35, 167).
edge(65, 84).
edge(13, 89).
edge(72, 142).
edge(14, 128).
edge(8, 51).
edge(2, 118).
edge(89, 138).
edge(3, 29).
edge(76, 154).
edge(9, 170).
edge(104, 174).
edge(32, 136).
edge(39, 99).
edge(92, 159).
edge(12, 177).
edge(65, 170).
edge(66, 121).
edge(0, 44).
edge(96, 146).
edge(63, 67).
edge(22, 64).
edge(45, 110).
edge(102, 138).
edge(38, 55).
edge(10, 69).
edge(17, 29).
edge(3, 44).
edge(71, 94).
edge(130, 149).
edge(130, 165).
edge(53, 157).
edge(54, 177).
edge(11, 167).
edge(68, 130).
edge(64, 129).
edge(138, 152).
edge(56, 62).
edge(32, 79).
edge(52, 171).
edge(27, 70).
edge(17, 105).
edge(92, 163).
edge(9, 83).
edge(165, 174).
edge(103, 174).
edge(98, 160).
edge(17, 118).
edge(19, 31).
edge(8, 77).
edge(60, 167).
edge(37, 47).
edge(75, 159).
edge(89, 98).
edge(52, 136).
edge(130, 134).
edge(49, 51).
edge(44, 53).
edge(112, 131).
edge(34, 111).
edge(7, 54).
edge(93, 140).
edge(64, 159).
edge(47, 116).
edge(56, 95).
edge(84, 129).
edge(138, 158).
edge(22, 155).
edge(80, 123).
edge(37, 150).
edge(0, 13).
edge(3, 19).
edge(98, 144).
edge(6, 81).
edge(140, 141).
edge(138, 148).
edge(81, 122).
edge(35, 73).
edge(7, 65).
edge(105, 120).
edge(101, 135).
edge(106, 142).
edge(66, 85).
edge(30, 90).
edge(5, 117).
edge(33, 86).
edge(124, 165).
edge(10, 139).
edge(45, 112).
edge(11, 70).
edge(29, 70).
edge(149, 159).
edge(28, 71).
edge(130, 140).
edge(34, 163).
edge(44, 58).
edge(95, 97).
edge(47, 107).
edge(32, 42).
edge(6, 38).
edge(155, 160).
edge(44, 75).
edge(132, 154).
edge(8, 94).
edge(9, 48).
edge(11, 69).
edge(105, 169).
edge(12, 167).
edge(0, 49).
edge(24, 139).
edge(90, 172).
edge(21, 122).
edge(29, 90).
edge(31, 113).
edge(94, 128).
edge(50, 170).
edge(18, 145).
edge(6, 165).
edge(31, 172).
edge(67, 165).
edge(9, 124).
edge(67, 78).
edge(10, 133).
edge(161, 167).
edge(39, 73).
edge(44, 110).
edge(146, 164).
edge(65, 163).
edge(26, 151).
edge(42, 137).
edge(73, 126).
edge(95, 172).
edge(41, 77).
edge(36, 112).
edge(10, 51).
edge(108, 169).
edge(67, 110).
edge(77, 86).
edge(8, 139).
edge(127, 176).
edge(89, 122).
edge(84, 135).
edge(141, 160).
edge(105, 127).
edge(30, 159).
edge(120, 139).
edge(8, 85).
edge(69, 159).
edge(78, 159).
edge(93, 124).
edge(38, 68).
edge(76, 170).
edge(49, 79).
edge(76, 89).
edge(69, 81).
edge(154, 163).
edge(100, 134).
edge(14, 87).
edge(102, 130).
edge(112, 148).
edge(62, 169).
edge(126, 159).
edge(67, 105).
edge(160, 167).
edge(39, 69).
edge(28, 38).
edge(101, 144).
edge(125, 154).
edge(90, 131).
edge(30, 156).
edge(102, 164).
edge(107, 119).
edge(159, 175).
edge(71, 108).
edge(81, 138).
edge(5, 59).
edge(23, 25).
edge(94, 177).
edge(102, 106).
edge(91, 164).
edge(59, 97).
edge(19, 104).
edge(44, 78).
edge(18, 34).
edge(99, 170).
edge(111, 137).
edge(0, 26).
edge(109, 169).
edge(61, 123).
edge(54, 130).
edge(40, 81).
edge(85, 125).
edge(15, 153).
edge(7, 61).
edge(109, 137).
edge(67, 103).
edge(30, 167).
edge(118, 158).
edge(39, 59).
edge(100, 140).
edge(2, 6).
edge(61, 63).
edge(18, 19).
edge(16, 23).
edge(95, 162).
edge(58, 73).
edge(19, 164).
edge(38, 98).
edge(17, 88).
edge(114, 139).
edge(85, 176).
edge(6, 76).
edge(34, 147).
edge(49, 57).
edge(3, 137).
edge(65, 69).
edge(11, 51).
edge(145, 148).
edge(27, 60).
edge(43, 66).
edge(149, 164).
edge(119, 130).
edge(74, 92).
edge(46, 97).
edge(36, 135).
edge(76, 125).
edge(69, 72).
edge(122, 151).
edge(3, 162).
edge(56, 136).
edge(48, 81).
edge(29, 64).
edge(70, 159).
edge(77, 164).
edge(28, 161).
edge(159, 162).
edge(40, 137).
edge(57, 124).
edge(103, 115).
edge(94, 170).
edge(105, 164).
edge(6, 104).
edge(15, 70).
edge(12, 16).
edge(123, 140).
edge(24, 82).
edge(110, 116).
edge(13, 47).
edge(10, 35).
edge(14, 24).
edge(166, 176).
edge(115, 123).
edge(107, 137).
edge(23, 161).
edge(68, 74).
edge(59, 115).
edge(26, 146).
edge(19, 112).
edge(83, 174).
edge(154, 160).
edge(2, 46).
edge(40, 105).
edge(55, 86).
edge(23, 101).
edge(58, 72).
edge(77, 108).
edge(27, 64).
edge(19, 86).
edge(1, 13).
edge(43, 118).
edge(52, 130).
edge(26, 104).
edge(22, 34).
edge(48, 136).
edge(81, 96).
edge(108, 129).
edge(100, 104).
edge(15, 123).
edge(42, 86).
edge(87, 169).
edge(79, 114).
edge(44, 60).
edge(3, 87).
edge(14, 166).
edge(149, 175).
edge(61, 109).
edge(20, 22).
edge(80, 169).
edge(62, 110).
edge(129, 154).
edge(106, 160).
edge(12, 156).
edge(1, 62).
edge(3, 101).
edge(137, 177).
edge(80, 170).
edge(148, 154).
edge(71, 137).
edge(105, 141).
edge(24, 176).
edge(24, 136).
edge(14, 156).
edge(50, 70).
edge(15, 26).
edge(154, 155).
edge(61, 128).
edge(114, 122).
edge(96, 145).
edge(75, 175).
edge(25, 55).
edge(72, 103).
edge(10, 94).
edge(11, 49).
edge(103, 150).
edge(103, 130).
edge(35, 130).
edge(37, 86).
edge(105, 160).
edge(58, 136).
edge(60, 118).
edge(107, 145).
edge(32, 175).
edge(16, 85).
edge(151, 155).
edge(115, 163).
edge(26, 31).
edge(41, 107).
edge(0, 109).
edge(52, 108).
edge(87, 144).
edge(168, 169).
edge(73, 82).
edge(122, 156).
edge(161, 170).
edge(41, 66).
edge(45, 106).
edge(28, 88).
edge(34, 176).
edge(156, 166).
edge(37, 99).
edge(23, 102).
edge(62, 176).
edge(50, 138).
edge(56, 71).
edge(125, 155).
edge(10, 98).
edge(22, 92).
edge(32, 49).
edge(23, 33).
edge(62, 66).
edge(71, 138).
edge(23, 38).
edge(52, 127).
edge(13, 172).
edge(16, 72).
edge(32, 109).
edge(136, 164).
edge(81, 84).
edge(157, 168).
edge(32, 94).
edge(39, 78).
edge(12, 99).
edge(62, 156).
edge(37, 168).
edge(92, 161).
edge(44, 175).
edge(104, 135).
edge(158, 167).
edge(82, 94).
edge(10, 57).
edge(79, 87).
edge(32, 93).
edge(22, 77).
edge(96, 158).
edge(146, 152).
edge(11, 102).
edge(7, 79).
edge(28, 130).
edge(7, 11).
edge(7, 24).
edge(69, 100).
edge(42, 173).
edge(10, 177).
edge(46, 65).
edge(82, 123).
edge(44, 57).
edge(0, 98).
edge(33, 37).
edge(110, 175).
edge(103, 110).
edge(147, 152).
edge(78, 89).
edge(92, 143).
edge(76, 118).
edge(23, 77).
edge(29, 167).
edge(81, 88).
edge(144, 163).
edge(68, 162).
edge(19, 154).
edge(12, 39).
edge(45, 73).
edge(68, 110).
edge(120, 160).
edge(27, 36).
edge(68, 166).
edge(15, 111).
edge(8, 68).
edge(23, 45).
edge(72, 132).
edge(129, 172).
edge(0, 143).
edge(6, 35).
edge(18, 92).
edge(140, 145).
edge(32, 39).
edge(113, 169).
edge(143, 171).
edge(90, 103).
edge(31, 37).
edge(74, 102).
edge(14, 70).
edge(15, 134).
edge(134, 159).
edge(30, 34).
edge(106, 136).
edge(21, 172).
edge(121, 171).
edge(123, 130).
edge(80, 88).
edge(5, 69).
edge(165, 172).
edge(95, 132).
edge(8, 121).
edge(68, 160).
edge(58, 125).
edge(93, 167).
edge(16, 126).
edge(27, 110).
edge(46, 70).
edge(133, 175).
edge(55, 100).
edge(160, 177).
edge(54, 123).
edge(47, 117).
edge(100, 158).
edge(5, 98).
edge(45, 58).
edge(73, 99).
edge(18, 61).
edge(23, 75).
edge(1, 91).
edge(143, 144).
edge(130, 138).
edge(121, 146).
edge(23, 108).
edge(96, 112).
edge(63, 122).
edge(144, 175).
edge(85, 165).
edge(12, 131).
edge(93, 122).
edge(29, 146).
edge(67, 155).
edge(48, 120).
edge(162, 165).
edge(22, 98).
edge(21, 158).
edge(86, 88).
edge(5, 100).
edge(87, 176).
edge(15, 21).
edge(6, 62).
edge(0, 5).
edge(75, 111).
edge(100, 163).
edge(73, 115).
edge(28, 164).
edge(26, 136).
edge(72, 160).
edge(40, 115).
edge(99, 146).
edge(129, 170).
edge(33, 87).
edge(41, 96).
edge(132, 164).
edge(75, 78).
edge(113, 120).
edge(20, 26).
edge(103, 132).
edge(0, 144).
edge(13, 26).
edge(43, 168).
edge(60, 96).
edge(21, 78).
edge(7, 35).
edge(85, 106).
edge(30, 73).
edge(85, 141).
edge(27, 152).
edge(30, 84).
edge(122, 155).
edge(85, 131).
edge(51, 92).
edge(42, 103).
edge(132, 153).
edge(113, 170).
edge(126, 127).
edge(155, 163).
edge(79, 109).
edge(81, 83).
edge(79, 81).
edge(144, 152).
edge(72, 169).
edge(60, 138).
edge(51, 166).
edge(35, 76).
edge(85, 116).
edge(53, 124).
edge(10, 146).
edge(81, 146).
edge(3, 59).
edge(42, 154).
edge(64, 171).
edge(87, 93).
edge(24, 52).
edge(18, 24).
edge(3, 108).
edge(53, 80).
edge(92, 128).
edge(35, 112).
edge(38, 77).
edge(68, 143).
edge(99, 125).
edge(128, 149).
edge(30, 96).
edge(63, 73).
edge(53, 114).
edge(132, 138).
edge(83, 176).
edge(74, 147).
edge(89, 152).
edge(18, 46).
edge(25, 150).
edge(1, 75).
edge(15, 146).
edge(31, 91).
edge(68, 109).
edge(60, 107).
edge(138, 162).
edge(3, 8).
edge(81, 174).
edge(127, 172).
edge(128, 130).
edge(57, 60).
edge(15, 28).
edge(5, 139).
edge(77, 176).
edge(7, 56).
edge(74, 101).
edge(79, 91).
edge(46, 134).
edge(54, 138).
edge(39, 57).
edge(11, 100).
edge(45, 177).
edge(74, 76).
edge(92, 149).
edge(131, 175).
edge(60, 127).
edge(23, 60).
edge(131, 155).
edge(35, 114).
edge(107, 149).
edge(55, 61).
edge(28, 171).
edge(16, 56).
edge(57, 94).
edge(25, 60).
edge(19, 57).
edge(21, 64).
edge(53, 117).
edge(43, 133).
edge(70, 135).
edge(118, 141).
edge(49, 131).
edge(7, 100).
edge(67, 94).
edge(48, 123).
edge(5, 136).
edge(86, 176).
edge(3, 30).
edge(126, 167).
edge(91, 169).
edge(11, 120).
edge(152, 177).
edge(72, 85).
edge(83, 121).
edge(37, 71).
edge(100, 120).
edge(57, 153).
edge(14, 164).
edge(44, 65).
edge(34, 68).
edge(3, 119).
edge(4, 66).
edge(36, 99).
edge(3, 142).
edge(91, 168).
edge(58, 75).
edge(72, 74).
edge(119, 128).
edge(115, 147).
edge(145, 152).
edge(42, 79).
edge(105, 147).
edge(8, 162).
edge(106, 166).
edge(129, 169).
edge(7, 41).
edge(64, 70).
edge(124, 169).
edge(18, 141).
edge(37, 42).
edge(110, 132).
edge(87, 94).
edge(115, 165).
edge(60, 170).
edge(22, 78).
edge(61, 162).
edge(4, 78).
edge(15, 163).
edge(139, 149).
edge(10, 147).
edge(111, 114).
edge(76, 172).
edge(3, 57).
edge(54, 154).
edge(7, 94).
edge(125, 171).
edge(57, 103).
edge(51, 103).
edge(10, 145).
edge(34, 52).
edge(73, 104).
edge(91, 161).
edge(29, 142).
edge(32, 113).
edge(8, 49).
edge(26, 177).
edge(74, 110).
edge(108, 175).
edge(17, 52).
edge(91, 136).
edge(68, 133).
edge(152, 155).
edge(108, 146).
edge(19, 66).
edge(25, 41).
edge(101, 125).
edge(21, 76).
edge(55, 95).
edge(49, 135).
edge(134, 149).
edge(18, 119).
edge(33, 173).
edge(128, 175).
edge(71, 80).
edge(123, 148).
edge(89, 159).
edge(2, 141).
edge(17, 135).
edge(76, 138).
edge(113, 161).
edge(86, 145).
edge(45, 152).
edge(126, 166).
edge(63, 96).
edge(96, 123).
edge(167, 175).
edge(35, 60).
edge(49, 83).
edge(14, 96).
edge(47, 75).
edge(86, 111).
edge(134, 141).
edge(51, 67).
edge(109, 168).
edge(18, 77).
edge(79, 154).
edge(147, 160).
edge(123, 158).
edge(80, 177).
edge(15, 122).
edge(37, 53).
edge(140, 170).
edge(131, 135).
edge(48, 106).
edge(12, 111).
edge(156, 170).
edge(16, 111).
edge(51, 134).
edge(4, 105).
edge(18, 59).
edge(102, 112).
edge(48, 121).
edge(46, 67).
edge(66, 111).
edge(54, 56).
edge(105, 148).
edge(98, 169).
edge(51, 177).
edge(87, 173).
edge(106, 124).
edge(65, 165).
edge(83, 115).
edge(52, 80).
edge(158, 160).
edge(112, 172).
edge(100, 145).
edge(64, 148).
edge(9, 80).
edge(55, 141).
edge(24, 36).
edge(27, 115).
edge(72, 88).
edge(74, 81).
edge(142, 177).
edge(76, 145).
edge(125, 144).
edge(50, 135).
edge(65, 159).
edge(114, 131).
edge(62, 103).
edge(5, 53).
edge(123, 175).
edge(37, 91).
edge(146, 169).
edge(27, 175).
edge(64, 67).
edge(45, 67).
edge(47, 172).
edge(40, 124).
edge(56, 156).
edge(45, 170).
edge(48, 77).
edge(39, 111).
edge(29, 171).
edge(27, 46).
edge(36, 128).
edge(164, 171).
edge(125, 176).
edge(1, 59).
edge(68, 80).
edge(130, 164).
edge(8, 38).
edge(141, 168).
edge(101, 128).
edge(62, 64).
edge(13, 38).
edge(29, 67).
edge(42, 125).
edge(9, 57).
edge(8, 130).
edge(20, 168).
edge(102, 156).
edge(5, 121).
edge(77, 161).
edge(11, 150).
edge(38, 92).
edge(43, 121).
edge(68, 111).
edge(24, 124).
edge(81, 115).
edge(14, 116).
edge(62, 89).
edge(66, 150).
edge(12, 120).
edge(14, 95).
edge(60, 141).
edge(120, 150).
edge(59, 160).
edge(39, 82).
edge(97, 147).
edge(133, 158).
edge(72, 90).
edge(47, 151).
edge(20, 151).
edge(73, 103).
edge(20, 92).
edge(116, 131).
edge(131, 168).
edge(108, 136).
edge(31, 173).
edge(95, 142).
edge(138, 140).
edge(132, 151).
edge(33, 140).
edge(171, 174).
edge(102, 110).
edge(25, 29).
edge(88, 142).
edge(15, 167).
edge(30, 147).
edge(35, 138).
edge(87, 175).
edge(40, 71).
edge(6, 144).
edge(41, 133).
edge(13, 42).
edge(21, 157).
edge(49, 66).
edge(9, 101).
edge(27, 86).
edge(48, 177).
edge(4, 151).
edge(2, 55).
edge(41, 162).
edge(72, 167).
edge(54, 91).
edge(3, 161).
edge(95, 101).
edge(66, 91).
edge(108, 154).
edge(107, 122).
edge(139, 171).
edge(19, 82).
edge(23, 85).
edge(16, 66).
edge(92, 118).
edge(99, 112).
edge(34, 71).
edge(54, 153).
edge(94, 124).
edge(126, 148).
edge(32, 65).
edge(60, 72).
edge(35, 67).
edge(2, 136).
edge(10, 93).
edge(63, 154).
edge(20, 75).
edge(3, 38).
edge(60, 97).
edge(94, 125).
edge(106, 154).
edge(79, 104).
edge(150, 169).
edge(128, 138).
edge(96, 98).
edge(96, 121).
edge(88, 163).
edge(58, 82).
edge(71, 91).
edge(35, 121).
edge(22, 131).
edge(8, 61).
edge(15, 46).
edge(36, 58).
edge(80, 154).
edge(71, 132).
edge(53, 141).
edge(3, 45).
edge(10, 126).
edge(30, 81).
edge(29, 44).
edge(9, 49).
edge(47, 53).
edge(49, 167).
edge(161, 177).
edge(15, 138).
edge(48, 109).
edge(129, 166).
edge(147, 159).
edge(12, 150).
edge(12, 72).
edge(22, 153).
edge(27, 66).
edge(12, 119).
edge(10, 38).
edge(109, 150).
edge(121, 140).
edge(25, 61).
edge(109, 160).
edge(65, 156).
edge(12, 62).
edge(84, 154).
edge(105, 115).
edge(152, 156).
edge(99, 111).
edge(10, 60).
edge(29, 110).
edge(69, 138).
edge(1, 41).
edge(89, 115).
edge(134, 164).
edge(25, 144).
edge(93, 143).
edge(78, 145).
edge(20, 120).
edge(24, 158).
edge(54, 60).
edge(84, 158).
edge(23, 90).
edge(99, 106).
edge(67, 173).
edge(10, 172).
edge(28, 134).
edge(82, 93).
edge(5, 75).
edge(46, 53).
edge(15, 55).
edge(37, 48).
edge(27, 82).
edge(24, 31).
edge(101, 159).
edge(64, 91).
edge(31, 154).
edge(35, 116).
edge(21, 136).
edge(18, 21).
edge(17, 77).
edge(72, 114).
edge(12, 54).
edge(17, 58).
edge(49, 145).
edge(54, 146).
edge(17, 24).
edge(50, 95).
edge(114, 154).
edge(23, 67).
edge(15, 170).
edge(60, 79).
edge(114, 140).
edge(107, 115).
edge(2, 120).
edge(32, 90).
edge(73, 171).
edge(1, 23).
edge(63, 80).
edge(22, 160).
edge(116, 137).
edge(59, 129).
edge(22, 83).
edge(103, 149).
edge(34, 124).
edge(65, 136).
edge(93, 169).
edge(63, 69).
edge(28, 65).
edge(12, 117).
edge(11, 130).
edge(84, 119).
edge(6, 126).
edge(151, 152).
edge(22, 145).
edge(54, 119).
edge(95, 112).
edge(49, 152).
edge(18, 149).
edge(25, 71).
edge(50, 106).
edge(23, 63).
edge(55, 159).
edge(111, 161).
edge(46, 159).
edge(136, 141).
edge(7, 98).
edge(68, 128).
edge(116, 151).
edge(78, 120).
edge(103, 158).
edge(70, 149).
edge(72, 163).
edge(55, 148).
edge(53, 76).
edge(58, 119).
edge(42, 75).
edge(127, 167).
edge(12, 169).
edge(37, 171).
edge(164, 176).
edge(83, 151).
edge(101, 153).
edge(49, 169).
edge(104, 123).
edge(16, 29).
edge(30, 31).
edge(92, 100).
edge(64, 68).
edge(67, 71).
edge(0, 59).
edge(3, 28).
edge(11, 153).
edge(161, 172).
edge(94, 150).
edge(40, 166).
edge(83, 92).
edge(122, 157).
edge(3, 107).
edge(67, 145).
edge(75, 132).
edge(25, 118).
edge(167, 176).
edge(5, 113).
edge(71, 176).
edge(49, 77).
edge(25, 166).
edge(93, 158).
edge(151, 158).
edge(1, 7).
edge(5, 101).
edge(27, 105).
edge(40, 158).
edge(64, 71).
edge(82, 140).
edge(125, 165).
edge(73, 91).
edge(24, 140).
edge(148, 173).
edge(77, 103).
edge(1, 150).
edge(18, 168).
edge(12, 113).
edge(12, 34).
edge(98, 156).
edge(71, 143).
edge(141, 152).
edge(73, 162).
edge(104, 116).
edge(3, 13).
edge(58, 91).
edge(66, 144).
edge(32, 50).
edge(28, 55).
edge(3, 69).
edge(35, 94).
edge(79, 110).
edge(74, 177).
edge(31, 59).
edge(72, 162).
edge(37, 172).
edge(38, 164).
edge(38, 138).
edge(74, 154).
edge(45, 160).
edge(16, 73).
edge(88, 108).
edge(91, 134).
edge(66, 177).
edge(156, 169).
edge(109, 148).
edge(123, 156).
edge(29, 139).
edge(104, 113).
edge(99, 176).
edge(53, 164).
edge(30, 92).
edge(91, 121).
edge(17, 146).
edge(65, 134).
edge(10, 152).
edge(55, 72).
edge(129, 140).
edge(95, 157).
edge(52, 110).
edge(43, 116).
edge(73, 117).
edge(7, 136).
edge(4, 128).
edge(33, 114).
edge(68, 77).
edge(52, 131).
edge(46, 131).
edge(76, 134).
edge(143, 165).
edge(33, 159).
edge(44, 137).
edge(14, 25).
edge(41, 45).
edge(65, 120).
edge(48, 96).
edge(84, 124).
edge(28, 58).
edge(30, 144).
edge(103, 151).
edge(110, 137).
edge(56, 119).
edge(43, 65).
edge(102, 146).
edge(2, 79).
edge(98, 141).
edge(25, 152).
edge(12, 101).
edge(23, 115).
edge(135, 162).
edge(18, 171).
edge(116, 157).
edge(65, 126).
edge(64, 82).
edge(69, 142).
edge(108, 155).
edge(64, 176).
edge(2, 65).
edge(37, 68).
edge(67, 162).
edge(116, 117).
edge(95, 136).
edge(121, 136).
edge(82, 89).
edge(53, 139).
edge(62, 162).
edge(6, 32).
edge(20, 145).
edge(69, 149).
edge(73, 131).
edge(89, 147).
edge(72, 115).
edge(155, 156).
edge(23, 29).
edge(17, 23).
edge(135, 174).
edge(26, 73).
edge(6, 42).
edge(4, 119).
edge(67, 130).
edge(47, 93).
edge(71, 123).
edge(50, 97).
edge(67, 134).
edge(106, 112).
edge(23, 135).
edge(77, 173).
edge(96, 137).
edge(54, 167).
edge(39, 58).
edge(97, 162).
edge(159, 167).
edge(56, 122).
edge(45, 105).
edge(23, 53).
edge(112, 117).
edge(14, 126).
edge(144, 165).
edge(68, 75).
edge(69, 80).
edge(63, 138).
edge(3, 102).
edge(90, 129).
edge(40, 57).
edge(43, 157).
edge(17, 73).
edge(12, 88).
edge(23, 49).
edge(14, 151).
edge(5, 162).
edge(20, 126).
edge(93, 151).
edge(47, 79).
edge(113, 176).
edge(124, 155).
edge(56, 112).
edge(48, 144).
edge(5, 28).
edge(50, 147).
edge(36, 110).
edge(43, 112).
edge(151, 154).
edge(19, 45).
edge(58, 107).
edge(70, 155).
edge(108, 114).
edge(144, 146).
edge(88, 134).
edge(11, 163).
edge(66, 145).
edge(21, 137).
edge(29, 63).
edge(93, 104).
edge(19, 177).
edge(64, 94).
edge(31, 58).
edge(21, 30).
edge(54, 141).
edge(15, 27).
edge(105, 158).
edge(15, 131).
edge(11, 55).
edge(93, 94).
edge(112, 122).
edge(31, 141).
edge(109, 158).
edge(117, 165).
edge(61, 96).
edge(151, 164).
edge(3, 60).
edge(69, 94).
edge(21, 33).
edge(16, 80).
edge(3, 74).
edge(23, 43).
edge(65, 149).
edge(158, 177).
edge(16, 175).
edge(30, 50).
edge(90, 177).
edge(45, 126).
edge(121, 165).
edge(30, 48).
edge(3, 173).
edge(22, 152).
edge(32, 40).
edge(151, 168).
edge(55, 118).
edge(50, 108).
edge(58, 66).
edge(30, 86).
edge(84, 143).
edge(65, 142).
edge(12, 95).
edge(15, 132).
edge(57, 62).
edge(144, 168).
edge(27, 143).
edge(26, 43).
edge(66, 112).
edge(71, 125).
edge(30, 151).
edge(23, 134).
edge(45, 141).
edge(103, 167).
edge(34, 95).
edge(41, 134).
edge(11, 21).
edge(44, 162).
edge(42, 52).
edge(98, 130).
edge(19, 122).
edge(110, 123).
edge(11, 43).
edge(9, 135).
edge(41, 59).
edge(107, 129).
edge(16, 77).
edge(62, 155).
edge(133, 143).
edge(74, 158).
edge(65, 177).
edge(93, 163).
edge(16, 131).
edge(21, 89).
edge(27, 102).
edge(47, 164).
edge(82, 145).
edge(69, 174).
edge(39, 41).
edge(9, 147).
edge(9, 72).
edge(84, 142).
edge(106, 137).
edge(139, 168).
edge(16, 60).
edge(63, 93).
edge(123, 135).
edge(0, 53).
edge(30, 148).
edge(113, 156).
edge(13, 86).
edge(59, 167).
edge(29, 55).
edge(74, 78).
edge(54, 155).
edge(32, 101).
edge(75, 105).
edge(12, 64).
edge(145, 147).
edge(7, 168).
edge(43, 95).
edge(97, 175).
edge(96, 117).
edge(76, 93).
edge(62, 111).
edge(100, 102).
edge(35, 39).
edge(35, 57).
edge(57, 168).
edge(119, 167).
edge(47, 160).
edge(21, 109).
edge(3, 80).
edge(39, 104).
edge(131, 173).
edge(1, 69).
edge(9, 88).
edge(42, 165).
edge(138, 173).
edge(126, 135).
edge(167, 170).
edge(43, 83).
edge(8, 163).
edge(37, 114).
edge(163, 165).
edge(48, 145).
edge(7, 102).
edge(172, 174).
edge(104, 138).
edge(31, 55).
edge(90, 168).
edge(132, 167).
edge(6, 87).
edge(138, 176).
edge(18, 31).
edge(41, 167).
edge(40, 87).
edge(40, 167).
edge(18, 158).
edge(81, 150).
edge(65, 113).
edge(107, 118).
edge(145, 157).
edge(121, 128).
edge(39, 74).
edge(52, 141).
edge(42, 166).
edge(127, 159).
edge(68, 165).
edge(82, 142).
edge(26, 85).
edge(1, 29).
edge(12, 55).
edge(117, 119).
edge(28, 136).
edge(21, 163).
edge(59, 112).
edge(132, 157).
edge(114, 167).
edge(74, 133).
edge(66, 156).
edge(28, 92).
edge(3, 51).
edge(135, 172).
edge(40, 47).
edge(98, 122).
edge(31, 40).
edge(41, 140).
edge(58, 116).
edge(1, 78).
edge(109, 159).
edge(20, 47).
edge(32, 160).
edge(115, 153).
edge(17, 162).
edge(130, 174).
edge(151, 165).
edge(7, 165).
edge(1, 34).
edge(111, 113).
edge(30, 61).
edge(38, 96).
edge(61, 117).
edge(126, 164).
edge(153, 164).
edge(15, 101).
edge(42, 59).
edge(5, 140).
edge(95, 165).
edge(39, 137).
edge(20, 62).
edge(125, 159).
edge(17, 177).
edge(37, 129).
edge(15, 108).
edge(24, 138).
edge(99, 135).
edge(52, 125).
edge(35, 175).
edge(77, 144).
edge(89, 91).
edge(21, 177).
edge(4, 138).
edge(12, 73).
edge(5, 72).
edge(89, 160).
edge(94, 98).
edge(70, 79).
edge(10, 161).
edge(60, 145).
edge(2, 27).
edge(97, 171).
edge(93, 117).
edge(82, 122).
edge(84, 109).
edge(9, 166).
edge(55, 65).
edge(27, 117).
edge(7, 154).
edge(52, 106).
edge(77, 130).
edge(77, 167).
edge(134, 168).
edge(55, 177).
edge(34, 73).
edge(55, 136).
edge(37, 173).
edge(5, 13).
edge(133, 157).
edge(63, 89).
edge(46, 77).
edge(12, 98).
edge(102, 129).
edge(97, 159).
edge(10, 90).
edge(54, 85).
edge(0, 85).
edge(56, 90).
edge(102, 152).
edge(38, 106).
edge(37, 70).
edge(82, 166).
edge(15, 71).
edge(65, 146).
edge(156, 171).
edge(10, 169).
edge(65, 107).
edge(28, 173).
edge(29, 147).
edge(35, 69).
edge(10, 116).
edge(8, 142).
edge(49, 109).
edge(33, 40).
edge(50, 156).
edge(111, 163).
edge(110, 155).
edge(97, 106).
edge(5, 8).
edge(80, 98).
edge(52, 145).
edge(2, 159).
edge(84, 149).
edge(19, 48).
edge(10, 68).
edge(65, 114).
edge(23, 148).
edge(120, 170).
edge(96, 152).
edge(17, 174).
edge(58, 59).
edge(82, 113).
edge(7, 148).
edge(72, 105).
edge(51, 98).
edge(48, 163).
edge(44, 105).
edge(14, 133).
edge(76, 107).
edge(13, 102).
edge(45, 108).
edge(32, 120).
edge(59, 140).
edge(79, 86).
edge(83, 112).
weight(0, 1).
weight(1, 2).
weight(2, 3).
weight(3, 8).
weight(4, 4).
weight(5, 1).
weight(6, 3).
weight(7, 6).
weight(8, 3).
weight(9, 1).
weight(10, 2).
weight(11, 6).
weight(12, 1).
weight(13, 8).
weight(14, 2).
weight(15, 6).
weight(16, 8).
weight(17, 1).
weight(18, 3).
weight(19, 7).
weight(20, 8).
weight(21, 5).
weight(22, 7).
weight(23, 8).
weight(24, 4).
weight(25, 5).
weight(26, 5).
weight(27, 8).
weight(28, 4).
weight(29, 4).
weight(30, 7).
weight(31, 9).
weight(32, 3).
weight(33, 3).
weight(34, 1).
weight(35, 6).
weight(36, 1).
weight(37, 5).
weight(38, 1).
weight(39, 7).
weight(40, 4).
weight(41, 6).
weight(42, 8).
weight(43, 5).
weight(44, 8).
weight(45, 4).
weight(46, 7).
weight(47, 2).
weight(48, 4).
weight(49, 2).
weight(50, 5).
weight(51, 7).
weight(52, 7).
weight(53, 1).
weight(54, 6).
weight(55, 6).
weight(56, 5).
weight(57, 4).
weight(58, 1).
weight(59, 5).
weight(60, 7).
weight(61, 6).
weight(62, 4).
weight(63, 4).
weight(64, 6).
weight(65, 2).
weight(66, 4).
weight(67, 1).
weight(68, 5).
weight(69, 7).
weight(70, 9).
weight(71, 3).
weight(72, 7).
weight(73, 8).
weight(74, 1).
weight(75, 2).
weight(76, 5).
weight(77, 2).
weight(78, 6).
weight(79, 7).
weight(80, 7).
weight(81, 9).
weight(82, 6).
weight(83, 5).
weight(84, 1).
weight(85, 4).
weight(86, 4).
weight(87, 3).
weight(88, 5).
weight(89, 1).
weight(90, 5).
weight(91, 5).
weight(92, 1).
weight(93, 1).
weight(94, 4).
weight(95, 5).
weight(96, 2).
weight(97, 1).
weight(98, 8).
weight(99, 1).
weight(100, 5).
weight(101, 9).
weight(102, 4).
weight(103, 5).
weight(104, 5).
weight(105, 7).
weight(106, 5).
weight(107, 5).
weight(108, 2).
weight(109, 5).
weight(110, 4).
weight(111, 9).
weight(112, 3).
weight(113, 7).
weight(114, 2).
weight(115, 9).
weight(116, 9).
weight(117, 7).
weight(118, 7).
weight(119, 6).
weight(120, 4).
weight(121, 1).
weight(122, 8).
weight(123, 5).
weight(124, 4).
weight(125, 6).
weight(126, 7).
weight(127, 8).
weight(128, 2).
weight(129, 1).
weight(130, 5).
weight(131, 3).
weight(132, 4).
weight(133, 5).
weight(134, 9).
weight(135, 8).
weight(136, 3).
weight(137, 3).
weight(138, 7).
weight(139, 7).
weight(140, 8).
weight(141, 4).
weight(142, 4).
weight(143, 7).
weight(144, 4).
weight(145, 8).
weight(146, 6).
weight(147, 6).
weight(148, 4).
weight(149, 1).
weight(150, 3).
weight(151, 8).
weight(152, 1).
weight(153, 5).
weight(154, 8).
weight(155, 1).
weight(156, 5).
weight(157, 5).
weight(158, 8).
weight(159, 4).
weight(160, 2).
weight(161, 7).
weight(162, 9).
weight(163, 1).
weight(164, 6).
weight(165, 5).
weight(166, 2).
weight(167, 8).
weight(168, 9).
weight(169, 7).
weight(170, 9).
weight(171, 5).
weight(172, 4).
weight(173, 6).
weight(174, 6).
weight(175, 6).
weight(176, 4).
weight(177, 6).
bound(88).

adj(U,V) :- edge(U,V).
adj(U,V) :- edge(V,U).
{in(V)} :- node(V).
dominated(V) :- in(V).
dominated(V) :- in(U), adj(U,V).
:- node(V), not dominated(V).
:- bound(B), #sum{W,V : in(V), weight(V,W)} > B.
:~ in(V), weight(V,W). [W@1,V]
