node(0..196).
edge(10, 113).
edge(68, 184).
edge(102, 117).
edge(82, 176).
edge(29, 133).
edge(36, 154).
edge(88, 159).
edge(74, 173).
edge(29, 30).
edge(33, 55).
edge(21, 175).
edge(54, 174).
edge(8, 97).
edge(93, 124).
edge(39, 144).
edge(24, 149).
edge(157, 177).
edge(9, 142).
edge(90, 160).
edge(32, 195).
edge(174, 175).
edge(30, 129).
edge(52, 131).
edge(58, 181).
edge(88, 178).
edge(39, 97).
edge(10, 79).
edge(67, 105).
edge(125, 158).
edge(74, 85).
edge(79, 116).
edge(119, 182).
edge(4, 64).
edge(33, 145).
edge(58, 121).
edge(15, 84).
edge(7, 79).
edge(36, 156).
edge(142, 187).
edge(22, 138).
edge(96, 189).
edge(6, 29).
edge(165, 179).
edge(27, 96).
edge(29, 77).
edge(69, 102).
edge(40, 75).
edge(64, 173).
edge(51, 103).
edge(144, 152).
edge(139, 172).
edge(101, 193).
edge(73, 77).
edge(105, 132).
edge(2, 84).
edge(62, 129).
edge(35, 56).
edge(66, 139).
edge(159, 182).
edge(7, 100).
edge(113, 153).
edge(27, 172).
edge(97, 102).
edge(90, 165).
edge(29, 144).
edge(70, 133).
edge(67, 179).
edge(71, 182).
edge(144, 173).
edge(29, 119).
edge(126, 168).
edge(100, 175).
edge(76, 126).
edge(108, 140).
edge(65, 157).
edge(8, 50).
edge(187, 191).
edge(31, 35).
edge(10, 30).
edge(97, 114).
edge(103, 131).
edge(151, 190).
edge(119, 156).
edge(84, 111).
edge(1, 117).
edge(149, 187).
edge(66, 186).
edge(4, 59).
edge(68, 133).
edge(69, 127).
edge(35, 104).
edge(140, 191).
edge(20, 77).
edge(79, 170).
edge(28, 95).
edge(67, 165).
edge(69, 84).
edge(77, 157).
edge(18, 62).
edge(30, 94).
edge(69, 182).
edge(46, 153).
edge(56, 153).
edge(116, 158).
edge(4, 44).
edge(193, 194).
edge(57, 89).
edge(28, 107).
edge(34, 77).
edge(82, 129).
edge(111, 145).
edge(181, 195).
edge(61, 86).
edge(29, 100).
edge(33, 175).
edge(128, 140).
edge(60, 124).
edge(125, 177).
edge(60, 190).
edge(81, 165).
edge(85, 88).
edge(78, 116).
edge(110, 146).
edge(31, 179).
edge(153, 155).
edge(106, 179).
edge(86, 125).
edge(61, 168).
edge(142, 192).
edge(111, 133).
edge(56, 160).
edge(15, 27).
edge(138, 181).
edge(40, 171).
edge(8, 56).
edge(28, 148).
edge(18, 142).
edge(72, 120).
edge(65, 94).
edge(46, 158).
edge(140, 143).
edge(49, 180).
edge(187, 188).
edge(115, 145).
edge(73, 97).
edge(14, 187).
edge(107, 193).
edge(138, 169).
edge(13, 18).
edge(148, 164).
edge(87, 167).
edge(160, 194).
edge(16, 40).
edge(28, 65).
edge(143, 162).
edge(18, 60).
edge(45, 81).
edge(9, 95).
edge(4, 43).
edge(41, 142).
edge(120, 156).
edge(9, 80).
edge(34, 140).
edge(3, 67).
edge(44, 59).
edge(8, 182).
edge(74, 89).
edge(42, 137).
edge(28, 155).
edge(188, 192).
edge(12, 46).
edge(119, 193).
edge(22, 105).
edge(38, 120).
edge(102, 173).
edge(151, 177).
edge(47, 72).
edge(73, 78).
edge(44, 125).
edge(73, 187).
edge(65, 129).
edge(48, 135).
edge(11, 82).
edge(66, 81).
edge(129, 189).
edge(89, 100).
edge(25, 88).
edge(32, 186).
edge(108, 116).
edge(73, 133).
edge(62, 123).
edge(112, 186).
edge(17, 90).
edge(169, 184).
edge(17, 188).
edge(91, 128).
edge(63, 90).
edge(134, 190).
edge(8, 41).
edge(46, 150).
edge(44, 145).
edge(28, 130).
edge(116, 156).
edge(28, 84).
edge(175, 192).
edge(37, 156).
edge(128, 182).
edge(70, 176).
edge(14, 17).
edge(58, 126).
edge(58, 159).
edge(17, 173).
edge(15, 99).
edge(5, 86).
edge(55, 92).
edge(40, 180).
edge(38, 76).
edge(82, 153).
edge(72, 112).
edge(76, 86).
edge(174, 189).
edge(117, 133).
edge(47, 127).
edge(17, 91).
edge(75, 120).
edge(131, 193).
edge(67, 78).
edge(135, 168).
edge(8, 65).
edge(21, 71).
edge(5, 130).
edge(36, 100).
edge(16, 31).
edge(90, 185).
edge(68, 95).
edge(45, 83).
edge(13, 57).
edge(126, 195).
edge(91, 99).
edge(36, 116).
edge(76, 192).
edge(15, 177).
edge(14, 173).
edge(78, 92).
edge(1, 16).
edge(118, 133).
edge(195, 196).
edge(34, 165).
edge(62, 93).
edge(75, 82).
edge(66, 161).
edge(143, 164).
edge(78, 79).
edge(0, 94).
edge(139, 173).
edge(137, 163).
edge(95, 164).
edge(188, 196).
edge(0, 45).
edge(15, 126).
edge(3, 194).
edge(136, 160).
edge(102, 127).
edge(17, 101).
edge(17, 137).
edge(41, 86).
edge(39, 162).
edge(6, 127).
edge(26, 138).
edge(47, 69).
edge(57, 156).
edge(28, 92).
edge(61, 106).
edge(52, 81).
edge(59, 163).
edge(67, 166).
edge(33, 151).
edge(105, 110).
edge(59, 196).
edge(1, 148).
edge(80, 106).
edge(25, 192).
edge(67, 73).
edge(51, 114).
edge(55, 108).
edge(140, 189).
edge(53, 97).
edge(58, 136).
edge(36, 50).
edge(81, 139).
edge(14, 34).
edge(124, 144).
edge(87, 163).
edge(25, 87).
edge(79, 178).
edge(15, 16).
edge(105, 146).
edge(0, 79).
edge(60, 122).
edge(30, 155).
edge(12, 92).
edge(150, 172).
edge(6, 22).
edge(20, 179).
edge(1, 3).
edge(76, 96).
edge(132, 160).
edge(92, 188).
edge(105, 171).
edge(151, 152).
edge(78, 161).
edge(46, 191).
edge(64, 91).
edge(3, 156).
edge(44, 123).
edge(101, 119).
edge(42, 148).
edge(80, 180).
edge(13, 62).
edge(25, 89).
edge(29, 103).
edge(88, 142).
edge(43, 161).
edge(153, 191).
edge(3, 62).
edge(48, 195).
edge(4, 27).
edge(33, 180).
edge(14, 85).
edge(66, 147).
edge(75, 161).
edge(53, 153).
edge(58, 75).
edge(133, 184).
edge(7, 101).
edge(44, 135).
edge(66, 142).
edge(14, 153).
edge(10, 196).
edge(100, 174).
edge(105, 129).
edge(134, 155).
edge(15, 175).
edge(137, 155).
edge(61, 115).
edge(84, 184).
edge(33, 135).
edge(51, 151).
edge(72, 137).
edge(50, 63).
edge(127, 147).
edge(28, 149).
edge(20, 133).
edge(14, 121).
edge(122, 169).
edge(13, 74).
edge(9, 81).
edge(64, 155).
edge(2, 74).
edge(74, 118).
edge(117, 196).
edge(25, 61).
edge(43, 109).
edge(28, 165).
edge(100, 170).
edge(172, 189).
edge(16, 119).
edge(130, 192).
edge(50, 182).
edge(65, 164).
edge(4, 116).
edge(17, 102).
edge(126, 189).
edge(23, 131).
edge(1, 63).
edge(31, 37).
edge(17, 111).
edge(75, 124).
edge(42, 113).
edge(8, 103).
edge(82, 164).
edge(87, 106).
edge(160, 178).
edge(120, 182).
edge(11, 174).
edge(32, 113).
edge(93, 170).
edge(123, 189).
edge(101, 187).
edge(140, 174).
edge(145, 192).
edge(26, 187).
edge(64, 78).
edge(158, 170).
edge(9, 156).
edge(51, 124).
edge(58, 130).
edge(112, 121).
edge(83, 93).
edge(165, 176).
edge(74, 160).
edge(159, 194).
edge(176, 188).
edge(8, 181).
edge(99, 191).
edge(111, 138).
edge(85, 150).
edge(54, 193).
edge(97, 161).
edge(50, 172).
edge(21, 167).
edge(146, 157).
edge(157, 191).
edge(138, 177).
edge(27, 112).
edge(12, 152).
edge(61, 90).
edge(14, 189).
edge(102, 103).
edge(116, 189).
edge(24, 131).
edge(25, 145).
edge(101, 172).
edge(50, 110).
edge(31, 97).
edge(42, 128).
edge(122, 165).
edge(116, 123).
edge(34, 47).
edge(57, 122).
edge(43, 182).
edge(46, 102).
edge(76, 103).
edge(16, 56).
edge(23, 112).
edge(64, 181).
edge(9, 168).
edge(41, 109).
edge(63, 106).
edge(111, 155).
edge(20, 78).
edge(20, 157).
edge(30, 187).
edge(56, 182).
edge(84, 87).
edge(37, 146).
edge(63, 129).
edge(154, 159).
edge(9, 45).
edge(19, 141).
edge(179, 191).
edge(69, 148).
edge(37, 88).
edge(24, 141).
edge(13, 72).
edge(67, 186).
edge(82, 185).
edge(20, 74).
edge(99, 165).
edge(90, 138).
edge(28, 150).
edge(119, 121).
edge(0, 34).
edge(100, 153).
edge(64, 73).
edge(87, 111).
edge(148, 159).
edge(124, 125).
edge(68, 161).
edge(81, 173).
edge(93, 151).
edge(2, 176).
edge(13, 169).
edge(84, 141).
edge(29, 39).
edge(127, 192).
edge(61, 152).
edge(56, 67).
edge(87, 173).
edge(65, 127).
edge(66, 159).
edge(6, 190).
edge(76, 119).
edge(91, 189).
edge(89, 148).
edge(17, 74).
edge(11, 117).
edge(86, 191).
edge(135, 148).
edge(64, 177).
edge(106, 154).
edge(40, 160).
edge(132, 190).
edge(161, 194).
edge(10, 22).
edge(3, 73).
edge(80, 167).
edge(35, 157).
edge(55, 167).
edge(168, 169).
edge(91, 131).
edge(50, 62).
edge(35, 113).
edge(70, 120).
edge(61, 179).
edge(2, 21).
edge(97, 194).
edge(134, 195).
edge(51, 126).
edge(177, 188).
edge(45, 85).
edge(29, 109).
edge(124, 187).
edge(46, 76).
edge(96, 157).
edge(77, 133).
edge(123, 129).
edge(9, 105).
edge(43, 105).
edge(27, 123).
edge(24, 158).
edge(47, 132).
edge(114, 136).
edge(167, 172).
edge(63, 166).
edge(88, 151).
edge(102, 110).
edge(2, 13).
edge(93, 138).
edge(58, 113).
edge(2, 75).
edge(67, 112).
edge(116, 187).
edge(140, 194).
edge(25, 158).
edge(82, 166).
edge(179, 186).
edge(86, 167).
edge(34, 168).
edge(44, 150).
edge(46, 70).
edge(42, 176).
edge(9, 138).
edge(50, 81).
edge(146, 173).
edge(39, 187).
edge(115, 126).
edge(164, 170).
edge(0, 165).
edge(58, 108).
edge(36, 46).
edge(46, 89).
edge(68, 178).
edge(57, 59).
edge(58, 60).
edge(153, 169).
edge(3, 116).
edge(171, 178).
edge(130, 142).
edge(131, 148).
edge(52, 180).
edge(101, 135).
edge(46, 115).
edge(3, 97).
edge(149, 154).
edge(100, 127).
edge(6, 87).
edge(53, 81).
edge(132, 151).
edge(1, 6).
edge(15, 111).
edge(15, 185).
edge(52, 62).
edge(112, 114).
edge(129, 147).
edge(12, 131).
edge(76, 195).
edge(157, 173).
edge(121, 126).
edge(1, 105).
edge(21, 157).
edge(53, 171).
edge(160, 185).
edge(68, 86).
edge(131, 183).
edge(51, 71).
edge(65, 148).
edge(142, 186).
edge(2, 155).
edge(40, 99).
edge(18, 86).
edge(68, 103).
edge(68, 196).
edge(29, 184).
edge(8, 74).
edge(37, 91).
edge(117, 193).
edge(11, 15).
edge(51, 58).
edge(84, 148).
edge(46, 53).
edge(71, 124).
edge(172, 174).
edge(86, 123).
edge(17, 158).
edge(55, 122).
edge(61, 92).
edge(17, 132).
edge(76, 131).
edge(98, 187).
edge(98, 143).
edge(28, 128).
edge(85, 136).
edge(80, 192).
edge(76, 128).
edge(178, 185).
edge(14, 40).
edge(17, 167).
edge(10, 45).
edge(8, 17).
edge(3, 25).
edge(80, 124).
edge(65, 68).
edge(83, 106).
edge(24, 123).
edge(101, 171).
edge(32, 180).
edge(46, 125).
edge(42, 71).
edge(92, 166).
edge(44, 169).
edge(10, 54).
edge(27, 128).
edge(106, 123).
edge(78, 85).
edge(125, 133).
edge(34, 71).
edge(17, 194).
edge(84, 90).
edge(73, 195).
edge(98, 196).
edge(25, 138).
edge(78, 183).
edge(123, 183).
edge(32, 170).
edge(53, 115).
edge(80, 135).
edge(77, 152).
edge(144, 187).
edge(19, 91).
edge(71, 161).
edge(183, 188).
edge(160, 195).
edge(93, 104).
edge(8, 73).
edge(152, 183).
edge(90, 142).
edge(64, 122).
edge(53, 109).
edge(83, 177).
edge(6, 81).
edge(41, 138).
edge(25, 91).
edge(176, 183).
edge(54, 94).
edge(3, 52).
edge(69, 177).
edge(39, 137).
edge(94, 137).
edge(1, 41).
edge(55, 180).
edge(9, 62).
edge(16, 38).
edge(5, 169).
edge(4, 67).
edge(15, 29).
edge(90, 191).
edge(25, 184).
edge(36, 175).
edge(41, 52).
edge(63, 66).
edge(65, 102).
edge(76, 150).
edge(37, 187).
edge(138, 152).
edge(167, 196).
edge(139, 157).
edge(73, 159).
edge(25, 121).
edge(101, 148).
edge(6, 21).
edge(0, 85).
edge(61, 100).
edge(96, 102).
edge(33, 71).
edge(145, 148).
edge(2, 178).
edge(7, 149).
edge(35, 179).
edge(83, 153).
edge(136, 173).
edge(54, 55).
edge(141, 185).
edge(15, 166).
edge(11, 73).
edge(63, 81).
edge(174, 186).
edge(3, 92).
edge(78, 154).
edge(120, 179).
edge(9, 137).
edge(157, 160).
edge(55, 177).
edge(89, 183).
edge(101, 182).
edge(80, 112).
edge(16, 185).
edge(23, 89).
edge(44, 144).
edge(188, 190).
edge(7, 137).
edge(72, 180).
edge(29, 185).
edge(36, 184).
edge(20, 62).
edge(95, 143).
edge(5, 167).
edge(42, 85).
edge(99, 145).
edge(47, 91).
edge(46, 187).
edge(41, 159).
edge(60, 161).
edge(68, 128).
edge(12, 63).
edge(99, 172).
edge(117, 171).
edge(102, 119).
edge(0, 28).
edge(7, 47).
edge(110, 114).
edge(118, 184).
edge(22, 50).
edge(104, 119).
edge(84, 93).
edge(23, 86).
edge(121, 152).
edge(123, 125).
edge(131, 132).
edge(10, 87).
edge(68, 102).
edge(8, 16).
edge(173, 193).
edge(12, 64).
edge(111, 162).
edge(83, 162).
edge(6, 186).
edge(89, 115).
edge(0, 157).
edge(61, 158).
edge(87, 189).
edge(139, 175).
edge(112, 165).
edge(72, 78).
edge(81, 130).
edge(174, 194).
edge(24, 159).
edge(2, 158).
edge(10, 104).
edge(96, 167).
edge(19, 50).
edge(14, 152).
edge(39, 89).
edge(49, 139).
edge(12, 74).
edge(85, 167).
edge(7, 55).
edge(115, 134).
edge(52, 66).
edge(2, 154).
edge(19, 78).
edge(66, 69).
edge(8, 176).
edge(100, 166).
edge(89, 150).
edge(11, 166).
edge(58, 157).
edge(101, 103).
edge(20, 61).
edge(91, 164).
edge(56, 172).
edge(95, 119).
edge(79, 196).
edge(49, 176).
edge(12, 52).
edge(119, 188).
edge(61, 84).
edge(110, 115).
edge(32, 100).
edge(73, 166).
edge(89, 152).
edge(71, 80).
edge(55, 85).
edge(43, 45).
edge(48, 90).
edge(175, 187).
edge(13, 32).
edge(107, 168).
edge(31, 131).
edge(0, 121).
edge(72, 155).
edge(63, 139).
edge(21, 152).
edge(120, 152).
edge(45, 52).
edge(76, 88).
edge(25, 64).
edge(142, 172).
edge(133, 142).
edge(50, 87).
edge(28, 129).
edge(101, 157).
edge(164, 165).
edge(76, 120).
edge(66, 171).
edge(69, 193).
edge(176, 178).
edge(74, 185).
edge(48, 168).
edge(23, 173).
edge(20, 52).
edge(43, 192).
edge(81, 196).
edge(105, 138).
edge(113, 194).
edge(63, 70).
edge(49, 93).
edge(13, 108).
edge(18, 46).
edge(63, 135).
edge(32, 38).
edge(122, 171).
edge(45, 152).
edge(1, 119).
edge(0, 188).
edge(146, 187).
edge(28, 118).
edge(90, 100).
edge(122, 180).
edge(157, 193).
edge(29, 110).
edge(77, 98).
edge(28, 57).
edge(97, 110).
edge(99, 134).
edge(65, 184).
edge(154, 196).
edge(8, 142).
edge(33, 138).
edge(8, 46).
edge(121, 162).
edge(112, 120).
edge(18, 173).
edge(9, 144).
edge(134, 162).
edge(52, 102).
edge(22, 93).
edge(91, 196).
edge(70, 86).
edge(93, 148).
edge(42, 110).
edge(93, 195).
edge(70, 161).
edge(85, 89).
edge(49, 149).
edge(38, 171).
edge(24, 153).
edge(70, 189).
edge(117, 143).
edge(59, 109).
edge(126, 196).
edge(57, 92).
edge(59, 150).
edge(92, 169).
edge(12, 134).
edge(4, 181).
edge(151, 163).
edge(44, 107).
edge(61, 121).
edge(29, 194).
edge(158, 178).
edge(65, 67).
edge(126, 135).
edge(15, 53).
edge(17, 152).
edge(3, 77).
edge(110, 181).
edge(75, 155).
edge(144, 193).
edge(43, 136).
edge(96, 187).
edge(33, 88).
edge(18, 181).
edge(22, 51).
edge(146, 171).
edge(72, 179).
edge(92, 116).
edge(74, 157).
edge(183, 194).
edge(88, 155).
edge(0, 145).
edge(36, 121).
edge(30, 130).
edge(72, 195).
edge(15, 88).
edge(42, 162).
edge(24, 117).
edge(92, 176).
edge(43, 144).
edge(47, 71).
edge(115, 186).
edge(28, 141).
edge(122, 138).
edge(92, 193).
edge(129, 190).
edge(28, 125).
edge(99, 131).
edge(13, 166).
edge(58, 74).
edge(21, 149).
edge(37, 168).
edge(180, 181).
edge(97, 104).
edge(73, 79).
edge(79, 107).
edge(36, 160).
edge(184, 185).
edge(42, 53).
edge(21, 155).
edge(1, 192).
edge(51, 158).
edge(121, 129).
edge(41, 44).
edge(78, 176).
edge(39, 131).
edge(138, 157).
edge(105, 133).
edge(73, 151).
edge(84, 192).
edge(15, 168).
edge(144, 151).
edge(63, 155).
edge(32, 109).
edge(107, 135).
edge(124, 155).
edge(58, 94).
edge(86, 87).
edge(77, 119).
edge(167, 194).
edge(65, 88).
edge(6, 167).
edge(72, 82).
edge(62, 99).
edge(46, 50).
edge(145, 178).
edge(41, 80).
edge(8, 156).
edge(58, 180).
edge(1, 124).
edge(21, 120).
edge(30, 54).
edge(127, 164).
edge(15, 34).
edge(102, 180).
edge(11, 172).
edge(35, 185).
edge(62, 146).
edge(4, 140).
edge(19, 175).
edge(104, 172).
edge(59, 76).
edge(42, 125).
edge(57, 90).
edge(79, 183).
edge(54, 110).
edge(7, 95).
edge(56, 57).
edge(27, 155).
edge(50, 83).
edge(21, 183).
edge(67, 191).
edge(117, 134).
edge(74, 98).
edge(113, 135).
edge(7, 189).
edge(82, 167).
edge(117, 142).
edge(23, 71).
edge(27, 82).
edge(41, 175).
edge(38, 66).
edge(4, 158).
edge(141, 182).
edge(82, 122).
edge(45, 150).
edge(119, 131).
edge(83, 143).
edge(26, 58).
edge(71, 180).
edge(15, 32).
edge(58, 83).
edge(160, 182).
edge(8, 75).
edge(28, 40).
edge(95, 185).
edge(52, 84).
edge(24, 142).
edge(10, 12).
edge(118, 152).
edge(155, 175).
edge(24, 183).
edge(66, 116).
edge(122, 192).
edge(30, 164).
edge(21, 34).
edge(52, 118).
edge(101, 146).
edge(98, 138).
edge(20, 88).
edge(85, 187).
edge(14, 15).
edge(90, 113).
edge(25, 136).
edge(87, 90).
edge(31, 92).
edge(138, 188).
edge(20, 170).
edge(51, 106).
edge(7, 190).
edge(161, 192).
edge(20, 176).
edge(0, 62).
edge(48, 53).
edge(56, 115).
edge(77, 85).
edge(32, 154).
edge(46, 61).
edge(140, 146).
edge(98, 176).
edge(30, 91).
edge(99, 110).
edge(70, 187).
edge(82, 187).
edge(49, 173).
edge(90, 103).
edge(157, 194).
edge(64, 106).
edge(155, 177).
edge(48, 104).
edge(137, 181).
edge(107, 141).
edge(105, 124).
edge(82, 168).
edge(17, 114).
edge(28, 111).
edge(128, 160).
edge(13, 114).
edge(74, 181).
edge(138, 155).
edge(19, 61).
edge(63, 151).
edge(98, 152).
edge(90, 181).
edge(21, 87).
edge(16, 180).
edge(2, 165).
edge(21, 170).
edge(52, 61).
edge(120, 167).
edge(61, 153).
edge(52, 110).
edge(107, 162).
edge(27, 56).
edge(3, 54).
edge(97, 118).
edge(32, 192).
edge(168, 180).
edge(47, 95).
edge(107, 139).
edge(139, 168).
edge(5, 70).
edge(121, 189).
edge(20, 67).
edge(58, 115).
edge(97, 162).
edge(51, 140).
edge(18, 100).
edge(148, 180).
edge(150, 195).
edge(42, 69).
edge(59, 69).
edge(22, 79).
edge(118, 176).
edge(8, 52).
edge(87, 181).
edge(133, 188).
edge(76, 163).
edge(118, 163).
edge(39, 118).
edge(0, 57).
edge(59, 148).
edge(78, 112).
edge(35, 189).
edge(110, 160).
edge(54, 78).
edge(26, 163).
edge(55, 126).
edge(18, 118).
edge(41, 90).
edge(12, 77).
edge(0, 128).
edge(121, 174).
edge(100, 165).
edge(100, 126).
edge(82, 100).
edge(53, 119).
edge(100, 146).
edge(5, 147).
edge(28, 91).
edge(36, 162).
edge(43, 85).
edge(161, 181).
edge(117, 158).
edge(118, 168).
edge(17, 45).
edge(140, 192).
edge(103, 152).
edge(87, 175).
edge(13, 147).
edge(43, 54).
edge(63, 115).
edge(76, 153).
edge(45, 146).
edge(151, 173).
edge(10, 124).
edge(80, 171).
edge(24, 55).
edge(19, 186).
edge(122, 191).
edge(178, 182).
edge(79, 156).
edge(6, 61).
edge(108, 195).
edge(25, 103).
edge(56, 177).
edge(90, 109).
edge(39, 112).
edge(157, 162).
edge(165, 193).
edge(44, 93).
edge(95, 176).
edge(30, 108).
edge(55, 93).
edge(97, 132).
edge(11, 80).
edge(15, 19).
edge(88, 122).
edge(143, 195).
edge(46, 159).
edge(54, 104).
edge(153, 190).
edge(172, 191).
edge(35, 62).
edge(77, 158).
edge(128, 176).
edge(81, 85).
edge(16, 29).
edge(188, 193).
edge(69, 137).
edge(156, 157).
edge(19, 184).
edge(122, 163).
edge(22, 150).
edge(9, 53).
edge(126, 156).
edge(147, 184).
edge(60, 138).
edge(149, 178).
edge(6, 153).
edge(16, 53).
edge(24, 133).
edge(46, 127).
edge(122, 162).
edge(64, 137).
edge(93, 133).
edge(3, 150).
edge(64, 110).
edge(23, 82).
edge(30, 195).
edge(73, 175).
edge(55, 99).
edge(57, 140).
edge(139, 182).
edge(51, 72).
edge(73, 120).
edge(47, 103).
edge(27, 156).
edge(9, 149).
edge(99, 164).
edge(12, 42).
edge(63, 159).
edge(102, 129).
edge(9, 49).
edge(23, 142).
edge(60, 71).
edge(4, 109).
edge(89, 140).
edge(93, 95).
edge(133, 162).
edge(131, 143).
edge(118, 142).
edge(22, 49).
edge(66, 106).
edge(101, 189).
edge(3, 151).
edge(120, 122).
edge(147, 163).
edge(14, 70).
edge(140, 144).
edge(13, 92).
edge(176, 194).
edge(123, 136).
edge(65, 109).
edge(177, 192).
edge(8, 175).
edge(70, 153).
edge(98, 191).
edge(87, 161).
edge(112, 172).
edge(166, 179).
edge(48, 112).
edge(110, 112).
edge(45, 148).
edge(108, 138).
edge(150, 193).
edge(20, 177).
edge(42, 141).
edge(52, 129).
edge(53, 193).
edge(121, 158).
edge(40, 52).
edge(71, 83).
edge(94, 144).
edge(62, 120).
edge(92, 101).
edge(14, 83).
edge(118, 135).
edge(0, 160).
edge(2, 140).
edge(40, 69).
edge(22, 37).
edge(68, 179).
edge(38, 179).
edge(60, 112).
edge(46, 47).
edge(35, 131).
edge(153, 195).
edge(114, 115).
edge(31, 79).
edge(24, 35).
edge(165, 168).
edge(81, 133).
edge(123, 148).
edge(12, 120).
edge(3, 183).
edge(72, 144).
edge(67, 168).
edge(60, 120).
edge(8, 185).
edge(34, 129).
edge(167, 181).
edge(35, 71).
edge(19, 145).
edge(35, 125).
edge(41, 134).
edge(63, 82).
edge(62, 111).
edge(53, 68).
edge(59, 107).
edge(2, 14).
edge(70, 114).
edge(111, 183).
edge(77, 128).
edge(5, 161).
edge(111, 158).
edge(46, 64).
edge(51, 173).
edge(24, 32).
edge(4, 139).
edge(39, 83).
edge(154, 162).
edge(15, 192).
edge(10, 73).
edge(139, 190).
edge(127, 150).
edge(141, 194).
edge(33, 125).
edge(69, 189).
edge(21, 123).
edge(54, 112).
edge(79, 137).
edge(160, 196).
edge(130, 173).
edge(78, 172).
edge(57, 98).
edge(55, 174).
edge(21, 98).
edge(40, 158).
edge(87, 132).
edge(30, 124).
edge(33, 80).
edge(87, 166).
edge(99, 104).
edge(81, 177).
edge(87, 115).
edge(50, 118).
edge(0, 159).
edge(66, 97).
edge(73, 119).
edge(57, 179).
edge(72, 86).
edge(24, 171).
edge(23, 160).
edge(67, 95).
edge(69, 111).
edge(4, 102).
edge(38, 146).
edge(33, 190).
edge(46, 169).
edge(90, 139).
edge(48, 81).
edge(81, 135).
edge(0, 148).
edge(40, 149).
edge(143, 179).
edge(15, 163).
edge(103, 108).
edge(12, 69).
edge(116, 119).
edge(69, 133).
edge(42, 150).
edge(36, 79).
edge(47, 134).
edge(14, 171).
edge(96, 128).
edge(37, 127).
edge(36, 131).
edge(16, 67).
edge(34, 104).
edge(30, 177).
edge(63, 99).
edge(9, 88).
edge(46, 69).
edge(70, 191).
edge(97, 113).
edge(85, 147).
edge(75, 165).
edge(101, 106).
edge(151, 174).
edge(41, 43).
edge(123, 124).
edge(64, 152).
edge(23, 97).
edge(38, 127).
edge(119, 130).
edge(93, 110).
edge(79, 134).
edge(4, 115).
edge(41, 92).
edge(58, 72).
edge(95, 106).
edge(11, 155).
edge(19, 43).
edge(125, 161).
edge(22, 75).
edge(66, 94).
edge(63, 124).
edge(80, 123).
edge(80, 177).
edge(192, 194).
edge(123, 133).
edge(12, 32).
edge(108, 152).
edge(132, 168).
edge(170, 175).
edge(97, 115).
edge(188, 189).
edge(148, 161).
edge(54, 162).
edge(44, 162).
edge(15, 160).
edge(59, 191).
edge(8, 108).
edge(35, 165).
edge(131, 150).
edge(170, 177).
edge(25, 155).
edge(113, 169).
edge(51, 95).
edge(31, 163).
edge(110, 132).
edge(92, 123).
edge(42, 77).
edge(134, 137).
edge(96, 131).
edge(149, 193).
edge(11, 50).
edge(17, 133).
edge(53, 100).
edge(48, 154).
edge(43, 181).
edge(0, 21).
edge(3, 89).
edge(13, 143).
edge(34, 127).
edge(91, 100).
edge(60, 70).
edge(137, 152).
edge(19, 53).
edge(42, 57).
edge(6, 65).
edge(70, 154).
edge(106, 125).
edge(38, 168).
edge(132, 194).
edge(48, 120).
edge(40, 182).
edge(42, 107).
edge(31, 91).
edge(56, 141).
edge(106, 167).
edge(125, 175).
edge(47, 182).
edge(72, 102).
edge(135, 138).
edge(81, 194).
edge(181, 188).
edge(24, 83).
edge(103, 185).
edge(25, 86).
edge(132, 133).
edge(54, 166).
edge(145, 152).
edge(20, 60).
edge(96, 170).
edge(14, 69).
edge(63, 107).
edge(74, 135).
edge(17, 65).
edge(58, 143).
edge(21, 163).
edge(96, 121).
edge(15, 104).
edge(131, 139).
edge(164, 186).
edge(83, 97).
edge(14, 95).
edge(30, 81).
edge(88, 189).
edge(5, 113).
edge(32, 72).
edge(7, 53).
edge(20, 108).
edge(51, 80).
edge(47, 177).
edge(37, 100).
edge(0, 9).
edge(0, 10).
edge(11, 170).
edge(68, 156).
edge(17, 124).
edge(45, 153).
edge(105, 179).
edge(110, 161).
edge(20, 135).
edge(16, 103).
edge(89, 181).
edge(24, 173).
edge(29, 183).
edge(156, 182).
edge(39, 66).
edge(11, 180).
edge(13, 120).
edge(141, 191).
edge(61, 188).
edge(46, 55).
edge(63, 88).
edge(65, 111).
edge(100, 101).
edge(68, 69).
edge(43, 139).
edge(86, 128).
edge(28, 79).
edge(39, 102).
edge(13, 22).
edge(8, 169).
edge(20, 171).
edge(24, 180).
edge(53, 158).
edge(31, 59).
edge(48, 164).
edge(80, 83).
edge(123, 190).
edge(23, 85).
edge(9, 84).
edge(58, 103).
edge(96, 104).
edge(52, 77).
edge(108, 157).
edge(28, 34).
edge(133, 135).
edge(130, 165).
edge(34, 190).
edge(57, 143).
edge(71, 177).
edge(73, 105).
edge(67, 158).
edge(141, 184).
edge(94, 98).
edge(36, 55).
edge(14, 74).
edge(36, 54).
edge(131, 146).
edge(32, 111).
edge(124, 148).
edge(46, 163).
edge(36, 169).
edge(100, 121).
edge(83, 193).
edge(7, 71).
edge(53, 162).
edge(67, 120).
edge(175, 182).
edge(104, 186).
edge(143, 166).
edge(172, 194).
edge(119, 178).
edge(65, 180).
edge(117, 151).
edge(50, 160).
edge(144, 180).
edge(84, 181).
edge(140, 166).
edge(50, 121).
edge(26, 74).
edge(16, 171).
edge(90, 161).
edge(155, 167).
edge(72, 178).
edge(7, 32).
edge(111, 132).
edge(52, 54).
edge(35, 172).
edge(105, 166).
edge(102, 168).
edge(50, 159).
edge(12, 161).
edge(134, 147).
edge(84, 180).
edge(96, 181).
edge(113, 172).
edge(39, 76).
edge(46, 134).
edge(17, 138).
edge(1, 162).
edge(40, 47).
edge(85, 131).
edge(87, 179).
edge(10, 128).
edge(43, 156).
edge(74, 111).
edge(55, 81).
edge(151, 195).
edge(137, 143).
edge(132, 174).
edge(0, 137).
edge(7, 78).
edge(100, 143).
edge(3, 167).
edge(121, 165).
edge(48, 140).
edge(117, 166).
edge(24, 40).
edge(71, 192).
edge(85, 183).
edge(119, 184).
edge(59, 81).
edge(123, 149).
edge(84, 194).
edge(123, 170).
edge(101, 110).
edge(99, 123).
edge(49, 144).
edge(90, 102).
edge(23, 90).
edge(1, 19).
edge(157, 164).
edge(20, 98).
edge(48, 167).
edge(41, 105).
edge(26, 146).
edge(21, 168).
edge(181, 185).
edge(61, 140).
edge(99, 108).
edge(78, 140).
edge(78, 123).
edge(44, 184).
edge(51, 93).
edge(6, 156).
edge(23, 129).
edge(4, 46).
edge(43, 167).
edge(23, 64).
edge(103, 136).
edge(25, 31).
edge(88, 179).
edge(17, 117).
edge(5, 12).
edge(116, 185).
edge(125, 191).
edge(56, 145).
edge(31, 154).
edge(145, 173).
edge(112, 144).
edge(1, 115).
edge(52, 99).
edge(176, 180).
edge(165, 187).
edge(26, 182).
edge(105, 193).
edge(67, 86).
edge(16, 140).
edge(112, 127).
edge(135, 147).
edge(179, 184).
edge(17, 109).
edge(168, 171).
edge(60, 106).
edge(143, 149).
edge(73, 132).
edge(20, 91).
edge(9, 119).
edge(95, 148).
edge(39, 172).
edge(72, 108).
edge(69, 155).
edge(4, 39).
edge(40, 111).
edge(45, 91).
edge(136, 169).
edge(157, 188).
edge(13, 140).
edge(149, 164).
edge(36, 75).
edge(33, 65).
edge(117, 192).
edge(172, 185).
edge(25, 69).
edge(30, 103).
edge(12, 139).
edge(19, 66).
edge(5, 64).
edge(74, 169).
edge(53, 135).
edge(107, 147).
edge(137, 191).
edge(75, 129).
edge(87, 184).
edge(106, 127).
edge(20, 84).
edge(16, 123).
edge(40, 81).
edge(4, 76).
edge(54, 88).
edge(118, 194).
edge(30, 184).
edge(3, 28).
edge(135, 143).
edge(51, 109).
edge(155, 193).
edge(19, 123).
edge(171, 194).
edge(103, 156).
edge(3, 74).
edge(75, 118).
edge(97, 188).
edge(3, 59).
edge(9, 150).
edge(27, 185).
edge(1, 52).
edge(82, 144).
edge(67, 143).
edge(31, 137).
edge(59, 144).
edge(27, 80).
edge(17, 58).
edge(79, 147).
edge(70, 160).
edge(10, 195).
edge(105, 168).
edge(86, 94).
edge(21, 107).
edge(74, 193).
edge(77, 166).
edge(8, 64).
edge(24, 41).
edge(130, 150).
edge(15, 89).
edge(62, 116).
edge(134, 156).
edge(122, 142).
edge(27, 148).
edge(11, 109).
edge(55, 60).
edge(8, 55).
edge(28, 120).
edge(132, 177).
edge(61, 120).
edge(69, 120).
edge(4, 10).
edge(16, 113).
edge(116, 171).
edge(85, 173).
edge(104, 134).
edge(167, 180).
edge(20, 103).
edge(14, 103).
edge(60, 77).
edge(14, 16).
edge(93, 98).
edge(63, 193).
edge(6, 62).
edge(124, 188).
edge(13, 35).
edge(110, 118).
edge(11, 30).
edge(2, 38).
edge(102, 181).
edge(157, 167).
edge(51, 57).
edge(135, 189).
edge(23, 185).
edge(31, 87).
edge(45, 137).
edge(47, 83).
edge(22, 96).
edge(71, 176).
edge(67, 80).
edge(3, 41).
edge(73, 191).
edge(135, 174).
edge(43, 176).
edge(20, 174).
edge(42, 119).
edge(62, 196).
edge(114, 130).
edge(17, 30).
edge(25, 194).
edge(7, 184).
edge(2, 92).
edge(5, 35).
edge(114, 135).
edge(93, 134).
edge(4, 13).
edge(11, 25).
edge(140, 148).
edge(25, 82).
edge(159, 192).
edge(70, 102).
edge(153, 186).
edge(12, 53).
edge(16, 98).
edge(99, 149).
edge(6, 177).
edge(34, 121).
edge(38, 132).
edge(59, 126).
edge(28, 62).
edge(18, 162).
edge(111, 184).
edge(31, 123).
edge(125, 157).
edge(127, 136).
edge(17, 140).
edge(73, 86).
edge(43, 84).
edge(125, 169).
edge(21, 57).
edge(82, 99).
edge(52, 67).
edge(125, 159).
edge(134, 185).
edge(39, 65).
edge(19, 21).
edge(131, 190).
edge(69, 190).
edge(21, 145).
edge(51, 192).
edge(0, 164).
edge(108, 175).
edge(51, 110).
edge(150, 166).
edge(81, 171).
edge(81, 93).
edge(62, 101).
edge(56, 166).
edge(136, 168).
edge(31, 160).
edge(119, 168).
edge(21, 26).
edge(10, 36).
edge(95, 99).
edge(68, 123).
edge(19, 194).
edge(78, 186).
edge(76, 114).
edge(92, 167).
edge(118, 187).
edge(38, 184).
edge(75, 185).
edge(6, 37).
edge(82, 128).
edge(32, 80).
edge(35, 65).
edge(11, 181).
edge(121, 149).
edge(169, 180).
edge(102, 153).
edge(44, 187).
edge(26, 39).
edge(24, 46).
edge(43, 146).
edge(46, 131).
edge(80, 81).
edge(52, 121).
edge(16, 187).
edge(78, 83).
edge(135, 140).
edge(78, 84).
edge(36, 124).
edge(15, 131).
edge(69, 167).
edge(26, 148).
edge(53, 66).
edge(70, 193).
edge(22, 47).
edge(101, 151).
edge(27, 114).
edge(85, 117).
edge(16, 163).
edge(19, 65).
edge(0, 151).
edge(141, 165).
edge(79, 138).
edge(4, 29).
edge(26, 122).
edge(11, 178).
edge(29, 73).
edge(24, 193).
edge(40, 100).
edge(132, 145).
edge(118, 123).
edge(162, 177).
edge(68, 151).
edge(73, 155).
edge(9, 25).
edge(18, 72).
edge(36, 114).
edge(111, 115).
edge(65, 133).
edge(112, 180).
edge(93, 191).
edge(99, 171).
edge(21, 154).
edge(26, 150).
edge(41, 196).
edge(70, 87).
edge(41, 139).
edge(4, 113).
edge(105, 131).
edge(1, 7).
edge(54, 81).
edge(66, 179).
edge(145, 161).
edge(10, 139).
edge(80, 141).
edge(59, 96).
edge(143, 184).
edge(12, 36).
edge(8, 166).
edge(93, 196).
edge(66, 75).
edge(86, 178).
edge(8, 15).
edge(58, 100).
edge(31, 109).
edge(105, 151).
edge(21, 177).
edge(17, 20).
edge(116, 191).
edge(112, 142).
edge(77, 183).
edge(110, 184).
edge(44, 138).
edge(17, 185).
edge(96, 148).
edge(40, 129).
edge(61, 130).
edge(110, 176).
edge(85, 160).
edge(102, 155).
edge(73, 84).
edge(27, 173).
edge(49, 111).
edge(76, 81).
edge(44, 106).
edge(30, 142).
edge(165, 174).
edge(13, 97).
edge(18, 65).
edge(120, 180).
edge(88, 164).
edge(68, 155).
edge(2, 24).
edge(88, 129).
edge(99, 130).
edge(170, 178).
edge(108, 158).
edge(7, 125).
edge(103, 180).
edge(99, 144).
edge(50, 111).
edge(49, 184).
edge(61, 64).
edge(7, 142).
edge(67, 153).
edge(68, 98).
edge(62, 130).
edge(120, 149).
edge(174, 193).
edge(21, 115).
edge(168, 176).
edge(13, 89).
edge(63, 183).
edge(103, 120).
edge(57, 177).
edge(148, 149).
edge(168, 174).
edge(16, 147).
edge(33, 89).
edge(82, 107).
edge(51, 155).
edge(141, 144).
edge(54, 183).
edge(112, 113).
edge(121, 163).
edge(30, 110).
edge(72, 94).
edge(101, 122).
edge(13, 54).
edge(48, 124).
edge(48, 52).
edge(27, 141).
edge(39, 182).
edge(64, 124).
edge(160, 181).
edge(130, 170).
edge(97, 171).
edge(107, 136).
edge(29, 76).
edge(86, 172).
edge(10, 18).
edge(137, 177).
edge(16, 28).
edge(33, 126).
edge(10, 165).
edge(107, 165).
edge(43, 154).
edge(128, 159).
edge(36, 41).
edge(66, 176).
edge(1, 83).
edge(82, 158).
edge(70, 171).
edge(43, 55).
edge(60, 159).
edge(7, 65).
edge(50, 164).
edge(67, 84).
edge(31, 101).
edge(12, 154).
edge(83, 144).
edge(41, 53).
edge(11, 90).
edge(13, 65).
edge(26, 107).
edge(69, 103).
edge(107, 172).
edge(107, 158).
edge(114, 159).
edge(77, 196).
edge(131, 154).
edge(58, 104).
edge(67, 139).
edge(121, 140).
edge(71, 140).
edge(47, 68).
edge(79, 108).
edge(33, 163).
edge(20, 164).
edge(67, 119).
edge(28, 143).
edge(7, 48).
edge(131, 188).
edge(137, 167).
edge(66, 129).
edge(57, 77).
edge(23, 138).
edge(69, 76).
edge(104, 195).
edge(16, 99).
edge(121, 151).
edge(70, 196).
edge(9, 187).
edge(15, 92).
edge(26, 192).
edge(12, 105).
edge(130, 141).
edge(51, 193).
edge(147, 182).
edge(34, 108).
edge(18, 150).
edge(53, 177).
edge(4, 35).
edge(88, 149).
edge(3, 157).
edge(116, 160).
edge(138, 193).
edge(15, 189).
edge(43, 108).
edge(92, 153).
edge(68, 195).
edge(18, 105).
edge(65, 160).
edge(18, 134).
edge(70, 75).
edge(3, 158).
edge(1, 149).
edge(11, 131).
edge(164, 169).
edge(70, 155).
edge(124, 162).
edge(17, 120).
edge(59, 83).
edge(5, 125).
edge(67, 132).
edge(158, 181).
edge(0, 162).
edge(100, 128).
edge(59, 141).
edge(168, 186).
edge(30, 190).
edge(40, 144).
edge(35, 58).
edge(114, 192).
edge(85, 169).
edge(25, 39).
edge(150, 162).
edge(137, 156).
edge(32, 40).
edge(40, 143).
edge(55, 62).
edge(156, 187).
edge(61, 186).
edge(65, 76).
edge(30, 185).
edge(12, 93).
edge(7, 177).
edge(39, 127).
edge(157, 184).
edge(48, 192).
edge(68, 122).
edge(101, 143).
edge(24, 54).
edge(102, 172).
edge(118, 124).
edge(54, 63).
edge(4, 163).
edge(41, 170).
edge(2, 102).
edge(32, 139).
edge(20, 63).
edge(6, 174).
edge(92, 127).
edge(49, 57).
edge(114, 189).
edge(4, 91).
edge(116, 151).
edge(75, 189).
edge(95, 146).
edge(93, 119).
edge(6, 94).
edge(71, 75).
edge(66, 191).
edge(28, 136).
edge(78, 159).
edge(34, 156).
edge(44, 134).
edge(33, 72).
edge(51, 181).
edge(84, 135).
edge(41, 84).
edge(123, 172).
edge(88, 176).
edge(61, 144).
edge(29, 141).
edge(16, 194).
edge(0, 23).
edge(20, 34).
edge(33, 91).
edge(6, 25).
edge(44, 52).
edge(180, 192).
edge(51, 128).
edge(116, 174).
edge(30, 74).
edge(27, 150).
edge(146, 151).
edge(28, 175).
edge(10, 72).
edge(7, 59).
edge(2, 106).
edge(94, 160).
edge(69, 149).
edge(16, 97).
edge(40, 62).
edge(148, 154).
edge(7, 156).
edge(24, 75).
edge(32, 41).
edge(53, 191).
edge(171, 177).
edge(36, 85).
edge(59, 116).
edge(94, 180).
edge(88, 93).
edge(93, 149).
edge(90, 170).
edge(7, 23).
edge(62, 89).
edge(13, 63).
edge(8, 61).
edge(129, 144).
edge(143, 154).
edge(43, 170).
edge(1, 35).
edge(133, 185).
edge(95, 132).
edge(54, 161).
edge(69, 181).
edge(127, 153).
edge(35, 139).
edge(65, 179).
edge(119, 170).
edge(65, 173).
edge(45, 53).
edge(22, 119).
edge(85, 157).
edge(69, 79).
edge(47, 176).
edge(15, 67).
edge(22, 142).
edge(92, 157).
edge(72, 117).
edge(88, 192).
edge(83, 167).
edge(77, 84).
edge(35, 121).
edge(33, 184).
edge(7, 20).
edge(129, 138).
edge(4, 18).
edge(13, 195).
edge(112, 192).
edge(78, 179).
edge(23, 170).
edge(70, 100).
edge(10, 145).
edge(54, 111).
edge(72, 109).
edge(22, 178).
edge(51, 83).
edge(50, 72).
edge(33, 109).
edge(44, 70).
edge(88, 137).
edge(48, 49).
edge(79, 152).
edge(101, 114).
edge(3, 95).
edge(93, 167).
edge(16, 104).
edge(155, 184).
edge(65, 71).
edge(149, 167).
edge(91, 102).
edge(55, 163).
edge(117, 187).
edge(8, 195).
edge(29, 47).
edge(32, 54).
edge(28, 119).
edge(54, 96).
edge(64, 191).
edge(5, 13).
edge(95, 188).
edge(11, 142).
edge(51, 62).
edge(28, 70).
edge(31, 192).
edge(54, 109).
edge(148, 186).
edge(86, 112).
edge(0, 140).
edge(33, 183).
edge(32, 49).
edge(91, 97).
edge(9, 163).
edge(7, 98).
edge(52, 56).
edge(3, 88).
edge(142, 146).
edge(160, 166).
edge(64, 169).
edge(18, 57).
edge(170, 189).
edge(187, 192).
edge(43, 90).
edge(55, 149).
edge(106, 192).
edge(141, 181).
edge(19, 36).
edge(5, 54).
edge(90, 120).
edge(51, 182).
edge(25, 83).
edge(14, 26).
edge(130, 190).
edge(147, 155).
edge(0, 181).
edge(82, 130).
edge(107, 127).
edge(26, 164).
edge(37, 191).
edge(140, 145).
edge(44, 119).
edge(24, 63).
edge(63, 157).
edge(63, 98).
edge(36, 190).
edge(49, 86).
edge(20, 138).
edge(13, 42).
edge(63, 76).
edge(14, 148).
edge(108, 177).
edge(117, 138).
edge(39, 67).
edge(24, 80).
edge(184, 186).
edge(52, 74).
edge(112, 175).
edge(6, 57).
edge(106, 133).
edge(3, 103).
edge(66, 118).
edge(66, 140).
edge(63, 190).
edge(41, 76).
edge(59, 160).
edge(15, 171).
edge(88, 156).
edge(18, 180).
edge(64, 182).
edge(68, 99).
edge(72, 114).
edge(148, 174).
edge(1, 140).
edge(117, 154).
edge(68, 172).
edge(18, 47).
edge(5, 99).
edge(18, 147).
edge(41, 178).
edge(99, 124).
edge(11, 22).
edge(26, 82).
edge(33, 134).
edge(31, 100).
edge(57, 76).
edge(16, 52).
edge(24, 58).
edge(17, 67).
edge(95, 150).
edge(82, 89).
edge(14, 143).
edge(65, 195).
edge(56, 101).
edge(33, 67).
edge(106, 134).
edge(60, 158).
edge(51, 99).
edge(75, 77).
edge(74, 189).
edge(28, 41).
edge(139, 161).
edge(54, 125).
edge(22, 90).
edge(11, 52).
edge(64, 160).
edge(69, 184).
edge(122, 170).
edge(18, 124).
edge(95, 115).
edge(76, 100).
edge(20, 192).
edge(144, 150).
edge(7, 39).
edge(13, 185).
edge(79, 189).
edge(56, 97).
edge(9, 191).
edge(42, 158).
edge(78, 101).
edge(108, 164).
edge(20, 51).
edge(10, 170).
edge(157, 161).
edge(126, 165).
edge(47, 160).
edge(69, 71).
edge(56, 116).
edge(29, 140).
edge(26, 129).
edge(32, 110).
edge(41, 88).
edge(44, 192).
edge(36, 117).
edge(103, 160).
edge(30, 106).
edge(2, 136).
edge(11, 99).
edge(75, 115).
edge(0, 77).
edge(112, 182).
edge(109, 125).
edge(142, 173).
edge(24, 87).
edge(73, 147).
edge(127, 196).
edge(54, 115).
edge(83, 170).
edge(57, 102).
edge(43, 177).
edge(115, 175).
edge(67, 93).
edge(41, 161).
edge(60, 177).
edge(51, 113).
edge(45, 112).
edge(30, 68).
edge(120, 166).
edge(4, 9).
edge(34, 147).
edge(5, 104).
edge(88, 195).
edge(68, 152).
edge(74, 142).
edge(75, 135).
edge(3, 66).
edge(98, 190).
edge(21, 42).
edge(121, 131).
edge(33, 167).
edge(51, 194).
edge(73, 189).
edge(42, 160).
edge(29, 191).
edge(47, 147).
edge(10, 99).
edge(187, 195).
edge(159, 193).
edge(52, 196).
edge(90, 107).
edge(97, 191).
edge(39, 53).
edge(38, 82).
edge(13, 177).
edge(115, 174).
edge(9, 17).
edge(35, 64).
edge(41, 56).
edge(5, 11).
edge(20, 118).
edge(88, 92).
edge(3, 21).
edge(7, 97).
edge(69, 158).
edge(85, 134).
edge(64, 90).
edge(118, 139).
edge(31, 144).
edge(1, 100).
edge(26, 104).
edge(115, 131).
edge(165, 182).
edge(123, 150).
edge(48, 162).
edge(137, 149).
edge(129, 186).
edge(44, 130).
edge(82, 156).
edge(47, 109).
edge(22, 183).
edge(141, 183).
edge(116, 181).
edge(49, 169).
edge(13, 174).
edge(66, 77).
edge(79, 103).
edge(52, 91).
edge(94, 110).
edge(22, 124).
edge(88, 119).
edge(24, 69).
edge(62, 105).
edge(32, 164).
edge(110, 195).
edge(35, 75).
edge(3, 168).
edge(81, 112).
edge(7, 49).
edge(52, 70).
edge(83, 103).
edge(63, 194).
edge(16, 46).
edge(145, 156).
edge(13, 82).
edge(166, 169).
edge(9, 96).
edge(10, 51).
edge(42, 172).
edge(16, 170).
edge(2, 113).
edge(35, 80).
edge(36, 95).
edge(3, 181).
edge(43, 142).
edge(37, 186).
edge(54, 127).
edge(56, 118).
edge(57, 119).
edge(44, 98).
edge(13, 36).
edge(7, 191).
edge(8, 11).
edge(129, 130).
edge(168, 177).
edge(6, 141).
edge(23, 29).
edge(105, 180).
edge(96, 109).
edge(63, 158).
edge(81, 88).
edge(55, 172).
edge(51, 76).
edge(69, 176).
edge(12, 70).
edge(10, 25).
edge(82, 146).
edge(23, 53).
edge(88, 127).
edge(52, 185).
edge(95, 178).
edge(59, 187).
edge(130, 136).
edge(4, 86).
edge(49, 80).
edge(3, 138).
edge(70, 141).
edge(48, 166).
edge(31, 120).
edge(102, 147).
edge(102, 195).
edge(81, 170).
edge(70, 104).
edge(21, 27).
edge(126, 170).
edge(51, 59).
edge(33, 86).
edge(113, 196).
edge(25, 97).
edge(99, 136).
edge(1, 118).
edge(52, 169).
edge(39, 166).
edge(181, 192).
edge(35, 91).
edge(18, 70).
edge(44, 122).
edge(77, 101).
edge(99, 179).
edge(12, 195).
edge(127, 185).
edge(75, 111).
edge(22, 67).
edge(18, 103).
edge(85, 87).
edge(109, 192).
edge(76, 186).
edge(8, 69).
edge(6, 90).
edge(8, 101).
edge(55, 189).
edge(2, 189).
edge(27, 83).
edge(31, 175).
edge(86, 120).
edge(48, 111).
edge(52, 164).
edge(21, 37).
edge(5, 26).
edge(92, 124).
edge(14, 149).
edge(94, 103).
edge(28, 108).
edge(91, 106).
edge(47, 163).
edge(95, 158).
edge(123, 180).
edge(95, 126).
edge(6, 110).
edge(42, 73).
edge(104, 174).
edge(124, 181).
edge(62, 72).
edge(0, 68).
edge(7, 13).
edge(104, 160).
edge(3, 141).
edge(57, 125).
edge(36, 146).
edge(97, 159).
edge(21, 109).
edge(14, 27).
edge(147, 175).
edge(68, 108).
edge(102, 109).
edge(141, 188).
edge(123, 182).
edge(87, 116).
edge(73, 150).
edge(2, 41).
edge(102, 132).
edge(19, 129).
edge(93, 99).
edge(117, 169).
edge(2, 188).
edge(92, 152).
edge(68, 70).
edge(16, 49).
edge(109, 160).
edge(114, 194).
edge(93, 156).
edge(28, 49).
edge(92, 187).
edge(37, 143).
edge(42, 95).
edge(106, 109).
edge(16, 157).
edge(87, 127).
edge(105, 137).
edge(19, 76).
edge(108, 170).
edge(106, 129).
edge(15, 129).
edge(26, 176).
edge(119, 144).
edge(29, 43).
edge(44, 173).
edge(158, 165).
edge(29, 189).
edge(119, 163).
edge(154, 173).
edge(124, 141).
edge(11, 119).
edge(12, 150).
edge(51, 174).
edge(28, 164).
edge(105, 109).
edge(7, 113).
edge(24, 120).
edge(33, 162).
edge(105, 123).
edge(19, 60).
edge(6, 39).
edge(3, 149).
edge(61, 75).
edge(116, 177).
edge(43, 184).
edge(59, 184).
edge(177, 186).
edge(117, 136).
edge(6, 18).
edge(7, 92).
edge(33, 168).
edge(60, 82).
edge(35, 183).
edge(115, 159).
edge(58, 65).
edge(39, 62).
edge(29, 170).
edge(81, 167).
edge(109, 185).
edge(102, 130).
edge(27, 101).
edge(103, 128).
edge(9, 69).
edge(117, 137).
edge(103, 112).
edge(37, 130).
edge(40, 105).
edge(34, 143).
edge(128, 190).
edge(162, 191).
edge(107, 157).
edge(129, 150).
edge(127, 128).
edge(32, 189).
edge(18, 187).
edge(67, 89).
edge(153, 193).
edge(90, 92).
edge(99, 158).
edge(2, 36).
edge(112, 161).
edge(9, 158).
edge(68, 171).
edge(41, 78).
edge(21, 171).
edge(82, 93).
edge(78, 111).
edge(15, 74).
edge(5, 71).
edge(82, 140).
edge(62, 104).
edge(143, 150).
edge(27, 65).
edge(29, 60).
edge(38, 150).
edge(0, 63).
edge(16, 160).
edge(47, 124).
edge(42, 78).
edge(78, 165).
edge(5, 137).
edge(136, 165).
edge(18, 159).
edge(63, 181).
edge(99, 141).
edge(94, 174).
edge(31, 138).
edge(14, 164).
edge(46, 62).
edge(4, 63).
edge(23, 196).
edge(62, 113).
edge(59, 73).
edge(101, 153).
edge(26, 149).
edge(66, 150).
edge(57, 141).
edge(4, 195).
edge(76, 98).
edge(80, 173).
edge(45, 130).
edge(2, 138).
edge(1, 29).
edge(28, 98).
edge(5, 142).
edge(66, 122).
edge(23, 58).
edge(38, 116).
edge(14, 68).
edge(57, 71).
edge(74, 172).
edge(62, 77).
edge(146, 193).
edge(106, 151).
edge(17, 19).
edge(37, 126).
edge(55, 179).
edge(49, 78).
edge(94, 127).
edge(81, 161).
edge(154, 174).
edge(75, 113).
edge(93, 184).
edge(107, 154).
edge(43, 185).
edge(23, 165).
edge(75, 107).
edge(94, 192).
edge(150, 170).
edge(25, 77).
edge(86, 195).
edge(100, 110).
edge(9, 113).
edge(5, 42).
edge(80, 121).
edge(178, 188).
edge(117, 178).
edge(53, 73).
edge(93, 113).
edge(48, 115).
edge(6, 120).
edge(60, 186).
edge(57, 137).
edge(11, 31).
edge(102, 111).
edge(58, 69).
edge(150, 155).
edge(5, 191).
edge(54, 175).
edge(93, 137).
edge(4, 150).
edge(76, 108).
edge(44, 193).
edge(44, 87).
edge(11, 81).
edge(107, 112).
edge(109, 153).
edge(114, 122).
edge(15, 125).
edge(48, 155).
edge(39, 117).
edge(153, 168).
edge(105, 150).
edge(139, 176).
edge(44, 45).
edge(24, 119).
edge(100, 107).
edge(71, 148).
edge(62, 156).
edge(17, 107).
edge(94, 166).
edge(103, 190).
edge(42, 120).
edge(19, 136).
edge(3, 22).
edge(108, 151).
edge(86, 91).
edge(29, 106).
edge(9, 55).
edge(90, 189).
edge(139, 164).
edge(116, 122).
edge(9, 125).
edge(97, 151).
edge(63, 177).
edge(57, 75).
edge(60, 146).
edge(91, 147).
edge(47, 191).
edge(112, 152).
edge(16, 37).
edge(61, 195).
edge(19, 165).
edge(67, 94).
edge(94, 124).
edge(4, 131).
edge(59, 60).
edge(70, 123).
edge(127, 166).
edge(127, 133).
edge(124, 180).
edge(135, 146).
edge(61, 161).
edge(50, 167).
edge(39, 179).
edge(103, 186).
edge(25, 32).
edge(12, 95).
edge(67, 100).
edge(162, 178).
edge(113, 115).
edge(12, 114).
edge(75, 186).
edge(108, 188).
edge(77, 194).
edge(62, 159).
edge(178, 194).
edge(75, 144).
edge(30, 41).
edge(113, 177).
edge(9, 178).
edge(69, 174).
edge(4, 50).
edge(1, 143).
edge(92, 165).
edge(4, 184).
edge(113, 144).
edge(19, 172).
edge(76, 127).
edge(36, 176).
edge(52, 86).
edge(31, 57).
edge(113, 181).
edge(33, 182).
edge(32, 157).
edge(112, 167).
edge(18, 154).
edge(21, 148).
edge(25, 132).
edge(74, 163).
edge(16, 60).
edge(77, 122).
edge(77, 81).
edge(93, 126).
edge(68, 192).
edge(3, 195).
edge(73, 94).
edge(101, 124).
edge(56, 121).
edge(41, 167).
edge(31, 133).
edge(61, 125).
edge(88, 153).
edge(23, 175).
edge(88, 169).
edge(2, 169).
edge(130, 155).
edge(30, 44).
edge(147, 157).
edge(62, 103).
edge(75, 136).
edge(62, 177).
edge(87, 100).
edge(97, 165).
edge(44, 67).
edge(1, 175).
edge(1, 34).
edge(15, 115).
edge(66, 73).
edge(61, 155).
edge(46, 185).
edge(72, 190).
edge(3, 162).
edge(6, 170).
edge(49, 155).
edge(108, 196).
edge(108, 168).
edge(72, 139).
edge(97, 123).
edge(96, 177).
edge(47, 67).
edge(24, 128).
edge(80, 85).
edge(15, 63).
edge(80, 157).
edge(23, 110).
edge(69, 168).
edge(35, 47).
edge(37, 43).
edge(96, 160).
edge(111, 171).
edge(15, 184).
edge(50, 123).
edge(57, 191).
edge(55, 88).
edge(91, 136).
edge(1, 39).
edge(0, 185).
edge(124, 195).
edge(89, 168).
edge(116, 124).
edge(152, 182).
edge(128, 139).
edge(51, 163).
edge(81, 187).
edge(64, 150).
edge(30, 145).
edge(45, 191).
edge(54, 172).
edge(106, 164).
edge(109, 118).
edge(9, 74).
edge(56, 120).
edge(84, 115).
edge(62, 132).
edge(136, 151).
edge(144, 156).
edge(45, 147).
edge(4, 165).
edge(139, 179).
edge(24, 72).
edge(140, 186).
edge(130, 137).
edge(113, 149).
edge(2, 133).
edge(19, 185).
edge(44, 139).
edge(50, 119).
edge(66, 157).
edge(101, 175).
edge(7, 87).
edge(143, 161).
edge(94, 191).
edge(17, 125).
edge(21, 60).
edge(126, 149).
edge(73, 183).
edge(38, 53).
edge(40, 59).
edge(37, 69).
edge(7, 56).
edge(96, 191).
edge(152, 193).
edge(48, 196).
edge(66, 167).
edge(15, 70).
edge(75, 181).
edge(22, 73).
edge(83, 172).
edge(26, 147).
edge(147, 156).
edge(131, 172).
edge(58, 127).
edge(68, 153).
edge(93, 178).
edge(56, 70).
edge(145, 171).
edge(71, 147).
edge(69, 131).
edge(125, 153).
edge(135, 169).
edge(82, 125).
edge(0, 33).
edge(160, 165).
edge(105, 158).
edge(156, 166).
edge(7, 124).
edge(56, 106).
edge(80, 120).
edge(69, 113).
edge(85, 182).
edge(10, 93).
edge(38, 125).
edge(76, 178).
edge(51, 88).
edge(38, 118).
edge(18, 138).
edge(11, 66).
edge(54, 62).
edge(52, 161).
edge(181, 196).
edge(119, 138).
edge(132, 144).
edge(66, 111).
edge(84, 130).
edge(30, 40).
edge(5, 68).
edge(91, 109).
edge(133, 141).
edge(79, 133).
edge(104, 106).
edge(26, 184).
edge(11, 191).
edge(8, 21).
edge(156, 165).
edge(42, 188).
edge(116, 153).
edge(1, 81).
edge(20, 190).
edge(25, 62).
edge(175, 183).
edge(75, 178).
edge(21, 36).
edge(95, 183).
edge(64, 86).
edge(52, 122).
edge(102, 146).
edge(91, 115).
edge(76, 165).
edge(46, 137).
edge(93, 141).
edge(108, 109).
edge(164, 172).
edge(38, 139).
edge(83, 91).
edge(68, 117).
edge(166, 168).
edge(44, 149).
edge(8, 78).
edge(9, 167).
edge(24, 137).
edge(47, 120).
edge(0, 142).
edge(6, 64).
edge(12, 15).
edge(94, 119).
edge(30, 141).
edge(76, 107).
edge(45, 159).
edge(162, 176).
edge(138, 149).
edge(22, 117).
edge(19, 132).
edge(144, 181).
edge(172, 188).
edge(127, 149).
edge(13, 186).
edge(53, 95).
edge(5, 78).
edge(49, 119).
edge(61, 147).
edge(126, 161).
edge(21, 144).
edge(34, 157).
edge(145, 182).
edge(5, 81).
edge(15, 38).
edge(5, 128).
edge(63, 64).
edge(120, 169).
edge(15, 39).
edge(64, 190).
edge(72, 157).
edge(10, 95).
edge(14, 186).
edge(33, 74).
edge(17, 26).
edge(133, 172).
edge(76, 167).
edge(45, 76).
edge(107, 121).
edge(41, 187).
edge(11, 153).
edge(59, 167).
edge(20, 92).
edge(55, 190).
edge(144, 190).
edge(133, 187).
edge(115, 158).
edge(48, 103).
edge(45, 114).
edge(30, 62).
edge(14, 170).
edge(123, 155).
edge(52, 154).
edge(43, 72).
edge(100, 104).
edge(33, 93).
edge(88, 194).
edge(9, 115).
edge(117, 129).
edge(0, 138).
edge(6, 45).
edge(7, 86).
edge(128, 144).
edge(9, 190).
edge(54, 143).
edge(149, 183).
edge(29, 173).
edge(2, 101).
edge(50, 56).
edge(113, 122).
edge(55, 131).
edge(35, 163).
edge(86, 175).
edge(136, 161).
edge(18, 94).
edge(184, 188).
edge(1, 33).
edge(35, 107).
edge(124, 194).
edge(65, 121).
edge(11, 100).
edge(7, 116).
edge(79, 193).
edge(82, 120).
edge(46, 106).
edge(11, 29).
edge(33, 159).
edge(14, 123).
edge(67, 85).
edge(178, 180).
edge(87, 147).
edge(95, 129).
edge(170, 173).
edge(31, 146).
edge(30, 66).
edge(81, 152).
edge(51, 141).
edge(6, 188).
edge(49, 85).
edge(56, 174).
edge(10, 140).
edge(2, 179).
edge(61, 132).
edge(152, 191).
edge(173, 189).
edge(8, 162).
edge(57, 151).
edge(8, 95).
edge(118, 169).
edge(10, 15).
edge(98, 153).
edge(86, 166).
edge(34, 103).
edge(64, 87).
edge(144, 179).
edge(20, 194).
edge(42, 171).
edge(128, 130).
edge(4, 32).
edge(20, 44).
edge(111, 118).
edge(17, 64).
edge(6, 15).
edge(42, 168).
edge(94, 182).
edge(93, 144).
edge(17, 81).
edge(14, 71).
edge(51, 112).
edge(4, 25).
edge(14, 36).
edge(33, 84).
edge(94, 156).
edge(63, 152).
edge(159, 183).
edge(72, 182).
edge(23, 134).
edge(12, 127).
edge(36, 179).
edge(42, 94).
edge(100, 187).
edge(80, 190).
edge(33, 53).
edge(54, 89).
edge(42, 124).
edge(2, 137).
edge(80, 113).
edge(65, 89).
edge(42, 149).
edge(12, 48).
edge(71, 141).
edge(66, 195).
edge(22, 112).
edge(25, 116).
edge(124, 130).
edge(52, 85).
edge(5, 47).
edge(2, 48).
edge(28, 168).
edge(109, 145).
edge(50, 102).
edge(77, 168).
edge(156, 195).
edge(74, 86).
edge(38, 104).
edge(44, 71).
edge(27, 41).
edge(66, 113).
edge(60, 104).
edge(66, 108).
edge(57, 99).
edge(94, 186).
edge(81, 186).
edge(107, 117).
edge(127, 191).
edge(105, 195).
edge(36, 189).
edge(132, 179).
edge(91, 146).
edge(108, 192).
edge(163, 188).
edge(28, 58).
edge(153, 175).
edge(36, 171).
edge(41, 42).
edge(28, 78).
edge(53, 140).
edge(21, 105).
edge(78, 91).
edge(137, 193).
edge(27, 146).
edge(29, 92).
edge(86, 156).
edge(153, 166).
edge(19, 138).
edge(68, 107).
edge(48, 137).
edge(12, 145).
edge(70, 185).
edge(93, 106).
edge(73, 87).
edge(144, 192).
edge(14, 50).
edge(24, 89).
edge(111, 150).
edge(44, 82).
edge(75, 156).
edge(70, 97).
edge(6, 70).
edge(63, 176).
edge(81, 128).
edge(43, 50).
edge(41, 186).
edge(104, 125).
edge(125, 152).
edge(170, 188).
edge(14, 31).
edge(109, 193).
edge(62, 100).
edge(63, 126).
edge(89, 147).
edge(130, 147).
edge(32, 118).
edge(9, 159).
edge(54, 157).
edge(35, 190).
edge(13, 86).
edge(140, 179).
edge(56, 117).
edge(37, 154).
edge(16, 43).
edge(132, 140).
edge(9, 145).
edge(19, 191).
edge(73, 146).
edge(76, 124).
edge(18, 195).
edge(72, 187).
edge(27, 31).
edge(163, 195).
edge(24, 88).
edge(100, 158).
edge(110, 128).
edge(130, 181).
edge(37, 159).
edge(105, 156).
edge(107, 187).
edge(17, 139).
edge(19, 135).
edge(51, 75).
edge(3, 85).
edge(86, 99).
edge(85, 90).
edge(24, 59).
edge(53, 159).
edge(123, 158).
edge(115, 180).
edge(91, 142).
edge(138, 166).
edge(59, 62).
edge(39, 171).
edge(20, 161).
edge(109, 166).
edge(20, 168).
edge(8, 107).
edge(90, 125).
edge(15, 183).
edge(66, 185).
edge(24, 50).
edge(70, 125).
edge(145, 163).
edge(2, 60).
edge(34, 142).
edge(65, 123).
edge(18, 189).
edge(143, 196).
edge(15, 194).
edge(86, 134).
edge(73, 124).
edge(65, 116).
edge(64, 108).
edge(3, 72).
edge(6, 125).
edge(65, 82).
edge(4, 173).
edge(25, 80).
edge(46, 92).
edge(53, 83).
edge(61, 104).
edge(2, 9).
edge(58, 111).
edge(89, 163).
edge(7, 96).
edge(8, 102).
edge(1, 28).
edge(43, 110).
edge(66, 184).
edge(149, 191).
edge(123, 161).
edge(18, 156).
edge(10, 50).
edge(9, 110).
edge(79, 153).
edge(73, 92).
edge(50, 84).
edge(32, 174).
edge(15, 159).
edge(36, 166).
edge(42, 61).
edge(30, 36).
edge(27, 180).
edge(25, 186).
edge(22, 54).
edge(41, 157).
edge(20, 75).
edge(48, 55).
edge(106, 196).
edge(38, 189).
edge(8, 123).
edge(89, 120).
edge(9, 157).
edge(23, 182).
edge(145, 165).
edge(50, 142).
edge(25, 167).
edge(89, 131).
edge(68, 190).
edge(65, 101).
edge(94, 121).
edge(26, 137).
edge(143, 152).
edge(58, 76).
edge(142, 189).
edge(125, 162).
edge(48, 70).
edge(71, 125).
edge(156, 180).
edge(40, 159).
edge(36, 181).
edge(110, 168).
edge(101, 150).
edge(10, 13).
edge(108, 123).
edge(134, 153).
edge(123, 167).
edge(1, 58).
edge(30, 47).
edge(16, 130).
edge(40, 63).
edge(12, 45).
edge(112, 149).
edge(118, 127).
edge(24, 28).
edge(70, 149).
edge(20, 144).
edge(10, 29).
edge(43, 61).
edge(80, 153).
edge(44, 95).
edge(10, 172).
edge(112, 157).
edge(61, 190).
edge(92, 191).
edge(79, 145).
edge(36, 47).
edge(55, 128).
edge(73, 160).
edge(167, 188).
edge(29, 181).
edge(16, 54).
edge(80, 130).
edge(54, 156).
edge(23, 130).
edge(91, 122).
edge(32, 155).
edge(173, 181).
edge(5, 124).
edge(50, 93).
edge(120, 161).
edge(83, 189).
edge(7, 195).
edge(66, 163).
edge(176, 192).
edge(68, 130).
edge(23, 109).
edge(107, 182).
edge(107, 186).
edge(9, 50).
edge(42, 58).
edge(64, 163).
edge(103, 155).
edge(8, 134).
edge(69, 152).
edge(78, 130).
edge(69, 150).
edge(87, 185).
edge(6, 51).
edge(62, 183).
edge(107, 116).
edge(88, 158).
edge(109, 144).
edge(171, 190).
edge(141, 158).
edge(30, 32).
edge(154, 168).
edge(114, 186).
edge(129, 183).
edge(98, 102).
edge(16, 61).
edge(60, 175).
edge(31, 191).
edge(17, 181).
edge(9, 175).
edge(12, 107).
edge(6, 179).
edge(3, 114).
edge(97, 190).
edge(160, 180).
edge(97, 112).
edge(28, 87).
edge(20, 130).
edge(63, 195).
edge(100, 119).
edge(2, 22).
edge(158, 162).
edge(42, 161).
edge(92, 184).
edge(153, 196).
edge(38, 154).
edge(75, 109).
edge(23, 150).
edge(107, 195).
edge(104, 193).
edge(154, 185).
edge(81, 109).
edge(48, 175).
edge(7, 89).
edge(44, 54).
edge(42, 89).
edge(142, 188).
edge(42, 167).
edge(130, 148).
edge(96, 171).
edge(33, 51).
edge(21, 53).
edge(12, 29).
edge(20, 21).
edge(18, 144).
edge(136, 177).
edge(71, 111).
edge(38, 45).
edge(69, 187).
edge(15, 71).
edge(61, 102).
edge(124, 193).
edge(79, 106).
edge(61, 156).
edge(70, 94).
edge(45, 149).
edge(109, 179).
edge(120, 150).
edge(52, 160).
edge(9, 194).
edge(57, 67).
edge(100, 173).
edge(21, 52).
edge(62, 135).
edge(142, 170).
edge(54, 185).
edge(38, 100).
edge(80, 91).
edge(1, 53).
edge(62, 185).
edge(150, 188).
edge(64, 162).
edge(141, 164).
edge(65, 119).
edge(32, 184).
edge(125, 194).
edge(156, 179).
edge(48, 127).
edge(12, 122).
edge(55, 140).
edge(60, 128).
edge(39, 69).
edge(1, 49).
edge(64, 194).
edge(66, 127).
edge(128, 169).
edge(0, 119).
edge(104, 107).
edge(42, 135).
edge(69, 83).
edge(24, 169).
edge(9, 154).
edge(66, 72).
edge(72, 76).
edge(53, 175).
edge(62, 125).
edge(53, 169).
edge(26, 98).
edge(105, 130).
edge(104, 162).
edge(119, 189).
edge(62, 109).
edge(74, 80).
edge(78, 148).
edge(116, 129).
edge(58, 189).
edge(7, 192).
edge(37, 80).
edge(132, 185).
edge(100, 113).
edge(54, 114).
edge(170, 176).
edge(92, 94).
edge(23, 137).
edge(29, 195).
edge(118, 166).
edge(36, 113).
edge(17, 123).
edge(68, 91).
edge(159, 184).
edge(21, 121).
edge(107, 181).
edge(41, 54).
edge(0, 61).
edge(26, 135).
edge(8, 155).
edge(109, 170).
edge(79, 131).
edge(69, 140).
edge(85, 158).
edge(69, 170).
edge(41, 68).
edge(13, 164).
edge(107, 151).
edge(37, 173).
edge(32, 172).
edge(136, 180).
edge(4, 75).
edge(114, 125).
edge(1, 188).
edge(108, 139).
edge(110, 177).
edge(45, 178).
edge(93, 181).
edge(91, 114).
edge(20, 94).
edge(66, 101).
edge(14, 47).
edge(63, 103).
edge(38, 101).
edge(32, 106).
edge(76, 170).
edge(162, 189).
edge(32, 141).
edge(175, 177).
edge(63, 167).
edge(58, 102).
edge(33, 112).
edge(27, 110).
edge(36, 72).
edge(39, 109).
edge(38, 151).
edge(21, 88).
edge(182, 187).
edge(49, 115).
edge(120, 157).
edge(100, 181).
edge(107, 109).
edge(93, 169).
edge(35, 144).
edge(17, 128).
edge(84, 151).
edge(82, 105).
edge(20, 82).
edge(29, 120).
edge(64, 196).
edge(124, 176).
edge(6, 137).
edge(50, 188).
edge(51, 119).
edge(73, 80).
edge(48, 95).
edge(115, 170).
edge(24, 68).
edge(39, 78).
edge(36, 111).
edge(3, 17).
edge(63, 109).
edge(19, 188).
edge(174, 196).
edge(8, 63).
edge(89, 149).
edge(49, 177).
edge(74, 132).
edge(10, 176).
edge(112, 145).
edge(89, 137).
edge(54, 85).
edge(74, 108).
edge(10, 127).
edge(21, 117).
edge(18, 104).
edge(136, 164).
edge(80, 155).
edge(68, 142).
edge(32, 167).
edge(15, 106).
edge(83, 94).
edge(49, 109).
edge(70, 165).
edge(61, 89).
edge(6, 60).
edge(57, 86).
edge(29, 86).
edge(13, 178).
edge(96, 127).
edge(135, 195).
edge(16, 165).
edge(35, 74).
edge(1, 71).
edge(90, 140).
edge(90, 129).
edge(100, 103).
edge(63, 184).
edge(104, 149).
edge(22, 114).
edge(7, 82).
edge(60, 111).
edge(64, 138).
edge(41, 177).
edge(85, 91).
edge(192, 196).
edge(12, 123).
edge(59, 100).
edge(99, 174).
edge(35, 67).
edge(6, 116).
edge(59, 173).
edge(116, 159).
edge(36, 129).
edge(58, 140).
edge(0, 115).
edge(86, 170).
edge(169, 179).
edge(6, 128).
edge(59, 180).
edge(68, 143).
edge(133, 176).
edge(2, 35).
edge(46, 157).
edge(138, 158).
edge(1, 32).
edge(101, 129).
edge(147, 183).
edge(125, 135).
edge(74, 153).
edge(4, 89).
edge(2, 128).
edge(128, 193).
edge(104, 141).
edge(85, 126).
edge(104, 111).
edge(30, 196).
edge(24, 116).
edge(11, 147).
edge(2, 72).
edge(91, 177).
edge(40, 43).
edge(4, 135).
edge(86, 88).
edge(46, 181).
edge(118, 119).
edge(77, 114).
edge(86, 136).
edge(29, 96).
edge(92, 125).
edge(29, 52).
edge(70, 72).
edge(25, 34).
edge(97, 154).
edge(62, 79).
edge(35, 108).
edge(85, 165).
edge(133, 178).
edge(42, 54).
edge(178, 181).
edge(105, 125).
edge(81, 116).
edge(62, 165).
edge(48, 129).
edge(83, 188).
edge(63, 68).
edge(59, 108).
edge(169, 185).
edge(95, 101).
edge(105, 108).
edge(34, 145).
edge(22, 62).
edge(12, 140).
edge(11, 123).
edge(111, 136).
edge(31, 86).
edge(109, 137).
edge(120, 138).
edge(93, 190).
edge(94, 194).
edge(27, 119).
edge(3, 82).
edge(103, 121).
edge(85, 170).
edge(147, 159).
edge(95, 177).
edge(19, 94).
edge(147, 152).
edge(13, 109).
edge(106, 117).
edge(30, 189).
edge(141, 173).
edge(65, 104).
edge(60, 143).
edge(63, 113).
edge(51, 77).
edge(108, 189).
edge(18, 75).
edge(73, 144).
edge(58, 122).
edge(32, 134).
edge(121, 145).
edge(23, 77).
edge(35, 63).
edge(81, 156).
edge(82, 175).
edge(74, 77).
edge(81, 151).
edge(34, 84).
edge(39, 148).
edge(50, 163).
edge(90, 93).
edge(15, 54).
edge(138, 192).
edge(74, 137).
edge(14, 161).
edge(130, 135).
edge(19, 72).
edge(27, 183).
edge(17, 18).
edge(50, 153).
edge(147, 174).
edge(14, 115).
edge(86, 165).
edge(5, 100).
edge(14, 65).
edge(34, 106).
edge(93, 114).
edge(83, 181).
edge(47, 89).
edge(98, 132).
edge(47, 114).
edge(177, 184).
edge(6, 136).
edge(144, 172).
edge(124, 145).
edge(81, 103).
edge(30, 183).
edge(49, 129).
edge(17, 179).
edge(76, 138).
edge(120, 168).
edge(12, 124).
edge(125, 154).
edge(37, 176).
edge(67, 147).
edge(60, 78).
edge(43, 178).
edge(107, 128).
edge(6, 66).
edge(69, 101).
edge(90, 178).
edge(13, 41).
edge(16, 182).
edge(13, 118).
edge(58, 187).
edge(104, 135).
edge(84, 131).
edge(32, 165).
edge(0, 47).
edge(10, 143).
edge(72, 125).
edge(27, 54).
edge(113, 178).
edge(155, 191).
edge(134, 174).
edge(84, 88).
edge(86, 116).
edge(26, 186).
edge(7, 133).
edge(50, 158).
edge(89, 101).
edge(168, 173).
edge(85, 141).
edge(81, 107).
edge(72, 193).
edge(0, 111).
edge(40, 194).
edge(125, 189).
edge(98, 133).
edge(114, 123).
edge(101, 123).
edge(137, 169).
edge(0, 139).
edge(61, 105).
edge(100, 109).
edge(68, 73).
edge(111, 113).
edge(59, 140).
edge(65, 142).
edge(31, 36).
edge(1, 153).
edge(2, 160).
edge(139, 188).
edge(158, 193).
edge(40, 164).
edge(27, 63).
edge(6, 132).
edge(3, 117).
edge(145, 166).
edge(4, 127).
edge(113, 155).
edge(51, 121).
edge(57, 60).
edge(92, 181).
edge(121, 192).
edge(121, 147).
edge(52, 159).
edge(74, 109).
edge(11, 187).
edge(82, 154).
edge(81, 172).
edge(112, 151).
edge(33, 119).
edge(53, 128).
edge(156, 169).
edge(172, 192).
edge(21, 113).
edge(45, 73).
edge(31, 136).
edge(130, 149).
edge(157, 170).
edge(83, 111).
edge(91, 169).
edge(75, 122).
edge(91, 151).
edge(0, 66).
edge(96, 123).
edge(152, 168).
edge(100, 148).
edge(17, 35).
edge(19, 24).
edge(21, 61).
edge(134, 151).
edge(168, 185).
edge(105, 126).
edge(119, 122).
edge(11, 134).
edge(122, 127).
edge(7, 176).
edge(54, 189).
edge(83, 114).
edge(56, 85).
edge(84, 160).
edge(92, 177).
edge(55, 58).
edge(58, 148).
edge(41, 155).
edge(54, 191).
edge(100, 144).
edge(41, 129).
edge(10, 52).
edge(17, 85).
edge(21, 66).
edge(91, 162).
edge(37, 162).
edge(85, 153).
edge(17, 162).
edge(133, 139).
edge(40, 131).
edge(96, 122).
edge(65, 70).
edge(24, 62).
edge(141, 176).
edge(37, 61).
edge(27, 142).
edge(87, 192).
edge(10, 48).
edge(79, 140).
edge(7, 160).
edge(49, 101).
edge(10, 101).
edge(16, 51).
edge(17, 82).
edge(27, 28).
edge(117, 174).
edge(52, 168).
edge(55, 129).
edge(65, 182).
edge(99, 160).
edge(84, 126).
edge(20, 188).
edge(14, 76).
edge(24, 67).
edge(50, 139).
edge(29, 179).
edge(136, 162).
edge(143, 155).
edge(55, 71).
edge(34, 38).
edge(84, 123).
edge(93, 194).
edge(123, 157).
edge(66, 102).
edge(7, 183).
edge(36, 151).
edge(18, 126).
edge(67, 74).
edge(7, 24).
edge(68, 149).
edge(13, 130).
edge(166, 178).
edge(167, 195).
edge(91, 107).
edge(56, 156).
edge(9, 176).
edge(0, 50).
edge(54, 126).
edge(44, 176).
edge(7, 152).
edge(10, 17).
edge(80, 161).
edge(52, 163).
edge(57, 144).
edge(61, 191).
edge(91, 153).
edge(183, 184).
edge(156, 184).
edge(22, 193).
edge(116, 136).
edge(46, 107).
edge(115, 137).
edge(22, 61).
edge(63, 180).
edge(32, 143).
edge(28, 69).
edge(68, 85).
edge(14, 129).
edge(56, 144).
edge(71, 128).
edge(72, 169).
edge(13, 182).
edge(72, 156).
edge(56, 162).
edge(70, 140).
edge(100, 142).
edge(10, 16).
edge(103, 177).
edge(71, 102).
edge(84, 122).
edge(45, 58).
edge(44, 168).
edge(150, 179).
edge(89, 187).
edge(36, 120).
edge(47, 121).
edge(72, 126).
edge(87, 150).
edge(34, 116).
edge(126, 181).
edge(77, 87).
edge(63, 72).
edge(47, 55).
edge(161, 190).
edge(88, 152).
edge(126, 153).
edge(50, 132).
edge(65, 168).
edge(109, 111).
edge(30, 86).
edge(87, 193).
edge(64, 164).
edge(70, 159).
edge(22, 180).
edge(18, 177).
edge(167, 183).
edge(34, 131).
edge(9, 181).
edge(53, 182).
edge(84, 179).
edge(21, 55).
edge(32, 70).
edge(66, 124).
edge(48, 50).
edge(95, 166).
edge(7, 171).
edge(6, 56).
edge(2, 125).
edge(145, 162).
edge(33, 68).
edge(56, 105).
edge(75, 95).
edge(14, 84).
edge(17, 89).
edge(18, 81).
edge(119, 162).
edge(48, 74).
edge(69, 138).
edge(62, 171).
edge(15, 156).
edge(158, 175).
edge(69, 77).
edge(37, 46).
edge(94, 131).
edge(78, 190).
edge(81, 127).
edge(28, 151).
edge(84, 152).
edge(46, 188).
edge(49, 64).
edge(44, 76).
edge(106, 124).
edge(93, 145).
edge(36, 64).
edge(102, 190).
edge(93, 188).
edge(24, 66).
edge(55, 111).
edge(16, 193).
edge(37, 81).
edge(89, 143).
edge(15, 90).
edge(129, 154).
edge(137, 159).
edge(60, 191).
edge(71, 94).
edge(45, 56).
edge(130, 185).
edge(65, 138).
edge(84, 110).
edge(50, 178).
edge(32, 45).
edge(9, 164).
edge(132, 139).
edge(4, 168).
edge(37, 45).
edge(155, 185).
edge(5, 119).
edge(21, 69).
edge(40, 116).
edge(6, 99).
edge(97, 180).
edge(59, 75).
edge(152, 167).
edge(152, 166).
edge(92, 102).
edge(58, 99).
edge(39, 95).
edge(143, 174).
edge(18, 116).
edge(11, 75).
edge(13, 15).
edge(55, 86).
edge(122, 167).
edge(94, 169).
edge(83, 164).
edge(30, 161).
edge(74, 106).
edge(92, 108).
edge(96, 126).
edge(23, 157).
edge(92, 158).
edge(86, 104).
edge(24, 65).
edge(165, 180).
edge(36, 98).
edge(77, 106).
edge(34, 120).
edge(84, 129).
edge(78, 133).
edge(66, 158).
edge(6, 38).
edge(12, 159).
edge(1, 112).
edge(89, 103).
edge(121, 148).
edge(89, 96).
edge(20, 85).
edge(14, 133).
edge(135, 186).
edge(6, 58).
edge(1, 25).
edge(100, 132).
edge(6, 181).
edge(57, 185).
edge(82, 184).
edge(11, 168).
edge(83, 123).
edge(90, 101).
edge(134, 189).
edge(10, 133).
edge(56, 146).
edge(0, 65).
edge(48, 60).
edge(3, 38).
edge(56, 175).
edge(139, 150).
edge(67, 190).
edge(62, 112).
edge(120, 159).
edge(92, 143).
edge(19, 69).
edge(136, 185).
edge(93, 192).
edge(129, 137).
edge(69, 94).
edge(36, 49).
edge(189, 195).
edge(89, 162).
edge(2, 85).
edge(54, 164).
edge(64, 66).
edge(9, 78).
edge(149, 182).
edge(55, 181).
edge(115, 141).
edge(17, 28).
edge(58, 151).
edge(154, 183).
edge(44, 195).
edge(79, 99).
edge(57, 196).
edge(27, 84).
edge(30, 37).
edge(32, 166).
edge(28, 158).
edge(120, 134).
edge(37, 92).
edge(128, 175).
edge(41, 104).
edge(67, 96).
edge(120, 133).
edge(185, 190).
edge(22, 30).
edge(132, 162).
edge(113, 131).
edge(102, 187).
edge(40, 92).
edge(71, 122).
edge(38, 182).
edge(108, 193).
edge(127, 162).
edge(44, 133).
edge(12, 30).
edge(4, 156).
edge(139, 149).
edge(11, 156).
edge(84, 118).
edge(14, 80).
edge(34, 66).
edge(8, 136).
edge(28, 106).
edge(109, 180).
edge(90, 95).
edge(131, 153).
edge(0, 55).
edge(87, 146).
edge(99, 190).
edge(43, 99).
edge(87, 94).
edge(143, 146).
edge(35, 141).
edge(15, 85).
edge(6, 134).
edge(19, 80).
edge(151, 191).
edge(87, 120).
edge(36, 141).
edge(17, 33).
edge(30, 42).
edge(27, 108).
edge(47, 141).
edge(57, 114).
edge(55, 124).
edge(47, 145).
edge(59, 99).
edge(125, 165).
edge(30, 79).
edge(62, 139).
edge(9, 114).
edge(111, 124).
edge(15, 100).
edge(119, 153).
edge(1, 109).
edge(47, 170).
edge(78, 173).
edge(139, 183).
edge(28, 53).
edge(58, 92).
edge(52, 53).
edge(139, 156).
edge(70, 101).
edge(60, 153).
edge(38, 61).
edge(32, 47).
edge(53, 77).
edge(102, 154).
edge(124, 138).
edge(19, 164).
edge(6, 114).
edge(85, 120).
edge(65, 166).
edge(1, 62).
edge(0, 178).
edge(46, 60).
edge(50, 196).
edge(62, 102).
edge(145, 164).
edge(86, 129).
edge(5, 15).
edge(98, 127).
edge(22, 164).
edge(106, 173).
edge(125, 176).
edge(3, 46).
edge(18, 136).
edge(12, 143).
edge(153, 188).
edge(71, 127).
edge(68, 93).
edge(164, 176).
edge(80, 93).
edge(18, 129).
edge(64, 132).
edge(66, 80).
edge(70, 91).
edge(121, 168).
edge(16, 94).
edge(67, 169).
edge(95, 149).
edge(14, 23).
edge(93, 166).
edge(9, 56).
edge(59, 77).
edge(39, 183).
edge(92, 95).
edge(118, 144).
edge(46, 170).
edge(101, 169).
edge(119, 179).
edge(44, 47).
edge(33, 156).
edge(61, 164).
edge(46, 142).
edge(2, 131).
edge(29, 53).
edge(38, 133).
edge(48, 109).
edge(5, 94).
edge(65, 151).
edge(44, 121).
edge(7, 67).
edge(162, 192).
edge(26, 79).
edge(102, 157).
edge(136, 166).
edge(30, 143).
edge(66, 192).
edge(125, 196).
edge(26, 171).
edge(112, 116).
edge(67, 123).
edge(42, 189).
edge(118, 177).
edge(28, 110).
edge(38, 48).
edge(183, 195).
edge(95, 152).
edge(29, 127).
edge(46, 104).
edge(86, 144).
edge(123, 175).
edge(20, 87).
edge(18, 113).
edge(51, 117).
edge(103, 107).
edge(6, 16).
edge(92, 111).
edge(60, 162).
edge(134, 150).
edge(123, 143).
edge(94, 104).
edge(44, 155).
edge(79, 122).
edge(31, 186).
edge(56, 186).
edge(103, 166).
edge(78, 110).
edge(65, 146).
edge(128, 150).
edge(25, 153).
edge(21, 74).
edge(12, 194).
edge(27, 85).
edge(75, 114).
edge(133, 196).
edge(13, 116).
edge(162, 184).
edge(6, 109).
edge(135, 137).
edge(161, 170).
edge(82, 110).
edge(144, 168).
edge(10, 137).
edge(122, 173).
edge(50, 75).
edge(1, 37).
edge(28, 127).
edge(52, 100).
edge(10, 37).
edge(106, 156).
edge(31, 60).
edge(159, 167).
edge(6, 163).
edge(143, 159).
edge(9, 174).
edge(35, 137).
edge(44, 116).
edge(123, 146).
edge(24, 170).
edge(114, 142).
edge(8, 111).
edge(39, 100).
edge(89, 171).
edge(100, 147).
edge(102, 115).
edge(94, 133).
edge(105, 122).
edge(24, 166).
edge(93, 146).
edge(26, 28).
edge(22, 159).
edge(35, 122).
edge(101, 109).
edge(17, 154).
edge(70, 136).
edge(70, 181).
edge(61, 76).
edge(71, 181).
edge(13, 180).
edge(47, 62).
edge(78, 118).
edge(98, 119).
edge(0, 149).
edge(115, 177).
edge(100, 161).
edge(32, 55).
edge(70, 113).
edge(12, 174).
edge(70, 146).
edge(98, 189).
edge(38, 143).
edge(1, 180).
edge(94, 132).
edge(15, 103).
edge(180, 189).
edge(38, 71).
edge(1, 121).
edge(134, 171).
edge(83, 125).
edge(79, 95).
edge(115, 139).
edge(47, 60).
edge(27, 73).
edge(14, 174).
edge(45, 174).
edge(80, 96).
edge(85, 193).
edge(53, 90).
edge(82, 90).
edge(1, 170).
edge(122, 147).
edge(19, 68).
edge(69, 86).
edge(5, 176).
edge(67, 173).
edge(83, 128).
edge(185, 195).
edge(24, 111).
edge(52, 182).
edge(26, 101).
edge(26, 38).
edge(137, 146).
edge(129, 173).
edge(15, 55).
edge(138, 170).
edge(3, 174).
edge(10, 23).
edge(61, 133).
edge(31, 96).
edge(12, 129).
edge(107, 180).
edge(26, 77).
edge(29, 64).
edge(96, 152).
edge(118, 167).
edge(117, 161).
edge(148, 172).
edge(112, 137).
edge(76, 95).
edge(113, 189).
edge(53, 86).
edge(4, 41).
edge(121, 146).
edge(30, 77).
edge(160, 174).
edge(6, 85).
edge(13, 139).
edge(37, 38).
edge(39, 145).
edge(133, 140).
edge(31, 56).
edge(17, 159).
edge(33, 120).
edge(46, 67).
edge(24, 189).
edge(116, 192).
edge(167, 185).
edge(48, 131).
edge(0, 166).
edge(70, 194).
edge(99, 196).
edge(5, 118).
edge(33, 172).
edge(68, 119).
edge(28, 67).
edge(58, 163).
edge(23, 132).
edge(3, 8).
edge(0, 187).
edge(1, 176).
edge(37, 119).
edge(25, 110).
edge(3, 83).
edge(50, 68).
edge(127, 189).
edge(54, 171).
edge(11, 55).
edge(56, 181).
edge(81, 150).
edge(87, 196).
edge(68, 78).
edge(24, 73).
edge(7, 121).
edge(166, 181).
edge(4, 125).
edge(48, 180).
edge(50, 66).
edge(20, 109).
edge(147, 193).
edge(6, 147).
edge(183, 192).
edge(99, 137).
edge(150, 168).
edge(43, 95).
edge(80, 170).
edge(106, 178).
edge(81, 188).
edge(80, 151).
edge(94, 153).
edge(15, 75).
edge(116, 186).
edge(89, 97).
edge(43, 82).
edge(124, 159).
edge(52, 158).
edge(8, 190).
edge(34, 41).
edge(12, 108).
edge(25, 107).
edge(18, 182).
edge(53, 130).
edge(36, 140).
edge(56, 132).
edge(72, 95).
edge(142, 162).
edge(91, 145).
edge(74, 102).
edge(79, 89).
edge(62, 188).
edge(23, 149).
edge(59, 93).
edge(47, 63).
edge(4, 69).
edge(51, 115).
edge(68, 148).
edge(150, 185).
edge(4, 51).
edge(48, 158).
edge(86, 126).
edge(13, 68).
edge(9, 192).
edge(25, 67).
edge(156, 176).
edge(87, 103).
edge(55, 162).
edge(158, 188).
edge(109, 188).
edge(18, 71).
edge(30, 149).
edge(71, 163).
edge(48, 132).
edge(61, 81).
edge(44, 157).
edge(78, 97).
edge(49, 103).
edge(78, 108).
edge(25, 79).
edge(102, 118).
edge(19, 82).
edge(3, 132).
edge(105, 127).
edge(22, 106).
edge(147, 176).
edge(44, 124).
edge(29, 186).
edge(33, 38).
edge(26, 133).
edge(63, 93).
edge(16, 120).
edge(44, 91).
edge(30, 49).
edge(36, 142).
edge(45, 135).
edge(84, 153).
edge(63, 143).
edge(173, 174).
edge(16, 82).
edge(11, 169).
edge(166, 187).
edge(84, 158).
edge(106, 184).
edge(191, 195).
edge(99, 122).
edge(22, 34).
edge(113, 186).
edge(21, 124).
edge(36, 97).
edge(26, 100).
edge(59, 85).
edge(55, 152).
edge(61, 184).
edge(16, 74).
edge(76, 168).
edge(21, 131).
edge(91, 138).
edge(46, 59).
edge(77, 103).
edge(2, 167).
edge(59, 84).
edge(35, 171).
edge(96, 151).
edge(42, 142).
edge(72, 154).
edge(59, 61).
edge(152, 181).
edge(1, 155).
edge(103, 129).
edge(71, 160).
edge(11, 159).
edge(91, 176).
edge(130, 177).
edge(51, 122).
edge(78, 168).
edge(38, 159).
edge(2, 28).
edge(60, 147).
edge(31, 193).
edge(113, 154).
edge(1, 42).
edge(78, 98).
edge(10, 180).
edge(23, 179).
edge(19, 29).
edge(76, 134).
edge(51, 133).
edge(38, 83).
edge(28, 104).
edge(98, 168).
edge(3, 94).
edge(99, 168).
edge(55, 169).
edge(97, 179).
edge(16, 42).
edge(191, 196).
edge(68, 193).
edge(17, 148).
edge(122, 144).
edge(26, 63).
edge(98, 173).
edge(54, 74).
edge(99, 112).
edge(84, 107).
edge(116, 149).
edge(90, 97).
edge(74, 168).
edge(45, 171).
edge(9, 184).
edge(85, 166).
edge(84, 143).
edge(56, 125).
edge(63, 147).
edge(59, 143).
edge(8, 94).
edge(24, 96).
edge(84, 161).
edge(100, 183).
edge(61, 122).
edge(3, 193).
edge(102, 124).
edge(114, 185).
edge(3, 76).
edge(30, 80).
edge(35, 187).
edge(77, 147).
edge(19, 151).
edge(96, 155).
edge(11, 67).
edge(5, 116).
edge(5, 102).
edge(98, 146).
edge(60, 126).
edge(79, 150).
edge(142, 164).
edge(123, 139).
edge(144, 191).
edge(80, 169).
edge(97, 105).
edge(100, 184).
edge(35, 175).
edge(77, 132).
edge(11, 83).
edge(35, 145).
edge(45, 68).
edge(96, 174).
edge(179, 181).
edge(155, 179).
edge(76, 176).
edge(116, 175).
edge(31, 115).
edge(53, 117).
edge(51, 85).
edge(44, 159).
edge(130, 146).
edge(17, 80).
edge(13, 156).
edge(9, 106).
edge(14, 98).
edge(9, 70).
edge(67, 154).
edge(174, 184).
edge(52, 147).
edge(106, 180).
edge(42, 146).
edge(20, 155).
edge(69, 145).
edge(36, 173).
edge(148, 196).
edge(49, 89).
edge(118, 149).
edge(2, 163).
edge(94, 165).
edge(24, 152).
edge(39, 170).
edge(120, 132).
edge(45, 162).
edge(58, 119).
edge(88, 105).
edge(117, 130).
edge(8, 91).
edge(65, 79).
edge(93, 112).
edge(35, 127).
edge(99, 192).
edge(57, 142).
edge(40, 87).
edge(44, 64).
edge(119, 172).
edge(30, 33).
edge(96, 101).
edge(185, 194).
edge(17, 141).
edge(154, 195).
edge(1, 138).
edge(112, 136).
edge(78, 169).
edge(39, 121).
edge(19, 105).
edge(18, 90).
edge(59, 91).
edge(82, 155).
edge(52, 130).
edge(69, 97).
edge(71, 195).
edge(146, 174).
edge(35, 81).
edge(24, 126).
edge(37, 174).
edge(25, 176).
edge(81, 168).
edge(19, 25).
edge(58, 77).
edge(44, 65).
edge(93, 161).
edge(6, 93).
edge(6, 133).
edge(8, 51).
edge(25, 63).
edge(110, 138).
edge(117, 122).
edge(15, 43).
edge(3, 15).
edge(9, 28).
edge(62, 186).
edge(32, 193).
edge(22, 149).
edge(84, 177).
edge(124, 168).
edge(9, 130).
edge(147, 192).
edge(29, 107).
edge(6, 146).
edge(10, 31).
edge(103, 194).
edge(22, 35).
edge(148, 173).
edge(179, 183).
edge(172, 190).
edge(15, 83).
edge(5, 29).
edge(7, 63).
edge(1, 10).
edge(73, 116).
edge(49, 100).
edge(135, 190).
edge(18, 61).
edge(19, 192).
edge(50, 108).
edge(74, 97).
edge(6, 194).
edge(89, 154).
edge(99, 187).
edge(16, 195).
edge(28, 186).
edge(46, 74).
edge(109, 136).
edge(1, 157).
edge(57, 133).
edge(50, 135).
edge(1, 169).
edge(84, 92).
edge(95, 156).
edge(66, 143).
edge(2, 100).
edge(128, 155).
edge(93, 127).
edge(49, 170).
edge(6, 67).
edge(80, 98).
edge(29, 74).
edge(129, 172).
edge(68, 144).
edge(41, 132).
edge(44, 164).
edge(110, 166).
edge(12, 117).
edge(8, 20).
edge(16, 22).
edge(61, 165).
edge(55, 125).
edge(30, 60).
edge(1, 133).
edge(89, 178).
edge(25, 37).
edge(64, 125).
edge(30, 100).
edge(77, 120).
edge(69, 123).
edge(79, 96).
edge(114, 131).
edge(25, 56).
edge(107, 176).
edge(51, 74).
edge(64, 82).
edge(38, 57).
edge(21, 141).
edge(12, 160).
edge(43, 191).
edge(104, 173).
edge(79, 185).
edge(63, 133).
edge(41, 58).
edge(21, 193).
edge(76, 121).
edge(21, 165).
edge(140, 161).
edge(109, 168).
edge(21, 161).
edge(53, 127).
edge(38, 99).
edge(22, 87).
edge(36, 62).
edge(135, 171).
edge(66, 120).
edge(142, 176).
edge(62, 181).
edge(109, 129).
edge(41, 194).
edge(77, 174).
edge(182, 193).
edge(57, 139).
edge(112, 163).
edge(45, 65).
edge(97, 145).
edge(9, 20).
edge(3, 96).
edge(5, 97).
edge(91, 184).
edge(45, 120).
edge(82, 97).
edge(32, 133).
edge(72, 79).
edge(40, 70).
edge(44, 183).
edge(146, 150).
edge(45, 110).
edge(14, 130).
edge(15, 145).
edge(42, 169).
edge(43, 119).
edge(9, 126).
edge(120, 195).
edge(94, 118).
edge(8, 90).
edge(71, 74).
edge(136, 157).
edge(90, 91).
edge(12, 76).
edge(34, 152).
edge(31, 162).
edge(67, 176).
edge(130, 178).
edge(36, 81).
edge(55, 91).
edge(41, 191).
edge(21, 62).
edge(104, 148).
edge(7, 19).
edge(9, 147).
edge(65, 72).
edge(124, 157).
edge(81, 174).
edge(122, 141).
edge(118, 161).
edge(10, 122).
edge(52, 145).
edge(64, 119).
edge(3, 120).
edge(16, 25).
edge(31, 177).
edge(87, 194).
edge(114, 129).
edge(56, 184).
edge(13, 149).
edge(148, 165).
edge(15, 133).
edge(81, 115).
edge(2, 3).
edge(55, 156).
edge(20, 41).
edge(150, 176).
edge(81, 146).
edge(179, 188).
edge(184, 191).
edge(74, 129).
edge(125, 195).
edge(2, 83).
edge(154, 181).
edge(59, 192).
edge(69, 135).
edge(74, 115).
edge(140, 154).
edge(126, 187).
edge(52, 175).
edge(7, 139).
edge(16, 72).
edge(121, 180).
edge(82, 143).
edge(18, 98).
edge(7, 91).
edge(6, 168).
edge(106, 174).
edge(46, 189).
edge(47, 56).
edge(103, 164).
edge(171, 173).
edge(81, 158).
edge(10, 182).
edge(23, 28).
edge(32, 117).
edge(73, 193).
edge(57, 169).
edge(17, 170).
edge(130, 179).
edge(24, 194).
edge(33, 81).
edge(34, 86).
edge(5, 93).
edge(142, 161).
edge(35, 166).
edge(112, 168).
edge(25, 183).
edge(112, 133).
edge(2, 42).
edge(15, 57).
edge(70, 77).
edge(5, 157).
edge(26, 151).
edge(5, 112).
edge(97, 99).
edge(47, 59).
edge(7, 105).
edge(132, 155).
edge(115, 181).
edge(39, 60).
edge(31, 49).
edge(76, 188).
edge(113, 185).
edge(24, 42).
edge(0, 176).
edge(3, 178).
edge(4, 52).
edge(72, 75).
edge(40, 133).
edge(38, 86).
edge(48, 126).
edge(95, 131).
edge(31, 159).
edge(34, 39).
edge(110, 122).
edge(107, 192).
edge(48, 57).
edge(26, 118).
edge(98, 114).
edge(1, 134).
edge(117, 189).
edge(117, 132).
edge(50, 184).
edge(2, 161).
edge(85, 118).
edge(61, 73).
edge(159, 181).
edge(65, 145).
edge(57, 100).
edge(56, 155).
edge(0, 190).
edge(59, 102).
edge(58, 155).
edge(98, 158).
edge(99, 189).
edge(139, 185).
edge(43, 164).
edge(16, 145).
edge(186, 190).
edge(75, 164).
edge(124, 185).
edge(37, 102).
edge(20, 93).
edge(74, 114).
edge(25, 72).
edge(70, 147).
edge(47, 189).
edge(93, 147).
edge(38, 43).
edge(44, 96).
edge(78, 152).
edge(162, 173).
edge(46, 121).
edge(96, 178).
edge(11, 45).
edge(13, 165).
edge(7, 119).
edge(52, 132).
edge(171, 183).
edge(12, 28).
edge(79, 160).
edge(72, 96).
edge(20, 96).
edge(137, 150).
edge(29, 55).
edge(114, 137).
edge(41, 174).
edge(79, 91).
edge(26, 69).
edge(10, 120).
edge(70, 115).
edge(8, 121).
edge(31, 89).
edge(161, 162).
edge(8, 26).
edge(10, 75).
edge(75, 117).
edge(8, 32).
edge(17, 48).
edge(119, 159).
edge(44, 185).
edge(20, 80).
edge(47, 77).
edge(100, 149).
edge(98, 193).
edge(105, 165).
edge(88, 95).
edge(52, 82).
edge(75, 191).
edge(34, 49).
edge(12, 156).
edge(73, 161).
edge(107, 164).
edge(19, 106).
edge(64, 99).
edge(53, 136).
edge(44, 48).
edge(165, 195).
edge(39, 64).
edge(52, 94).
edge(56, 157).
edge(106, 108).
edge(33, 63).
edge(28, 52).
edge(94, 148).
edge(69, 81).
edge(30, 31).
edge(11, 188).
edge(117, 175).
edge(109, 150).
edge(39, 106).
edge(123, 184).
edge(49, 118).
edge(7, 185).
edge(23, 158).
edge(57, 131).
edge(19, 153).
edge(81, 162).
edge(104, 178).
edge(2, 96).
edge(8, 170).
edge(106, 190).
edge(96, 188).
edge(62, 148).
edge(175, 188).
edge(24, 56).
edge(131, 147).
edge(36, 92).
edge(74, 161).
edge(152, 188).
edge(52, 92).
edge(34, 150).
edge(73, 158).
edge(26, 41).
edge(119, 195).
edge(51, 162).
edge(49, 68).
edge(8, 188).
edge(157, 168).
edge(24, 25).
edge(1, 137).
edge(171, 186).
edge(18, 188).
edge(22, 26).
edge(77, 131).
edge(0, 146).
edge(46, 156).
edge(106, 144).
edge(5, 40).
edge(74, 180).
edge(72, 185).
edge(50, 90).
edge(47, 131).
edge(123, 181).
edge(45, 63).
edge(10, 86).
edge(66, 107).
edge(101, 161).
edge(18, 78).
edge(43, 157).
edge(62, 147).
edge(17, 151).
edge(5, 122).
edge(2, 7).
edge(154, 175).
edge(54, 184).
edge(29, 37).
edge(73, 176).
edge(21, 24).
edge(48, 139).
edge(45, 166).
edge(49, 54).
edge(69, 78).
edge(1, 4).
edge(32, 147).
edge(33, 142).
edge(31, 42).
edge(57, 127).
edge(4, 62).
edge(118, 170).
edge(25, 76).
edge(31, 139).
edge(31, 76).
edge(4, 12).
edge(3, 172).
edge(68, 72).
edge(94, 190).
edge(98, 181).
edge(46, 146).
edge(28, 167).
edge(118, 121).
edge(68, 129).
edge(12, 116).
edge(5, 83).
edge(32, 42).
edge(12, 50).
edge(70, 157).
edge(58, 106).
edge(74, 96).
edge(115, 146).
edge(71, 95).
edge(11, 97).
edge(41, 81).
edge(129, 194).
edge(72, 73).
edge(28, 90).
edge(86, 138).
edge(129, 158).
edge(31, 116).
edge(109, 155).
edge(39, 130).
edge(78, 182).
edge(11, 193).
edge(32, 58).
edge(90, 98).
edge(4, 187).
edge(27, 126).
edge(16, 111).
edge(170, 190).
edge(3, 42).
edge(19, 90).
edge(170, 179).
edge(7, 62).
edge(60, 101).
edge(9, 75).
edge(23, 41).
edge(37, 135).
edge(118, 151).
edge(12, 176).
edge(40, 178).
edge(44, 160).
edge(126, 166).
edge(6, 192).
edge(50, 95).
edge(41, 136).
edge(10, 126).
edge(23, 113).
edge(108, 128).
edge(177, 182).
edge(83, 149).
edge(106, 158).
edge(31, 39).
edge(80, 126).
edge(106, 153).
edge(163, 164).
edge(36, 127).
edge(11, 190).
edge(110, 186).
edge(140, 151).
edge(150, 158).
edge(89, 106).
edge(83, 90).
edge(86, 89).
edge(110, 135).
edge(44, 60).
edge(41, 70).
edge(21, 91).
edge(171, 180).
edge(71, 154).
edge(25, 78).
edge(138, 184).
edge(111, 163).
edge(14, 22).
edge(66, 152).
edge(23, 50).
edge(62, 78).
edge(34, 50).
edge(8, 112).
edge(5, 185).
edge(48, 172).
edge(57, 187).
edge(68, 83).
edge(48, 178).
edge(34, 192).
edge(19, 157).
edge(30, 38).
edge(57, 112).
edge(88, 97).
edge(103, 145).
edge(106, 120).
edge(2, 193).
edge(42, 70).
edge(10, 156).
edge(54, 102).
edge(53, 174).
edge(26, 30).
edge(141, 148).
edge(56, 195).
edge(97, 117).
edge(23, 156).
edge(92, 113).
edge(50, 88).
edge(127, 168).
edge(120, 188).
edge(88, 94).
edge(66, 90).
edge(53, 61).
edge(58, 88).
edge(24, 115).
edge(20, 90).
edge(128, 173).
edge(95, 102).
edge(15, 96).
edge(77, 162).
edge(146, 168).
edge(9, 94).
edge(19, 74).
edge(43, 153).
edge(52, 143).
edge(18, 130).
edge(126, 163).
edge(5, 25).
edge(89, 144).
edge(0, 158).
edge(89, 118).
edge(88, 116).
edge(27, 124).
edge(15, 40).
edge(8, 58).
edge(81, 111).
edge(146, 148).
edge(83, 89).
edge(48, 121).
edge(107, 150).
edge(94, 149).
edge(125, 155).
edge(83, 92).
edge(0, 180).
edge(11, 58).
edge(80, 88).
edge(42, 178).
edge(142, 151).
edge(62, 178).
edge(57, 167).
edge(90, 184).
edge(26, 96).
edge(8, 120).
edge(35, 195).
edge(15, 121).
edge(109, 116).
edge(67, 192).
edge(75, 125).
edge(3, 50).
edge(75, 83).
edge(33, 140).
edge(39, 140).
edge(80, 165).
edge(53, 92).
edge(19, 89).
edge(99, 193).
edge(77, 113).
edge(44, 148).
edge(97, 150).
edge(29, 164).
edge(73, 145).
edge(37, 85).
edge(86, 132).
edge(78, 126).
edge(2, 26).
edge(46, 113).
edge(112, 185).
edge(136, 193).
edge(102, 176).
edge(112, 154).
edge(40, 123).
edge(117, 186).
edge(107, 133).
edge(11, 104).
edge(98, 150).
edge(9, 117).
edge(140, 155).
edge(167, 187).
edge(1, 193).
edge(89, 141).
edge(119, 164).
edge(123, 177).
edge(69, 147).
edge(8, 48).
edge(46, 75).
edge(32, 73).
edge(113, 128).
edge(1, 98).
edge(94, 102).
edge(47, 118).
edge(100, 111).
edge(38, 153).
edge(39, 120).
edge(19, 97).
edge(30, 173).
edge(131, 160).
edge(46, 132).
edge(18, 192).
edge(98, 179).
edge(22, 165).
edge(27, 163).
edge(43, 152).
edge(72, 196).
edge(53, 112).
edge(130, 166).
edge(87, 169).
edge(47, 155).
edge(8, 71).
edge(106, 187).
edge(33, 188).
edge(18, 133).
edge(77, 110).
edge(47, 164).
edge(1, 145).
edge(48, 101).
edge(75, 148).
edge(20, 162).
edge(49, 126).
edge(77, 148).
edge(72, 186).
edge(62, 127).
edge(23, 111).
edge(33, 161).
edge(86, 97).
edge(77, 187).
edge(0, 167).
edge(64, 112).
edge(6, 53).
edge(4, 180).
edge(1, 84).
edge(52, 75).
edge(150, 171).
edge(69, 195).
edge(24, 145).
edge(138, 143).
edge(72, 118).
edge(21, 95).
edge(149, 189).
edge(42, 139).
edge(82, 96).
edge(69, 105).
edge(71, 169).
edge(95, 116).
edge(95, 118).
edge(67, 180).
edge(104, 194).
edge(93, 186).
edge(153, 183).
edge(110, 136).
edge(73, 136).
edge(44, 63).
edge(137, 141).
edge(0, 39).
edge(152, 176).
edge(96, 173).
edge(49, 167).
edge(9, 143).
edge(165, 194).
edge(14, 91).
edge(3, 171).
edge(86, 137).
edge(51, 129).
edge(35, 143).
edge(70, 162).
edge(63, 173).
edge(143, 158).
edge(85, 101).
edge(27, 35).
edge(72, 173).
edge(47, 110).
edge(72, 146).
edge(8, 93).
edge(45, 185).
edge(107, 194).
edge(79, 82).
edge(4, 175).
edge(119, 158).
edge(9, 51).
edge(9, 179).
edge(17, 116).
edge(24, 43).
edge(36, 48).
edge(59, 168).
edge(103, 117).
edge(31, 38).
edge(146, 178).
edge(157, 195).
edge(64, 142).
edge(6, 150).
edge(67, 196).
edge(128, 181).
edge(11, 57).
edge(125, 128).
edge(95, 171).
edge(127, 171).
edge(52, 183).
edge(5, 115).
edge(78, 162).
edge(30, 50).
edge(55, 133).
edge(124, 165).
edge(52, 167).
edge(95, 174).
edge(73, 107).
edge(10, 59).
edge(56, 74).
edge(33, 132).
edge(103, 183).
edge(70, 76).
edge(80, 117).
edge(133, 150).
edge(13, 98).
edge(106, 122).
edge(42, 154).
edge(41, 164).
edge(43, 107).
edge(34, 82).
edge(81, 155).
edge(107, 152).
edge(87, 153).
edge(46, 149).
edge(14, 44).
edge(160, 191).
edge(142, 193).
edge(109, 154).
edge(38, 98).
edge(128, 167).
edge(52, 105).
edge(118, 179).
edge(124, 191).
edge(4, 133).
edge(149, 158).
edge(27, 33).
edge(133, 190).
edge(41, 149).
edge(109, 139).
edge(20, 195).
edge(149, 171).
edge(116, 144).
edge(49, 116).
edge(80, 143).
edge(62, 121).
edge(62, 189).
edge(53, 58).
edge(18, 31).
edge(3, 192).
edge(7, 161).
edge(63, 188).
edge(63, 73).
edge(31, 180).
edge(20, 124).
edge(77, 93).
edge(117, 177).
edge(40, 53).
edge(23, 195).
edge(39, 54).
edge(72, 90).
edge(53, 62).
edge(30, 69).
edge(5, 45).
edge(0, 19).
edge(19, 168).
edge(138, 150).
edge(45, 66).
edge(93, 109).
edge(31, 62).
edge(74, 92).
edge(9, 166).
edge(32, 138).
edge(120, 135).
edge(59, 147).
edge(38, 69).
edge(185, 196).
edge(85, 110).
edge(79, 159).
edge(43, 196).
edge(140, 175).
edge(38, 93).
edge(40, 50).
edge(116, 161).
edge(46, 114).
edge(180, 187).
edge(131, 185).
edge(165, 196).
edge(60, 157).
edge(72, 148).
edge(51, 68).
edge(149, 155).
edge(50, 103).
edge(38, 138).
edge(25, 173).
edge(98, 125).
edge(4, 34).
edge(41, 171).
edge(174, 195).
edge(29, 176).
edge(97, 127).
edge(175, 181).
edge(86, 131).
edge(58, 62).
edge(88, 180).
edge(5, 34).
edge(91, 108).
edge(92, 163).
edge(54, 176).
edge(49, 66).
edge(36, 152).
edge(106, 183).
edge(62, 187).
edge(36, 56).
edge(83, 95).
edge(110, 192).
edge(48, 119).
edge(19, 96).
edge(37, 181).
edge(5, 66).
edge(113, 138).
edge(55, 155).
edge(59, 151).
edge(68, 188).
edge(72, 132).
edge(2, 135).
edge(4, 55).
edge(121, 157).
edge(6, 129).
edge(112, 122).
edge(31, 68).
edge(58, 118).
edge(13, 142).
edge(18, 119).
edge(32, 37).
edge(2, 162).
edge(10, 33).
edge(128, 177).
edge(56, 123).
edge(29, 91).
edge(79, 81).
edge(78, 155).
edge(12, 103).
edge(19, 108).
edge(88, 196).
edge(33, 79).
edge(41, 97).
edge(24, 125).
edge(128, 189).
edge(140, 183).
edge(48, 117).
edge(138, 176).
edge(96, 114).
edge(54, 106).
edge(15, 23).
edge(110, 145).
edge(82, 101).
edge(11, 64).
edge(70, 88).
edge(12, 119).
edge(89, 111).
edge(2, 15).
edge(21, 41).
edge(83, 96).
edge(95, 151).
edge(133, 173).
edge(146, 189).
edge(128, 131).
edge(111, 189).
edge(22, 95).
edge(166, 173).
edge(11, 148).
edge(78, 131).
edge(56, 131).
edge(26, 111).
edge(60, 178).
edge(147, 165).
edge(107, 196).
edge(134, 163).
edge(58, 192).
edge(10, 115).
edge(59, 194).
edge(54, 170).
edge(190, 192).
edge(36, 74).
edge(0, 152).
edge(10, 41).
edge(31, 130).
edge(125, 156).
edge(6, 72).
edge(87, 108).
edge(149, 186).
edge(117, 183).
edge(163, 183).
edge(25, 71).
edge(9, 152).
edge(39, 49).
edge(6, 19).
edge(45, 160).
edge(87, 133).
edge(9, 57).
edge(65, 113).
edge(19, 83).
edge(27, 43).
edge(152, 196).
edge(92, 128).
edge(107, 148).
edge(29, 35).
edge(52, 63).
edge(148, 188).
edge(75, 112).
edge(66, 83).
edge(45, 69).
edge(14, 21).
edge(61, 62).
edge(106, 135).
edge(121, 173).
edge(48, 134).
edge(52, 135).
edge(18, 66).
edge(152, 164).
edge(1, 95).
edge(16, 118).
edge(85, 128).
edge(163, 166).
edge(23, 63).
edge(74, 120).
edge(22, 44).
edge(53, 132).
edge(22, 174).
edge(118, 156).
edge(60, 130).
edge(174, 179).
edge(10, 61).
edge(80, 158).
edge(112, 162).
edge(99, 154).
edge(108, 134).
edge(99, 142).
edge(46, 105).
edge(3, 40).
edge(139, 158).
edge(75, 173).
edge(83, 137).
edge(20, 27).
edge(44, 175).
edge(49, 110).
edge(45, 195).
edge(70, 78).
edge(86, 162).
edge(85, 137).
edge(72, 127).
edge(58, 186).
edge(107, 178).
edge(24, 177).
edge(75, 87).
edge(51, 118).
edge(17, 44).
edge(142, 166).
edge(15, 151).
edge(70, 121).
edge(71, 145).
edge(46, 81).
edge(12, 185).
edge(81, 176).
edge(23, 192).
edge(165, 178).
edge(69, 161).
edge(102, 139).
edge(140, 153).
edge(62, 193).
edge(25, 44).
edge(49, 161).
edge(119, 124).
edge(5, 154).
edge(134, 173).
edge(165, 172).
edge(50, 99).
edge(19, 130).
edge(150, 178).
edge(52, 191).
edge(1, 8).
edge(102, 136).
edge(53, 144).
edge(25, 142).
edge(61, 160).
edge(13, 91).
edge(55, 147).
edge(1, 183).
edge(111, 144).
edge(90, 99).
edge(5, 155).
edge(94, 95).
edge(78, 146).
edge(52, 59).
edge(105, 160).
edge(41, 103).
edge(99, 186).
edge(59, 146).
edge(30, 61).
edge(29, 62).
edge(21, 31).
edge(103, 188).
edge(37, 166).
edge(104, 122).
edge(135, 141).
edge(108, 176).
edge(14, 100).
edge(103, 110).
edge(27, 120).
edge(40, 68).
edge(99, 111).
edge(33, 100).
edge(47, 187).
edge(114, 165).
edge(23, 159).
edge(28, 159).
edge(43, 193).
edge(66, 78).
edge(126, 148).
edge(22, 127).
edge(44, 112).
edge(38, 112).
edge(145, 170).
edge(22, 196).
edge(62, 86).
edge(24, 154).
edge(111, 114).
edge(58, 166).
edge(31, 132).
edge(44, 51).
edge(15, 93).
edge(67, 141).
edge(140, 164).
edge(63, 172).
edge(3, 4).
edge(44, 57).
edge(74, 112).
edge(99, 161).
edge(131, 187).
edge(144, 195).
edge(38, 126).
edge(63, 149).
edge(166, 188).
edge(175, 193).
edge(113, 176).
edge(3, 44).
edge(53, 131).
edge(71, 165).
edge(48, 71).
edge(124, 190).
edge(162, 187).
edge(38, 96).
edge(53, 181).
edge(68, 166).
edge(113, 193).
edge(150, 192).
edge(2, 117).
edge(98, 112).
edge(106, 140).
edge(44, 56).
edge(38, 75).
edge(2, 123).
edge(18, 153).
edge(64, 72).
edge(53, 64).
edge(14, 157).
edge(13, 188).
edge(81, 169).
edge(164, 168).
edge(29, 69).
edge(59, 67).
edge(107, 190).
edge(65, 110).
edge(45, 129).
edge(40, 167).
edge(3, 43).
edge(104, 180).
edge(35, 95).
edge(123, 168).
edge(173, 179).
edge(90, 149).
edge(96, 185).
edge(178, 190).
edge(60, 141).
edge(124, 178).
edge(18, 186).
edge(100, 191).
edge(10, 32).
edge(108, 148).
edge(23, 75).
edge(29, 192).
edge(106, 139).
edge(167, 184).
edge(77, 111).
edge(111, 169).
edge(82, 121).
edge(67, 70).
edge(22, 133).
edge(51, 63).
edge(27, 109).
edge(102, 121).
edge(58, 196).
edge(54, 179).
edge(84, 91).
edge(182, 196).
edge(3, 110).
edge(64, 180).
edge(23, 78).
edge(84, 154).
edge(40, 78).
edge(67, 149).
edge(26, 105).
edge(98, 118).
edge(40, 103).
edge(50, 138).
edge(123, 141).
edge(18, 34).
edge(25, 29).
edge(34, 161).
edge(151, 162).
edge(63, 196).
edge(147, 170).
edge(23, 123).
edge(27, 115).
edge(114, 173).
edge(79, 173).
edge(26, 54).
edge(52, 107).
edge(114, 190).
edge(76, 191).
edge(5, 196).
edge(157, 187).
edge(111, 186).
edge(65, 170).
edge(80, 134).
edge(51, 102).
edge(78, 142).
edge(2, 143).
edge(72, 141).
edge(74, 134).
edge(59, 188).
edge(108, 132).
edge(26, 177).
edge(18, 137).
edge(65, 90).
edge(20, 189).
edge(147, 187).
edge(95, 137).
edge(130, 145).
edge(80, 191).
edge(68, 150).
edge(29, 90).
edge(43, 86).
edge(26, 110).
edge(38, 109).
edge(66, 86).
edge(127, 181).
edge(88, 182).
edge(43, 195).
edge(144, 166).
edge(129, 161).
edge(30, 121).
edge(22, 33).
edge(35, 48).
edge(121, 188).
edge(118, 185).
edge(19, 58).
edge(57, 82).
edge(74, 179).
edge(2, 51).
edge(43, 113).
edge(137, 148).
edge(108, 159).
edge(3, 102).
edge(93, 140).
edge(65, 106).
edge(39, 114).
edge(46, 180).
edge(94, 105).
edge(34, 91).
edge(31, 80).
edge(81, 125).
edge(33, 152).
edge(42, 46).
edge(14, 104).
edge(32, 158).
edge(0, 54).
edge(20, 185).
edge(121, 136).
edge(63, 116).
edge(35, 57).
edge(95, 182).
edge(92, 175).
edge(156, 185).
edge(50, 137).
edge(140, 169).
edge(6, 52).
edge(0, 91).
edge(4, 85).
edge(109, 177).
edge(68, 124).
edge(51, 187).
edge(115, 149).
edge(153, 160).
edge(2, 130).
edge(112, 169).
edge(58, 85).
edge(155, 178).
edge(43, 160).
edge(20, 43).
edge(98, 177).
edge(109, 171).
edge(40, 41).
edge(6, 20).
edge(21, 86).
edge(105, 176).
edge(127, 157).
edge(138, 172).
edge(77, 178).
edge(10, 148).
edge(39, 191).
edge(21, 58).
edge(114, 148).
edge(43, 162).
edge(81, 84).
edge(15, 157).
edge(4, 98).
edge(151, 159).
edge(84, 182).
edge(84, 86).
edge(24, 196).
edge(28, 46).
edge(52, 106).
edge(127, 167).
edge(30, 160).
edge(70, 186).
edge(26, 134).
edge(55, 82).
edge(37, 144).
edge(117, 160).
edge(139, 141).
edge(164, 166).
edge(20, 45).
edge(77, 134).
edge(75, 104).
edge(15, 102).
edge(5, 183).
edge(15, 65).
edge(29, 81).
edge(89, 179).
edge(132, 135).
edge(80, 187).
edge(14, 147).
edge(98, 105).
edge(16, 59).
edge(54, 122).
edge(117, 126).
edge(50, 171).
edge(20, 66).
edge(107, 143).
edge(26, 125).
edge(24, 109).
edge(82, 172).
edge(29, 162).
edge(22, 42).
edge(48, 75).
edge(133, 179).
edge(4, 157).
edge(93, 185).
edge(12, 87).
edge(37, 41).
edge(28, 44).
edge(111, 195).
edge(121, 159).
edge(82, 150).
edge(134, 157).
edge(155, 158).
edge(47, 100).
edge(131, 137).
edge(18, 99).
edge(98, 188).
edge(41, 144).
edge(31, 81).
edge(73, 192).
edge(70, 179).
edge(58, 169).
edge(75, 130).
edge(61, 118).
edge(84, 147).
edge(77, 126).
edge(79, 161).
edge(85, 127).
edge(27, 34).
edge(90, 136).
edge(108, 153).
edge(11, 106).
edge(25, 172).
edge(68, 96).
edge(54, 181).
edge(0, 107).
edge(17, 56).
edge(102, 140).
edge(79, 190).
edge(35, 40).
edge(116, 148).
edge(6, 144).
edge(136, 171).
edge(91, 165).
edge(104, 137).
edge(66, 112).
edge(118, 146).
edge(56, 76).
edge(148, 150).
edge(65, 125).
edge(96, 176).
edge(11, 189).
edge(63, 117).
edge(9, 118).
edge(79, 100).
edge(11, 19).
edge(98, 106).
edge(60, 90).
edge(122, 185).
edge(75, 195).
edge(28, 75).
edge(103, 165).
edge(106, 110).
edge(23, 125).
edge(28, 185).
edge(143, 178).
edge(89, 116).
edge(91, 185).
edge(7, 42).
edge(69, 88).
edge(16, 106).
edge(101, 144).
edge(7, 151).
edge(20, 102).
edge(46, 165).
edge(104, 142).
edge(180, 184).
edge(61, 138).
edge(2, 91).
edge(17, 189).
edge(6, 32).
edge(81, 163).
edge(40, 65).
edge(175, 184).
edge(15, 132).
edge(45, 71).
edge(46, 82).
edge(84, 159).
edge(2, 55).
edge(6, 24).
edge(36, 115).
edge(14, 120).
edge(5, 193).
edge(75, 98).
edge(68, 118).
edge(20, 153).
edge(34, 184).
edge(192, 193).
edge(55, 80).
edge(57, 146).
edge(6, 17).
edge(4, 124).
edge(22, 173).
edge(43, 143).
edge(44, 181).
edge(46, 176).
edge(48, 165).
edge(32, 88).
edge(108, 112).
edge(14, 193).
edge(107, 123).
edge(55, 61).
edge(74, 156).
edge(62, 80).
edge(0, 129).
edge(66, 125).
edge(23, 107).
edge(22, 39).
edge(41, 195).
edge(10, 178).
edge(94, 168).
edge(61, 83).
edge(145, 149).
edge(24, 48).
edge(161, 182).
edge(155, 196).
edge(50, 173).
edge(33, 147).
edge(37, 68).
edge(14, 55).
edge(97, 176).
edge(55, 73).
edge(132, 157).
edge(67, 125).
edge(4, 37).
edge(42, 174).
edge(83, 139).
edge(22, 82).
edge(23, 161).
edge(32, 120).
edge(60, 93).
edge(13, 16).
edge(15, 138).
edge(98, 151).
edge(61, 128).
edge(84, 157).
edge(29, 117).
edge(22, 155).
edge(159, 185).
edge(16, 137).
edge(46, 123).
edge(48, 141).
edge(74, 174).
edge(104, 129).
edge(184, 196).
edge(101, 104).
edge(2, 30).
edge(47, 102).
edge(32, 102).
edge(47, 180).
edge(5, 165).
edge(10, 66).
edge(81, 145).
edge(24, 60).
edge(53, 85).
edge(155, 160).
edge(99, 125).
edge(137, 158).
edge(70, 81).
edge(6, 69).
edge(6, 169).
edge(157, 180).
edge(31, 34).
edge(103, 141).
edge(4, 178).
edge(4, 30).
edge(115, 138).
edge(22, 160).
edge(133, 193).
edge(22, 154).
edge(185, 192).
edge(122, 186).
edge(82, 188).
edge(116, 196).
edge(6, 44).
edge(3, 113).
edge(48, 63).
edge(7, 90).
edge(95, 187).
edge(113, 157).
edge(109, 181).
edge(65, 137).
edge(43, 65).
edge(142, 158).
edge(141, 172).
edge(37, 53).
edge(12, 183).
edge(35, 83).
edge(48, 64).
edge(164, 194).
edge(13, 26).
edge(65, 115).
edge(101, 173).
edge(93, 136).
edge(10, 47).
edge(24, 146).
edge(35, 38).
edge(30, 151).
edge(29, 157).
edge(140, 181).
edge(1, 9).
edge(12, 118).
edge(22, 116).
edge(84, 178).
edge(194, 195).
edge(58, 80).
edge(66, 74).
edge(100, 192).
edge(75, 79).
edge(97, 126).
edge(107, 160).
edge(64, 129).
edge(47, 98).
edge(171, 172).
edge(131, 163).
edge(56, 64).
edge(105, 185).
edge(90, 118).
edge(135, 139).
edge(56, 147).
edge(164, 189).
edge(13, 106).
edge(144, 165).
edge(160, 175).
edge(23, 154).
edge(3, 133).
edge(25, 52).
edge(42, 173).
edge(123, 126).
edge(90, 190).
edge(124, 161).
edge(91, 140).
edge(64, 98).
edge(91, 137).
edge(62, 184).
edge(10, 174).
edge(30, 120).
edge(111, 185).
edge(70, 116).
edge(139, 174).
edge(21, 94).
edge(8, 147).
edge(9, 34).
edge(123, 153).
edge(97, 142).
edge(65, 167).
edge(59, 105).
edge(6, 28).
edge(16, 132).
edge(52, 119).
edge(6, 196).
edge(86, 111).
edge(94, 128).
edge(112, 158).
edge(17, 110).
edge(79, 118).
edge(1, 68).
edge(97, 147).
edge(18, 19).
edge(52, 195).
edge(145, 159).
edge(30, 98).
edge(4, 186).
edge(73, 142).
edge(41, 51).
edge(140, 187).
edge(82, 109).
edge(66, 149).
edge(93, 179).
edge(13, 101).
edge(87, 139).
edge(14, 25).
edge(87, 157).
edge(16, 164).
edge(161, 180).
edge(28, 112).
edge(25, 127).
edge(24, 151).
edge(29, 58).
edge(21, 194).
edge(68, 181).
edge(91, 191).
edge(122, 140).
edge(5, 111).
edge(28, 43).
edge(22, 99).
edge(136, 156).
edge(63, 179).
edge(103, 113).
edge(131, 166).
edge(18, 140).
edge(122, 160).
edge(31, 182).
edge(87, 102).
edge(65, 96).
edge(87, 182).
edge(38, 50).
edge(41, 117).
edge(55, 170).
edge(5, 30).
edge(101, 128).
edge(19, 180).
edge(99, 117).
edge(35, 50).
edge(91, 160).
edge(115, 153).
edge(67, 152).
edge(38, 51).
edge(0, 194).
edge(125, 192).
edge(26, 160).
edge(143, 172).
edge(135, 196).
edge(77, 146).
edge(34, 59).
edge(9, 14).
edge(115, 135).
edge(41, 79).
edge(48, 80).
edge(81, 144).
edge(113, 121).
edge(16, 115).
edge(72, 107).
edge(31, 190).
edge(68, 164).
edge(115, 152).
edge(101, 108).
edge(62, 70).
edge(14, 159).
edge(37, 50).
edge(137, 154).
edge(97, 108).
edge(88, 171).
edge(69, 130).
edge(153, 161).
edge(125, 138).
edge(20, 136).
edge(41, 110).
edge(32, 33).
edge(140, 196).
edge(77, 107).
edge(115, 172).
edge(130, 131).
edge(132, 142).
edge(100, 171).
edge(15, 130).
edge(180, 191).
edge(67, 178).
edge(34, 148).
edge(7, 118).
edge(15, 149).
edge(34, 188).
edge(9, 73).
edge(12, 65).
edge(93, 163).
edge(163, 196).
edge(118, 186).
edge(111, 196).
edge(49, 70).
edge(28, 163).
edge(32, 85).
edge(94, 184).
edge(105, 120).
edge(100, 130).
edge(7, 179).
edge(21, 56).
edge(122, 187).
edge(23, 144).
edge(137, 179).
edge(151, 179).
edge(11, 61).
edge(13, 55).
edge(4, 72).
edge(27, 171).
edge(36, 143).
edge(139, 171).
edge(8, 140).
edge(135, 188).
edge(115, 156).
edge(161, 195).
edge(59, 178).
edge(14, 56).
edge(20, 25).
edge(84, 105).
edge(18, 97).
edge(54, 128).
edge(26, 132).
edge(55, 67).
edge(73, 99).
edge(96, 168).
edge(34, 135).
edge(137, 180).
edge(73, 121).
edge(151, 167).
edge(0, 102).
edge(138, 154).
edge(16, 159).
edge(35, 159).
edge(152, 195).
edge(26, 88).
edge(13, 184).
edge(25, 144).
edge(176, 187).
edge(23, 67).
edge(50, 92).
edge(5, 151).
edge(3, 104).
edge(61, 74).
edge(154, 163).
edge(88, 117).
edge(75, 143).
edge(96, 135).
edge(100, 160).
edge(2, 46).
edge(128, 136).
edge(143, 186).
edge(104, 132).
edge(175, 189).
edge(66, 137).
edge(93, 103).
edge(58, 107).
edge(27, 136).
edge(11, 77).
edge(38, 79).
edge(106, 119).
edge(106, 160).
edge(69, 173).
edge(128, 152).
edge(87, 88).
edge(47, 57).
edge(110, 126).
edge(69, 160).
edge(79, 101).
edge(13, 173).
edge(49, 146).
edge(82, 123).
edge(139, 147).
edge(11, 116).
edge(96, 175).
edge(8, 164).
edge(34, 94).
edge(134, 178).
edge(78, 81).
edge(26, 124).
edge(142, 144).
edge(18, 120).
edge(121, 182).
edge(123, 164).
edge(63, 97).
edge(81, 126).
edge(99, 147).
edge(136, 147).
edge(89, 117).
edge(100, 145).
edge(13, 78).
edge(40, 66).
edge(39, 168).
edge(2, 121).
edge(2, 132).
edge(33, 114).
edge(7, 104).
edge(43, 116).
edge(58, 177).
edge(20, 107).
edge(53, 180).
edge(60, 103).
edge(13, 19).
edge(28, 30).
edge(40, 82).
edge(40, 48).
edge(80, 184).
edge(95, 138).
edge(15, 28).
edge(160, 170).
edge(8, 13).
edge(33, 41).
edge(25, 114).
edge(63, 111).
edge(107, 132).
edge(18, 117).
edge(95, 186).
edge(78, 138).
edge(127, 172).
edge(104, 181).
edge(40, 58).
edge(106, 181).
edge(66, 145).
edge(112, 130).
edge(38, 166).
edge(98, 128).
edge(36, 192).
edge(22, 140).
edge(76, 83).
edge(83, 158).
edge(70, 79).
edge(71, 157).
edge(9, 189).
edge(31, 84).
edge(99, 100).
edge(34, 97).
edge(34, 167).
edge(23, 190).
edge(176, 185).
edge(108, 162).
edge(109, 194).
edge(26, 46).
edge(31, 141).
edge(87, 160).
edge(186, 191).
edge(122, 153).
edge(84, 136).
edge(43, 130).
edge(80, 87).
edge(92, 115).
edge(81, 102).
edge(92, 172).
edge(153, 174).
edge(142, 147).
edge(60, 88).
edge(1, 73).
edge(64, 148).
edge(57, 173).
edge(129, 164).
edge(74, 166).
edge(107, 130).
edge(14, 87).
edge(6, 63).
edge(73, 83).
edge(107, 153).
edge(15, 119).
edge(54, 98).
edge(11, 122).
edge(2, 73).
edge(5, 177).
edge(29, 165).
edge(105, 167).
edge(4, 122).
weight(0, 6).
weight(1, 2).
weight(2, 5).
weight(3, 3).
weight(4, 6).
weight(5, 8).
weight(6, 3).
weight(7, 2).
weight(8, 7).
weight(9, 9).
weight(10, 3).
weight(11, 5).
weight(12, 8).
weight(13, 8).
weight(14, 5).
weight(15, 9).
weight(16, 7).
weight(17, 3).
weight(18, 3).
weight(19, 5).
weight(20, 8).
weight(21, 1).
weight(22, 9).
weight(23, 5).
weight(24, 3).
weight(25, 1).
weight(26, 8).
weight(27, 6).
weight(28, 7).
weight(29, 6).
weight(30, 9).
weight(31, 2).
weight(32, 7).
weight(33, 8).
weight(34, 7).
weight(35, 2).
weight(36, 2).
weight(37, 3).
weight(38, 7).
weight(39, 6).
weight(40, 3).
weight(41, 4).
weight(42, 8).
weight(43, 9).
weight(44, 6).
weight(45, 5).
weight(46, 6).
weight(47, 2).
weight(48, 6).
weight(49, 7).
weight(50, 7).
weight(51, 2).
weight(52, 4).
weight(53, 5).
weight(54, 3).
weight(55, 6).
weight(56, 6).
weight(57, 3).
weight(58, 9).
weight(59, 8).
weight(60, 3).
weight(61, 7).
weight(62, 6).
weight(63, 4).
weight(64, 4).
weight(65, 7).
weight(66, 9).
weight(67, 8).
weight(68, 8).
weight(69, 8).
weight(70, 9).
weight(71, 7).
weight(72, 5).
weight(73, 7).
weight(74, 4).
weight(75, 1).
weight(76, 1).
weight(77, 7).
weight(78, 8).
weight(79, 4).
weight(80, 1).
weight(81, 7).
weight(82, 4).
weight(83, 8).
weight(84, 8).
weight(85, 1).
weight(86, 3).
weight(87, 2).
weight(88, 6).
weight(89, 1).
weight(90, 1).
weight(91, 5).
weight(92, 4).
weight(93, 7).
weight(94, 6).
weight(95, 3).
weight(96, 8).
weight(97, 7).
weight(98, 7).
weight(99, 7).
weight(100, 6).
weight(101, 8).
weight(102, 2).
weight(103, 9).
weight(104, 2).
weight(105, 1).
weight(106, 6).
weight(107, 9).
weight(108, 8).
weight(109, 7).
weight(110, 5).
weight(111, 5).
weight(112, 7).
weight(113, 4).
weight(114, 2).
weight(115, 6).
weight(116, 7).
weight(117, 7).
weight(118, 8).
weight(119, 1).
weight(120, 8).
weight(121, 2).
weight(122, 9).
weight(123, 6).
weight(124, 7).
weight(125, 8).
weight(126, 8).
weight(127, 7).
weight(128, 4).
weight(129, 3).
weight(130, 7).
weight(131, 7).
weight(132, 7).
weight(133, 5).
weight(134, 4).
weight(135, 5).
weight(136, 1).
weight(137, 9).
weight(138, 2).
weight(139, 2).
weight(140, 3).
weight(141, 8).
weight(142, 5).
weight(143, 5).
weight(144, 4).
weight(145, 8).
weight(146, 7).
weight(147, 7).
weight(148, 6).
weight(149, 1).
weight(150, 4).
weight(151, 2).
weight(152, 2).
weight(153, 1).
weight(154, 9).
weight(155, 7).
weight(156, 8).
weight(157, 9).
weight(158, 6).
weight(159, 8).
weight(160, 7).
weight(161, 6).
weight(162, 3).
weight(163, 2).
weight(164, 1).
weight(165, 2).
weight(166, 1).
weight(167, 1).
weight(168, 8).
weight(169, 9).
weight(170, 3).
weight(171, 3).
weight(172, 7).
weight(173, 8).
weight(174, 8).
weight(175, 4).
weight(176, 1).
weight(177, 5).
weight(178, 2).
weight(179, 2).
weight(180, 8).
weight(181, 9).
weight(182, 2).
weight(183, 6).
weight(184, 9).
weight(185, 1).
weight(186, 7).
weight(187, 2).
weight(188, 3).
weight(189, 7).
weight(190, 7).
weight(191, 5).
weight(192, 3).
weight(193, 6).
weight(194, 6).
weight(195, 4).
weight(196, 2).
bound(102).

adj(U,V) :- edge(U,V).
adj(U,V) :- edge(V,U).
{in(V)} :- node(V).
dominated(V) :- in(V).
dominated(V) :- in(U), adj(U,V).
:- node(V), not dominated(V).
:- bound(B), #sum{W,V : in(V), weight(V,W)} > B.
:~ in(V), weight(V,W). [W@1,V]
