node(0..198).
edge(100, 132).
edge(123, 149).
edge(103, 128).
edge(76, 77).
edge(119, 139).
edge(87, 94).
edge(36, 94).
edge(19, 83).
edge(94, 180).
edge(50, 84).
edge(21, 69).
edge(40, 158).
edge(148, 196).
edge(38, 138).
edge(18, 133).
edge(43, 164).
edge(154, 160).
edge(41, 125).
edge(5, 169).
edge(98, 181).
edge(124, 142).
edge(8, 178).
edge(0, 5).
edge(38, 83).
edge(72, 108).
edge(133, 185).
edge(151, 152).
edge(67, 171).
edge(13, 197).
edge(46, 130).
edge(19, 150).
edge(8, 123).
edge(23, 149).
edge(84, 134).
edge(38, 130).
edge(70, 71).
edge(169, 189).
edge(135, 172).
edge(121, 167).
edge(66, 150).
edge(33, 53).
edge(56, 116).
edge(16, 154).
edge(43, 63).
edge(5, 60).
edge(101, 157).
edge(29, 171).
edge(22, 50).
edge(4, 182).
edge(9, 136).
edge(5, 94).
edge(187, 198).
edge(110, 152).
edge(68, 114).
edge(143, 194).
edge(17, 175).
edge(30, 189).
edge(177, 185).
edge(36, 83).
edge(74, 166).
edge(6, 113).
edge(12, 20).
edge(23, 119).
edge(99, 147).
edge(18, 146).
edge(142, 192).
edge(16, 35).
edge(59, 86).
edge(12, 166).
edge(16, 77).
edge(39, 152).
edge(45, 64).
edge(43, 45).
edge(45, 56).
edge(45, 57).
edge(112, 147).
edge(138, 154).
edge(131, 177).
edge(152, 189).
edge(64, 175).
edge(3, 71).
edge(73, 125).
edge(99, 130).
edge(38, 67).
edge(13, 53).
edge(4, 111).
edge(3, 162).
edge(16, 34).
edge(25, 63).
edge(34, 156).
edge(10, 148).
edge(184, 186).
edge(120, 163).
edge(173, 178).
edge(71, 192).
edge(52, 74).
edge(16, 43).
edge(56, 85).
edge(11, 137).
edge(71, 113).
edge(11, 85).
edge(35, 105).
edge(139, 153).
edge(13, 133).
edge(49, 141).
edge(27, 94).
edge(14, 146).
edge(24, 57).
edge(22, 39).
edge(47, 101).
edge(7, 83).
edge(37, 79).
edge(61, 126).
edge(43, 104).
edge(114, 129).
edge(163, 189).
edge(41, 181).
edge(52, 75).
edge(84, 128).
edge(20, 121).
edge(54, 112).
edge(34, 170).
edge(60, 173).
edge(82, 194).
edge(150, 179).
edge(47, 182).
edge(56, 194).
edge(138, 157).
edge(93, 139).
edge(105, 142).
edge(57, 154).
edge(50, 67).
edge(144, 166).
edge(87, 123).
edge(20, 124).
edge(44, 197).
edge(27, 124).
edge(30, 80).
edge(112, 143).
edge(84, 131).
edge(158, 159).
edge(70, 154).
edge(46, 194).
edge(20, 104).
edge(31, 147).
edge(165, 197).
edge(27, 34).
edge(32, 122).
edge(113, 158).
edge(70, 182).
edge(65, 74).
edge(40, 185).
edge(0, 67).
edge(95, 158).
edge(127, 197).
edge(114, 118).
edge(54, 80).
edge(68, 145).
edge(28, 195).
edge(60, 138).
edge(78, 152).
edge(58, 120).
edge(63, 167).
edge(93, 124).
edge(14, 134).
edge(145, 153).
edge(58, 89).
edge(45, 151).
edge(17, 190).
edge(30, 190).
edge(116, 143).
edge(154, 178).
edge(158, 195).
edge(88, 96).
edge(84, 109).
edge(82, 103).
edge(95, 123).
edge(109, 132).
edge(40, 91).
edge(40, 118).
edge(128, 176).
edge(58, 68).
edge(155, 196).
edge(68, 149).
edge(111, 198).
edge(126, 144).
edge(87, 142).
edge(37, 53).
edge(103, 164).
edge(132, 137).
edge(25, 195).
edge(89, 127).
edge(2, 107).
edge(40, 84).
edge(10, 31).
edge(82, 146).
edge(15, 182).
edge(117, 184).
edge(131, 156).
edge(64, 118).
edge(45, 153).
edge(10, 24).
edge(54, 86).
edge(61, 112).
edge(77, 153).
edge(28, 46).
edge(71, 181).
edge(68, 139).
edge(21, 173).
edge(39, 96).
edge(38, 87).
edge(20, 193).
edge(64, 74).
edge(141, 186).
edge(65, 184).
edge(56, 113).
edge(20, 126).
edge(147, 186).
edge(16, 40).
edge(25, 148).
edge(173, 194).
edge(149, 165).
edge(4, 99).
edge(8, 131).
edge(56, 124).
edge(37, 71).
edge(109, 160).
edge(27, 84).
edge(49, 115).
edge(22, 182).
edge(102, 167).
edge(121, 124).
edge(93, 181).
edge(73, 148).
edge(12, 136).
edge(22, 115).
edge(15, 150).
edge(87, 128).
edge(94, 132).
edge(43, 125).
edge(87, 170).
edge(75, 81).
edge(43, 153).
edge(64, 192).
edge(34, 92).
edge(148, 153).
edge(0, 27).
edge(38, 51).
edge(120, 179).
edge(95, 129).
edge(105, 119).
edge(117, 146).
edge(116, 135).
edge(51, 167).
edge(79, 188).
edge(150, 152).
edge(10, 70).
edge(0, 9).
edge(127, 135).
edge(91, 179).
edge(149, 191).
edge(11, 177).
edge(6, 56).
edge(3, 42).
edge(140, 141).
edge(103, 160).
edge(62, 99).
edge(18, 100).
edge(73, 98).
edge(41, 163).
edge(21, 140).
edge(15, 18).
edge(74, 90).
edge(89, 167).
edge(36, 134).
edge(59, 141).
edge(150, 183).
edge(18, 94).
edge(23, 184).
edge(6, 165).
edge(64, 86).
edge(94, 119).
edge(7, 164).
edge(21, 102).
edge(120, 166).
edge(54, 197).
edge(89, 185).
edge(98, 104).
edge(31, 110).
edge(10, 59).
edge(68, 134).
edge(41, 164).
edge(27, 111).
edge(163, 183).
edge(9, 138).
edge(1, 137).
edge(46, 76).
edge(75, 140).
edge(12, 105).
edge(35, 144).
edge(58, 82).
edge(35, 135).
edge(7, 121).
edge(20, 170).
edge(64, 194).
edge(26, 70).
edge(98, 196).
edge(155, 160).
edge(73, 128).
edge(81, 188).
edge(93, 150).
edge(5, 78).
edge(56, 183).
edge(33, 184).
edge(54, 118).
edge(37, 59).
edge(3, 116).
edge(6, 25).
edge(83, 182).
edge(42, 111).
edge(21, 197).
edge(122, 163).
edge(86, 92).
edge(149, 195).
edge(129, 179).
edge(130, 142).
edge(43, 72).
edge(130, 150).
edge(35, 184).
edge(30, 62).
edge(33, 75).
edge(30, 99).
edge(171, 193).
edge(12, 184).
edge(134, 160).
edge(101, 172).
edge(78, 193).
edge(100, 194).
edge(2, 76).
edge(170, 180).
edge(112, 121).
edge(59, 184).
edge(30, 113).
edge(102, 184).
edge(110, 165).
edge(50, 165).
edge(108, 120).
edge(20, 58).
edge(14, 106).
edge(82, 121).
edge(131, 160).
edge(22, 35).
edge(86, 173).
edge(138, 191).
edge(62, 163).
edge(7, 45).
edge(31, 195).
edge(128, 186).
edge(36, 78).
edge(42, 126).
edge(69, 166).
edge(52, 139).
edge(106, 171).
edge(47, 137).
edge(78, 174).
edge(62, 118).
edge(115, 124).
edge(16, 24).
edge(116, 122).
edge(125, 185).
edge(128, 130).
edge(61, 134).
edge(33, 157).
edge(59, 191).
edge(41, 119).
edge(46, 103).
edge(32, 99).
edge(73, 107).
edge(96, 145).
edge(53, 120).
edge(169, 198).
edge(98, 127).
edge(66, 73).
edge(74, 143).
edge(80, 106).
edge(187, 191).
edge(178, 193).
edge(60, 127).
edge(80, 119).
edge(5, 101).
edge(49, 191).
edge(37, 143).
edge(137, 166).
edge(53, 138).
edge(16, 113).
edge(84, 183).
edge(33, 108).
edge(187, 192).
edge(28, 109).
edge(36, 172).
edge(17, 171).
edge(61, 86).
edge(9, 123).
edge(106, 136).
edge(27, 178).
edge(0, 120).
edge(17, 76).
edge(42, 152).
edge(33, 190).
edge(43, 91).
edge(112, 183).
edge(57, 97).
edge(3, 105).
edge(162, 175).
edge(59, 195).
edge(59, 151).
edge(34, 175).
edge(131, 164).
edge(57, 195).
edge(74, 156).
edge(95, 160).
edge(157, 184).
edge(9, 37).
edge(79, 177).
edge(9, 34).
edge(89, 190).
edge(5, 116).
edge(64, 108).
edge(105, 129).
edge(139, 152).
edge(86, 96).
edge(23, 72).
edge(14, 121).
edge(6, 64).
edge(58, 111).
edge(98, 158).
edge(84, 85).
edge(104, 133).
edge(37, 129).
edge(123, 138).
edge(31, 164).
edge(35, 106).
edge(146, 161).
edge(7, 184).
edge(7, 76).
edge(59, 161).
edge(145, 197).
edge(105, 166).
edge(50, 63).
edge(92, 160).
edge(136, 147).
edge(22, 191).
edge(24, 169).
edge(53, 158).
edge(50, 68).
edge(58, 173).
edge(13, 136).
edge(37, 189).
edge(90, 139).
edge(61, 177).
edge(111, 120).
edge(36, 50).
edge(7, 94).
edge(145, 173).
edge(75, 143).
edge(83, 160).
edge(97, 190).
edge(106, 175).
edge(61, 124).
edge(73, 184).
edge(81, 182).
edge(21, 137).
edge(44, 153).
edge(118, 141).
edge(30, 186).
edge(2, 148).
edge(136, 189).
edge(117, 128).
edge(50, 154).
edge(28, 145).
edge(110, 173).
edge(13, 77).
edge(85, 172).
edge(30, 50).
edge(37, 179).
edge(9, 180).
edge(154, 179).
edge(49, 96).
edge(21, 131).
edge(121, 184).
edge(16, 26).
edge(74, 123).
edge(80, 149).
edge(178, 184).
edge(1, 66).
edge(17, 68).
edge(181, 188).
edge(6, 54).
edge(52, 119).
edge(113, 166).
edge(110, 190).
edge(91, 169).
edge(15, 74).
edge(25, 150).
edge(73, 131).
edge(28, 182).
edge(2, 106).
edge(23, 43).
edge(96, 166).
edge(57, 123).
edge(31, 97).
edge(79, 115).
edge(74, 99).
edge(79, 117).
edge(39, 106).
edge(37, 83).
edge(154, 176).
edge(86, 181).
edge(185, 187).
edge(2, 32).
edge(84, 172).
edge(67, 118).
edge(44, 76).
edge(16, 27).
edge(156, 159).
edge(43, 161).
edge(101, 120).
edge(90, 181).
edge(147, 163).
edge(68, 71).
edge(119, 128).
edge(61, 149).
edge(155, 171).
edge(6, 116).
edge(41, 126).
edge(134, 173).
edge(38, 85).
edge(140, 145).
edge(57, 100).
edge(118, 127).
edge(116, 151).
edge(46, 64).
edge(66, 95).
edge(20, 186).
edge(30, 154).
edge(67, 98).
edge(110, 164).
edge(144, 192).
edge(18, 93).
edge(36, 138).
edge(17, 99).
edge(28, 68).
edge(91, 120).
edge(12, 129).
edge(14, 141).
edge(105, 154).
edge(146, 187).
edge(34, 180).
edge(92, 181).
edge(19, 163).
edge(76, 168).
edge(162, 183).
edge(4, 102).
edge(24, 185).
edge(62, 158).
edge(84, 184).
edge(12, 173).
edge(74, 91).
edge(102, 103).
edge(25, 172).
edge(52, 192).
edge(34, 166).
edge(79, 126).
edge(90, 109).
edge(58, 129).
edge(135, 144).
edge(94, 170).
edge(70, 157).
edge(127, 133).
edge(61, 196).
edge(134, 194).
edge(30, 64).
edge(50, 51).
edge(10, 109).
edge(47, 151).
edge(85, 184).
edge(50, 185).
edge(1, 40).
edge(39, 74).
edge(67, 132).
edge(34, 96).
edge(113, 115).
edge(6, 78).
edge(60, 86).
edge(2, 47).
edge(142, 154).
edge(26, 112).
edge(64, 90).
edge(19, 71).
edge(38, 88).
edge(140, 175).
edge(8, 82).
edge(68, 177).
edge(79, 191).
edge(21, 183).
edge(48, 143).
edge(154, 183).
edge(25, 60).
edge(150, 172).
edge(92, 149).
edge(23, 168).
edge(15, 133).
edge(32, 69).
edge(11, 139).
edge(12, 120).
edge(15, 163).
edge(5, 52).
edge(72, 105).
edge(27, 176).
edge(1, 144).
edge(160, 180).
edge(8, 166).
edge(60, 125).
edge(166, 169).
edge(30, 187).
edge(139, 180).
edge(63, 110).
edge(35, 50).
edge(118, 157).
edge(68, 129).
edge(136, 137).
edge(91, 166).
edge(28, 70).
edge(35, 44).
edge(23, 36).
edge(165, 168).
edge(125, 146).
edge(41, 88).
edge(53, 114).
edge(61, 94).
edge(127, 147).
edge(63, 164).
edge(24, 182).
edge(66, 67).
edge(82, 131).
edge(58, 101).
edge(8, 93).
edge(20, 122).
edge(105, 141).
edge(51, 88).
edge(63, 179).
edge(65, 148).
edge(74, 161).
edge(80, 157).
edge(127, 184).
edge(5, 180).
edge(14, 48).
edge(57, 180).
edge(105, 143).
edge(49, 102).
edge(90, 113).
edge(144, 146).
edge(36, 82).
edge(151, 186).
edge(129, 136).
edge(19, 164).
edge(132, 171).
edge(39, 117).
edge(131, 198).
edge(66, 81).
edge(5, 87).
edge(166, 178).
edge(105, 135).
edge(9, 117).
edge(38, 156).
edge(131, 182).
edge(132, 165).
edge(22, 186).
edge(56, 96).
edge(139, 169).
edge(51, 69).
edge(94, 131).
edge(53, 71).
edge(33, 83).
edge(107, 157).
edge(31, 71).
edge(32, 142).
edge(141, 172).
edge(109, 138).
edge(65, 147).
edge(145, 171).
edge(12, 29).
edge(149, 169).
edge(12, 85).
edge(6, 175).
edge(117, 153).
edge(30, 132).
edge(6, 33).
edge(51, 101).
edge(101, 163).
edge(41, 141).
edge(51, 196).
edge(3, 52).
edge(5, 107).
edge(12, 96).
edge(28, 141).
edge(52, 53).
edge(35, 171).
edge(85, 101).
edge(66, 134).
edge(107, 122).
edge(113, 198).
edge(21, 99).
edge(1, 52).
edge(13, 16).
edge(8, 59).
edge(101, 104).
edge(34, 153).
edge(15, 190).
edge(70, 150).
edge(1, 121).
edge(27, 65).
edge(89, 183).
edge(97, 140).
edge(4, 167).
edge(111, 128).
edge(105, 118).
edge(26, 106).
edge(33, 195).
edge(171, 197).
edge(31, 152).
edge(40, 95).
edge(55, 100).
edge(82, 124).
edge(6, 176).
edge(152, 163).
edge(96, 152).
edge(7, 85).
edge(3, 79).
edge(26, 65).
edge(75, 150).
edge(12, 59).
edge(148, 171).
edge(40, 85).
edge(33, 180).
edge(138, 167).
edge(103, 180).
edge(23, 26).
edge(78, 173).
edge(22, 157).
edge(136, 144).
edge(68, 147).
edge(6, 42).
edge(17, 149).
edge(55, 140).
edge(99, 172).
edge(59, 147).
edge(13, 30).
edge(28, 138).
edge(111, 151).
edge(21, 145).
edge(31, 156).
edge(19, 52).
edge(114, 192).
edge(112, 196).
edge(40, 46).
edge(125, 130).
edge(19, 32).
edge(44, 67).
edge(26, 44).
edge(23, 183).
edge(38, 181).
edge(17, 41).
edge(132, 157).
edge(20, 141).
edge(3, 17).
edge(120, 138).
edge(80, 175).
edge(179, 185).
edge(16, 198).
edge(148, 167).
edge(91, 115).
edge(72, 184).
edge(104, 160).
edge(7, 111).
edge(155, 198).
edge(65, 182).
edge(140, 157).
edge(8, 147).
edge(36, 112).
edge(103, 144).
edge(17, 101).
edge(51, 60).
edge(89, 152).
edge(168, 179).
edge(85, 114).
edge(89, 101).
edge(90, 131).
edge(41, 79).
edge(125, 129).
edge(39, 157).
edge(173, 174).
edge(6, 171).
edge(42, 139).
edge(22, 138).
edge(38, 140).
edge(16, 122).
edge(37, 170).
edge(29, 145).
edge(102, 175).
edge(13, 170).
edge(71, 195).
edge(153, 177).
edge(3, 178).
edge(17, 65).
edge(34, 115).
edge(134, 165).
edge(3, 139).
edge(65, 120).
edge(99, 138).
edge(118, 123).
edge(47, 86).
edge(24, 140).
edge(50, 64).
edge(9, 182).
edge(61, 64).
edge(76, 143).
edge(63, 78).
edge(167, 182).
edge(54, 194).
edge(59, 73).
edge(12, 138).
edge(59, 149).
edge(65, 165).
edge(75, 144).
edge(69, 191).
edge(132, 194).
edge(102, 152).
edge(6, 193).
edge(15, 195).
edge(68, 104).
edge(2, 62).
edge(54, 173).
edge(28, 170).
edge(104, 145).
edge(72, 112).
edge(86, 174).
edge(53, 91).
edge(3, 119).
edge(137, 151).
edge(21, 175).
edge(32, 120).
edge(117, 194).
edge(127, 168).
edge(94, 183).
edge(100, 122).
edge(91, 157).
edge(20, 46).
edge(50, 131).
edge(15, 22).
edge(149, 153).
edge(70, 173).
edge(38, 157).
edge(81, 122).
edge(135, 176).
edge(64, 84).
edge(177, 197).
edge(22, 73).
edge(87, 96).
edge(96, 143).
edge(55, 79).
edge(99, 195).
edge(105, 108).
edge(96, 173).
edge(91, 195).
edge(52, 68).
edge(8, 167).
edge(74, 165).
edge(45, 63).
edge(6, 51).
edge(36, 147).
edge(4, 187).
edge(66, 170).
edge(33, 59).
edge(41, 77).
edge(71, 144).
edge(156, 161).
edge(74, 188).
edge(20, 127).
edge(63, 166).
edge(129, 184).
edge(49, 189).
edge(98, 112).
edge(69, 112).
edge(79, 98).
edge(87, 131).
edge(97, 196).
edge(10, 171).
edge(1, 9).
edge(36, 195).
edge(49, 182).
edge(128, 136).
edge(172, 181).
edge(181, 184).
edge(31, 50).
edge(54, 57).
edge(100, 156).
edge(75, 147).
edge(126, 176).
edge(69, 84).
edge(49, 125).
edge(116, 166).
edge(5, 182).
edge(12, 160).
edge(50, 98).
edge(21, 87).
edge(90, 147).
edge(22, 107).
edge(154, 180).
edge(108, 168).
edge(32, 73).
edge(41, 139).
edge(45, 49).
edge(59, 124).
edge(130, 195).
edge(101, 121).
edge(118, 195).
edge(38, 141).
edge(11, 36).
edge(45, 139).
edge(160, 163).
edge(87, 192).
edge(121, 122).
edge(77, 115).
edge(13, 120).
edge(97, 156).
edge(87, 97).
edge(173, 179).
edge(135, 171).
edge(97, 108).
edge(75, 123).
edge(13, 130).
edge(47, 187).
edge(12, 15).
edge(22, 45).
edge(33, 52).
edge(134, 171).
edge(138, 174).
edge(65, 135).
edge(133, 169).
edge(21, 56).
edge(4, 25).
edge(0, 198).
edge(5, 171).
edge(10, 68).
edge(56, 68).
edge(103, 134).
edge(84, 145).
edge(185, 195).
edge(76, 169).
edge(99, 188).
edge(71, 169).
edge(88, 104).
edge(121, 154).
edge(48, 114).
edge(71, 173).
edge(129, 134).
edge(84, 93).
edge(76, 120).
edge(52, 196).
edge(55, 163).
edge(105, 190).
edge(43, 57).
edge(44, 178).
edge(1, 189).
edge(28, 104).
edge(4, 55).
edge(134, 186).
edge(68, 182).
edge(39, 162).
edge(36, 90).
edge(47, 189).
edge(38, 193).
edge(12, 141).
edge(102, 192).
edge(144, 196).
edge(31, 84).
edge(4, 40).
edge(62, 126).
edge(83, 184).
edge(22, 54).
edge(11, 196).
edge(84, 137).
edge(17, 115).
edge(133, 181).
edge(21, 54).
edge(110, 158).
edge(84, 165).
edge(3, 94).
edge(14, 16).
edge(8, 125).
edge(13, 43).
edge(6, 163).
edge(12, 98).
edge(86, 104).
edge(29, 108).
edge(167, 193).
edge(70, 169).
edge(17, 186).
edge(159, 195).
edge(9, 27).
edge(31, 75).
edge(30, 153).
edge(110, 149).
edge(52, 148).
edge(139, 162).
edge(33, 73).
edge(61, 150).
edge(93, 116).
edge(93, 174).
edge(99, 146).
edge(42, 105).
edge(27, 43).
edge(165, 183).
edge(38, 186).
edge(1, 78).
edge(35, 185).
edge(28, 162).
edge(126, 158).
edge(154, 186).
edge(139, 145).
edge(38, 43).
edge(26, 33).
edge(20, 132).
edge(95, 102).
edge(95, 107).
edge(79, 182).
edge(54, 138).
edge(19, 175).
edge(91, 177).
edge(111, 113).
edge(76, 124).
edge(38, 82).
edge(92, 180).
edge(51, 54).
edge(142, 151).
edge(90, 191).
edge(63, 160).
edge(62, 91).
edge(63, 102).
edge(39, 111).
edge(15, 35).
edge(172, 198).
edge(82, 177).
edge(42, 106).
edge(76, 149).
edge(7, 60).
edge(9, 62).
edge(144, 179).
edge(52, 129).
edge(154, 188).
edge(123, 196).
edge(32, 62).
edge(140, 192).
edge(95, 162).
edge(9, 159).
edge(74, 149).
edge(83, 119).
edge(26, 34).
edge(25, 145).
edge(6, 125).
edge(9, 67).
edge(33, 79).
edge(19, 145).
edge(61, 93).
edge(50, 152).
edge(150, 175).
edge(107, 129).
edge(0, 57).
edge(63, 148).
edge(14, 152).
edge(121, 197).
edge(31, 111).
edge(59, 134).
edge(140, 176).
edge(86, 162).
edge(60, 67).
edge(17, 86).
edge(109, 112).
edge(58, 176).
edge(34, 119).
edge(30, 41).
edge(86, 126).
edge(31, 140).
edge(57, 196).
edge(66, 128).
edge(127, 187).
edge(3, 161).
edge(40, 115).
edge(22, 104).
edge(41, 50).
edge(82, 171).
edge(25, 157).
edge(64, 171).
edge(157, 173).
edge(44, 169).
edge(59, 175).
edge(64, 123).
edge(103, 153).
edge(46, 54).
edge(86, 180).
edge(5, 97).
edge(56, 80).
edge(95, 121).
edge(6, 37).
edge(127, 171).
edge(6, 129).
edge(154, 175).
edge(13, 101).
edge(69, 115).
edge(27, 71).
edge(146, 195).
edge(2, 13).
edge(37, 127).
edge(74, 151).
edge(15, 16).
edge(36, 153).
edge(113, 144).
edge(101, 149).
edge(1, 44).
edge(83, 130).
edge(1, 163).
edge(83, 197).
edge(75, 96).
edge(9, 183).
edge(48, 78).
edge(157, 170).
edge(29, 92).
edge(94, 185).
edge(17, 91).
edge(18, 106).
edge(36, 139).
edge(17, 52).
edge(80, 98).
edge(94, 128).
edge(106, 112).
edge(141, 164).
edge(68, 102).
edge(14, 195).
edge(95, 196).
edge(10, 35).
edge(4, 19).
edge(149, 175).
edge(41, 185).
edge(37, 138).
edge(45, 115).
edge(4, 90).
edge(23, 134).
edge(107, 138).
edge(24, 145).
edge(22, 151).
edge(10, 190).
edge(48, 94).
edge(69, 190).
edge(96, 163).
edge(23, 29).
edge(34, 94).
edge(82, 142).
edge(143, 147).
edge(77, 91).
edge(70, 148).
edge(193, 194).
edge(26, 47).
edge(89, 189).
edge(78, 79).
edge(35, 49).
edge(150, 196).
edge(0, 33).
edge(62, 147).
edge(81, 156).
edge(31, 36).
edge(14, 89).
edge(53, 145).
edge(39, 137).
edge(60, 184).
edge(59, 129).
edge(158, 181).
edge(29, 58).
edge(72, 158).
edge(7, 9).
edge(75, 110).
edge(108, 114).
edge(46, 116).
edge(6, 46).
edge(20, 140).
edge(36, 68).
edge(84, 149).
edge(30, 110).
edge(134, 154).
edge(48, 197).
edge(111, 186).
edge(19, 121).
edge(76, 140).
edge(79, 128).
edge(112, 189).
edge(64, 127).
edge(13, 41).
edge(112, 144).
edge(102, 111).
edge(136, 143).
edge(124, 143).
edge(18, 97).
edge(5, 159).
edge(171, 183).
edge(8, 194).
edge(4, 68).
edge(138, 189).
edge(67, 80).
edge(183, 185).
edge(74, 79).
edge(11, 102).
edge(72, 162).
edge(138, 172).
edge(96, 126).
edge(75, 132).
edge(5, 8).
edge(170, 192).
edge(89, 134).
edge(46, 176).
edge(6, 161).
edge(89, 193).
edge(88, 124).
edge(34, 49).
edge(37, 182).
edge(74, 81).
edge(114, 194).
edge(131, 187).
edge(31, 149).
edge(148, 190).
edge(17, 20).
edge(41, 44).
edge(67, 143).
edge(72, 179).
edge(47, 61).
edge(141, 181).
edge(159, 161).
edge(75, 155).
edge(91, 162).
edge(143, 186).
edge(7, 178).
edge(39, 100).
edge(72, 188).
edge(48, 167).
edge(104, 122).
edge(38, 114).
edge(118, 152).
edge(82, 187).
edge(47, 49).
edge(79, 124).
edge(4, 56).
edge(163, 168).
edge(165, 182).
edge(59, 142).
edge(42, 114).
edge(2, 9).
edge(10, 196).
edge(122, 149).
edge(28, 187).
edge(42, 100).
edge(81, 100).
edge(4, 70).
edge(51, 103).
edge(144, 194).
edge(74, 162).
edge(42, 94).
edge(2, 40).
edge(68, 106).
edge(23, 98).
edge(55, 147).
edge(1, 161).
edge(25, 159).
edge(10, 155).
edge(28, 63).
edge(104, 108).
edge(29, 114).
edge(95, 178).
edge(109, 192).
edge(115, 120).
edge(95, 143).
edge(62, 125).
edge(137, 184).
edge(126, 178).
edge(55, 90).
edge(151, 160).
edge(154, 173).
edge(20, 145).
edge(32, 188).
edge(51, 76).
edge(88, 191).
edge(4, 47).
edge(23, 103).
edge(78, 85).
edge(66, 184).
edge(122, 171).
edge(13, 128).
edge(109, 143).
edge(150, 168).
edge(58, 126).
edge(69, 90).
edge(123, 184).
edge(5, 140).
edge(124, 153).
edge(23, 115).
edge(104, 153).
edge(78, 160).
edge(55, 165).
edge(9, 134).
edge(50, 91).
edge(13, 180).
edge(88, 147).
edge(38, 48).
edge(118, 161).
edge(37, 137).
edge(53, 130).
edge(71, 194).
edge(123, 173).
edge(32, 50).
edge(134, 167).
edge(37, 175).
edge(29, 123).
edge(97, 145).
edge(124, 157).
edge(32, 113).
edge(7, 65).
edge(91, 161).
edge(2, 82).
edge(111, 167).
edge(186, 198).
edge(10, 110).
edge(102, 198).
edge(145, 146).
edge(30, 179).
edge(51, 97).
edge(56, 165).
edge(57, 121).
edge(100, 195).
edge(12, 88).
edge(37, 80).
edge(101, 130).
edge(108, 193).
edge(110, 184).
edge(62, 190).
edge(87, 179).
edge(27, 77).
edge(15, 160).
edge(32, 59).
edge(67, 164).
edge(4, 151).
edge(17, 151).
edge(46, 189).
edge(122, 139).
edge(161, 178).
edge(111, 190).
edge(27, 131).
edge(64, 174).
edge(21, 178).
edge(7, 170).
edge(129, 174).
edge(149, 192).
edge(104, 165).
edge(135, 182).
edge(7, 72).
edge(131, 176).
edge(21, 31).
edge(77, 137).
edge(6, 158).
edge(6, 13).
edge(48, 96).
edge(176, 180).
edge(51, 112).
edge(21, 160).
edge(139, 190).
edge(31, 94).
edge(34, 139).
edge(97, 129).
edge(16, 41).
edge(82, 89).
edge(16, 76).
edge(87, 157).
edge(4, 150).
edge(91, 160).
edge(50, 162).
edge(36, 75).
edge(26, 63).
edge(39, 107).
edge(61, 176).
edge(67, 93).
edge(6, 109).
edge(41, 120).
edge(82, 137).
edge(104, 123).
edge(53, 54).
edge(14, 105).
edge(27, 40).
edge(115, 186).
edge(15, 105).
edge(60, 104).
edge(45, 66).
edge(26, 176).
edge(26, 180).
edge(30, 134).
edge(48, 79).
edge(49, 139).
edge(89, 128).
edge(87, 183).
edge(65, 185).
edge(86, 159).
edge(57, 90).
edge(50, 140).
edge(14, 67).
edge(140, 143).
edge(117, 129).
edge(30, 126).
edge(56, 108).
edge(170, 194).
edge(84, 89).
edge(98, 170).
edge(19, 102).
edge(30, 146).
edge(51, 154).
edge(22, 68).
edge(80, 141).
edge(76, 195).
edge(195, 198).
edge(39, 186).
edge(83, 188).
edge(113, 152).
edge(46, 91).
edge(35, 180).
edge(62, 73).
edge(59, 179).
edge(42, 98).
edge(28, 164).
edge(66, 178).
edge(82, 186).
edge(17, 96).
edge(55, 162).
edge(132, 182).
edge(10, 12).
edge(181, 183).
edge(106, 163).
edge(151, 166).
edge(134, 141).
edge(9, 14).
edge(81, 172).
edge(79, 193).
edge(56, 167).
edge(29, 155).
edge(48, 63).
edge(86, 102).
edge(91, 126).
edge(6, 118).
edge(32, 43).
edge(27, 123).
edge(49, 104).
edge(61, 129).
edge(95, 122).
edge(64, 177).
edge(30, 198).
edge(113, 168).
edge(2, 41).
edge(48, 178).
edge(95, 105).
edge(31, 196).
edge(131, 154).
edge(5, 194).
edge(78, 189).
edge(71, 126).
edge(8, 86).
edge(12, 67).
edge(10, 120).
edge(101, 195).
edge(33, 153).
edge(133, 162).
edge(81, 166).
edge(120, 176).
edge(67, 71).
edge(135, 162).
edge(33, 117).
edge(110, 188).
edge(116, 144).
edge(58, 125).
edge(15, 106).
edge(59, 159).
edge(21, 161).
edge(49, 161).
edge(24, 151).
edge(105, 184).
edge(97, 98).
edge(5, 68).
edge(31, 73).
edge(46, 109).
edge(62, 194).
edge(62, 100).
edge(60, 177).
edge(6, 62).
edge(37, 113).
edge(33, 139).
edge(44, 82).
edge(28, 133).
edge(154, 158).
edge(64, 96).
edge(0, 76).
edge(97, 180).
edge(88, 142).
edge(17, 58).
edge(2, 105).
edge(49, 155).
edge(114, 191).
edge(4, 186).
edge(101, 127).
edge(46, 127).
edge(16, 137).
edge(73, 193).
edge(65, 106).
edge(175, 179).
edge(10, 163).
edge(3, 198).
edge(26, 32).
edge(45, 88).
edge(181, 187).
edge(68, 152).
edge(144, 163).
edge(29, 80).
edge(159, 164).
edge(116, 152).
edge(12, 17).
edge(129, 185).
edge(12, 62).
edge(81, 136).
edge(66, 189).
edge(129, 142).
edge(33, 39).
edge(123, 189).
edge(36, 86).
edge(33, 92).
edge(125, 155).
edge(14, 77).
edge(99, 194).
edge(21, 186).
edge(33, 101).
edge(171, 184).
edge(80, 153).
edge(112, 197).
edge(67, 128).
edge(67, 155).
edge(58, 95).
edge(52, 172).
edge(12, 119).
edge(17, 142).
edge(42, 174).
edge(112, 131).
edge(10, 112).
edge(158, 178).
edge(27, 141).
edge(89, 115).
edge(44, 150).
edge(30, 90).
edge(4, 31).
edge(70, 147).
edge(33, 68).
edge(126, 151).
edge(1, 117).
edge(49, 64).
edge(68, 156).
edge(96, 193).
edge(93, 154).
edge(36, 79).
edge(110, 115).
edge(119, 180).
edge(2, 28).
edge(78, 197).
edge(116, 155).
edge(37, 159).
edge(95, 193).
edge(39, 138).
edge(45, 169).
edge(90, 96).
edge(71, 189).
edge(10, 52).
edge(3, 108).
edge(24, 46).
edge(140, 162).
edge(66, 137).
edge(56, 64).
edge(178, 195).
edge(32, 71).
edge(17, 81).
edge(98, 106).
edge(88, 196).
edge(80, 112).
edge(11, 62).
edge(98, 99).
edge(113, 197).
edge(127, 172).
edge(35, 76).
edge(0, 163).
edge(30, 105).
edge(32, 177).
edge(53, 62).
edge(15, 193).
edge(74, 127).
edge(77, 108).
edge(32, 107).
edge(42, 69).
edge(65, 140).
edge(6, 47).
edge(123, 195).
edge(43, 74).
edge(11, 86).
edge(71, 132).
edge(127, 148).
edge(21, 89).
edge(129, 168).
edge(172, 189).
edge(137, 161).
edge(75, 183).
edge(3, 157).
edge(49, 85).
edge(121, 188).
edge(99, 183).
edge(70, 115).
edge(10, 173).
edge(4, 73).
edge(28, 72).
edge(179, 195).
edge(117, 178).
edge(85, 171).
edge(139, 193).
edge(133, 174).
edge(92, 124).
edge(140, 152).
edge(45, 186).
edge(27, 99).
edge(64, 106).
edge(16, 165).
edge(120, 140).
edge(49, 164).
edge(104, 174).
edge(64, 193).
edge(70, 119).
edge(167, 189).
edge(37, 40).
edge(70, 81).
edge(73, 111).
edge(49, 91).
edge(117, 196).
edge(80, 190).
edge(1, 90).
edge(92, 156).
edge(79, 186).
edge(15, 48).
edge(109, 119).
edge(130, 177).
edge(94, 125).
edge(116, 118).
edge(81, 153).
edge(67, 92).
edge(22, 165).
edge(51, 175).
edge(60, 96).
edge(22, 161).
edge(16, 189).
edge(112, 129).
edge(38, 95).
edge(32, 195).
edge(118, 191).
edge(65, 90).
edge(60, 90).
edge(80, 105).
edge(54, 82).
edge(57, 64).
edge(41, 51).
edge(38, 148).
edge(71, 88).
edge(157, 163).
edge(139, 149).
edge(46, 73).
edge(137, 183).
edge(0, 107).
edge(79, 110).
edge(19, 57).
edge(42, 148).
edge(117, 183).
edge(124, 136).
edge(30, 147).
edge(24, 197).
edge(123, 197).
edge(120, 154).
edge(26, 175).
edge(47, 77).
edge(81, 159).
edge(6, 168).
edge(58, 118).
edge(0, 158).
edge(12, 156).
edge(73, 144).
edge(29, 163).
edge(55, 99).
edge(66, 113).
edge(71, 137).
edge(49, 166).
edge(41, 195).
edge(33, 181).
edge(181, 198).
edge(96, 118).
edge(31, 112).
edge(119, 138).
edge(21, 57).
edge(60, 176).
edge(79, 133).
edge(46, 162).
edge(24, 100).
edge(154, 161).
edge(20, 166).
edge(11, 132).
edge(10, 16).
edge(25, 149).
edge(120, 125).
edge(136, 179).
edge(60, 150).
edge(4, 89).
edge(36, 118).
edge(123, 132).
edge(24, 178).
edge(20, 30).
edge(2, 126).
edge(114, 171).
edge(178, 197).
edge(7, 162).
edge(72, 98).
edge(23, 47).
edge(7, 25).
edge(84, 96).
edge(125, 149).
edge(6, 73).
edge(91, 108).
edge(32, 96).
edge(100, 184).
edge(125, 170).
edge(90, 162).
edge(88, 186).
edge(33, 142).
edge(161, 186).
edge(145, 162).
edge(110, 195).
edge(39, 183).
edge(99, 163).
edge(4, 142).
edge(93, 99).
edge(0, 65).
edge(47, 144).
edge(25, 143).
edge(98, 185).
edge(48, 164).
edge(104, 134).
edge(117, 179).
edge(75, 191).
edge(28, 131).
edge(13, 89).
edge(126, 162).
edge(16, 167).
edge(59, 148).
edge(16, 152).
edge(90, 100).
edge(7, 179).
edge(77, 181).
edge(4, 171).
edge(51, 121).
edge(96, 102).
edge(4, 65).
edge(140, 182).
edge(89, 147).
edge(5, 152).
edge(27, 192).
edge(127, 170).
edge(73, 149).
edge(121, 141).
edge(92, 190).
edge(71, 104).
edge(125, 153).
edge(57, 144).
edge(37, 55).
edge(75, 148).
edge(27, 48).
edge(76, 186).
edge(9, 122).
edge(104, 128).
edge(147, 193).
edge(33, 98).
edge(47, 166).
edge(63, 120).
edge(2, 176).
edge(10, 121).
edge(12, 100).
edge(127, 134).
edge(61, 191).
edge(70, 149).
edge(28, 62).
edge(74, 107).
edge(57, 79).
edge(117, 138).
edge(4, 194).
edge(96, 127).
edge(77, 186).
edge(17, 30).
edge(110, 129).
edge(46, 185).
edge(172, 188).
edge(82, 147).
edge(61, 141).
edge(83, 101).
edge(4, 46).
edge(29, 181).
edge(125, 148).
edge(136, 151).
edge(34, 44).
edge(31, 150).
edge(59, 120).
edge(153, 174).
edge(113, 141).
edge(71, 133).
edge(46, 92).
edge(133, 180).
edge(117, 161).
edge(65, 152).
edge(65, 157).
edge(188, 192).
edge(57, 173).
edge(121, 146).
edge(78, 172).
edge(138, 177).
edge(15, 181).
edge(5, 185).
edge(14, 100).
edge(102, 171).
edge(60, 111).
edge(83, 175).
edge(95, 152).
edge(19, 76).
edge(70, 132).
edge(18, 186).
edge(5, 7).
edge(155, 167).
edge(19, 23).
edge(107, 184).
edge(81, 198).
edge(39, 46).
edge(103, 141).
edge(18, 102).
edge(23, 104).
edge(78, 94).
edge(109, 137).
edge(139, 170).
edge(119, 136).
edge(171, 173).
edge(113, 163).
edge(15, 47).
edge(131, 194).
edge(52, 183).
edge(37, 157).
edge(28, 102).
edge(8, 101).
edge(31, 60).
edge(8, 104).
edge(34, 152).
edge(94, 135).
edge(184, 193).
edge(85, 170).
edge(7, 122).
edge(126, 165).
edge(16, 128).
edge(6, 74).
edge(38, 94).
edge(88, 92).
edge(46, 110).
edge(72, 115).
edge(48, 90).
edge(75, 159).
edge(157, 189).
edge(2, 29).
edge(35, 77).
edge(113, 181).
edge(7, 44).
edge(29, 132).
edge(47, 197).
edge(86, 95).
edge(45, 105).
edge(127, 132).
edge(50, 191).
edge(25, 193).
edge(112, 123).
edge(174, 196).
edge(54, 102).
edge(72, 155).
edge(29, 187).
edge(123, 144).
edge(122, 194).
edge(15, 191).
edge(74, 130).
edge(108, 125).
edge(82, 157).
edge(35, 97).
edge(12, 152).
edge(104, 177).
edge(15, 166).
edge(13, 24).
edge(74, 120).
edge(77, 145).
edge(4, 16).
edge(16, 52).
edge(9, 79).
edge(128, 135).
edge(58, 140).
edge(61, 198).
edge(100, 166).
edge(63, 161).
edge(71, 128).
edge(14, 196).
edge(38, 69).
edge(78, 104).
edge(74, 179).
edge(104, 191).
edge(124, 187).
edge(91, 111).
edge(69, 108).
edge(106, 180).
edge(1, 30).
edge(87, 165).
edge(153, 188).
edge(37, 187).
edge(4, 139).
edge(32, 38).
edge(94, 157).
edge(5, 157).
edge(131, 197).
edge(90, 93).
edge(12, 77).
edge(35, 164).
edge(53, 115).
edge(130, 151).
edge(29, 126).
edge(54, 109).
edge(22, 145).
edge(126, 146).
edge(40, 183).
edge(40, 174).
edge(60, 144).
edge(36, 58).
edge(128, 194).
edge(135, 181).
edge(42, 169).
edge(31, 52).
edge(57, 153).
edge(102, 115).
edge(47, 135).
edge(35, 96).
edge(26, 73).
edge(73, 190).
edge(3, 18).
edge(112, 175).
edge(76, 198).
edge(39, 165).
edge(99, 169).
edge(133, 170).
edge(53, 79).
edge(50, 148).
edge(49, 192).
edge(1, 65).
edge(6, 115).
edge(36, 167).
edge(90, 98).
edge(12, 149).
edge(59, 183).
edge(163, 194).
edge(190, 194).
edge(19, 115).
edge(61, 157).
edge(17, 33).
edge(7, 126).
edge(64, 124).
edge(80, 151).
edge(116, 129).
edge(95, 150).
edge(91, 103).
edge(87, 189).
edge(72, 171).
edge(87, 190).
edge(46, 119).
edge(37, 166).
edge(114, 138).
edge(22, 128).
edge(106, 109).
edge(118, 154).
edge(78, 170).
edge(45, 111).
edge(33, 67).
edge(147, 166).
edge(6, 82).
edge(50, 110).
edge(63, 82).
edge(141, 155).
edge(18, 160).
edge(163, 195).
edge(117, 182).
edge(157, 171).
edge(42, 193).
edge(51, 56).
edge(86, 154).
edge(64, 98).
edge(19, 47).
edge(30, 91).
edge(49, 67).
edge(85, 119).
edge(59, 84).
edge(86, 167).
edge(128, 173).
edge(9, 189).
edge(5, 56).
edge(37, 92).
edge(14, 37).
edge(81, 138).
edge(126, 196).
edge(3, 88).
edge(18, 60).
edge(16, 71).
edge(60, 154).
edge(133, 173).
edge(81, 87).
edge(99, 136).
edge(36, 125).
edge(78, 183).
edge(74, 187).
edge(60, 82).
edge(5, 19).
edge(61, 70).
edge(31, 134).
edge(176, 186).
edge(64, 110).
edge(36, 168).
edge(0, 181).
edge(71, 129).
edge(1, 125).
edge(19, 147).
edge(7, 49).
edge(91, 180).
edge(80, 127).
edge(113, 160).
edge(151, 159).
edge(29, 179).
edge(74, 198).
edge(21, 132).
edge(17, 195).
edge(152, 185).
edge(128, 154).
edge(121, 190).
edge(70, 72).
edge(113, 180).
edge(85, 138).
edge(55, 66).
edge(77, 95).
edge(20, 83).
edge(37, 61).
edge(71, 82).
edge(15, 115).
edge(21, 138).
edge(107, 156).
edge(29, 111).
edge(30, 66).
edge(28, 139).
edge(74, 146).
edge(66, 179).
edge(71, 158).
edge(23, 112).
edge(118, 164).
edge(97, 161).
edge(20, 44).
edge(107, 168).
edge(28, 178).
edge(31, 115).
edge(22, 96).
edge(131, 146).
edge(5, 186).
edge(29, 90).
edge(180, 184).
edge(100, 127).
edge(128, 139).
edge(34, 35).
edge(8, 46).
edge(71, 162).
edge(92, 126).
edge(26, 85).
edge(119, 197).
edge(173, 191).
edge(50, 115).
edge(56, 150).
edge(135, 139).
edge(181, 190).
edge(39, 79).
edge(73, 177).
edge(102, 165).
edge(144, 149).
edge(35, 179).
edge(0, 116).
edge(180, 198).
edge(6, 123).
edge(63, 174).
edge(16, 96).
edge(112, 119).
edge(3, 102).
edge(16, 32).
edge(135, 169).
edge(22, 162).
edge(73, 84).
edge(75, 156).
edge(68, 107).
edge(11, 45).
edge(93, 142).
edge(14, 15).
edge(150, 190).
edge(62, 151).
edge(59, 172).
edge(36, 81).
edge(101, 118).
edge(31, 158).
edge(10, 80).
edge(129, 182).
edge(54, 158).
edge(113, 137).
edge(11, 72).
edge(46, 169).
edge(32, 191).
edge(33, 103).
edge(89, 95).
edge(90, 144).
edge(13, 163).
edge(31, 72).
edge(148, 166).
edge(167, 186).
edge(86, 107).
edge(18, 155).
edge(5, 22).
edge(141, 177).
edge(26, 55).
edge(67, 116).
edge(116, 149).
edge(16, 103).
edge(64, 162).
edge(24, 149).
edge(102, 187).
edge(88, 162).
edge(9, 61).
edge(6, 14).
edge(18, 68).
edge(13, 149).
edge(8, 177).
edge(40, 108).
edge(18, 153).
edge(39, 132).
edge(8, 79).
edge(21, 107).
edge(40, 54).
edge(116, 117).
edge(72, 157).
edge(22, 29).
edge(88, 181).
edge(104, 132).
edge(168, 177).
edge(96, 181).
edge(8, 155).
edge(2, 57).
edge(2, 114).
edge(4, 38).
edge(50, 180).
edge(59, 108).
edge(101, 159).
edge(61, 197).
edge(17, 135).
edge(10, 54).
edge(31, 174).
edge(127, 163).
edge(151, 190).
edge(135, 157).
edge(40, 75).
edge(54, 151).
edge(102, 188).
edge(91, 171).
edge(18, 166).
edge(94, 141).
edge(8, 115).
edge(5, 187).
edge(22, 175).
edge(84, 108).
edge(16, 44).
edge(60, 101).
edge(11, 76).
edge(2, 155).
edge(25, 187).
edge(79, 168).
edge(32, 77).
edge(128, 146).
edge(155, 194).
edge(24, 99).
edge(45, 60).
edge(181, 196).
edge(84, 194).
edge(37, 111).
edge(151, 175).
edge(26, 27).
edge(105, 122).
edge(120, 170).
edge(150, 166).
edge(20, 125).
edge(27, 140).
edge(21, 82).
edge(62, 184).
edge(145, 177).
edge(118, 163).
edge(90, 99).
edge(95, 153).
edge(185, 194).
edge(136, 138).
edge(91, 137).
edge(66, 97).
edge(59, 146).
edge(109, 157).
edge(45, 194).
edge(4, 34).
edge(75, 195).
edge(56, 169).
edge(83, 135).
edge(8, 168).
edge(29, 116).
edge(19, 118).
edge(64, 159).
edge(51, 141).
edge(182, 185).
edge(45, 118).
edge(27, 78).
edge(149, 188).
edge(8, 94).
edge(55, 186).
edge(6, 187).
edge(35, 191).
edge(131, 166).
edge(84, 105).
edge(118, 124).
edge(116, 156).
edge(22, 77).
edge(59, 137).
edge(48, 69).
edge(88, 127).
edge(49, 92).
edge(59, 98).
edge(17, 24).
edge(58, 77).
edge(39, 140).
edge(5, 77).
edge(12, 189).
edge(151, 192).
edge(24, 103).
edge(115, 180).
edge(116, 164).
edge(72, 89).
edge(4, 35).
edge(46, 152).
edge(10, 159).
edge(43, 133).
edge(0, 12).
edge(145, 163).
edge(113, 159).
edge(67, 112).
edge(4, 128).
edge(96, 138).
edge(135, 164).
edge(182, 193).
edge(75, 149).
edge(76, 118).
edge(17, 125).
edge(92, 139).
edge(18, 77).
edge(63, 106).
edge(68, 160).
edge(46, 180).
edge(43, 155).
edge(8, 18).
edge(170, 181).
edge(41, 173).
edge(93, 183).
edge(33, 149).
edge(115, 151).
edge(4, 42).
edge(62, 127).
edge(50, 160).
edge(136, 145).
edge(5, 189).
edge(37, 84).
edge(97, 103).
edge(10, 41).
edge(15, 153).
edge(109, 125).
edge(130, 135).
edge(141, 156).
edge(8, 106).
edge(105, 161).
edge(67, 117).
edge(18, 61).
edge(147, 173).
edge(46, 90).
edge(26, 74).
edge(71, 131).
edge(84, 111).
edge(43, 172).
edge(67, 151).
edge(158, 179).
edge(58, 138).
edge(25, 131).
edge(63, 153).
edge(32, 42).
edge(1, 87).
edge(11, 167).
edge(3, 180).
edge(63, 133).
edge(154, 191).
edge(19, 141).
edge(5, 20).
edge(31, 88).
edge(8, 88).
edge(97, 155).
edge(66, 151).
edge(13, 38).
edge(18, 71).
edge(58, 106).
edge(4, 115).
edge(6, 84).
edge(22, 65).
edge(11, 44).
edge(75, 184).
edge(107, 195).
edge(12, 43).
edge(147, 179).
edge(160, 196).
edge(110, 136).
edge(68, 190).
edge(164, 185).
edge(15, 126).
edge(26, 190).
edge(97, 141).
edge(82, 102).
edge(103, 135).
edge(89, 165).
edge(29, 138).
edge(88, 89).
edge(2, 135).
edge(99, 115).
edge(99, 122).
edge(15, 83).
edge(10, 17).
edge(155, 190).
edge(34, 144).
edge(92, 185).
edge(166, 189).
edge(110, 176).
edge(89, 109).
edge(3, 64).
edge(9, 128).
edge(134, 170).
edge(66, 196).
edge(58, 143).
edge(17, 164).
edge(143, 154).
edge(104, 173).
edge(45, 59).
edge(67, 194).
edge(156, 171).
edge(53, 173).
edge(6, 151).
edge(149, 162).
edge(174, 192).
edge(73, 174).
edge(43, 115).
edge(66, 94).
edge(23, 58).
edge(100, 129).
edge(40, 45).
edge(145, 150).
edge(111, 123).
edge(8, 186).
edge(17, 141).
edge(10, 43).
edge(135, 147).
edge(147, 198).
edge(156, 158).
edge(2, 48).
edge(179, 186).
edge(43, 196).
edge(137, 171).
edge(20, 147).
edge(116, 187).
edge(17, 59).
edge(163, 187).
edge(25, 151).
edge(189, 197).
edge(20, 194).
edge(166, 177).
edge(95, 142).
edge(33, 65).
edge(67, 90).
edge(121, 128).
edge(57, 93).
edge(193, 195).
edge(54, 162).
edge(3, 186).
edge(28, 135).
edge(31, 104).
edge(152, 197).
edge(95, 117).
edge(41, 179).
edge(92, 128).
edge(114, 124).
edge(62, 117).
edge(39, 145).
edge(130, 141).
edge(161, 196).
edge(18, 170).
edge(28, 157).
edge(12, 47).
edge(167, 198).
edge(24, 47).
edge(79, 196).
edge(18, 112).
edge(19, 55).
edge(72, 94).
edge(19, 146).
edge(177, 198).
edge(127, 185).
edge(50, 104).
edge(29, 141).
edge(92, 189).
edge(59, 115).
edge(91, 95).
edge(138, 165).
edge(71, 73).
edge(72, 198).
edge(84, 151).
edge(43, 123).
edge(171, 186).
edge(33, 154).
edge(13, 94).
edge(72, 151).
edge(9, 38).
edge(64, 107).
edge(20, 175).
edge(60, 136).
edge(85, 162).
edge(66, 131).
edge(93, 155).
edge(0, 166).
edge(56, 132).
edge(144, 148).
edge(152, 181).
edge(124, 133).
edge(172, 193).
edge(62, 94).
edge(33, 124).
edge(56, 143).
edge(45, 99).
edge(117, 185).
edge(55, 130).
edge(172, 182).
edge(73, 155).
edge(57, 107).
edge(90, 140).
edge(20, 79).
edge(157, 172).
edge(99, 111).
edge(78, 88).
edge(35, 155).
edge(22, 99).
edge(88, 103).
edge(52, 91).
edge(46, 51).
edge(161, 179).
edge(86, 130).
edge(38, 143).
edge(101, 192).
edge(54, 159).
edge(112, 136).
edge(180, 186).
edge(145, 186).
edge(98, 121).
edge(67, 121).
edge(44, 117).
edge(3, 120).
edge(45, 134).
edge(45, 123).
edge(93, 108).
edge(55, 136).
edge(43, 156).
edge(27, 138).
edge(17, 154).
edge(11, 116).
edge(31, 129).
edge(27, 72).
edge(152, 182).
edge(17, 109).
edge(68, 121).
edge(28, 56).
edge(67, 193).
edge(1, 149).
edge(76, 131).
edge(23, 86).
edge(47, 100).
edge(158, 190).
edge(16, 178).
edge(45, 98).
edge(110, 187).
edge(58, 98).
edge(114, 145).
edge(99, 176).
edge(137, 192).
edge(136, 150).
edge(56, 94).
edge(62, 114).
edge(18, 132).
edge(68, 130).
edge(138, 176).
edge(15, 52).
edge(2, 181).
edge(75, 102).
edge(42, 175).
edge(41, 91).
edge(22, 83).
edge(54, 198).
edge(44, 102).
edge(41, 156).
edge(103, 148).
edge(158, 180).
edge(28, 45).
edge(81, 152).
edge(137, 159).
edge(130, 179).
edge(34, 107).
edge(92, 100).
edge(122, 179).
edge(175, 176).
edge(125, 159).
edge(82, 134).
edge(34, 174).
edge(53, 140).
edge(49, 187).
edge(146, 190).
edge(25, 48).
edge(62, 156).
edge(67, 123).
edge(2, 66).
edge(127, 138).
edge(105, 146).
edge(104, 166).
edge(48, 161).
edge(24, 44).
edge(55, 131).
edge(95, 109).
edge(161, 172).
edge(54, 161).
edge(0, 122).
edge(130, 198).
edge(140, 180).
edge(17, 173).
edge(4, 33).
edge(83, 134).
edge(41, 150).
edge(111, 180).
edge(40, 164).
edge(25, 181).
edge(125, 143).
edge(70, 85).
edge(16, 94).
edge(14, 179).
edge(156, 167).
edge(56, 75).
edge(156, 195).
edge(138, 161).
edge(38, 160).
edge(54, 154).
edge(102, 145).
edge(23, 136).
edge(3, 50).
edge(68, 78).
edge(8, 43).
edge(101, 110).
edge(72, 132).
edge(69, 89).
edge(71, 143).
edge(27, 80).
edge(17, 90).
edge(52, 184).
edge(38, 133).
edge(61, 107).
edge(21, 30).
edge(52, 102).
edge(20, 143).
edge(50, 166).
edge(39, 184).
edge(58, 104).
edge(117, 120).
edge(17, 51).
edge(149, 164).
edge(2, 77).
edge(151, 155).
edge(55, 105).
edge(159, 169).
edge(16, 87).
edge(21, 79).
edge(93, 179).
edge(127, 198).
edge(3, 75).
edge(18, 119).
edge(101, 141).
edge(41, 196).
edge(101, 139).
edge(79, 102).
edge(48, 196).
edge(14, 45).
edge(4, 27).
edge(143, 198).
edge(93, 133).
edge(8, 128).
edge(10, 95).
edge(147, 185).
edge(16, 25).
edge(86, 141).
edge(1, 128).
edge(123, 175).
edge(143, 166).
edge(105, 175).
edge(47, 195).
edge(149, 155).
edge(92, 159).
edge(34, 151).
edge(66, 176).
edge(32, 108).
edge(145, 149).
edge(162, 180).
edge(88, 107).
edge(57, 118).
edge(43, 62).
edge(104, 167).
edge(34, 187).
edge(11, 124).
edge(17, 19).
edge(22, 59).
edge(51, 153).
edge(129, 151).
edge(113, 173).
edge(25, 111).
edge(102, 122).
edge(2, 33).
edge(66, 86).
edge(130, 131).
edge(119, 158).
edge(69, 182).
edge(53, 92).
edge(176, 190).
edge(54, 187).
edge(160, 189).
edge(51, 149).
edge(124, 150).
edge(11, 35).
edge(4, 132).
edge(44, 59).
edge(65, 138).
edge(2, 98).
edge(123, 187).
edge(138, 147).
edge(55, 196).
edge(10, 149).
edge(21, 55).
edge(11, 117).
edge(36, 129).
edge(58, 122).
edge(135, 183).
edge(41, 146).
edge(44, 49).
edge(1, 50).
edge(42, 166).
edge(118, 170).
edge(80, 111).
edge(49, 158).
edge(29, 147).
edge(37, 196).
edge(100, 153).
edge(89, 112).
edge(1, 113).
edge(131, 178).
edge(48, 149).
edge(4, 155).
edge(114, 134).
edge(105, 152).
edge(13, 93).
edge(125, 152).
edge(76, 185).
edge(7, 187).
edge(178, 185).
edge(85, 108).
edge(40, 123).
edge(32, 160).
edge(88, 98).
edge(35, 107).
edge(99, 159).
edge(87, 172).
edge(58, 182).
edge(7, 193).
edge(71, 74).
edge(2, 154).
edge(59, 197).
edge(3, 181).
edge(72, 194).
edge(125, 135).
edge(0, 157).
edge(31, 126).
edge(46, 136).
edge(68, 172).
edge(2, 61).
edge(59, 78).
edge(5, 53).
edge(62, 132).
edge(57, 98).
edge(79, 136).
edge(7, 91).
edge(127, 196).
edge(38, 131).
edge(68, 125).
edge(41, 60).
edge(108, 148).
edge(25, 129).
edge(93, 141).
edge(99, 187).
edge(106, 119).
edge(53, 105).
edge(120, 184).
edge(79, 184).
edge(98, 102).
edge(14, 157).
edge(146, 173).
edge(78, 156).
edge(113, 191).
edge(93, 158).
edge(1, 59).
edge(9, 169).
edge(148, 175).
edge(149, 187).
edge(20, 26).
edge(97, 133).
edge(88, 177).
edge(28, 155).
edge(24, 154).
edge(64, 149).
edge(46, 183).
edge(13, 165).
edge(92, 108).
edge(85, 137).
edge(48, 181).
edge(21, 58).
edge(89, 173).
edge(3, 32).
edge(38, 75).
edge(151, 158).
edge(54, 156).
edge(75, 117).
edge(33, 104).
edge(52, 175).
edge(80, 96).
edge(18, 126).
edge(86, 123).
edge(98, 100).
edge(37, 186).
edge(43, 132).
edge(130, 163).
edge(13, 90).
edge(42, 164).
edge(3, 77).
edge(106, 178).
edge(63, 101).
edge(8, 50).
edge(150, 160).
edge(63, 129).
edge(23, 108).
edge(81, 146).
edge(157, 179).
edge(14, 92).
edge(4, 158).
edge(61, 147).
edge(31, 82).
edge(72, 159).
edge(68, 96).
edge(85, 124).
edge(0, 40).
edge(39, 81).
edge(162, 186).
edge(120, 186).
edge(105, 168).
edge(6, 155).
edge(32, 161).
edge(50, 66).
edge(51, 87).
edge(57, 140).
edge(83, 114).
edge(134, 155).
edge(6, 130).
edge(58, 175).
edge(6, 70).
edge(103, 158).
edge(68, 174).
edge(100, 101).
edge(73, 114).
edge(40, 53).
edge(13, 144).
edge(45, 195).
edge(25, 65).
edge(40, 109).
edge(124, 163).
edge(48, 123).
edge(60, 148).
edge(61, 133).
edge(51, 142).
edge(150, 176).
edge(87, 174).
edge(97, 194).
edge(170, 193).
edge(110, 140).
edge(8, 160).
edge(76, 90).
edge(58, 60).
edge(14, 18).
edge(91, 123).
edge(2, 56).
edge(166, 173).
edge(5, 133).
edge(159, 172).
edge(164, 168).
edge(37, 147).
edge(1, 112).
edge(169, 181).
edge(28, 110).
edge(11, 151).
edge(107, 171).
edge(18, 81).
edge(126, 161).
edge(6, 170).
edge(18, 157).
edge(83, 171).
edge(74, 126).
edge(67, 162).
edge(59, 180).
edge(56, 193).
edge(45, 113).
edge(58, 191).
edge(65, 189).
edge(34, 173).
edge(109, 147).
edge(66, 84).
edge(11, 158).
edge(18, 163).
edge(66, 147).
edge(170, 188).
edge(138, 184).
edge(23, 57).
edge(33, 69).
edge(131, 165).
edge(108, 113).
edge(122, 173).
edge(17, 150).
edge(23, 31).
edge(118, 143).
edge(80, 155).
edge(32, 151).
edge(32, 115).
edge(67, 146).
edge(150, 165).
edge(40, 59).
edge(5, 36).
edge(23, 105).
edge(92, 130).
edge(65, 68).
edge(57, 105).
edge(47, 161).
edge(23, 137).
edge(60, 183).
edge(12, 56).
edge(39, 174).
edge(48, 160).
edge(140, 148).
edge(165, 192).
edge(3, 5).
edge(89, 92).
edge(69, 144).
edge(56, 107).
edge(8, 95).
edge(115, 191).
edge(7, 138).
edge(53, 194).
edge(94, 155).
edge(57, 179).
edge(3, 133).
edge(4, 48).
edge(30, 128).
edge(134, 198).
edge(38, 77).
edge(31, 168).
edge(119, 198).
edge(129, 181).
edge(137, 149).
edge(148, 154).
edge(64, 81).
edge(65, 125).
edge(6, 152).
edge(105, 194).
edge(71, 87).
edge(28, 65).
edge(8, 148).
edge(95, 126).
edge(67, 186).
edge(2, 179).
edge(54, 119).
edge(25, 162).
edge(140, 149).
edge(19, 194).
edge(135, 193).
edge(44, 94).
edge(71, 188).
edge(78, 137).
edge(34, 121).
edge(10, 131).
edge(20, 90).
edge(9, 118).
edge(81, 118).
edge(165, 171).
edge(23, 196).
edge(51, 74).
edge(92, 101).
edge(141, 194).
edge(131, 150).
edge(9, 70).
edge(56, 81).
edge(7, 131).
edge(54, 71).
edge(6, 102).
edge(83, 85).
edge(137, 175).
edge(170, 178).
edge(20, 169).
edge(27, 101).
edge(22, 194).
edge(69, 92).
edge(4, 72).
edge(78, 192).
edge(66, 136).
edge(8, 112).
edge(117, 195).
edge(51, 136).
edge(1, 80).
edge(36, 183).
edge(129, 190).
edge(131, 135).
edge(81, 165).
edge(89, 184).
edge(93, 170).
edge(131, 151).
edge(87, 136).
edge(86, 190).
edge(16, 19).
edge(108, 138).
edge(35, 75).
edge(88, 146).
edge(13, 166).
edge(59, 169).
edge(56, 67).
edge(110, 118).
edge(91, 198).
edge(9, 22).
edge(145, 166).
edge(56, 153).
edge(37, 91).
edge(25, 31).
edge(76, 132).
edge(12, 55).
edge(3, 115).
edge(58, 115).
edge(30, 129).
edge(112, 126).
edge(82, 88).
edge(79, 144).
edge(55, 118).
edge(18, 179).
edge(165, 196).
edge(138, 152).
edge(73, 97).
edge(169, 179).
edge(86, 194).
edge(95, 112).
edge(69, 141).
edge(137, 179).
edge(113, 118).
edge(14, 62).
edge(80, 116).
edge(34, 37).
edge(8, 175).
edge(82, 108).
edge(16, 64).
edge(69, 179).
edge(75, 106).
edge(196, 198).
edge(85, 198).
edge(1, 192).
edge(77, 126).
edge(64, 167).
edge(112, 151).
edge(104, 143).
edge(111, 121).
edge(14, 50).
edge(123, 198).
edge(58, 183).
edge(40, 180).
edge(11, 181).
edge(80, 90).
edge(143, 156).
edge(62, 153).
edge(17, 192).
edge(110, 174).
edge(84, 121).
edge(21, 158).
edge(70, 167).
edge(103, 151).
edge(26, 184).
edge(0, 132).
edge(22, 166).
edge(87, 91).
edge(41, 148).
edge(29, 83).
edge(65, 137).
edge(50, 144).
edge(72, 76).
edge(70, 101).
edge(109, 167).
edge(78, 127).
edge(9, 52).
edge(52, 71).
edge(11, 110).
edge(35, 122).
edge(94, 108).
edge(104, 180).
edge(54, 147).
edge(180, 185).
edge(103, 123).
edge(71, 149).
edge(42, 150).
edge(142, 168).
edge(73, 150).
edge(18, 145).
edge(19, 168).
edge(45, 135).
edge(9, 163).
edge(178, 183).
edge(148, 177).
edge(116, 188).
edge(52, 62).
edge(29, 120).
edge(5, 25).
edge(17, 163).
edge(150, 186).
edge(122, 166).
edge(191, 198).
edge(92, 99).
edge(4, 84).
edge(106, 188).
edge(27, 82).
edge(21, 100).
edge(27, 120).
edge(63, 151).
edge(82, 173).
edge(74, 119).
edge(105, 111).
edge(195, 197).
edge(53, 107).
edge(80, 188).
edge(125, 158).
edge(6, 16).
edge(49, 167).
edge(44, 74).
edge(144, 169).
edge(97, 123).
edge(53, 117).
edge(122, 161).
edge(26, 61).
edge(34, 198).
edge(131, 139).
edge(41, 90).
edge(128, 171).
edge(140, 177).
edge(85, 163).
edge(84, 110).
edge(78, 159).
edge(1, 174).
edge(24, 119).
edge(69, 157).
edge(148, 149).
edge(62, 108).
edge(193, 196).
edge(88, 150).
edge(4, 69).
edge(128, 195).
edge(1, 68).
edge(31, 130).
edge(58, 70).
edge(4, 157).
edge(86, 171).
edge(46, 175).
edge(4, 21).
edge(57, 171).
edge(121, 163).
edge(44, 138).
edge(127, 157).
edge(126, 191).
edge(82, 141).
edge(80, 164).
edge(15, 87).
edge(66, 118).
edge(91, 105).
edge(69, 120).
edge(49, 71).
edge(106, 189).
edge(62, 146).
edge(98, 140).
edge(113, 177).
edge(175, 183).
edge(26, 41).
edge(102, 156).
edge(72, 119).
edge(31, 172).
edge(13, 124).
edge(130, 143).
edge(117, 197).
edge(12, 90).
edge(61, 158).
edge(121, 162).
edge(28, 119).
edge(49, 157).
edge(28, 191).
edge(62, 173).
edge(101, 116).
edge(11, 163).
edge(76, 91).
edge(21, 177).
edge(17, 37).
edge(20, 134).
edge(109, 180).
edge(171, 172).
edge(148, 194).
edge(76, 97).
edge(117, 150).
edge(26, 94).
edge(3, 56).
edge(111, 141).
edge(24, 147).
edge(92, 95).
edge(152, 177).
edge(41, 110).
edge(4, 135).
edge(17, 56).
edge(43, 88).
edge(92, 105).
edge(60, 91).
edge(56, 84).
edge(163, 177).
edge(57, 92).
edge(109, 189).
edge(87, 182).
edge(179, 193).
edge(17, 63).
edge(35, 178).
edge(29, 133).
edge(78, 108).
edge(48, 193).
edge(95, 176).
edge(71, 121).
edge(45, 128).
edge(27, 175).
edge(100, 113).
edge(86, 193).
edge(151, 187).
edge(27, 166).
edge(72, 186).
edge(84, 124).
edge(11, 68).
edge(39, 189).
edge(16, 156).
edge(109, 133).
edge(103, 127).
edge(70, 140).
edge(139, 187).
edge(87, 162).
edge(59, 123).
edge(154, 155).
edge(80, 180).
edge(19, 117).
edge(4, 143).
edge(51, 93).
edge(93, 100).
edge(65, 160).
edge(1, 12).
edge(96, 167).
edge(164, 187).
edge(141, 197).
edge(73, 109).
edge(86, 133).
edge(116, 163).
edge(97, 122).
edge(30, 177).
edge(33, 126).
edge(98, 176).
edge(71, 183).
edge(33, 186).
edge(116, 134).
edge(46, 140).
edge(59, 70).
edge(110, 130).
edge(4, 196).
edge(34, 159).
edge(92, 173).
edge(103, 171).
edge(109, 124).
edge(67, 197).
edge(82, 168).
edge(121, 179).
edge(57, 192).
edge(6, 147).
edge(72, 176).
edge(130, 180).
edge(34, 194).
edge(8, 61).
edge(107, 187).
edge(14, 60).
edge(84, 185).
edge(27, 117).
edge(40, 198).
edge(163, 198).
edge(125, 140).
edge(41, 192).
edge(3, 179).
edge(0, 89).
edge(12, 25).
edge(27, 170).
edge(4, 96).
edge(97, 168).
edge(19, 50).
edge(24, 164).
edge(106, 184).
edge(10, 66).
edge(0, 83).
edge(91, 164).
edge(111, 169).
edge(40, 80).
edge(97, 189).
edge(5, 177).
edge(18, 168).
edge(140, 142).
edge(72, 161).
edge(2, 69).
edge(133, 179).
edge(33, 50).
edge(150, 153).
edge(90, 141).
edge(34, 182).
edge(152, 174).
edge(87, 124).
edge(74, 173).
edge(105, 140).
edge(16, 173).
edge(130, 168).
edge(131, 155).
edge(21, 163).
edge(162, 192).
edge(118, 149).
edge(12, 106).
edge(161, 187).
edge(7, 137).
edge(31, 197).
edge(48, 133).
edge(5, 38).
edge(0, 193).
edge(28, 173).
edge(61, 154).
edge(122, 136).
edge(6, 61).
edge(130, 183).
edge(91, 178).
edge(70, 136).
edge(120, 175).
edge(3, 25).
edge(76, 86).
edge(38, 124).
edge(28, 58).
edge(68, 194).
edge(61, 182).
edge(62, 107).
edge(38, 174).
edge(99, 152).
edge(96, 190).
edge(155, 185).
edge(15, 187).
edge(126, 134).
edge(56, 151).
edge(20, 85).
edge(75, 161).
edge(22, 92).
edge(1, 102).
edge(40, 106).
edge(145, 189).
edge(52, 140).
edge(18, 159).
edge(66, 148).
edge(53, 123).
edge(11, 189).
edge(165, 175).
edge(19, 63).
edge(116, 139).
edge(55, 134).
edge(183, 198).
edge(28, 116).
edge(0, 71).
edge(18, 31).
edge(28, 171).
edge(27, 66).
edge(76, 175).
edge(130, 165).
edge(50, 175).
edge(132, 186).
edge(149, 174).
edge(3, 160).
edge(31, 161).
edge(19, 94).
edge(5, 113).
edge(76, 161).
edge(13, 154).
edge(61, 125).
edge(129, 152).
edge(146, 171).
edge(103, 191).
edge(13, 153).
edge(8, 172).
edge(113, 139).
edge(107, 186).
edge(45, 179).
edge(21, 59).
edge(52, 149).
edge(76, 157).
edge(156, 166).
edge(84, 129).
edge(12, 68).
edge(97, 106).
edge(4, 67).
edge(43, 85).
edge(57, 69).
edge(11, 153).
edge(58, 83).
edge(16, 107).
edge(112, 118).
edge(12, 84).
edge(90, 168).
edge(18, 53).
edge(38, 144).
edge(15, 85).
edge(166, 168).
edge(33, 109).
edge(129, 147).
edge(70, 109).
edge(70, 174).
edge(34, 52).
edge(12, 125).
edge(51, 190).
edge(25, 88).
edge(26, 120).
edge(85, 164).
edge(24, 162).
edge(91, 189).
edge(64, 158).
edge(45, 174).
edge(89, 96).
edge(108, 160).
edge(91, 153).
edge(10, 189).
edge(35, 86).
edge(43, 94).
edge(72, 95).
edge(64, 133).
edge(15, 57).
edge(43, 160).
edge(1, 3).
edge(127, 131).
edge(74, 176).
edge(83, 99).
edge(36, 121).
edge(110, 121).
edge(44, 114).
edge(63, 121).
edge(109, 115).
edge(21, 139).
edge(162, 194).
edge(111, 170).
edge(24, 152).
edge(152, 188).
edge(155, 182).
edge(35, 82).
edge(95, 135).
edge(109, 159).
edge(152, 184).
edge(18, 164).
edge(50, 111).
edge(71, 83).
edge(76, 174).
edge(69, 128).
edge(51, 79).
edge(152, 179).
edge(61, 148).
edge(12, 132).
edge(112, 149).
edge(114, 187).
edge(131, 181).
edge(98, 134).
edge(120, 133).
edge(39, 53).
edge(57, 147).
edge(3, 13).
edge(107, 130).
edge(146, 148).
edge(57, 101).
edge(93, 145).
edge(60, 189).
edge(109, 164).
edge(91, 122).
edge(74, 88).
edge(3, 51).
edge(96, 120).
edge(38, 79).
edge(164, 173).
edge(114, 166).
edge(184, 198).
edge(28, 147).
edge(67, 179).
edge(115, 190).
edge(2, 167).
edge(133, 161).
edge(9, 16).
edge(67, 167).
edge(79, 129).
edge(44, 81).
edge(66, 117).
edge(163, 196).
edge(38, 40).
edge(35, 170).
edge(63, 119).
edge(58, 195).
edge(76, 146).
edge(97, 147).
edge(71, 186).
edge(92, 169).
edge(139, 197).
edge(97, 165).
edge(101, 150).
edge(160, 167).
edge(157, 198).
edge(16, 106).
edge(4, 88).
edge(112, 177).
edge(0, 164).
edge(177, 196).
edge(152, 169).
edge(102, 144).
edge(108, 169).
edge(111, 197).
edge(68, 197).
edge(8, 180).
edge(99, 131).
edge(8, 136).
edge(96, 110).
edge(96, 132).
edge(117, 125).
edge(42, 71).
edge(84, 94).
edge(36, 67).
edge(139, 158).
edge(59, 89).
edge(72, 141).
edge(17, 127).
edge(3, 89).
edge(7, 55).
edge(49, 175).
edge(72, 189).
edge(167, 197).
edge(48, 136).
edge(19, 166).
edge(0, 59).
edge(95, 173).
edge(84, 196).
edge(27, 125).
edge(80, 150).
edge(156, 177).
edge(103, 113).
edge(53, 172).
edge(99, 192).
edge(44, 179).
edge(68, 84).
edge(104, 144).
edge(5, 155).
edge(13, 187).
edge(23, 37).
edge(30, 106).
edge(99, 168).
edge(42, 88).
edge(60, 113).
edge(157, 174).
edge(21, 84).
edge(69, 175).
edge(124, 128).
edge(36, 187).
edge(77, 187).
edge(75, 182).
edge(93, 102).
edge(102, 140).
edge(4, 97).
edge(87, 111).
edge(56, 149).
edge(128, 131).
edge(38, 71).
edge(90, 103).
edge(10, 117).
edge(89, 110).
edge(7, 87).
edge(74, 195).
edge(125, 126).
edge(12, 73).
edge(12, 34).
edge(10, 100).
edge(115, 158).
edge(11, 121).
edge(75, 171).
edge(91, 175).
edge(64, 88).
edge(61, 67).
edge(33, 89).
edge(17, 165).
edge(39, 45).
edge(16, 176).
edge(115, 193).
edge(27, 119).
edge(5, 51).
edge(98, 128).
edge(18, 64).
edge(102, 161).
edge(135, 165).
edge(107, 196).
edge(49, 130).
edge(97, 100).
edge(79, 122).
edge(34, 118).
edge(29, 69).
edge(53, 119).
edge(66, 83).
edge(118, 181).
edge(23, 126).
edge(2, 178).
edge(86, 106).
edge(80, 178).
edge(7, 47).
edge(12, 19).
edge(4, 14).
edge(70, 89).
edge(54, 69).
edge(23, 109).
edge(41, 167).
edge(147, 197).
edge(103, 124).
edge(7, 86).
edge(160, 161).
edge(75, 190).
edge(32, 143).
edge(132, 141).
edge(94, 149).
edge(31, 42).
edge(105, 107).
edge(36, 48).
edge(164, 167).
edge(109, 166).
edge(51, 135).
edge(109, 183).
edge(42, 160).
edge(107, 153).
edge(86, 125).
edge(11, 87).
edge(142, 143).
edge(7, 82).
edge(80, 154).
edge(77, 101).
edge(60, 124).
edge(22, 86).
edge(83, 150).
edge(32, 193).
edge(32, 137).
edge(160, 184).
edge(25, 194).
edge(61, 89).
edge(99, 118).
edge(99, 117).
edge(15, 108).
edge(46, 87).
edge(25, 126).
edge(85, 102).
edge(93, 148).
edge(15, 25).
edge(180, 181).
edge(115, 165).
edge(20, 173).
edge(143, 155).
edge(13, 17).
edge(158, 176).
edge(48, 134).
edge(69, 86).
edge(99, 129).
edge(34, 149).
edge(109, 145).
edge(11, 22).
edge(86, 97).
edge(8, 118).
edge(31, 108).
edge(83, 164).
edge(53, 189).
edge(103, 143).
edge(43, 158).
edge(137, 169).
edge(160, 171).
edge(84, 187).
edge(46, 159).
edge(106, 141).
edge(53, 93).
edge(36, 198).
edge(12, 58).
edge(21, 155).
edge(36, 161).
edge(56, 192).
edge(21, 71).
edge(11, 25).
edge(90, 163).
edge(50, 192).
edge(157, 197).
edge(13, 66).
edge(78, 109).
edge(53, 147).
edge(21, 44).
edge(50, 102).
edge(45, 143).
edge(12, 99).
edge(127, 161).
edge(158, 194).
edge(5, 42).
edge(12, 91).
edge(78, 110).
edge(1, 109).
edge(42, 140).
edge(146, 194).
edge(114, 162).
edge(170, 182).
edge(114, 175).
edge(34, 196).
edge(21, 98).
edge(7, 185).
edge(39, 95).
edge(37, 134).
edge(132, 178).
edge(42, 178).
edge(17, 35).
edge(70, 146).
edge(106, 130).
edge(71, 97).
edge(18, 147).
edge(44, 152).
edge(20, 114).
edge(18, 134).
edge(16, 57).
edge(43, 181).
edge(23, 182).
edge(6, 86).
edge(53, 90).
edge(64, 188).
edge(21, 180).
edge(70, 111).
edge(56, 103).
edge(65, 141).
edge(37, 97).
edge(58, 96).
edge(56, 152).
edge(72, 110).
edge(74, 185).
edge(103, 185).
edge(39, 108).
edge(3, 22).
edge(31, 121).
edge(183, 184).
edge(125, 181).
edge(128, 187).
edge(19, 31).
edge(36, 151).
edge(67, 69).
edge(89, 131).
edge(42, 118).
edge(191, 196).
edge(74, 182).
edge(47, 153).
edge(95, 188).
edge(148, 192).
edge(63, 92).
edge(147, 169).
edge(36, 128).
edge(24, 95).
edge(106, 172).
edge(141, 147).
edge(13, 115).
edge(73, 158).
edge(22, 94).
edge(82, 112).
edge(5, 196).
edge(138, 186).
edge(20, 158).
edge(10, 181).
edge(55, 164).
edge(67, 72).
edge(111, 192).
edge(18, 123).
edge(36, 100).
edge(69, 194).
edge(10, 139).
edge(184, 197).
edge(4, 39).
edge(152, 190).
edge(1, 21).
edge(15, 72).
edge(8, 171).
edge(20, 54).
edge(139, 184).
edge(13, 150).
edge(72, 153).
edge(157, 167).
edge(6, 191).
edge(48, 140).
edge(14, 43).
edge(48, 118).
edge(47, 129).
edge(16, 97).
edge(64, 179).
edge(120, 174).
edge(55, 69).
edge(21, 34).
edge(30, 143).
edge(28, 100).
edge(84, 176).
edge(33, 77).
edge(15, 144).
edge(47, 162).
edge(83, 94).
edge(44, 104).
edge(41, 108).
edge(38, 84).
edge(121, 180).
edge(102, 139).
edge(11, 59).
edge(40, 90).
edge(41, 65).
edge(77, 176).
edge(113, 195).
edge(51, 166).
edge(103, 154).
edge(71, 175).
edge(35, 98).
edge(47, 180).
edge(31, 194).
edge(58, 133).
edge(60, 175).
edge(48, 166).
edge(46, 114).
edge(11, 40).
edge(47, 71).
edge(33, 86).
edge(39, 126).
edge(123, 180).
edge(66, 139).
edge(14, 108).
edge(24, 176).
edge(116, 196).
edge(142, 148).
edge(52, 79).
edge(47, 78).
edge(41, 45).
edge(54, 196).
edge(12, 142).
edge(52, 152).
edge(65, 146).
edge(126, 170).
edge(40, 43).
edge(17, 73).
edge(42, 122).
edge(148, 168).
edge(114, 142).
edge(26, 173).
edge(25, 138).
edge(76, 89).
edge(173, 187).
edge(116, 145).
edge(156, 180).
edge(38, 168).
edge(77, 158).
edge(99, 141).
edge(79, 192).
edge(45, 91).
edge(72, 74).
edge(58, 121).
edge(41, 124).
edge(39, 54).
edge(115, 133).
edge(72, 103).
edge(13, 194).
edge(27, 73).
edge(128, 179).
edge(72, 118).
edge(48, 88).
edge(44, 173).
edge(28, 89).
edge(43, 90).
edge(0, 75).
edge(7, 39).
edge(150, 154).
edge(2, 89).
edge(53, 110).
edge(25, 67).
edge(3, 150).
edge(51, 71).
edge(154, 197).
edge(109, 111).
edge(15, 114).
edge(4, 76).
edge(182, 184).
edge(36, 103).
edge(54, 131).
edge(93, 171).
edge(91, 98).
edge(106, 166).
edge(57, 182).
edge(80, 132).
edge(37, 108).
edge(4, 127).
edge(169, 196).
edge(121, 157).
edge(106, 174).
edge(18, 131).
edge(134, 146).
edge(58, 112).
edge(58, 165).
edge(8, 98).
edge(84, 125).
edge(120, 167).
edge(41, 82).
edge(116, 123).
edge(26, 37).
edge(54, 75).
edge(18, 91).
edge(2, 168).
edge(117, 137).
edge(167, 175).
edge(46, 111).
edge(9, 12).
edge(5, 154).
edge(69, 136).
edge(143, 183).
edge(30, 149).
edge(54, 117).
edge(19, 68).
edge(25, 38).
edge(57, 111).
edge(95, 103).
edge(44, 123).
edge(64, 80).
edge(8, 119).
edge(59, 158).
edge(77, 173).
edge(49, 143).
edge(44, 166).
edge(29, 99).
edge(58, 73).
edge(19, 101).
edge(12, 126).
edge(151, 180).
edge(94, 151).
edge(19, 162).
edge(12, 182).
edge(102, 197).
edge(73, 152).
edge(40, 107).
edge(145, 174).
edge(115, 155).
edge(74, 193).
edge(20, 168).
edge(8, 193).
edge(102, 138).
edge(132, 151).
edge(97, 148).
edge(69, 130).
edge(21, 149).
edge(106, 170).
edge(166, 176).
edge(16, 63).
edge(17, 102).
edge(38, 118).
edge(158, 162).
edge(55, 115).
edge(42, 157).
edge(115, 162).
edge(99, 102).
edge(32, 119).
edge(97, 131).
edge(34, 185).
edge(171, 189).
edge(98, 150).
edge(89, 194).
edge(37, 197).
edge(111, 147).
edge(148, 182).
edge(36, 148).
edge(54, 191).
edge(81, 151).
edge(7, 95).
edge(31, 153).
edge(70, 198).
edge(110, 146).
edge(28, 84).
edge(53, 160).
edge(83, 107).
edge(14, 172).
edge(53, 124).
edge(59, 79).
edge(97, 182).
edge(19, 187).
edge(179, 192).
edge(62, 162).
edge(89, 187).
edge(103, 168).
edge(14, 151).
edge(21, 96).
edge(61, 120).
edge(0, 101).
edge(83, 185).
edge(94, 124).
edge(93, 151).
edge(81, 179).
edge(50, 74).
edge(67, 183).
edge(43, 186).
edge(84, 157).
edge(125, 169).
edge(17, 132).
edge(152, 167).
edge(156, 198).
edge(6, 98).
edge(74, 181).
edge(20, 187).
edge(19, 79).
edge(51, 139).
edge(60, 169).
edge(54, 190).
edge(91, 192).
edge(142, 180).
edge(132, 161).
edge(79, 178).
edge(15, 76).
edge(18, 121).
edge(68, 186).
edge(87, 191).
edge(76, 115).
edge(30, 174).
edge(1, 156).
edge(39, 128).
edge(44, 143).
edge(59, 101).
edge(46, 193).
edge(84, 115).
edge(29, 180).
edge(4, 64).
edge(26, 129).
edge(11, 32).
edge(33, 114).
edge(132, 190).
edge(91, 139).
edge(37, 177).
edge(177, 181).
edge(96, 97).
edge(75, 130).
edge(13, 104).
edge(110, 138).
edge(19, 75).
edge(60, 130).
edge(47, 107).
edge(87, 133).
edge(2, 136).
edge(86, 146).
edge(66, 141).
edge(105, 183).
edge(81, 89).
edge(24, 143).
edge(32, 78).
edge(124, 185).
edge(123, 133).
edge(128, 161).
edge(132, 155).
edge(61, 65).
edge(21, 101).
edge(22, 137).
edge(15, 90).
edge(98, 187).
edge(25, 115).
edge(43, 128).
edge(138, 197).
edge(93, 166).
edge(38, 80).
edge(45, 129).
edge(5, 40).
edge(66, 177).
edge(96, 129).
edge(9, 120).
edge(136, 195).
edge(40, 168).
edge(192, 193).
edge(51, 117).
edge(33, 148).
edge(10, 184).
edge(154, 177).
edge(47, 168).
edge(75, 104).
edge(49, 135).
edge(180, 196).
edge(54, 179).
edge(16, 98).
edge(53, 169).
edge(97, 150).
edge(2, 153).
edge(72, 178).
edge(94, 118).
edge(40, 127).
edge(73, 145).
edge(10, 42).
edge(29, 65).
edge(56, 179).
edge(140, 163).
edge(81, 134).
edge(151, 176).
edge(20, 74).
edge(16, 89).
edge(80, 137).
edge(32, 118).
edge(88, 117).
edge(52, 55).
edge(76, 153).
edge(28, 193).
edge(44, 124).
edge(67, 68).
edge(0, 26).
edge(10, 39).
edge(81, 125).
edge(21, 45).
edge(83, 168).
edge(33, 140).
edge(7, 74).
edge(8, 27).
edge(60, 108).
edge(15, 107).
edge(139, 183).
edge(11, 96).
edge(28, 125).
edge(76, 139).
edge(17, 148).
edge(100, 157).
edge(154, 174).
edge(21, 64).
edge(76, 105).
edge(25, 97).
edge(113, 162).
edge(96, 170).
edge(110, 156).
edge(59, 116).
edge(13, 79).
edge(109, 178).
edge(29, 74).
edge(136, 159).
edge(119, 121).
edge(2, 84).
edge(59, 196).
edge(16, 68).
edge(12, 65).
edge(30, 139).
edge(8, 20).
edge(116, 131).
edge(47, 104).
edge(41, 70).
edge(69, 96).
edge(7, 31).
edge(158, 182).
edge(5, 39).
edge(54, 92).
edge(71, 114).
edge(26, 134).
edge(25, 54).
edge(97, 128).
edge(59, 162).
edge(68, 120).
edge(46, 125).
edge(48, 131).
edge(62, 135).
edge(93, 182).
edge(44, 135).
edge(158, 174).
edge(35, 124).
edge(44, 155).
edge(32, 53).
edge(8, 135).
edge(91, 92).
edge(40, 175).
edge(22, 171).
edge(81, 88).
edge(178, 192).
edge(119, 181).
edge(71, 106).
edge(7, 154).
edge(42, 186).
edge(39, 114).
edge(22, 64).
edge(60, 131).
edge(147, 195).
edge(128, 165).
edge(164, 184).
edge(102, 134).
edge(141, 184).
edge(167, 195).
edge(95, 130).
edge(107, 160).
edge(53, 108).
edge(54, 60).
edge(11, 15).
edge(54, 175).
edge(107, 117).
edge(64, 176).
edge(93, 186).
edge(178, 179).
edge(59, 95).
edge(25, 76).
edge(146, 165).
edge(14, 58).
edge(15, 32).
edge(18, 167).
edge(38, 44).
edge(26, 123).
edge(116, 153).
edge(30, 188).
edge(128, 174).
edge(103, 120).
edge(151, 183).
edge(59, 122).
edge(141, 179).
edge(2, 116).
edge(102, 142).
edge(166, 172).
edge(68, 184).
edge(43, 59).
edge(65, 130).
edge(12, 170).
edge(166, 185).
edge(130, 133).
edge(79, 109).
edge(33, 58).
edge(17, 34).
edge(94, 95).
edge(78, 147).
edge(76, 184).
edge(192, 198).
edge(123, 140).
edge(169, 171).
edge(11, 88).
edge(29, 121).
edge(20, 33).
edge(75, 168).
edge(55, 67).
edge(34, 55).
edge(35, 42).
edge(136, 194).
edge(68, 131).
edge(39, 60).
edge(61, 190).
edge(56, 190).
edge(76, 117).
edge(155, 169).
edge(61, 143).
edge(11, 105).
edge(21, 148).
edge(64, 87).
edge(167, 172).
edge(0, 173).
edge(86, 152).
edge(103, 169).
edge(2, 157).
edge(156, 187).
edge(10, 113).
edge(46, 98).
edge(16, 126).
edge(0, 182).
edge(55, 135).
edge(46, 160).
edge(54, 62).
edge(76, 193).
edge(41, 137).
edge(106, 159).
edge(109, 113).
edge(28, 61).
edge(118, 165).
edge(77, 118).
edge(73, 90).
edge(137, 140).
edge(74, 114).
edge(59, 96).
edge(128, 190).
edge(37, 151).
edge(29, 176).
edge(2, 138).
edge(136, 149).
edge(106, 123).
edge(36, 41).
edge(16, 143).
edge(55, 86).
edge(23, 83).
edge(4, 174).
edge(91, 140).
edge(78, 178).
edge(47, 103).
edge(46, 86).
edge(29, 193).
edge(98, 169).
edge(108, 155).
edge(38, 126).
edge(3, 127).
edge(15, 183).
edge(104, 183).
edge(105, 133).
edge(136, 197).
edge(13, 44).
edge(142, 190).
edge(40, 129).
edge(150, 155).
edge(142, 183).
edge(7, 57).
edge(37, 155).
edge(27, 129).
edge(45, 130).
edge(77, 78).
edge(20, 51).
edge(13, 100).
edge(4, 41).
edge(163, 169).
edge(66, 172).
edge(132, 148).
edge(27, 36).
edge(91, 124).
edge(48, 108).
edge(49, 74).
edge(2, 117).
edge(18, 96).
edge(55, 92).
edge(138, 166).
edge(142, 170).
edge(69, 189).
edge(7, 108).
edge(2, 170).
edge(26, 126).
edge(31, 139).
edge(106, 114).
edge(44, 157).
edge(77, 116).
edge(29, 102).
edge(103, 181).
edge(46, 80).
edge(21, 94).
edge(93, 192).
edge(29, 82).
edge(30, 108).
edge(112, 116).
edge(55, 127).
edge(100, 121).
edge(33, 40).
edge(117, 158).
edge(48, 101).
edge(87, 145).
edge(47, 193).
edge(112, 169).
edge(4, 169).
edge(28, 165).
edge(20, 100).
edge(118, 186).
edge(92, 172).
edge(80, 163).
edge(87, 93).
edge(156, 188).
edge(47, 188).
edge(65, 144).
edge(60, 174).
edge(157, 182).
edge(115, 126).
edge(5, 191).
edge(98, 166).
edge(73, 187).
edge(135, 190).
edge(60, 193).
edge(121, 198).
edge(35, 167).
edge(45, 176).
edge(81, 196).
edge(64, 183).
edge(64, 142).
edge(41, 47).
edge(127, 140).
edge(45, 175).
edge(19, 192).
edge(31, 118).
edge(14, 139).
edge(187, 188).
edge(14, 20).
edge(57, 168).
edge(23, 107).
edge(8, 14).
edge(46, 66).
edge(77, 192).
edge(42, 177).
edge(20, 76).
edge(62, 198).
edge(3, 95).
edge(58, 65).
edge(98, 123).
edge(22, 27).
edge(25, 198).
edge(17, 48).
edge(46, 68).
edge(24, 122).
edge(85, 126).
edge(106, 151).
edge(134, 185).
edge(74, 157).
edge(30, 38).
edge(57, 68).
edge(94, 139).
edge(137, 187).
edge(46, 149).
edge(0, 1).
edge(53, 162).
edge(166, 193).
edge(127, 130).
edge(77, 179).
edge(92, 166).
edge(48, 169).
edge(45, 157).
edge(7, 26).
edge(20, 24).
edge(10, 88).
edge(42, 109).
edge(168, 192).
edge(51, 134).
edge(124, 131).
edge(56, 131).
edge(101, 117).
edge(77, 159).
edge(136, 163).
edge(107, 165).
edge(73, 117).
edge(6, 190).
edge(8, 51).
edge(100, 106).
edge(127, 162).
edge(26, 168).
edge(42, 163).
edge(58, 181).
edge(72, 160).
edge(47, 59).
edge(58, 177).
edge(149, 152).
edge(5, 71).
edge(70, 133).
edge(55, 146).
edge(83, 195).
edge(75, 173).
edge(62, 111).
edge(139, 192).
edge(46, 184).
edge(7, 118).
edge(55, 142).
edge(152, 173).
edge(25, 112).
edge(49, 83).
edge(98, 113).
edge(84, 181).
edge(174, 189).
edge(83, 153).
edge(143, 169).
edge(27, 92).
edge(5, 65).
edge(52, 185).
edge(123, 169).
edge(32, 109).
edge(75, 126).
edge(13, 75).
edge(50, 189).
edge(27, 121).
edge(7, 192).
edge(11, 152).
edge(5, 29).
edge(3, 38).
edge(143, 152).
edge(3, 182).
edge(118, 155).
edge(121, 195).
edge(37, 103).
edge(91, 184).
edge(20, 31).
edge(75, 142).
edge(104, 136).
edge(4, 77).
edge(86, 149).
edge(65, 102).
edge(9, 103).
edge(135, 154).
edge(28, 92).
edge(14, 90).
edge(40, 89).
edge(8, 100).
edge(76, 163).
edge(174, 187).
edge(180, 183).
edge(146, 152).
edge(22, 192).
edge(127, 146).
edge(54, 77).
edge(31, 186).
edge(49, 68).
edge(113, 192).
edge(145, 168).
edge(53, 127).
edge(55, 108).
edge(89, 181).
edge(49, 62).
edge(83, 127).
edge(57, 116).
edge(57, 67).
edge(153, 172).
edge(31, 87).
edge(33, 49).
edge(39, 57).
edge(22, 56).
edge(50, 158).
edge(19, 134).
edge(5, 57).
edge(24, 94).
edge(113, 117).
edge(35, 73).
edge(84, 167).
edge(7, 97).
edge(43, 182).
edge(93, 198).
edge(13, 141).
edge(110, 189).
edge(46, 60).
edge(93, 128).
edge(37, 68).
edge(123, 135).
edge(74, 158).
edge(6, 185).
edge(20, 108).
edge(11, 14).
edge(8, 24).
edge(172, 173).
edge(6, 91).
edge(30, 155).
edge(53, 76).
edge(31, 100).
edge(66, 69).
edge(154, 167).
edge(21, 47).
edge(7, 10).
edge(136, 140).
edge(10, 192).
edge(32, 146).
edge(108, 140).
edge(16, 20).
edge(66, 109).
edge(88, 106).
edge(16, 150).
edge(22, 198).
edge(19, 58).
edge(123, 130).
edge(79, 157).
edge(44, 92).
edge(31, 154).
edge(60, 145).
edge(38, 98).
edge(31, 67).
edge(24, 68).
edge(40, 196).
edge(108, 111).
edge(95, 155).
edge(96, 147).
edge(61, 90).
edge(21, 25).
edge(48, 190).
edge(151, 167).
edge(96, 186).
edge(149, 150).
edge(39, 143).
edge(43, 113).
edge(46, 139).
edge(139, 189).
edge(42, 83).
edge(45, 95).
edge(117, 136).
edge(28, 73).
edge(34, 135).
edge(89, 182).
edge(97, 163).
edge(69, 148).
edge(0, 79).
edge(30, 97).
edge(97, 125).
edge(56, 110).
edge(112, 122).
edge(4, 124).
edge(45, 183).
edge(70, 139).
edge(110, 120).
edge(108, 184).
edge(121, 183).
edge(100, 172).
edge(25, 124).
edge(22, 109).
edge(6, 83).
edge(155, 157).
edge(8, 120).
edge(178, 189).
edge(23, 159).
edge(79, 112).
edge(85, 95).
edge(17, 140).
edge(171, 177).
edge(41, 43).
edge(59, 105).
edge(82, 87).
edge(52, 57).
edge(96, 114).
edge(85, 154).
edge(176, 195).
edge(37, 106).
edge(26, 181).
edge(149, 183).
edge(36, 127).
edge(71, 117).
edge(42, 55).
edge(24, 87).
edge(120, 197).
edge(110, 132).
edge(87, 197).
edge(88, 198).
edge(7, 156).
edge(118, 174).
edge(30, 180).
edge(27, 103).
edge(2, 113).
edge(95, 191).
edge(15, 138).
edge(21, 35).
edge(32, 163).
edge(61, 72).
edge(132, 169).
edge(17, 129).
edge(97, 169).
edge(25, 94).
edge(85, 155).
edge(44, 105).
edge(22, 127).
edge(162, 184).
edge(38, 102).
edge(8, 25).
edge(12, 168).
edge(57, 183).
edge(19, 120).
edge(45, 162).
edge(113, 124).
edge(88, 130).
edge(6, 39).
edge(63, 134).
edge(27, 37).
edge(50, 99).
edge(15, 45).
edge(20, 161).
edge(37, 56).
edge(144, 167).
edge(118, 129).
edge(179, 189).
edge(106, 155).
edge(28, 53).
edge(115, 139).
edge(1, 130).
edge(77, 94).
edge(144, 159).
edge(114, 183).
edge(29, 146).
edge(123, 146).
edge(14, 158).
edge(141, 174).
edge(110, 178).
edge(47, 74).
edge(124, 172).
edge(7, 78).
edge(24, 34).
edge(53, 136).
edge(46, 173).
edge(54, 91).
edge(101, 122).
edge(84, 146).
edge(50, 155).
edge(33, 150).
edge(5, 45).
edge(121, 149).
edge(22, 168).
edge(1, 24).
edge(62, 97).
edge(89, 118).
edge(104, 164).
edge(6, 122).
edge(110, 163).
edge(62, 86).
edge(83, 177).
edge(148, 164).
edge(80, 166).
edge(57, 133).
edge(116, 137).
edge(14, 188).
edge(54, 146).
edge(7, 14).
edge(5, 67).
edge(120, 193).
edge(28, 32).
edge(45, 86).
edge(68, 158).
edge(111, 155).
edge(82, 116).
edge(90, 175).
edge(29, 68).
edge(20, 184).
edge(74, 101).
edge(38, 61).
edge(29, 186).
edge(52, 106).
edge(119, 134).
edge(99, 186).
edge(30, 197).
edge(137, 177).
edge(72, 182).
edge(141, 187).
edge(44, 100).
edge(96, 131).
edge(27, 112).
edge(74, 191).
edge(50, 195).
edge(18, 156).
edge(46, 56).
edge(107, 198).
edge(88, 164).
edge(22, 95).
edge(23, 118).
edge(116, 147).
edge(48, 70).
edge(80, 187).
edge(7, 33).
edge(29, 154).
edge(101, 160).
edge(34, 104).
edge(16, 17).
edge(158, 171).
edge(54, 70).
edge(20, 93).
edge(96, 125).
edge(96, 160).
edge(73, 169).
edge(17, 88).
edge(86, 108).
edge(3, 134).
edge(63, 67).
edge(98, 145).
edge(123, 155).
edge(31, 78).
edge(91, 155).
edge(60, 178).
edge(57, 188).
edge(46, 170).
edge(36, 164).
edge(46, 174).
edge(28, 55).
edge(29, 125).
edge(8, 10).
edge(137, 190).
edge(112, 174).
edge(149, 154).
edge(73, 120).
edge(55, 78).
edge(92, 161).
edge(64, 92).
edge(144, 186).
edge(107, 148).
edge(60, 100).
edge(10, 160).
edge(8, 129).
edge(112, 146).
edge(28, 106).
edge(29, 79).
edge(10, 57).
edge(6, 99).
edge(102, 193).
edge(76, 94).
edge(110, 133).
edge(60, 159).
edge(82, 94).
edge(0, 6).
edge(7, 70).
edge(136, 193).
edge(26, 148).
edge(8, 185).
edge(59, 125).
edge(117, 167).
edge(161, 185).
edge(135, 148).
edge(58, 158).
edge(25, 33).
edge(27, 128).
edge(39, 131).
edge(73, 154).
edge(54, 87).
edge(59, 194).
edge(92, 118).
edge(46, 75).
edge(56, 196).
edge(97, 191).
edge(3, 171).
edge(36, 104).
edge(39, 118).
edge(25, 171).
edge(83, 116).
edge(7, 132).
edge(77, 188).
edge(103, 156).
edge(112, 192).
edge(86, 137).
edge(7, 88).
edge(9, 144).
edge(97, 114).
edge(28, 43).
edge(6, 12).
edge(19, 178).
edge(119, 153).
edge(136, 186).
edge(28, 57).
edge(91, 191).
edge(102, 106).
edge(45, 71).
edge(95, 194).
edge(42, 97).
edge(33, 178).
edge(137, 172).
edge(55, 193).
edge(104, 135).
edge(47, 154).
edge(57, 71).
edge(72, 125).
edge(14, 39).
edge(57, 119).
edge(83, 102).
edge(67, 114).
edge(91, 136).
edge(145, 167).
edge(2, 118).
edge(95, 147).
edge(58, 155).
edge(156, 175).
edge(72, 84).
edge(129, 144).
edge(79, 123).
edge(13, 37).
edge(93, 191).
edge(20, 35).
edge(77, 132).
edge(26, 53).
edge(14, 160).
edge(37, 195).
edge(177, 187).
edge(12, 147).
edge(114, 131).
edge(149, 170).
edge(9, 58).
edge(15, 80).
edge(70, 137).
edge(8, 37).
edge(20, 135).
edge(158, 193).
edge(81, 102).
edge(97, 142).
edge(28, 44).
edge(57, 185).
edge(55, 120).
edge(41, 92).
edge(177, 179).
edge(110, 117).
edge(11, 30).
edge(27, 114).
edge(58, 172).
edge(53, 149).
edge(124, 152).
edge(160, 175).
edge(0, 150).
edge(51, 140).
edge(147, 165).
edge(108, 183).
edge(74, 129).
edge(90, 118).
edge(158, 184).
edge(64, 122).
edge(133, 178).
edge(78, 196).
edge(173, 190).
edge(94, 112).
edge(80, 182).
edge(23, 192).
edge(12, 130).
edge(48, 98).
edge(68, 98).
edge(120, 192).
edge(48, 188).
edge(169, 175).
edge(95, 164).
edge(93, 195).
edge(38, 154).
edge(123, 128).
edge(55, 102).
edge(81, 191).
edge(18, 29).
edge(1, 164).
edge(31, 159).
edge(108, 167).
edge(105, 163).
edge(142, 195).
edge(72, 148).
edge(34, 165).
edge(54, 85).
edge(94, 194).
edge(30, 53).
edge(107, 110).
edge(86, 196).
edge(51, 92).
edge(47, 152).
edge(142, 175).
edge(80, 172).
edge(3, 97).
edge(178, 196).
edge(21, 66).
edge(155, 175).
edge(43, 151).
edge(4, 82).
edge(45, 180).
edge(64, 91).
edge(10, 198).
edge(65, 183).
edge(75, 157).
edge(102, 158).
edge(8, 102).
edge(79, 170).
edge(85, 157).
edge(165, 181).
edge(184, 188).
edge(154, 162).
edge(87, 119).
edge(74, 172).
edge(15, 123).
edge(131, 171).
edge(22, 62).
edge(106, 148).
edge(8, 13).
edge(168, 188).
edge(99, 180).
edge(18, 118).
edge(49, 55).
edge(175, 193).
edge(81, 158).
edge(130, 140).
edge(138, 156).
edge(177, 183).
edge(66, 163).
edge(80, 104).
edge(64, 73).
edge(83, 90).
edge(115, 189).
edge(94, 129).
edge(61, 152).
edge(89, 151).
edge(25, 134).
edge(22, 74).
edge(36, 54).
edge(13, 61).
edge(55, 180).
edge(26, 196).
edge(19, 156).
edge(14, 185).
edge(19, 172).
edge(164, 177).
edge(100, 102).
edge(46, 65).
edge(0, 114).
edge(31, 43).
edge(4, 7).
edge(60, 115).
edge(39, 105).
edge(8, 97).
edge(150, 163).
edge(46, 67).
edge(28, 158).
edge(42, 189).
edge(20, 131).
edge(10, 185).
edge(9, 93).
edge(111, 163).
edge(20, 73).
edge(130, 196).
edge(103, 131).
edge(135, 187).
edge(63, 172).
edge(82, 133).
edge(51, 95).
edge(125, 127).
edge(32, 189).
edge(92, 162).
edge(13, 186).
edge(71, 164).
edge(36, 158).
edge(186, 190).
edge(27, 59).
edge(37, 112).
edge(92, 167).
edge(5, 37).
edge(102, 136).
edge(71, 116).
edge(30, 40).
edge(70, 108).
edge(143, 193).
edge(107, 119).
edge(62, 154).
edge(81, 186).
edge(97, 139).
edge(130, 197).
edge(58, 156).
edge(49, 173).
edge(37, 190).
edge(8, 32).
edge(61, 175).
edge(5, 95).
edge(85, 195).
edge(18, 66).
edge(65, 131).
edge(95, 161).
edge(90, 152).
edge(31, 113).
edge(127, 182).
edge(56, 86).
edge(85, 174).
edge(3, 80).
edge(71, 198).
edge(144, 198).
edge(27, 85).
edge(25, 28).
edge(44, 48).
edge(24, 131).
edge(75, 176).
edge(32, 158).
edge(90, 91).
edge(17, 117).
edge(111, 185).
edge(11, 94).
edge(77, 129).
edge(4, 59).
edge(169, 178).
edge(28, 82).
edge(94, 120).
edge(110, 193).
edge(28, 190).
edge(176, 177).
edge(129, 176).
edge(145, 193).
edge(30, 85).
edge(95, 125).
edge(8, 47).
edge(29, 190).
edge(43, 67).
edge(66, 123).
edge(84, 148).
edge(59, 174).
edge(22, 28).
edge(160, 191).
edge(96, 135).
edge(96, 183).
edge(102, 151).
edge(142, 159).
edge(71, 95).
edge(162, 177).
edge(23, 68).
edge(144, 152).
edge(73, 95).
edge(94, 138).
edge(138, 187).
edge(109, 126).
edge(60, 103).
edge(58, 109).
edge(27, 107).
edge(36, 61).
edge(10, 179).
edge(112, 128).
edge(157, 193).
edge(26, 80).
edge(88, 129).
edge(107, 112).
edge(65, 113).
edge(150, 193).
edge(75, 166).
edge(27, 150).
edge(65, 123).
edge(31, 44).
edge(103, 192).
edge(61, 159).
edge(55, 98).
edge(74, 134).
edge(39, 144).
edge(42, 167).
edge(39, 135).
edge(141, 146).
edge(24, 88).
edge(69, 140).
edge(110, 112).
edge(56, 164).
edge(73, 164).
edge(85, 90).
edge(114, 167).
edge(139, 198).
edge(6, 36).
edge(78, 171).
edge(53, 57).
edge(72, 174).
edge(2, 144).
edge(96, 99).
edge(12, 167).
edge(72, 173).
edge(105, 196).
edge(93, 107).
edge(67, 147).
edge(15, 65).
edge(63, 85).
edge(46, 93).
edge(22, 189).
edge(37, 99).
edge(25, 141).
edge(92, 144).
edge(164, 175).
edge(2, 15).
edge(23, 145).
edge(135, 175).
edge(91, 182).
edge(165, 188).
edge(47, 51).
edge(53, 82).
edge(124, 167).
edge(80, 156).
edge(24, 134).
edge(16, 78).
edge(82, 163).
edge(17, 74).
edge(57, 113).
edge(122, 196).
edge(12, 50).
edge(10, 51).
edge(124, 137).
edge(62, 87).
edge(55, 68).
edge(38, 113).
edge(61, 166).
edge(60, 74).
edge(102, 132).
edge(71, 94).
edge(64, 113).
edge(79, 163).
edge(22, 126).
edge(99, 139).
edge(51, 89).
edge(74, 131).
edge(89, 146).
edge(93, 147).
edge(77, 146).
edge(34, 86).
edge(132, 167).
edge(94, 121).
edge(129, 197).
edge(47, 115).
edge(119, 133).
edge(168, 173).
edge(23, 81).
edge(141, 175).
edge(182, 188).
edge(38, 134).
edge(189, 194).
edge(142, 187).
edge(12, 198).
edge(31, 70).
edge(113, 176).
edge(65, 103).
edge(88, 132).
edge(70, 170).
edge(4, 30).
edge(135, 155).
edge(31, 37).
edge(71, 139).
edge(5, 147).
edge(1, 142).
edge(78, 185).
edge(86, 160).
edge(32, 35).
edge(42, 76).
edge(136, 183).
edge(106, 160).
edge(99, 116).
edge(85, 168).
edge(98, 178).
edge(110, 181).
edge(61, 167).
edge(83, 115).
edge(142, 191).
edge(69, 165).
edge(17, 69).
edge(39, 158).
edge(106, 144).
edge(40, 186).
edge(104, 186).
edge(70, 171).
edge(152, 158).
edge(18, 32).
edge(25, 86).
edge(15, 154).
edge(82, 127).
edge(17, 60).
edge(105, 149).
edge(28, 83).
edge(128, 134).
edge(0, 142).
edge(120, 195).
edge(123, 190).
edge(91, 104).
edge(89, 116).
edge(136, 139).
edge(47, 167).
edge(60, 64).
edge(97, 179).
edge(58, 103).
edge(85, 153).
edge(59, 143).
edge(82, 109).
edge(8, 54).
edge(41, 42).
edge(36, 70).
edge(76, 92).
edge(123, 125).
edge(92, 178).
edge(40, 178).
edge(13, 32).
edge(13, 134).
edge(86, 128).
edge(21, 134).
edge(41, 145).
edge(99, 149).
edge(113, 188).
edge(57, 117).
edge(137, 176).
edge(183, 192).
edge(22, 190).
edge(103, 116).
edge(116, 189).
edge(50, 146).
edge(183, 196).
edge(16, 88).
edge(4, 108).
edge(109, 141).
edge(129, 198).
edge(70, 180).
edge(38, 167).
edge(17, 32).
edge(50, 73).
edge(97, 127).
edge(47, 179).
edge(88, 165).
edge(71, 178).
edge(125, 141).
edge(100, 108).
edge(96, 103).
edge(112, 113).
edge(119, 132).
edge(108, 170).
edge(26, 99).
edge(15, 121).
edge(23, 56).
edge(90, 194).
edge(15, 17).
edge(140, 164).
edge(154, 172).
edge(154, 189).
edge(81, 128).
edge(98, 194).
edge(29, 188).
edge(100, 150).
edge(17, 54).
edge(104, 107).
edge(51, 144).
edge(108, 171).
edge(8, 12).
edge(68, 181).
edge(55, 57).
edge(95, 159).
edge(3, 159).
edge(127, 188).
edge(52, 120).
edge(37, 110).
edge(47, 145).
edge(45, 96).
edge(169, 187).
edge(13, 190).
edge(18, 58).
edge(114, 169).
edge(146, 196).
edge(118, 182).
edge(78, 176).
edge(127, 149).
edge(22, 147).
edge(32, 128).
edge(7, 11).
edge(31, 76).
edge(79, 194).
edge(47, 80).
edge(115, 156).
edge(7, 32).
edge(10, 162).
edge(90, 111).
edge(29, 41).
edge(24, 125).
edge(151, 161).
edge(126, 139).
edge(6, 145).
edge(103, 162).
edge(188, 193).
edge(71, 85).
edge(66, 158).
edge(122, 160).
edge(52, 193).
edge(92, 102).
edge(57, 129).
edge(2, 197).
edge(85, 131).
edge(99, 189).
edge(14, 154).
edge(117, 121).
edge(68, 99).
edge(103, 167).
edge(118, 185).
edge(137, 143).
edge(96, 106).
edge(146, 175).
edge(38, 123).
edge(44, 63).
edge(105, 191).
edge(116, 192).
edge(11, 24).
edge(48, 99).
edge(137, 167).
edge(70, 190).
edge(30, 135).
edge(168, 195).
edge(8, 110).
edge(18, 181).
edge(35, 137).
edge(74, 125).
edge(31, 138).
edge(79, 91).
edge(175, 197).
edge(92, 129).
edge(130, 167).
edge(17, 146).
edge(55, 173).
edge(83, 103).
edge(72, 190).
edge(49, 52).
edge(12, 127).
edge(53, 137).
edge(36, 84).
edge(52, 158).
edge(78, 111).
edge(25, 41).
edge(20, 23).
edge(61, 127).
edge(35, 160).
edge(111, 188).
edge(39, 102).
edge(104, 154).
edge(169, 173).
edge(72, 79).
edge(108, 161).
edge(5, 146).
edge(132, 139).
edge(133, 197).
edge(38, 110).
edge(18, 197).
edge(3, 65).
edge(16, 166).
edge(69, 188).
edge(100, 165).
edge(3, 170).
edge(16, 23).
edge(0, 20).
edge(121, 165).
edge(176, 196).
edge(87, 167).
edge(100, 140).
edge(103, 190).
edge(78, 138).
edge(91, 197).
edge(119, 154).
edge(68, 105).
edge(2, 73).
edge(38, 92).
edge(112, 159).
edge(17, 25).
edge(11, 67).
edge(92, 140).
edge(7, 194).
edge(70, 118).
edge(20, 137).
edge(67, 103).
edge(40, 170).
edge(7, 35).
edge(35, 103).
edge(4, 74).
edge(36, 119).
edge(43, 193).
edge(12, 144).
edge(89, 140).
edge(14, 42).
edge(86, 176).
edge(64, 169).
edge(33, 100).
edge(12, 45).
edge(173, 181).
edge(10, 154).
edge(68, 183).
edge(45, 54).
edge(50, 193).
edge(47, 93).
edge(17, 145).
edge(66, 168).
edge(4, 145).
edge(18, 130).
edge(59, 157).
edge(14, 127).
edge(104, 198).
edge(8, 192).
edge(64, 185).
edge(57, 115).
edge(30, 75).
edge(49, 69).
edge(176, 183).
edge(48, 112).
edge(113, 151).
edge(16, 147).
edge(103, 133).
edge(141, 176).
edge(128, 159).
edge(167, 185).
edge(25, 37).
edge(51, 125).
edge(53, 163).
edge(117, 135).
edge(59, 110).
edge(4, 60).
edge(59, 198).
edge(32, 169).
edge(39, 113).
edge(95, 190).
edge(65, 81).
edge(60, 79).
edge(118, 171).
edge(9, 101).
edge(1, 10).
edge(12, 35).
edge(123, 192).
edge(132, 138).
edge(2, 18).
edge(192, 195).
edge(12, 78).
edge(88, 91).
edge(24, 58).
edge(142, 171).
edge(47, 165).
edge(72, 170).
edge(22, 176).
edge(130, 166).
edge(42, 47).
edge(10, 115).
edge(59, 80).
edge(20, 25).
edge(26, 31).
edge(119, 164).
edge(20, 75).
edge(57, 184).
edge(13, 50).
edge(41, 48).
edge(84, 182).
edge(14, 148).
edge(74, 78).
edge(47, 128).
edge(109, 116).
edge(132, 156).
edge(146, 184).
edge(60, 147).
edge(62, 110).
edge(125, 189).
edge(34, 67).
edge(126, 160).
edge(51, 94).
edge(115, 163).
edge(20, 65).
edge(39, 65).
edge(46, 107).
edge(134, 174).
edge(93, 187).
edge(100, 176).
edge(133, 182).
edge(95, 108).
edge(49, 94).
edge(25, 168).
edge(26, 114).
edge(69, 158).
edge(75, 194).
edge(40, 67).
edge(120, 147).
edge(95, 163).
edge(176, 187).
edge(69, 159).
edge(87, 159).
edge(51, 118).
edge(1, 180).
edge(44, 95).
edge(5, 17).
edge(100, 124).
edge(80, 184).
edge(1, 122).
edge(77, 157).
edge(163, 181).
edge(149, 194).
edge(100, 191).
edge(23, 113).
edge(83, 98).
edge(51, 53).
edge(105, 123).
edge(155, 183).
edge(77, 134).
edge(102, 169).
edge(90, 121).
edge(144, 162).
edge(44, 111).
edge(53, 179).
edge(23, 167).
edge(92, 103).
edge(21, 129).
edge(63, 123).
edge(93, 173).
edge(132, 146).
edge(6, 43).
edge(47, 72).
edge(13, 46).
edge(65, 158).
edge(0, 74).
edge(91, 150).
edge(54, 65).
edge(49, 113).
edge(9, 29).
edge(121, 131).
edge(31, 148).
edge(19, 38).
edge(26, 163).
edge(68, 74).
edge(141, 183).
edge(36, 56).
edge(50, 75).
edge(52, 144).
edge(89, 166).
edge(42, 120).
edge(48, 182).
edge(81, 104).
edge(77, 144).
edge(0, 35).
edge(31, 99).
edge(7, 37).
edge(29, 44).
edge(83, 196).
edge(126, 135).
edge(17, 67).
edge(74, 170).
edge(39, 112).
edge(102, 159).
edge(24, 109).
edge(130, 182).
edge(54, 155).
edge(182, 192).
edge(108, 179).
edge(94, 111).
edge(56, 157).
edge(34, 190).
edge(30, 95).
edge(63, 96).
edge(39, 50).
edge(93, 143).
edge(90, 195).
edge(17, 83).
edge(36, 162).
edge(50, 161).
edge(87, 108).
edge(153, 155).
edge(109, 198).
edge(52, 58).
edge(25, 125).
edge(54, 68).
edge(127, 178).
edge(116, 190).
edge(22, 72).
edge(13, 191).
edge(13, 143).
edge(111, 135).
edge(182, 189).
edge(123, 134).
edge(79, 155).
edge(32, 114).
edge(74, 139).
edge(133, 136).
edge(122, 158).
edge(52, 114).
edge(73, 139).
edge(100, 119).
edge(111, 196).
edge(81, 169).
edge(72, 180).
edge(42, 158).
edge(8, 150).
edge(54, 115).
edge(87, 95).
edge(22, 179).
edge(73, 100).
edge(90, 153).
edge(53, 68).
edge(101, 137).
edge(18, 120).
edge(117, 173).
edge(15, 119).
edge(96, 180).
edge(61, 188).
edge(0, 183).
edge(62, 143).
edge(24, 189).
edge(53, 74).
edge(129, 187).
edge(50, 174).
edge(42, 173).
edge(95, 146).
edge(121, 196).
edge(22, 87).
edge(43, 148).
edge(167, 183).
edge(82, 93).
edge(159, 173).
edge(64, 83).
edge(144, 172).
edge(28, 49).
edge(12, 75).
edge(56, 97).
edge(23, 130).
edge(6, 141).
edge(98, 162).
edge(10, 67).
edge(9, 167).
edge(105, 174).
edge(33, 90).
edge(162, 174).
edge(35, 153).
edge(37, 168).
edge(16, 191).
edge(5, 168).
edge(35, 142).
edge(45, 67).
edge(6, 164).
edge(26, 105).
edge(78, 141).
edge(85, 158).
edge(119, 190).
edge(79, 143).
edge(61, 131).
edge(70, 106).
edge(64, 68).
edge(14, 99).
edge(49, 111).
edge(99, 125).
edge(63, 173).
edge(96, 184).
edge(42, 48).
edge(16, 60).
edge(69, 104).
edge(120, 187).
edge(114, 156).
edge(171, 182).
edge(25, 39).
edge(49, 186).
edge(146, 164).
edge(7, 124).
edge(27, 157).
edge(37, 188).
edge(14, 85).
edge(113, 150).
edge(69, 143).
edge(42, 67).
edge(13, 95).
edge(88, 94).
edge(87, 194).
edge(19, 81).
edge(64, 116).
edge(74, 168).
edge(1, 17).
edge(35, 99).
edge(6, 179).
edge(79, 189).
edge(11, 71).
edge(33, 198).
edge(125, 190).
edge(111, 153).
edge(88, 189).
edge(105, 131).
edge(102, 153).
edge(1, 108).
edge(101, 135).
edge(87, 196).
edge(116, 157).
edge(43, 96).
edge(144, 184).
edge(22, 188).
edge(98, 126).
edge(169, 177).
edge(12, 195).
edge(25, 117).
edge(120, 196).
edge(11, 118).
edge(61, 123).
edge(82, 159).
edge(4, 105).
edge(22, 197).
edge(70, 83).
edge(19, 69).
edge(109, 174).
edge(0, 22).
edge(102, 133).
edge(5, 132).
edge(18, 50).
edge(122, 127).
edge(135, 195).
edge(15, 58).
edge(152, 161).
edge(59, 100).
edge(78, 80).
edge(157, 168).
edge(143, 151).
edge(0, 36).
edge(22, 61).
edge(97, 193).
edge(128, 188).
edge(167, 170).
edge(79, 82).
edge(138, 179).
edge(12, 175).
edge(69, 75).
edge(23, 138).
edge(0, 169).
edge(89, 120).
edge(22, 79).
edge(73, 183).
edge(17, 46).
edge(163, 179).
edge(33, 121).
edge(108, 187).
edge(86, 142).
edge(49, 78).
edge(95, 197).
edge(64, 66).
edge(96, 185).
edge(30, 44).
edge(26, 161).
edge(155, 180).
edge(3, 130).
edge(28, 69).
edge(52, 156).
edge(40, 179).
edge(62, 170).
edge(82, 125).
edge(45, 117).
edge(39, 80).
edge(3, 53).
edge(39, 44).
edge(20, 40).
edge(25, 121).
edge(136, 187).
edge(81, 97).
edge(62, 142).
edge(134, 144).
edge(46, 145).
edge(8, 145).
edge(93, 169).
edge(73, 192).
edge(140, 198).
edge(101, 179).
edge(79, 113).
edge(134, 156).
edge(38, 125).
edge(133, 184).
edge(20, 181).
edge(189, 198).
edge(25, 185).
edge(41, 54).
edge(56, 141).
edge(65, 169).
edge(19, 99).
edge(153, 175).
edge(108, 151).
edge(148, 185).
edge(103, 172).
edge(20, 59).
edge(42, 136).
edge(6, 197).
edge(11, 119).
edge(101, 113).
edge(16, 39).
edge(24, 118).
edge(23, 75).
edge(164, 190).
edge(44, 103).
edge(0, 191).
edge(23, 48).
edge(26, 177).
edge(31, 46).
edge(35, 186).
edge(42, 134).
edge(75, 87).
edge(47, 113).
edge(117, 191).
edge(63, 114).
edge(9, 129).
edge(4, 78).
edge(22, 89).
edge(58, 146).
edge(133, 156).
edge(50, 147).
edge(91, 151).
edge(157, 185).
edge(21, 126).
edge(181, 182).
edge(141, 150).
edge(168, 183).
edge(16, 61).
edge(19, 176).
edge(108, 117).
edge(67, 173).
edge(55, 56).
edge(71, 112).
edge(137, 144).
edge(55, 58).
edge(79, 140).
edge(125, 182).
edge(105, 187).
edge(21, 68).
edge(145, 195).
edge(98, 195).
edge(21, 83).
edge(15, 56).
edge(3, 33).
edge(88, 109).
edge(153, 197).
edge(80, 84).
edge(130, 178).
edge(35, 182).
edge(62, 102).
edge(96, 171).
edge(49, 86).
edge(10, 69).
edge(24, 66).
edge(42, 156).
edge(116, 142).
edge(64, 189).
edge(59, 132).
edge(4, 136).
edge(54, 188).
edge(15, 89).
edge(60, 198).
edge(16, 49).
edge(34, 168).
edge(18, 178).
edge(4, 52).
edge(102, 191).
edge(39, 104).
edge(2, 115).
edge(113, 190).
edge(54, 163).
edge(11, 129).
edge(80, 136).
edge(28, 115).
edge(1, 7).
edge(156, 196).
edge(41, 69).
edge(6, 177).
edge(151, 156).
edge(153, 187).
edge(170, 184).
edge(150, 169).
edge(39, 173).
edge(102, 110).
edge(86, 118).
edge(34, 108).
edge(29, 70).
edge(107, 178).
edge(114, 127).
edge(52, 153).
edge(160, 190).
edge(87, 120).
edge(25, 95).
edge(81, 111).
edge(36, 165).
edge(3, 143).
edge(45, 147).
edge(22, 187).
edge(12, 164).
edge(49, 176).
edge(26, 64).
edge(24, 29).
edge(39, 87).
edge(53, 198).
edge(161, 176).
edge(90, 110).
edge(67, 144).
edge(77, 83).
edge(162, 167).
edge(65, 105).
edge(152, 172).
edge(49, 183).
edge(29, 192).
edge(11, 160).
edge(27, 136).
edge(118, 139).
edge(140, 185).
edge(37, 42).
edge(57, 103).
edge(121, 151).
edge(68, 144).
edge(20, 77).
edge(89, 192).
edge(4, 163).
edge(138, 194).
edge(33, 43).
edge(71, 172).
edge(59, 165).
edge(74, 196).
edge(57, 149).
edge(9, 102).
edge(184, 189).
edge(129, 195).
edge(116, 191).
edge(181, 186).
edge(79, 187).
edge(93, 132).
edge(91, 144).
edge(134, 142).
edge(9, 76).
edge(19, 70).
edge(4, 170).
edge(3, 36).
edge(97, 192).
edge(40, 189).
edge(81, 157).
edge(100, 103).
edge(119, 173).
edge(9, 113).
edge(77, 121).
edge(21, 90).
edge(111, 114).
edge(97, 130).
edge(136, 170).
edge(70, 193).
edge(26, 113).
edge(135, 185).
edge(119, 179).
edge(30, 167).
edge(27, 81).
edge(20, 60).
edge(87, 153).
edge(24, 137).
edge(80, 174).
edge(78, 87).
edge(115, 173).
edge(61, 168).
edge(43, 82).
edge(56, 121).
edge(100, 193).
edge(5, 49).
edge(9, 19).
edge(90, 148).
edge(95, 149).
edge(42, 161).
edge(22, 133).
edge(114, 185).
edge(108, 132).
edge(11, 108).
edge(152, 180).
edge(12, 32).
edge(49, 103).
edge(148, 169).
edge(3, 107).
edge(41, 132).
edge(31, 117).
edge(54, 176).
edge(1, 107).
edge(60, 107).
edge(89, 129).
edge(96, 111).
edge(83, 161).
edge(48, 93).
edge(9, 186).
edge(29, 40).
edge(18, 158).
edge(132, 181).
edge(47, 102).
edge(26, 46).
edge(14, 163).
edge(90, 151).
edge(90, 133).
edge(87, 152).
edge(17, 152).
edge(10, 73).
edge(63, 197).
edge(3, 168).
edge(127, 139).
edge(72, 97).
edge(18, 139).
edge(74, 108).
edge(114, 149).
edge(92, 119).
edge(55, 183).
edge(41, 184).
edge(93, 103).
edge(1, 138).
edge(17, 155).
edge(54, 93).
edge(64, 195).
edge(63, 122).
edge(83, 193).
edge(37, 118).
edge(89, 161).
edge(146, 150).
edge(110, 154).
edge(85, 148).
edge(65, 174).
edge(82, 156).
edge(12, 183).
edge(7, 89).
edge(78, 155).
edge(99, 179).
edge(65, 107).
edge(99, 112).
edge(81, 145).
edge(9, 121).
edge(42, 143).
edge(39, 181).
edge(95, 192).
edge(85, 197).
edge(117, 151).
edge(83, 158).
edge(3, 126).
edge(74, 192).
edge(76, 187).
edge(0, 124).
edge(41, 72).
edge(95, 195).
edge(77, 162).
edge(33, 130).
edge(36, 192).
edge(94, 101).
edge(45, 112).
edge(43, 168).
edge(160, 168).
edge(41, 129).
edge(11, 81).
edge(118, 138).
edge(136, 190).
edge(13, 102).
edge(85, 187).
edge(69, 98).
edge(139, 166).
edge(154, 171).
edge(57, 130).
edge(8, 162).
edge(100, 192).
edge(7, 117).
edge(119, 148).
edge(33, 41).
edge(39, 185).
edge(141, 185).
edge(38, 183).
edge(12, 109).
edge(12, 128).
edge(21, 196).
edge(40, 113).
edge(108, 191).
edge(89, 145).
edge(14, 120).
edge(2, 97).
edge(76, 191).
edge(20, 98).
edge(176, 194).
edge(104, 146).
edge(14, 193).
edge(35, 40).
edge(67, 198).
edge(11, 107).
edge(6, 63).
edge(19, 185).
edge(82, 190).
edge(70, 123).
edge(12, 116).
edge(131, 144).
edge(21, 190).
edge(40, 191).
edge(109, 168).
edge(94, 160).
edge(40, 162).
edge(15, 159).
edge(25, 130).
edge(71, 80).
edge(57, 60).
edge(66, 121).
edge(51, 155).
edge(33, 163).
edge(124, 197).
edge(10, 136).
edge(57, 75).
edge(66, 153).
edge(144, 193).
edge(75, 113).
edge(179, 181).
edge(25, 70).
edge(54, 74).
edge(84, 102).
edge(84, 119).
edge(87, 116).
edge(181, 191).
edge(104, 109).
edge(0, 97).
edge(31, 81).
edge(103, 174).
edge(60, 71).
edge(29, 47).
edge(111, 136).
edge(18, 51).
edge(109, 153).
edge(45, 125).
edge(100, 131).
edge(7, 182).
edge(9, 87).
edge(70, 192).
edge(21, 43).
edge(85, 121).
edge(43, 183).
edge(122, 137).
edge(76, 142).
edge(47, 178).
edge(71, 146).
edge(24, 45).
edge(150, 161).
edge(81, 171).
edge(125, 192).
edge(33, 187).
edge(14, 166).
edge(52, 97).
edge(2, 99).
edge(133, 139).
edge(31, 133).
edge(98, 179).
edge(66, 152).
edge(30, 31).
edge(4, 75).
edge(55, 70).
edge(38, 196).
edge(80, 118).
edge(33, 175).
edge(43, 116).
edge(75, 145).
edge(38, 42).
edge(75, 175).
edge(82, 149).
edge(67, 176).
edge(26, 147).
edge(172, 179).
edge(60, 160).
edge(56, 185).
edge(39, 155).
edge(34, 75).
edge(11, 80).
edge(92, 187).
edge(35, 66).
edge(140, 197).
edge(32, 76).
edge(12, 192).
edge(15, 180).
edge(53, 152).
edge(52, 147).
edge(55, 166).
edge(14, 116).
edge(13, 110).
edge(77, 161).
edge(85, 111).
edge(94, 115).
edge(20, 66).
edge(10, 82).
edge(13, 157).
edge(129, 154).
edge(40, 166).
edge(79, 130).
edge(80, 197).
edge(51, 180).
edge(61, 109).
edge(131, 188).
edge(125, 188).
edge(28, 166).
edge(4, 195).
edge(47, 62).
edge(82, 145).
edge(67, 94).
edge(51, 52).
edge(5, 183).
edge(47, 66).
edge(63, 154).
edge(61, 108).
edge(35, 121).
edge(4, 57).
edge(17, 62).
edge(25, 119).
edge(159, 177).
edge(87, 113).
edge(10, 129).
edge(83, 123).
edge(43, 143).
edge(37, 86).
edge(135, 188).
edge(69, 127).
edge(157, 195).
edge(72, 137).
edge(63, 135).
edge(14, 171).
edge(19, 62).
edge(107, 190).
edge(26, 150).
edge(43, 65).
edge(85, 112).
edge(31, 61).
edge(37, 184).
edge(58, 134).
edge(28, 183).
edge(8, 138).
edge(40, 153).
edge(66, 187).
edge(93, 172).
edge(21, 121).
edge(1, 146).
edge(122, 151).
edge(14, 161).
edge(28, 36).
edge(4, 156).
edge(21, 185).
edge(21, 195).
edge(85, 136).
edge(64, 141).
edge(4, 28).
edge(80, 135).
edge(102, 178).
edge(10, 99).
edge(99, 132).
edge(28, 34).
edge(29, 100).
edge(176, 197).
edge(130, 189).
edge(117, 166).
edge(98, 186).
edge(52, 133).
edge(78, 182).
edge(54, 116).
edge(118, 135).
edge(109, 129).
edge(109, 179).
edge(57, 80).
edge(171, 198).
edge(47, 155).
edge(35, 72).
edge(25, 108).
edge(29, 76).
edge(13, 26).
edge(24, 59).
edge(88, 188).
edge(6, 27).
edge(17, 103).
edge(49, 169).
edge(10, 145).
edge(155, 188).
edge(103, 184).
edge(143, 170).
edge(2, 8).
edge(94, 106).
edge(49, 56).
edge(3, 147).
edge(83, 108).
edge(42, 119).
edge(62, 165).
edge(146, 192).
edge(154, 192).
edge(27, 158).
edge(40, 144).
edge(75, 109).
edge(33, 113).
edge(35, 138).
edge(138, 175).
edge(18, 129).
edge(22, 33).
edge(39, 191).
edge(130, 170).
edge(105, 189).
edge(16, 45).
edge(31, 69).
edge(26, 189).
edge(32, 44).
edge(5, 129).
edge(51, 189).
edge(12, 83).
edge(18, 152).
edge(106, 191).
edge(111, 130).
edge(86, 156).
edge(190, 193).
edge(59, 88).
edge(68, 196).
edge(35, 83).
edge(116, 136).
edge(77, 168).
edge(36, 73).
edge(59, 92).
edge(34, 134).
edge(43, 114).
edge(48, 171).
edge(66, 106).
edge(16, 135).
edge(26, 130).
edge(90, 104).
edge(68, 161).
edge(53, 122).
edge(24, 27).
edge(167, 169).
edge(60, 116).
edge(24, 104).
edge(56, 125).
edge(78, 198).
edge(52, 182).
edge(33, 51).
edge(20, 61).
edge(117, 177).
edge(10, 142).
edge(15, 122).
edge(2, 91).
edge(53, 89).
edge(140, 172).
edge(10, 29).
edge(78, 93).
edge(61, 122).
edge(102, 123).
edge(126, 143).
edge(97, 134).
edge(15, 130).
edge(143, 175).
edge(60, 133).
edge(104, 140).
edge(1, 46).
edge(10, 186).
edge(131, 195).
edge(34, 113).
edge(36, 176).
edge(129, 173).
edge(8, 36).
edge(79, 148).
edge(142, 155).
edge(12, 53).
edge(17, 119).
edge(82, 117).
edge(117, 163).
edge(127, 155).
edge(69, 123).
edge(44, 181).
edge(42, 113).
edge(15, 53).
edge(15, 40).
edge(72, 91).
edge(27, 104).
edge(79, 149).
edge(95, 182).
edge(154, 169).
edge(60, 192).
edge(0, 7).
edge(106, 195).
edge(120, 165).
edge(52, 122).
edge(5, 176).
edge(1, 136).
edge(18, 27).
edge(77, 136).
edge(34, 193).
edge(98, 137).
edge(15, 196).
edge(96, 141).
edge(95, 181).
edge(124, 173).
edge(25, 189).
edge(95, 111).
edge(8, 197).
edge(110, 141).
edge(4, 147).
edge(58, 63).
edge(56, 90).
edge(15, 95).
edge(12, 18).
edge(97, 183).
edge(34, 133).
edge(52, 127).
edge(48, 152).
edge(86, 115).
edge(26, 167).
edge(22, 105).
edge(94, 102).
edge(137, 146).
edge(64, 178).
edge(52, 117).
edge(101, 169).
edge(116, 168).
edge(53, 191).
edge(72, 195).
edge(65, 124).
edge(16, 67).
edge(14, 61).
edge(3, 189).
edge(66, 183).
edge(103, 196).
edge(50, 157).
edge(85, 185).
edge(163, 174).
edge(77, 189).
edge(137, 191).
edge(45, 108).
edge(10, 165).
edge(10, 167).
edge(15, 165).
edge(129, 172).
edge(95, 141).
edge(144, 176).
edge(109, 154).
edge(73, 118).
edge(17, 167).
edge(173, 176).
edge(40, 56).
edge(59, 111).
edge(14, 145).
edge(47, 183).
edge(0, 196).
edge(13, 51).
edge(156, 163).
edge(35, 69).
weight(0, 2).
weight(1, 6).
weight(2, 4).
weight(3, 4).
weight(4, 1).
weight(5, 7).
weight(6, 6).
weight(7, 6).
weight(8, 3).
weight(9, 2).
weight(10, 6).
weight(11, 1).
weight(12, 4).
weight(13, 5).
weight(14, 1).
weight(15, 1).
weight(16, 9).
weight(17, 6).
weight(18, 8).
weight(19, 8).
weight(20, 9).
weight(21, 2).
weight(22, 7).
weight(23, 4).
weight(24, 6).
weight(25, 9).
weight(26, 2).
weight(27, 1).
weight(28, 6).
weight(29, 9).
weight(30, 3).
weight(31, 1).
weight(32, 7).
weight(33, 6).
weight(34, 4).
weight(35, 3).
weight(36, 6).
weight(37, 5).
weight(38, 5).
weight(39, 5).
weight(40, 3).
weight(41, 8).
weight(42, 3).
weight(43, 7).
weight(44, 1).
weight(45, 4).
weight(46, 3).
weight(47, 3).
weight(48, 2).
weight(49, 8).
weight(50, 3).
weight(51, 1).
weight(52, 6).
weight(53, 6).
weight(54, 7).
weight(55, 9).
weight(56, 2).
weight(57, 4).
weight(58, 9).
weight(59, 3).
weight(60, 2).
weight(61, 9).
weight(62, 3).
weight(63, 1).
weight(64, 3).
weight(65, 2).
weight(66, 1).
weight(67, 6).
weight(68, 1).
weight(69, 8).
weight(70, 4).
weight(71, 2).
weight(72, 6).
weight(73, 5).
weight(74, 7).
weight(75, 3).
weight(76, 4).
weight(77, 3).
weight(78, 7).
weight(79, 3).
weight(80, 5).
weight(81, 1).
weight(82, 5).
weight(83, 5).
weight(84, 5).
weight(85, 5).
weight(86, 5).
weight(87, 2).
weight(88, 9).
weight(89, 4).
weight(90, 6).
weight(91, 2).
weight(92, 1).
weight(93, 5).
weight(94, 6).
weight(95, 3).
weight(96, 2).
weight(97, 9).
weight(98, 7).
weight(99, 7).
weight(100, 4).
weight(101, 7).
weight(102, 2).
weight(103, 9).
weight(104, 9).
weight(105, 3).
weight(106, 6).
weight(107, 6).
weight(108, 9).
weight(109, 6).
weight(110, 1).
weight(111, 2).
weight(112, 3).
weight(113, 8).
weight(114, 7).
weight(115, 4).
weight(116, 3).
weight(117, 3).
weight(118, 8).
weight(119, 8).
weight(120, 2).
weight(121, 9).
weight(122, 5).
weight(123, 3).
weight(124, 4).
weight(125, 7).
weight(126, 9).
weight(127, 8).
weight(128, 8).
weight(129, 5).
weight(130, 8).
weight(131, 7).
weight(132, 5).
weight(133, 1).
weight(134, 5).
weight(135, 9).
weight(136, 7).
weight(137, 1).
weight(138, 1).
weight(139, 6).
weight(140, 3).
weight(141, 5).
weight(142, 7).
weight(143, 6).
weight(144, 7).
weight(145, 8).
weight(146, 6).
weight(147, 4).
weight(148, 9).
weight(149, 9).
weight(150, 2).
weight(151, 3).
weight(152, 9).
weight(153, 2).
weight(154, 8).
weight(155, 8).
weight(156, 5).
weight(157, 9).
weight(158, 9).
weight(159, 5).
weight(160, 2).
weight(161, 1).
weight(162, 7).
weight(163, 3).
weight(164, 9).
weight(165, 2).
weight(166, 1).
weight(167, 2).
weight(168, 6).
weight(169, 5).
weight(170, 4).
weight(171, 1).
weight(172, 1).
weight(173, 2).
weight(174, 5).
weight(175, 2).
weight(176, 3).
weight(177, 2).
weight(178, 8).
weight(179, 4).
weight(180, 3).
weight(181, 5).
weight(182, 5).
weight(183, 5).
weight(184, 7).
weight(185, 8).
weight(186, 3).
weight(187, 3).
weight(188, 7).
weight(189, 3).
weight(190, 8).
weight(191, 2).
weight(192, 8).
weight(193, 1).
weight(194, 7).
weight(195, 8).
weight(196, 5).
weight(197, 8).
weight(198, 2).
bound(101).

adj(U,V) :- edge(U,V).
adj(U,V) :- edge(V,U).
{in(V)} :- node(V).
dominated(V) :- in(V).
dominated(V) :- in(U), adj(U,V).
:- node(V), not dominated(V).
:- bound(B), #sum{W,V : in(V), weight(V,W)} > B.
:~ in(V), weight(V,W). [W@1,V]
