node(0..234).
edge(155, 195).
edge(155, 159).
edge(37, 209).
edge(31, 33).
edge(36, 184).
edge(160, 196).
edge(160, 228).
edge(32, 233).
edge(107, 212).
edge(19, 205).
edge(61, 185).
edge(24, 195).
edge(26, 109).
edge(4, 126).
edge(12, 45).
edge(15, 148).
edge(149, 199).
edge(35, 215).
edge(107, 154).
edge(178, 193).
edge(111, 161).
edge(0, 84).
edge(100, 180).
edge(50, 117).
edge(146, 205).
edge(24, 217).
edge(118, 231).
edge(11, 119).
edge(25, 196).
edge(56, 228).
edge(16, 160).
edge(56, 159).
edge(201, 214).
edge(180, 233).
edge(97, 130).
edge(2, 222).
edge(24, 83).
edge(22, 91).
edge(46, 99).
edge(28, 29).
edge(95, 146).
edge(116, 199).
edge(4, 76).
edge(47, 80).
edge(121, 180).
edge(68, 231).
edge(57, 140).
edge(99, 126).
edge(53, 105).
edge(128, 174).
edge(110, 155).
edge(79, 154).
edge(75, 155).
edge(10, 17).
edge(12, 44).
edge(72, 192).
edge(56, 208).
edge(65, 113).
edge(103, 136).
edge(190, 196).
edge(75, 129).
edge(75, 226).
edge(212, 219).
edge(6, 124).
edge(146, 152).
edge(21, 90).
edge(77, 100).
edge(55, 164).
edge(165, 223).
edge(68, 99).
edge(133, 217).
edge(134, 138).
edge(143, 152).
edge(41, 122).
edge(54, 157).
edge(157, 217).
edge(103, 154).
edge(83, 120).
edge(39, 106).
edge(24, 168).
edge(92, 172).
edge(83, 214).
edge(98, 227).
edge(15, 46).
edge(106, 127).
edge(53, 175).
edge(51, 91).
edge(118, 124).
edge(72, 197).
edge(164, 228).
edge(165, 169).
edge(3, 157).
edge(35, 103).
edge(62, 147).
edge(146, 167).
edge(66, 207).
edge(51, 62).
edge(159, 194).
edge(33, 187).
edge(20, 157).
edge(57, 217).
edge(147, 186).
edge(120, 206).
edge(86, 115).
edge(70, 118).
edge(90, 192).
edge(23, 56).
edge(122, 220).
edge(57, 64).
edge(18, 40).
edge(13, 182).
edge(103, 184).
edge(2, 188).
edge(59, 112).
edge(12, 209).
edge(95, 164).
edge(103, 218).
edge(113, 116).
edge(31, 84).
edge(89, 151).
edge(33, 178).
edge(201, 212).
edge(113, 219).
edge(123, 215).
edge(94, 208).
edge(55, 218).
edge(167, 189).
edge(30, 167).
edge(185, 218).
edge(78, 80).
edge(174, 221).
edge(31, 155).
edge(129, 143).
edge(12, 134).
edge(79, 158).
edge(76, 81).
edge(122, 147).
edge(4, 153).
edge(8, 146).
edge(7, 51).
edge(49, 150).
edge(187, 214).
edge(33, 147).
edge(123, 196).
edge(9, 167).
edge(39, 62).
edge(29, 37).
edge(1, 35).
edge(78, 134).
edge(33, 194).
edge(13, 58).
edge(151, 187).
edge(120, 151).
edge(30, 221).
edge(186, 224).
edge(63, 92).
edge(21, 166).
edge(6, 95).
edge(74, 221).
edge(15, 205).
edge(160, 179).
edge(35, 210).
edge(51, 56).
edge(62, 154).
edge(132, 143).
edge(147, 207).
edge(145, 150).
edge(69, 185).
edge(55, 181).
edge(87, 91).
edge(143, 217).
edge(108, 229).
edge(60, 193).
edge(166, 168).
edge(53, 118).
edge(38, 155).
edge(200, 217).
edge(97, 98).
edge(194, 195).
edge(15, 83).
edge(142, 216).
edge(57, 119).
edge(36, 117).
edge(4, 75).
edge(122, 129).
edge(53, 150).
edge(33, 167).
edge(80, 194).
edge(115, 144).
edge(23, 130).
edge(200, 229).
edge(40, 161).
edge(157, 221).
edge(74, 161).
edge(3, 114).
edge(142, 191).
edge(195, 211).
edge(18, 72).
edge(53, 138).
edge(12, 225).
edge(42, 89).
edge(29, 176).
edge(58, 204).
edge(62, 80).
edge(179, 226).
edge(94, 177).
edge(130, 164).
edge(74, 128).
edge(81, 122).
edge(188, 192).
edge(20, 181).
edge(50, 118).
edge(32, 207).
edge(111, 219).
edge(8, 103).
edge(105, 176).
edge(187, 232).
edge(111, 114).
edge(40, 222).
edge(139, 221).
edge(131, 202).
edge(93, 114).
edge(83, 104).
edge(12, 128).
edge(27, 137).
edge(9, 156).
edge(211, 231).
edge(42, 208).
edge(6, 122).
edge(117, 182).
edge(165, 199).
edge(34, 153).
edge(186, 197).
edge(200, 230).
edge(169, 226).
edge(108, 111).
edge(125, 172).
edge(160, 173).
edge(91, 198).
edge(24, 125).
edge(58, 220).
edge(43, 197).
edge(70, 202).
edge(7, 133).
edge(53, 96).
edge(107, 227).
edge(37, 124).
edge(35, 41).
edge(131, 185).
edge(76, 132).
edge(211, 218).
edge(146, 217).
edge(63, 118).
edge(98, 226).
edge(19, 137).
edge(51, 67).
edge(91, 92).
edge(150, 167).
edge(59, 134).
edge(108, 143).
edge(72, 115).
edge(102, 115).
edge(125, 221).
edge(55, 98).
edge(46, 98).
edge(87, 206).
edge(65, 110).
edge(188, 206).
edge(25, 137).
edge(231, 232).
edge(41, 117).
edge(37, 186).
edge(157, 166).
edge(57, 150).
edge(64, 201).
edge(31, 215).
edge(25, 122).
edge(136, 219).
edge(43, 170).
edge(137, 147).
edge(83, 207).
edge(35, 148).
edge(5, 72).
edge(66, 95).
edge(7, 199).
edge(1, 95).
edge(38, 219).
edge(2, 34).
edge(94, 164).
edge(36, 150).
edge(22, 165).
edge(33, 63).
edge(0, 222).
edge(22, 212).
edge(49, 198).
edge(139, 200).
edge(37, 107).
edge(111, 135).
edge(115, 121).
edge(15, 112).
edge(26, 42).
edge(79, 177).
edge(39, 204).
edge(61, 138).
edge(38, 114).
edge(105, 231).
edge(151, 231).
edge(8, 177).
edge(180, 185).
edge(61, 96).
edge(11, 65).
edge(150, 159).
edge(68, 181).
edge(68, 228).
edge(108, 205).
edge(57, 163).
edge(67, 218).
edge(155, 166).
edge(51, 218).
edge(0, 134).
edge(186, 205).
edge(35, 100).
edge(22, 131).
edge(18, 112).
edge(56, 192).
edge(40, 79).
edge(47, 120).
edge(83, 167).
edge(10, 227).
edge(94, 97).
edge(109, 112).
edge(65, 149).
edge(4, 169).
edge(65, 205).
edge(23, 123).
edge(157, 183).
edge(11, 144).
edge(93, 154).
edge(167, 210).
edge(105, 200).
edge(71, 202).
edge(87, 128).
edge(196, 211).
edge(29, 80).
edge(74, 130).
edge(147, 171).
edge(102, 174).
edge(136, 204).
edge(175, 185).
edge(43, 195).
edge(120, 219).
edge(2, 211).
edge(18, 203).
edge(53, 155).
edge(36, 46).
edge(93, 190).
edge(26, 230).
edge(47, 112).
edge(63, 154).
edge(58, 115).
edge(171, 216).
edge(49, 131).
edge(112, 215).
edge(37, 40).
edge(61, 145).
edge(101, 148).
edge(124, 166).
edge(64, 212).
edge(60, 68).
edge(48, 74).
edge(30, 77).
edge(103, 195).
edge(95, 218).
edge(133, 173).
edge(83, 122).
edge(65, 165).
edge(144, 223).
edge(71, 201).
edge(76, 165).
edge(42, 216).
edge(65, 100).
edge(108, 137).
edge(68, 218).
edge(53, 227).
edge(178, 223).
edge(135, 176).
edge(138, 143).
edge(121, 205).
edge(81, 173).
edge(161, 163).
edge(80, 129).
edge(30, 189).
edge(38, 211).
edge(101, 129).
edge(64, 186).
edge(20, 208).
edge(56, 132).
edge(33, 137).
edge(62, 170).
edge(16, 143).
edge(103, 155).
edge(203, 217).
edge(62, 110).
edge(154, 188).
edge(1, 159).
edge(48, 168).
edge(19, 128).
edge(197, 216).
edge(106, 216).
edge(118, 216).
edge(193, 212).
edge(74, 192).
edge(36, 169).
edge(34, 124).
edge(26, 84).
edge(166, 229).
edge(102, 153).
edge(91, 165).
edge(192, 215).
edge(28, 116).
edge(56, 164).
edge(98, 160).
edge(188, 219).
edge(112, 186).
edge(33, 105).
edge(81, 216).
edge(71, 151).
edge(99, 189).
edge(108, 218).
edge(119, 191).
edge(18, 167).
edge(91, 217).
edge(7, 52).
edge(5, 113).
edge(24, 103).
edge(93, 229).
edge(63, 125).
edge(147, 219).
edge(65, 226).
edge(105, 212).
edge(80, 106).
edge(161, 233).
edge(196, 225).
edge(126, 181).
edge(77, 123).
edge(86, 136).
edge(60, 84).
edge(44, 73).
edge(123, 210).
edge(122, 181).
edge(99, 182).
edge(77, 93).
edge(162, 178).
edge(142, 151).
edge(143, 208).
edge(80, 116).
edge(29, 131).
edge(6, 121).
edge(116, 216).
edge(84, 93).
edge(101, 111).
edge(59, 138).
edge(105, 138).
edge(40, 96).
edge(50, 196).
edge(100, 111).
edge(0, 8).
edge(53, 144).
edge(6, 38).
edge(76, 158).
edge(48, 204).
edge(20, 32).
edge(167, 224).
edge(114, 175).
edge(52, 153).
edge(17, 170).
edge(130, 229).
edge(6, 18).
edge(142, 150).
edge(38, 171).
edge(25, 230).
edge(93, 164).
edge(54, 68).
edge(103, 152).
edge(51, 108).
edge(143, 169).
edge(10, 142).
edge(61, 210).
edge(44, 63).
edge(79, 220).
edge(36, 115).
edge(76, 79).
edge(155, 218).
edge(142, 146).
edge(122, 134).
edge(148, 192).
edge(45, 94).
edge(16, 187).
edge(145, 153).
edge(24, 29).
edge(159, 178).
edge(28, 185).
edge(178, 207).
edge(112, 159).
edge(203, 234).
edge(125, 215).
edge(96, 104).
edge(49, 192).
edge(51, 118).
edge(22, 57).
edge(122, 177).
edge(56, 97).
edge(80, 119).
edge(35, 42).
edge(5, 197).
edge(45, 115).
edge(79, 127).
edge(131, 173).
edge(21, 27).
edge(190, 204).
edge(25, 209).
edge(29, 217).
edge(30, 156).
edge(1, 145).
edge(68, 150).
edge(115, 222).
edge(96, 121).
edge(115, 163).
edge(17, 75).
edge(77, 86).
edge(66, 125).
edge(6, 134).
edge(46, 230).
edge(94, 151).
edge(8, 181).
edge(88, 203).
edge(30, 105).
edge(191, 230).
edge(14, 68).
edge(21, 62).
edge(217, 222).
edge(17, 55).
edge(152, 157).
edge(48, 175).
edge(140, 229).
edge(78, 128).
edge(121, 133).
edge(118, 153).
edge(47, 185).
edge(10, 26).
edge(124, 211).
edge(87, 154).
edge(99, 201).
edge(67, 184).
edge(68, 118).
edge(105, 113).
edge(173, 233).
edge(72, 220).
edge(162, 201).
edge(88, 111).
edge(67, 114).
edge(37, 139).
edge(39, 166).
edge(128, 135).
edge(89, 113).
edge(84, 121).
edge(21, 136).
edge(84, 190).
edge(70, 125).
edge(145, 208).
edge(123, 170).
edge(17, 198).
edge(176, 181).
edge(6, 25).
edge(30, 53).
edge(122, 164).
edge(127, 174).
edge(16, 57).
edge(95, 231).
edge(2, 229).
edge(0, 195).
edge(57, 154).
edge(66, 215).
edge(70, 97).
edge(54, 191).
edge(127, 178).
edge(71, 180).
edge(58, 134).
edge(9, 119).
edge(58, 153).
edge(184, 223).
edge(170, 213).
edge(16, 150).
edge(20, 198).
edge(14, 25).
edge(2, 15).
edge(35, 229).
edge(74, 140).
edge(11, 109).
edge(12, 36).
edge(131, 225).
edge(131, 175).
edge(54, 164).
edge(144, 159).
edge(51, 217).
edge(32, 71).
edge(155, 167).
edge(35, 65).
edge(45, 107).
edge(34, 47).
edge(215, 228).
edge(68, 111).
edge(190, 231).
edge(39, 91).
edge(52, 212).
edge(25, 128).
edge(42, 132).
edge(30, 71).
edge(34, 117).
edge(100, 233).
edge(77, 172).
edge(77, 173).
edge(80, 199).
edge(132, 233).
edge(226, 233).
edge(112, 224).
edge(60, 67).
edge(83, 115).
edge(28, 33).
edge(111, 233).
edge(70, 121).
edge(38, 126).
edge(29, 156).
edge(12, 92).
edge(196, 227).
edge(27, 30).
edge(145, 213).
edge(158, 200).
edge(97, 136).
edge(29, 42).
edge(36, 80).
edge(66, 109).
edge(61, 135).
edge(62, 83).
edge(38, 62).
edge(14, 143).
edge(142, 207).
edge(92, 147).
edge(13, 210).
edge(48, 218).
edge(3, 62).
edge(3, 226).
edge(98, 216).
edge(37, 70).
edge(117, 172).
edge(78, 226).
edge(196, 224).
edge(83, 206).
edge(70, 96).
edge(54, 116).
edge(50, 191).
edge(3, 39).
edge(47, 84).
edge(184, 232).
edge(199, 200).
edge(125, 147).
edge(14, 205).
edge(132, 223).
edge(29, 194).
edge(87, 150).
edge(77, 182).
edge(62, 183).
edge(52, 93).
edge(11, 78).
edge(139, 227).
edge(83, 126).
edge(41, 109).
edge(34, 100).
edge(51, 151).
edge(25, 105).
edge(192, 196).
edge(150, 233).
edge(95, 206).
edge(151, 176).
edge(115, 177).
edge(144, 195).
edge(33, 171).
edge(115, 226).
edge(101, 226).
edge(136, 180).
edge(109, 196).
edge(184, 221).
edge(134, 159).
edge(79, 120).
edge(25, 140).
edge(18, 165).
edge(179, 200).
edge(54, 105).
edge(138, 152).
edge(82, 142).
edge(38, 188).
edge(141, 230).
edge(30, 168).
edge(3, 43).
edge(66, 143).
edge(121, 197).
edge(9, 234).
edge(36, 166).
edge(98, 111).
edge(193, 217).
edge(2, 201).
edge(10, 150).
edge(103, 164).
edge(1, 209).
edge(181, 196).
edge(149, 196).
edge(86, 121).
edge(19, 97).
edge(13, 53).
edge(182, 209).
edge(60, 157).
edge(21, 159).
edge(32, 211).
edge(123, 161).
edge(37, 171).
edge(179, 229).
edge(69, 227).
edge(113, 154).
edge(96, 99).
edge(70, 82).
edge(55, 185).
edge(32, 106).
edge(65, 87).
edge(0, 89).
edge(164, 226).
edge(185, 232).
edge(125, 131).
edge(172, 202).
edge(25, 166).
edge(155, 188).
edge(20, 79).
edge(11, 49).
edge(89, 211).
edge(155, 228).
edge(61, 226).
edge(83, 153).
edge(152, 215).
edge(118, 205).
edge(110, 199).
edge(91, 216).
edge(103, 223).
edge(24, 34).
edge(36, 155).
edge(107, 130).
edge(27, 165).
edge(77, 80).
edge(69, 222).
edge(84, 212).
edge(48, 70).
edge(119, 135).
edge(134, 147).
edge(42, 189).
edge(69, 124).
edge(182, 205).
edge(127, 175).
edge(12, 27).
edge(172, 220).
edge(11, 146).
edge(94, 185).
edge(96, 215).
edge(93, 189).
edge(54, 143).
edge(119, 132).
edge(112, 212).
edge(12, 130).
edge(4, 52).
edge(26, 128).
edge(102, 157).
edge(109, 182).
edge(110, 192).
edge(158, 214).
edge(26, 112).
edge(122, 188).
edge(42, 114).
edge(36, 227).
edge(164, 198).
edge(66, 161).
edge(26, 143).
edge(78, 215).
edge(93, 155).
edge(33, 106).
edge(14, 131).
edge(60, 83).
edge(38, 192).
edge(98, 219).
edge(197, 214).
edge(88, 198).
edge(65, 171).
edge(48, 186).
edge(27, 145).
edge(19, 58).
edge(73, 200).
edge(47, 49).
edge(35, 190).
edge(62, 191).
edge(8, 191).
edge(70, 201).
edge(76, 83).
edge(86, 117).
edge(99, 148).
edge(42, 146).
edge(231, 233).
edge(52, 160).
edge(92, 171).
edge(66, 194).
edge(4, 122).
edge(25, 36).
edge(65, 94).
edge(137, 216).
edge(73, 169).
edge(16, 42).
edge(14, 182).
edge(5, 89).
edge(5, 119).
edge(3, 103).
edge(193, 194).
edge(133, 148).
edge(87, 105).
edge(67, 91).
edge(176, 192).
edge(174, 231).
edge(79, 198).
edge(22, 122).
edge(91, 133).
edge(0, 40).
edge(45, 112).
edge(152, 211).
edge(146, 180).
edge(84, 157).
edge(32, 76).
edge(138, 227).
edge(89, 225).
edge(1, 218).
edge(152, 160).
edge(12, 67).
edge(61, 209).
edge(65, 155).
edge(59, 70).
edge(143, 206).
edge(43, 218).
edge(13, 208).
edge(67, 154).
edge(141, 159).
edge(37, 194).
edge(138, 145).
edge(105, 234).
edge(29, 124).
edge(19, 174).
edge(8, 21).
edge(110, 156).
edge(137, 156).
edge(39, 224).
edge(171, 202).
edge(4, 85).
edge(125, 133).
edge(4, 9).
edge(86, 110).
edge(13, 18).
edge(135, 234).
edge(95, 112).
edge(17, 173).
edge(16, 163).
edge(94, 100).
edge(147, 176).
edge(28, 44).
edge(12, 32).
edge(124, 190).
edge(31, 90).
edge(114, 211).
edge(52, 53).
edge(6, 219).
edge(52, 60).
edge(87, 210).
edge(21, 87).
edge(14, 162).
edge(41, 48).
edge(91, 225).
edge(75, 98).
edge(13, 193).
edge(66, 152).
edge(0, 140).
edge(79, 115).
edge(22, 87).
edge(36, 93).
edge(38, 48).
edge(59, 178).
edge(72, 107).
edge(151, 216).
edge(121, 223).
edge(110, 205).
edge(64, 191).
edge(82, 153).
edge(76, 82).
edge(119, 171).
edge(34, 203).
edge(31, 100).
edge(60, 209).
edge(63, 110).
edge(31, 79).
edge(190, 195).
edge(96, 117).
edge(31, 76).
edge(83, 114).
edge(18, 178).
edge(15, 222).
edge(38, 39).
edge(26, 189).
edge(81, 158).
edge(171, 179).
edge(74, 142).
edge(206, 212).
edge(38, 98).
edge(93, 191).
edge(171, 181).
edge(70, 228).
edge(9, 53).
edge(91, 163).
edge(89, 210).
edge(90, 111).
edge(14, 20).
edge(103, 153).
edge(23, 188).
edge(139, 217).
edge(182, 200).
edge(77, 234).
edge(135, 187).
edge(19, 230).
edge(0, 151).
edge(63, 165).
edge(94, 232).
edge(8, 16).
edge(121, 209).
edge(157, 167).
edge(27, 118).
edge(49, 234).
edge(69, 95).
edge(34, 68).
edge(160, 231).
edge(10, 200).
edge(203, 226).
edge(153, 172).
edge(58, 160).
edge(2, 220).
edge(90, 163).
edge(21, 28).
edge(81, 170).
edge(167, 177).
edge(47, 55).
edge(0, 68).
edge(69, 171).
edge(13, 139).
edge(70, 74).
edge(168, 216).
edge(87, 117).
edge(56, 101).
edge(87, 151).
edge(136, 157).
edge(27, 222).
edge(47, 212).
edge(41, 44).
edge(114, 138).
edge(53, 198).
edge(33, 57).
edge(61, 69).
edge(36, 178).
edge(202, 213).
edge(16, 231).
edge(91, 183).
edge(9, 121).
edge(171, 203).
edge(8, 25).
edge(142, 152).
edge(119, 145).
edge(37, 216).
edge(108, 226).
edge(195, 230).
edge(11, 69).
edge(45, 200).
edge(98, 187).
edge(115, 146).
edge(65, 139).
edge(14, 115).
edge(75, 195).
edge(162, 203).
edge(1, 110).
edge(1, 182).
edge(136, 161).
edge(79, 95).
edge(179, 199).
edge(87, 178).
edge(126, 158).
edge(53, 190).
edge(63, 77).
edge(5, 124).
edge(32, 128).
edge(84, 148).
edge(32, 114).
edge(21, 175).
edge(107, 157).
edge(34, 45).
edge(101, 126).
edge(86, 137).
edge(54, 208).
edge(111, 201).
edge(90, 195).
edge(92, 195).
edge(27, 57).
edge(168, 194).
edge(5, 225).
edge(50, 147).
edge(6, 10).
edge(53, 230).
edge(22, 93).
edge(53, 226).
edge(111, 220).
edge(110, 180).
edge(110, 232).
edge(66, 156).
edge(22, 74).
edge(71, 225).
edge(66, 126).
edge(78, 100).
edge(60, 204).
edge(135, 167).
edge(10, 112).
edge(20, 34).
edge(138, 161).
edge(9, 155).
edge(16, 223).
edge(156, 162).
edge(123, 139).
edge(16, 142).
edge(143, 228).
edge(186, 221).
edge(12, 231).
edge(83, 211).
edge(26, 220).
edge(71, 76).
edge(45, 114).
edge(92, 227).
edge(80, 114).
edge(105, 189).
edge(14, 126).
edge(162, 214).
edge(49, 216).
edge(35, 140).
edge(72, 136).
edge(83, 195).
edge(170, 229).
edge(121, 144).
edge(55, 191).
edge(127, 197).
edge(0, 147).
edge(3, 63).
edge(120, 175).
edge(157, 162).
edge(44, 93).
edge(22, 48).
edge(94, 96).
edge(152, 189).
edge(5, 152).
edge(36, 57).
edge(22, 152).
edge(95, 99).
edge(8, 68).
edge(16, 120).
edge(209, 215).
edge(72, 121).
edge(110, 124).
edge(2, 14).
edge(44, 170).
edge(93, 134).
edge(139, 189).
edge(63, 234).
edge(136, 184).
edge(118, 150).
edge(66, 93).
edge(95, 113).
edge(52, 187).
edge(107, 138).
edge(74, 92).
edge(104, 171).
edge(9, 177).
edge(76, 129).
edge(172, 199).
edge(88, 201).
edge(22, 180).
edge(8, 42).
edge(154, 223).
edge(17, 91).
edge(107, 135).
edge(167, 192).
edge(79, 93).
edge(18, 158).
edge(8, 81).
edge(19, 83).
edge(138, 146).
edge(48, 102).
edge(17, 58).
edge(22, 72).
edge(118, 166).
edge(26, 100).
edge(59, 92).
edge(120, 136).
edge(78, 105).
edge(34, 132).
edge(29, 94).
edge(58, 196).
edge(43, 182).
edge(22, 219).
edge(7, 200).
edge(126, 154).
edge(21, 72).
edge(16, 162).
edge(89, 190).
edge(79, 85).
edge(112, 177).
edge(25, 165).
edge(47, 67).
edge(89, 133).
edge(61, 183).
edge(105, 110).
edge(27, 31).
edge(45, 131).
edge(141, 198).
edge(122, 217).
edge(191, 211).
edge(15, 161).
edge(69, 221).
edge(113, 177).
edge(19, 107).
edge(63, 126).
edge(189, 200).
edge(5, 127).
edge(102, 213).
edge(106, 118).
edge(202, 231).
edge(133, 186).
edge(59, 72).
edge(20, 33).
edge(29, 87).
edge(214, 231).
edge(14, 105).
edge(138, 166).
edge(42, 52).
edge(17, 19).
edge(61, 189).
edge(41, 231).
edge(18, 89).
edge(38, 168).
edge(81, 92).
edge(30, 32).
edge(147, 152).
edge(157, 158).
edge(128, 224).
edge(212, 233).
edge(93, 179).
edge(127, 218).
edge(106, 113).
edge(152, 178).
edge(41, 135).
edge(102, 179).
edge(137, 201).
edge(127, 183).
edge(7, 75).
edge(25, 73).
edge(121, 130).
edge(107, 210).
edge(22, 158).
edge(103, 177).
edge(145, 184).
edge(62, 117).
edge(130, 191).
edge(98, 148).
edge(129, 200).
edge(1, 156).
edge(24, 139).
edge(23, 46).
edge(29, 160).
edge(114, 141).
edge(50, 149).
edge(37, 164).
edge(53, 185).
edge(202, 232).
edge(64, 96).
edge(99, 204).
edge(15, 17).
edge(24, 57).
edge(46, 53).
edge(17, 27).
edge(11, 143).
edge(19, 158).
edge(106, 156).
edge(43, 80).
edge(52, 139).
edge(79, 206).
edge(43, 86).
edge(5, 68).
edge(33, 71).
edge(102, 131).
edge(72, 144).
edge(17, 207).
edge(1, 146).
edge(204, 214).
edge(95, 207).
edge(59, 102).
edge(120, 187).
edge(95, 122).
edge(17, 62).
edge(45, 186).
edge(105, 158).
edge(100, 189).
edge(46, 100).
edge(67, 193).
edge(151, 156).
edge(27, 233).
edge(47, 154).
edge(16, 172).
edge(96, 188).
edge(22, 120).
edge(23, 80).
edge(153, 203).
edge(49, 144).
edge(158, 160).
edge(155, 189).
edge(6, 222).
edge(49, 170).
edge(80, 233).
edge(188, 189).
edge(2, 196).
edge(8, 168).
edge(90, 215).
edge(83, 231).
edge(22, 141).
edge(135, 224).
edge(47, 128).
edge(80, 172).
edge(22, 153).
edge(80, 126).
edge(182, 195).
edge(74, 230).
edge(104, 196).
edge(157, 230).
edge(145, 165).
edge(60, 133).
edge(38, 94).
edge(161, 179).
edge(0, 215).
edge(157, 212).
edge(84, 118).
edge(17, 29).
edge(93, 222).
edge(77, 227).
edge(127, 205).
edge(16, 168).
edge(125, 141).
edge(78, 124).
edge(134, 188).
edge(3, 214).
edge(106, 149).
edge(2, 162).
edge(170, 201).
edge(5, 231).
edge(38, 123).
edge(80, 124).
edge(9, 135).
edge(124, 150).
edge(48, 89).
edge(2, 221).
edge(101, 171).
edge(50, 230).
edge(179, 181).
edge(171, 182).
edge(146, 213).
edge(82, 151).
edge(132, 161).
edge(7, 80).
edge(32, 179).
edge(7, 104).
edge(40, 171).
edge(169, 230).
edge(100, 217).
edge(89, 173).
edge(30, 58).
edge(64, 67).
edge(47, 129).
edge(3, 31).
edge(136, 160).
edge(6, 26).
edge(117, 174).
edge(97, 214).
edge(39, 120).
edge(18, 44).
edge(65, 198).
edge(90, 133).
edge(30, 206).
edge(187, 223).
edge(35, 88).
edge(123, 152).
edge(165, 173).
edge(43, 88).
edge(87, 138).
edge(32, 70).
edge(79, 102).
edge(19, 204).
edge(59, 68).
edge(38, 101).
edge(96, 145).
edge(120, 161).
edge(135, 186).
edge(56, 205).
edge(97, 161).
edge(25, 159).
edge(91, 147).
edge(49, 222).
edge(55, 59).
edge(110, 119).
edge(72, 195).
edge(39, 56).
edge(195, 226).
edge(82, 131).
edge(50, 193).
edge(29, 181).
edge(42, 193).
edge(147, 151).
edge(119, 130).
edge(29, 189).
edge(22, 183).
edge(167, 225).
edge(196, 221).
edge(34, 103).
edge(54, 80).
edge(0, 49).
edge(60, 233).
edge(150, 171).
edge(7, 234).
edge(1, 23).
edge(44, 126).
edge(106, 185).
edge(18, 31).
edge(117, 145).
edge(37, 114).
edge(13, 118).
edge(19, 118).
edge(139, 148).
edge(106, 176).
edge(175, 181).
edge(36, 171).
edge(56, 209).
edge(62, 165).
edge(139, 192).
edge(84, 194).
edge(161, 224).
edge(153, 209).
edge(1, 201).
edge(95, 228).
edge(29, 161).
edge(34, 167).
edge(108, 200).
edge(171, 232).
edge(23, 174).
edge(4, 116).
edge(35, 123).
edge(164, 189).
edge(113, 183).
edge(61, 170).
edge(11, 107).
edge(59, 87).
edge(38, 174).
edge(169, 189).
edge(181, 197).
edge(31, 167).
edge(129, 225).
edge(99, 129).
edge(129, 201).
edge(11, 221).
edge(52, 141).
edge(52, 115).
edge(53, 111).
edge(20, 83).
edge(11, 184).
edge(171, 183).
edge(48, 178).
edge(95, 110).
edge(120, 198).
edge(113, 155).
edge(124, 148).
edge(90, 158).
edge(96, 185).
edge(154, 165).
edge(108, 207).
edge(134, 190).
edge(13, 66).
edge(41, 106).
edge(204, 223).
edge(102, 119).
edge(15, 180).
edge(80, 229).
edge(34, 172).
edge(123, 217).
edge(85, 232).
edge(183, 197).
edge(33, 214).
edge(134, 201).
edge(41, 47).
edge(34, 43).
edge(69, 161).
edge(52, 105).
edge(200, 224).
edge(201, 232).
edge(89, 92).
edge(198, 220).
edge(21, 53).
edge(3, 45).
edge(130, 233).
edge(29, 151).
edge(10, 187).
edge(133, 155).
edge(100, 234).
edge(132, 172).
edge(94, 106).
edge(57, 110).
edge(227, 234).
edge(37, 153).
edge(142, 153).
edge(48, 115).
edge(18, 79).
edge(28, 142).
edge(166, 216).
edge(98, 232).
edge(117, 187).
edge(15, 150).
edge(41, 113).
edge(160, 227).
edge(3, 14).
edge(1, 105).
edge(144, 162).
edge(41, 43).
edge(111, 136).
edge(26, 130).
edge(166, 218).
edge(64, 145).
edge(105, 173).
edge(16, 20).
edge(23, 170).
edge(70, 169).
edge(30, 110).
edge(52, 195).
edge(97, 101).
edge(166, 183).
edge(191, 200).
edge(32, 229).
edge(24, 166).
edge(81, 103).
edge(125, 188).
edge(25, 61).
edge(116, 156).
edge(125, 187).
edge(129, 164).
edge(50, 226).
edge(124, 163).
edge(131, 209).
edge(193, 218).
edge(41, 126).
edge(8, 182).
edge(155, 215).
edge(4, 213).
edge(0, 192).
edge(11, 118).
edge(57, 77).
edge(12, 49).
edge(148, 183).
edge(119, 144).
edge(146, 206).
edge(69, 206).
edge(130, 175).
edge(109, 198).
edge(131, 218).
edge(7, 230).
edge(65, 208).
edge(201, 220).
edge(10, 95).
edge(51, 173).
edge(102, 230).
edge(103, 140).
edge(149, 186).
edge(14, 30).
edge(168, 207).
edge(123, 214).
edge(67, 189).
edge(54, 121).
edge(16, 213).
edge(24, 50).
edge(29, 208).
edge(168, 184).
edge(72, 154).
edge(209, 214).
edge(7, 132).
edge(67, 213).
edge(35, 162).
edge(100, 113).
edge(34, 211).
edge(0, 139).
edge(143, 187).
edge(112, 181).
edge(118, 178).
edge(228, 229).
edge(5, 11).
edge(87, 114).
edge(45, 133).
edge(164, 195).
edge(30, 145).
edge(102, 110).
edge(35, 198).
edge(44, 194).
edge(81, 98).
edge(221, 228).
edge(14, 179).
edge(16, 209).
edge(31, 195).
edge(104, 140).
edge(38, 166).
edge(39, 148).
edge(21, 118).
edge(146, 190).
edge(51, 116).
edge(133, 157).
edge(74, 222).
edge(180, 184).
edge(146, 158).
edge(98, 186).
edge(110, 206).
edge(72, 148).
edge(159, 167).
edge(88, 174).
edge(69, 146).
edge(119, 212).
edge(36, 193).
edge(38, 60).
edge(62, 192).
edge(123, 163).
edge(165, 221).
edge(81, 146).
edge(95, 120).
edge(181, 200).
edge(78, 157).
edge(229, 233).
edge(136, 207).
edge(98, 197).
edge(66, 219).
edge(108, 117).
edge(96, 220).
edge(166, 208).
edge(136, 150).
edge(140, 197).
edge(158, 182).
edge(26, 61).
edge(118, 229).
edge(64, 229).
edge(56, 158).
edge(149, 151).
edge(46, 171).
edge(2, 202).
edge(61, 159).
edge(39, 40).
edge(98, 125).
edge(3, 208).
edge(91, 178).
edge(88, 121).
edge(119, 174).
edge(179, 216).
edge(27, 100).
edge(91, 122).
edge(66, 83).
edge(105, 134).
edge(96, 228).
edge(114, 234).
edge(19, 23).
edge(45, 229).
edge(48, 86).
edge(91, 132).
edge(71, 196).
edge(32, 86).
edge(29, 177).
edge(37, 210).
edge(15, 113).
edge(8, 109).
edge(109, 226).
edge(109, 230).
edge(73, 98).
edge(17, 232).
edge(166, 184).
edge(45, 61).
edge(65, 91).
edge(60, 73).
edge(14, 234).
edge(185, 187).
edge(20, 59).
edge(191, 207).
edge(22, 222).
edge(70, 77).
edge(40, 110).
edge(198, 204).
edge(113, 193).
edge(21, 162).
edge(171, 206).
edge(98, 139).
edge(97, 180).
edge(99, 173).
edge(22, 178).
edge(106, 133).
edge(95, 139).
edge(16, 141).
edge(6, 118).
edge(141, 228).
edge(19, 55).
edge(60, 222).
edge(4, 42).
edge(69, 82).
edge(43, 89).
edge(187, 193).
edge(54, 209).
edge(83, 168).
edge(36, 68).
edge(112, 198).
edge(41, 114).
edge(111, 116).
edge(72, 232).
edge(89, 207).
edge(118, 188).
edge(34, 152).
edge(16, 219).
edge(125, 213).
edge(205, 206).
edge(32, 135).
edge(29, 111).
edge(0, 103).
edge(59, 91).
edge(23, 178).
edge(105, 179).
edge(11, 81).
edge(47, 158).
edge(127, 188).
edge(82, 179).
edge(119, 210).
edge(195, 220).
edge(20, 71).
edge(167, 196).
edge(10, 39).
edge(61, 124).
edge(29, 127).
edge(199, 203).
edge(191, 218).
edge(67, 139).
edge(105, 195).
edge(68, 215).
edge(80, 184).
edge(119, 198).
edge(100, 216).
edge(183, 220).
edge(22, 195).
edge(31, 118).
edge(7, 96).
edge(13, 179).
edge(168, 178).
edge(27, 143).
edge(132, 177).
edge(91, 221).
edge(18, 84).
edge(211, 216).
edge(12, 114).
edge(23, 31).
edge(39, 43).
edge(34, 81).
edge(51, 213).
edge(81, 212).
edge(70, 148).
edge(18, 186).
edge(60, 123).
edge(126, 169).
edge(107, 193).
edge(108, 234).
edge(50, 56).
edge(53, 173).
edge(155, 220).
edge(151, 184).
edge(18, 106).
edge(50, 234).
edge(40, 62).
edge(76, 210).
edge(68, 227).
edge(5, 84).
edge(54, 182).
edge(82, 202).
edge(52, 189).
edge(118, 165).
edge(51, 78).
edge(46, 144).
edge(47, 116).
edge(79, 224).
edge(1, 131).
edge(161, 222).
edge(48, 152).
edge(0, 26).
edge(144, 208).
edge(106, 166).
edge(83, 186).
edge(55, 70).
edge(64, 179).
edge(1, 19).
edge(66, 88).
edge(38, 215).
edge(65, 103).
edge(104, 202).
edge(9, 142).
edge(100, 231).
edge(22, 145).
edge(122, 174).
edge(17, 145).
edge(2, 129).
edge(93, 181).
edge(49, 231).
edge(15, 88).
edge(19, 146).
edge(54, 122).
edge(85, 134).
edge(83, 233).
edge(127, 213).
edge(5, 204).
edge(140, 190).
edge(1, 60).
edge(27, 130).
edge(79, 146).
edge(32, 218).
edge(178, 198).
edge(117, 165).
edge(120, 164).
edge(188, 211).
edge(0, 135).
edge(100, 170).
edge(72, 208).
edge(73, 125).
edge(3, 100).
edge(10, 89).
edge(28, 111).
edge(20, 73).
edge(41, 53).
edge(44, 64).
edge(21, 123).
edge(19, 176).
edge(103, 138).
edge(148, 190).
edge(108, 191).
edge(52, 203).
edge(62, 156).
edge(3, 171).
edge(37, 112).
edge(7, 31).
edge(18, 205).
edge(125, 191).
edge(96, 177).
edge(139, 152).
edge(9, 83).
edge(67, 202).
edge(169, 180).
edge(139, 218).
edge(82, 133).
edge(19, 96).
edge(106, 191).
edge(114, 183).
edge(55, 213).
edge(10, 190).
edge(11, 171).
edge(118, 135).
edge(99, 197).
edge(74, 175).
edge(56, 127).
edge(96, 159).
edge(109, 169).
edge(56, 113).
edge(34, 173).
edge(146, 164).
edge(114, 182).
edge(110, 154).
edge(35, 128).
edge(19, 220).
edge(108, 109).
edge(88, 223).
edge(110, 211).
edge(171, 230).
edge(142, 214).
edge(142, 154).
edge(42, 65).
edge(71, 162).
edge(64, 102).
edge(25, 221).
edge(39, 104).
edge(117, 156).
edge(100, 165).
edge(124, 218).
edge(126, 219).
edge(17, 179).
edge(86, 129).
edge(10, 164).
edge(78, 117).
edge(119, 180).
edge(76, 137).
edge(46, 220).
edge(88, 112).
edge(50, 132).
edge(41, 137).
edge(19, 144).
edge(12, 82).
edge(92, 175).
edge(76, 93).
edge(77, 166).
edge(35, 169).
edge(187, 220).
edge(32, 109).
edge(105, 233).
edge(4, 36).
edge(121, 211).
edge(44, 183).
edge(110, 234).
edge(13, 138).
edge(22, 233).
edge(67, 82).
edge(43, 87).
edge(43, 214).
edge(202, 228).
edge(75, 204).
edge(72, 228).
edge(187, 198).
edge(188, 226).
edge(0, 130).
edge(41, 186).
edge(28, 223).
edge(43, 165).
edge(5, 70).
edge(147, 194).
edge(77, 162).
edge(149, 220).
edge(73, 74).
edge(9, 106).
edge(146, 223).
edge(41, 91).
edge(60, 78).
edge(11, 121).
edge(22, 109).
edge(117, 128).
edge(106, 190).
edge(55, 228).
edge(152, 155).
edge(97, 184).
edge(170, 220).
edge(37, 109).
edge(1, 92).
edge(113, 217).
edge(54, 134).
edge(151, 201).
edge(60, 156).
edge(40, 78).
edge(27, 72).
edge(140, 230).
edge(95, 154).
edge(71, 72).
edge(42, 177).
edge(33, 125).
edge(74, 152).
edge(46, 153).
edge(70, 95).
edge(112, 132).
edge(50, 63).
edge(18, 27).
edge(35, 56).
edge(169, 234).
edge(18, 50).
edge(2, 75).
edge(88, 165).
edge(165, 174).
edge(68, 107).
edge(113, 137).
edge(92, 136).
edge(20, 85).
edge(197, 203).
edge(173, 183).
edge(42, 118).
edge(20, 209).
edge(70, 140).
edge(27, 140).
edge(179, 182).
edge(60, 186).
edge(161, 166).
edge(103, 173).
edge(2, 87).
edge(93, 137).
edge(82, 209).
edge(99, 187).
edge(41, 92).
edge(93, 206).
edge(132, 168).
edge(65, 192).
edge(8, 57).
edge(70, 73).
edge(160, 210).
edge(107, 192).
edge(141, 155).
edge(94, 218).
edge(118, 193).
edge(30, 61).
edge(65, 174).
edge(36, 221).
edge(98, 151).
edge(172, 222).
edge(73, 145).
edge(122, 128).
edge(70, 175).
edge(58, 231).
edge(102, 155).
edge(31, 95).
edge(6, 150).
edge(114, 216).
edge(124, 177).
edge(54, 222).
edge(16, 182).
edge(172, 214).
edge(98, 204).
edge(46, 158).
edge(11, 18).
edge(74, 108).
edge(186, 211).
edge(41, 163).
edge(73, 124).
edge(90, 178).
edge(170, 211).
edge(150, 153).
edge(122, 126).
edge(100, 159).
edge(130, 163).
edge(0, 158).
edge(33, 122).
edge(102, 222).
edge(126, 176).
edge(141, 234).
edge(41, 121).
edge(9, 96).
edge(132, 147).
edge(109, 189).
edge(103, 128).
edge(21, 81).
edge(65, 154).
edge(8, 208).
edge(31, 78).
edge(65, 197).
edge(25, 203).
edge(19, 57).
edge(54, 170).
edge(152, 196).
edge(79, 168).
edge(3, 17).
edge(80, 138).
edge(68, 156).
edge(84, 210).
edge(46, 133).
edge(27, 85).
edge(54, 70).
edge(62, 216).
edge(173, 197).
edge(139, 182).
edge(123, 159).
edge(84, 108).
edge(73, 139).
edge(15, 32).
edge(61, 234).
edge(150, 161).
edge(18, 47).
edge(141, 224).
edge(46, 199).
edge(122, 175).
edge(198, 233).
edge(87, 164).
edge(64, 114).
edge(153, 201).
edge(102, 156).
edge(77, 210).
edge(99, 106).
edge(42, 78).
edge(23, 122).
edge(145, 199).
edge(126, 185).
edge(68, 203).
edge(11, 103).
edge(34, 230).
edge(164, 211).
edge(56, 195).
edge(126, 182).
edge(42, 67).
edge(103, 165).
edge(31, 188).
edge(152, 188).
edge(29, 45).
edge(142, 177).
edge(126, 180).
edge(164, 186).
edge(14, 214).
edge(144, 233).
edge(28, 234).
edge(6, 90).
edge(2, 115).
edge(40, 206).
edge(107, 155).
edge(18, 87).
edge(63, 219).
edge(18, 61).
edge(13, 19).
edge(4, 148).
edge(10, 40).
edge(13, 162).
edge(41, 166).
edge(94, 226).
edge(32, 185).
edge(163, 234).
edge(127, 168).
edge(79, 103).
edge(38, 59).
edge(70, 109).
edge(58, 146).
edge(71, 140).
edge(143, 203).
edge(169, 219).
edge(112, 154).
edge(58, 140).
edge(41, 156).
edge(0, 87).
edge(83, 159).
edge(69, 78).
edge(147, 212).
edge(213, 226).
edge(174, 196).
edge(65, 230).
edge(58, 114).
edge(94, 203).
edge(23, 88).
edge(11, 161).
edge(100, 138).
edge(10, 91).
edge(161, 230).
edge(34, 158).
edge(150, 151).
edge(103, 156).
edge(60, 172).
edge(183, 231).
edge(8, 78).
edge(145, 203).
edge(41, 59).
edge(6, 70).
edge(3, 224).
edge(0, 138).
edge(50, 113).
edge(72, 157).
edge(92, 234).
edge(30, 227).
edge(157, 177).
edge(3, 144).
edge(128, 165).
edge(50, 81).
edge(79, 152).
edge(60, 170).
edge(82, 108).
edge(78, 223).
edge(48, 158).
edge(25, 43).
edge(160, 199).
edge(205, 229).
edge(26, 200).
edge(4, 178).
edge(2, 152).
edge(78, 86).
edge(75, 153).
edge(47, 138).
edge(27, 106).
edge(104, 142).
edge(31, 146).
edge(49, 53).
edge(14, 174).
edge(123, 165).
edge(7, 150).
edge(75, 147).
edge(1, 150).
edge(45, 204).
edge(41, 170).
edge(60, 179).
edge(91, 98).
edge(132, 164).
edge(59, 121).
edge(47, 206).
edge(40, 208).
edge(37, 65).
edge(45, 98).
edge(116, 226).
edge(65, 104).
edge(51, 111).
edge(27, 161).
edge(63, 151).
edge(90, 212).
edge(119, 226).
edge(131, 207).
edge(1, 222).
edge(27, 192).
edge(58, 226).
edge(7, 111).
edge(82, 182).
edge(8, 26).
edge(60, 212).
edge(128, 215).
edge(116, 164).
edge(132, 180).
edge(75, 234).
edge(74, 206).
edge(142, 170).
edge(188, 202).
edge(42, 159).
edge(170, 196).
edge(55, 63).
edge(212, 229).
edge(3, 210).
edge(58, 197).
edge(179, 193).
edge(9, 161).
edge(134, 225).
edge(8, 136).
edge(152, 173).
edge(126, 192).
edge(39, 162).
edge(13, 90).
edge(66, 166).
edge(88, 148).
edge(19, 145).
edge(32, 177).
edge(130, 187).
edge(37, 234).
edge(46, 159).
edge(42, 221).
edge(67, 125).
edge(151, 219).
edge(82, 105).
edge(163, 231).
edge(70, 120).
edge(133, 183).
edge(18, 199).
edge(77, 209).
edge(23, 228).
edge(187, 222).
edge(25, 108).
edge(146, 160).
edge(64, 231).
edge(90, 209).
edge(60, 225).
edge(167, 184).
edge(26, 82).
edge(84, 120).
edge(148, 162).
edge(25, 232).
edge(77, 112).
edge(64, 207).
edge(190, 226).
edge(25, 45).
edge(102, 134).
edge(153, 160).
edge(22, 78).
edge(16, 174).
edge(18, 154).
edge(30, 158).
edge(18, 38).
edge(53, 85).
edge(20, 139).
edge(4, 47).
edge(39, 194).
edge(59, 106).
edge(191, 219).
edge(9, 58).
edge(115, 203).
edge(20, 199).
edge(74, 146).
edge(147, 149).
edge(62, 64).
edge(198, 205).
edge(139, 215).
edge(79, 199).
edge(84, 125).
edge(16, 208).
edge(36, 202).
edge(45, 126).
edge(76, 136).
edge(25, 97).
edge(46, 107).
edge(21, 29).
edge(11, 22).
edge(54, 193).
edge(48, 174).
edge(71, 166).
edge(119, 161).
edge(14, 101).
edge(9, 75).
edge(123, 198).
edge(38, 61).
edge(47, 201).
edge(71, 173).
edge(41, 234).
edge(65, 82).
edge(7, 195).
edge(20, 97).
edge(80, 133).
edge(62, 217).
edge(126, 174).
edge(152, 194).
edge(172, 190).
edge(76, 150).
edge(84, 174).
edge(29, 185).
edge(127, 198).
edge(82, 85).
edge(37, 157).
edge(66, 182).
edge(173, 185).
edge(80, 152).
edge(71, 126).
edge(132, 213).
edge(156, 193).
edge(29, 228).
edge(171, 176).
edge(29, 44).
edge(15, 174).
edge(113, 212).
edge(118, 167).
edge(110, 118).
edge(152, 227).
edge(3, 139).
edge(213, 224).
edge(16, 227).
edge(113, 143).
edge(135, 195).
edge(123, 212).
edge(11, 36).
edge(70, 88).
edge(101, 184).
edge(12, 215).
edge(100, 122).
edge(32, 119).
edge(42, 58).
edge(72, 133).
edge(165, 178).
edge(12, 52).
edge(93, 234).
edge(90, 219).
edge(116, 234).
edge(171, 172).
edge(31, 126).
edge(64, 149).
edge(58, 166).
edge(57, 214).
edge(109, 171).
edge(26, 181).
edge(75, 152).
edge(101, 186).
edge(49, 84).
edge(166, 217).
edge(137, 230).
edge(127, 230).
edge(28, 163).
edge(140, 155).
edge(123, 128).
edge(48, 75).
edge(101, 119).
edge(61, 115).
edge(122, 221).
edge(204, 215).
edge(195, 232).
edge(128, 198).
edge(75, 143).
edge(110, 139).
edge(151, 217).
edge(23, 136).
edge(17, 107).
edge(19, 147).
edge(174, 181).
edge(140, 172).
edge(66, 104).
edge(37, 142).
edge(83, 93).
edge(73, 175).
edge(40, 117).
edge(58, 148).
edge(72, 159).
edge(39, 130).
edge(70, 76).
edge(44, 134).
edge(3, 82).
edge(75, 107).
edge(29, 213).
edge(20, 159).
edge(90, 157).
edge(106, 130).
edge(34, 74).
edge(92, 146).
edge(170, 184).
edge(34, 62).
edge(20, 81).
edge(68, 97).
edge(5, 121).
edge(10, 192).
edge(85, 212).
edge(57, 78).
edge(43, 61).
edge(63, 220).
edge(8, 190).
edge(34, 39).
edge(91, 227).
edge(159, 213).
edge(79, 107).
edge(67, 138).
edge(92, 224).
edge(188, 193).
edge(184, 207).
edge(18, 179).
edge(30, 195).
edge(192, 210).
edge(1, 151).
edge(162, 231).
edge(80, 160).
edge(68, 81).
edge(156, 183).
edge(83, 152).
edge(148, 150).
edge(72, 222).
edge(17, 110).
edge(144, 161).
edge(108, 170).
edge(76, 166).
edge(34, 219).
edge(81, 89).
edge(98, 217).
edge(11, 179).
edge(14, 175).
edge(78, 169).
edge(69, 85).
edge(48, 79).
edge(71, 159).
edge(39, 197).
edge(77, 108).
edge(81, 83).
edge(95, 213).
edge(7, 174).
edge(0, 141).
edge(151, 169).
edge(191, 195).
edge(2, 173).
edge(185, 207).
edge(37, 226).
edge(29, 79).
edge(93, 115).
edge(80, 86).
edge(8, 205).
edge(31, 150).
edge(107, 163).
edge(57, 122).
edge(127, 207).
edge(6, 42).
edge(48, 62).
edge(55, 90).
edge(34, 224).
edge(147, 229).
edge(92, 216).
edge(16, 167).
edge(21, 192).
edge(30, 81).
edge(21, 205).
edge(66, 106).
edge(28, 36).
edge(6, 45).
edge(85, 166).
edge(12, 160).
edge(130, 181).
edge(41, 71).
edge(75, 211).
edge(134, 205).
edge(209, 232).
edge(12, 206).
edge(17, 163).
edge(59, 109).
edge(125, 180).
edge(41, 178).
edge(87, 209).
edge(126, 200).
edge(87, 230).
edge(150, 191).
edge(128, 230).
edge(124, 143).
edge(202, 221).
edge(26, 70).
edge(11, 87).
edge(20, 82).
edge(39, 83).
edge(28, 38).
edge(31, 67).
edge(78, 162).
edge(49, 201).
edge(213, 219).
edge(92, 118).
edge(4, 161).
edge(3, 162).
edge(64, 87).
edge(86, 227).
edge(151, 152).
edge(149, 208).
edge(38, 228).
edge(165, 195).
edge(131, 215).
edge(96, 153).
edge(25, 151).
edge(32, 164).
edge(110, 230).
edge(51, 81).
edge(139, 225).
edge(51, 232).
edge(41, 215).
edge(30, 52).
edge(33, 193).
edge(107, 147).
edge(51, 208).
edge(183, 210).
edge(64, 208).
edge(210, 221).
edge(201, 216).
edge(3, 70).
edge(47, 155).
edge(24, 81).
edge(178, 213).
edge(23, 144).
edge(15, 197).
edge(8, 91).
edge(55, 157).
edge(12, 188).
edge(23, 152).
edge(45, 85).
edge(49, 147).
edge(73, 193).
edge(122, 223).
edge(52, 219).
edge(39, 138).
edge(101, 194).
edge(117, 208).
edge(39, 92).
edge(33, 217).
edge(35, 85).
edge(56, 138).
edge(171, 233).
edge(26, 211).
edge(108, 151).
edge(147, 210).
edge(195, 199).
edge(54, 162).
edge(36, 53).
edge(41, 96).
edge(67, 183).
edge(32, 143).
edge(103, 230).
edge(22, 86).
edge(2, 146).
edge(13, 213).
edge(6, 189).
edge(188, 198).
edge(110, 231).
edge(99, 152).
edge(88, 167).
edge(39, 113).
edge(146, 220).
edge(86, 202).
edge(86, 154).
edge(72, 211).
edge(2, 190).
edge(30, 50).
edge(131, 140).
edge(3, 173).
edge(80, 213).
edge(23, 33).
edge(118, 208).
edge(54, 83).
edge(125, 219).
edge(75, 218).
edge(31, 157).
edge(103, 117).
edge(32, 151).
edge(39, 42).
edge(21, 151).
edge(122, 137).
edge(36, 174).
edge(4, 93).
edge(50, 129).
edge(163, 232).
edge(161, 171).
edge(109, 145).
edge(123, 129).
edge(17, 175).
edge(57, 149).
edge(103, 213).
edge(43, 141).
edge(122, 162).
edge(28, 170).
edge(59, 211).
edge(57, 208).
edge(35, 71).
edge(146, 177).
edge(61, 120).
edge(92, 194).
edge(63, 116).
edge(39, 115).
edge(193, 231).
edge(19, 76).
edge(113, 206).
edge(85, 233).
edge(159, 179).
edge(48, 159).
edge(55, 88).
edge(78, 88).
edge(80, 113).
edge(151, 160).
edge(102, 107).
edge(86, 148).
edge(6, 23).
edge(164, 232).
edge(8, 34).
edge(145, 186).
edge(50, 206).
edge(111, 112).
edge(67, 93).
edge(11, 153).
edge(13, 93).
edge(73, 77).
edge(44, 209).
edge(143, 201).
edge(118, 169).
edge(130, 144).
edge(10, 218).
edge(5, 157).
edge(92, 181).
edge(7, 30).
edge(57, 230).
edge(89, 159).
edge(186, 193).
edge(96, 218).
edge(23, 199).
edge(126, 190).
edge(41, 86).
edge(12, 41).
edge(16, 117).
edge(45, 73).
edge(129, 217).
edge(82, 174).
edge(61, 123).
edge(92, 179).
edge(104, 203).
edge(25, 95).
edge(202, 230).
edge(68, 202).
edge(23, 128).
edge(60, 103).
edge(167, 180).
edge(32, 221).
edge(138, 212).
edge(120, 152).
edge(102, 176).
edge(29, 130).
edge(97, 144).
edge(93, 147).
edge(150, 213).
edge(146, 210).
edge(98, 157).
edge(61, 231).
edge(37, 97).
edge(209, 216).
edge(139, 198).
edge(101, 210).
edge(75, 76).
edge(21, 154).
edge(87, 223).
edge(126, 175).
edge(20, 117).
edge(24, 58).
edge(84, 232).
edge(35, 52).
edge(53, 204).
edge(36, 212).
edge(51, 144).
edge(176, 208).
edge(160, 164).
edge(45, 176).
edge(47, 176).
edge(58, 109).
edge(78, 103).
edge(152, 219).
edge(135, 136).
edge(109, 138).
edge(57, 139).
edge(33, 62).
edge(133, 152).
edge(29, 162).
edge(118, 130).
edge(55, 71).
edge(177, 186).
edge(185, 228).
edge(178, 191).
edge(11, 37).
edge(103, 149).
edge(89, 216).
edge(38, 135).
edge(95, 104).
edge(55, 129).
edge(73, 143).
edge(79, 105).
edge(41, 97).
edge(24, 126).
edge(16, 24).
edge(5, 205).
edge(36, 210).
edge(2, 9).
edge(132, 166).
edge(200, 221).
edge(3, 60).
edge(42, 167).
edge(66, 159).
edge(87, 97).
edge(164, 223).
edge(60, 75).
edge(92, 166).
edge(37, 196).
edge(67, 136).
edge(89, 134).
edge(162, 198).
edge(62, 90).
edge(12, 165).
edge(155, 158).
edge(26, 214).
edge(3, 187).
edge(47, 170).
edge(102, 220).
edge(48, 215).
edge(59, 86).
edge(56, 145).
edge(23, 201).
edge(31, 169).
edge(45, 129).
edge(137, 180).
edge(25, 58).
edge(89, 118).
edge(178, 204).
edge(128, 228).
edge(13, 188).
edge(206, 219).
edge(37, 182).
edge(21, 40).
edge(36, 45).
edge(109, 211).
edge(38, 147).
edge(73, 75).
edge(22, 143).
edge(22, 34).
edge(159, 218).
edge(17, 190).
edge(84, 101).
edge(150, 156).
edge(8, 207).
edge(21, 51).
edge(123, 145).
edge(15, 188).
edge(49, 51).
edge(21, 104).
edge(156, 163).
edge(117, 181).
edge(149, 205).
edge(110, 181).
edge(92, 113).
edge(50, 101).
edge(95, 209).
edge(195, 204).
edge(132, 220).
edge(105, 218).
edge(9, 99).
edge(45, 198).
edge(11, 129).
edge(228, 230).
edge(136, 148).
edge(29, 203).
edge(46, 89).
edge(66, 142).
edge(165, 191).
edge(17, 148).
edge(180, 198).
edge(141, 147).
edge(129, 202).
edge(107, 132).
edge(34, 46).
edge(157, 195).
edge(3, 148).
edge(106, 107).
edge(33, 88).
edge(43, 69).
edge(193, 226).
edge(85, 201).
edge(106, 140).
edge(80, 157).
edge(11, 67).
edge(77, 153).
edge(64, 104).
edge(42, 172).
edge(20, 119).
edge(107, 196).
edge(41, 141).
edge(74, 119).
edge(131, 179).
edge(76, 215).
edge(141, 214).
edge(107, 128).
edge(126, 148).
edge(10, 182).
edge(20, 131).
edge(8, 124).
edge(148, 230).
edge(43, 186).
edge(119, 185).
edge(90, 119).
edge(7, 124).
edge(149, 200).
edge(81, 192).
edge(158, 231).
edge(30, 204).
edge(28, 175).
edge(50, 138).
edge(104, 131).
edge(7, 148).
edge(76, 172).
edge(55, 115).
edge(56, 74).
edge(121, 126).
edge(51, 197).
edge(110, 111).
edge(77, 99).
edge(47, 100).
edge(146, 151).
edge(1, 9).
edge(97, 154).
edge(212, 227).
edge(82, 197).
edge(124, 182).
edge(127, 192).
edge(100, 157).
edge(143, 189).
edge(208, 209).
edge(17, 205).
edge(66, 130).
edge(10, 23).
edge(95, 138).
edge(38, 182).
edge(66, 132).
edge(1, 85).
edge(16, 51).
edge(91, 195).
edge(7, 228).
edge(74, 139).
edge(138, 194).
edge(160, 234).
edge(6, 180).
edge(69, 190).
edge(141, 212).
edge(32, 132).
edge(47, 169).
edge(49, 115).
edge(106, 198).
edge(90, 143).
edge(57, 211).
edge(35, 96).
edge(106, 135).
edge(58, 163).
edge(2, 53).
edge(183, 187).
edge(155, 205).
edge(21, 129).
edge(15, 210).
edge(11, 26).
edge(42, 104).
edge(102, 118).
edge(64, 160).
edge(160, 180).
edge(28, 118).
edge(11, 142).
edge(66, 86).
edge(9, 23).
edge(21, 44).
edge(65, 180).
edge(173, 208).
edge(80, 219).
edge(43, 46).
edge(132, 157).
edge(145, 148).
edge(107, 129).
edge(119, 188).
edge(92, 123).
edge(13, 73).
edge(192, 202).
edge(25, 28).
edge(85, 205).
edge(24, 54).
edge(42, 211).
edge(58, 95).
edge(16, 106).
edge(86, 160).
edge(91, 150).
edge(113, 223).
edge(13, 143).
edge(67, 83).
edge(3, 225).
edge(14, 56).
edge(121, 149).
edge(113, 148).
edge(15, 129).
edge(134, 158).
edge(82, 234).
edge(99, 123).
edge(101, 123).
edge(85, 131).
edge(110, 208).
edge(33, 56).
edge(120, 129).
edge(74, 198).
edge(22, 164).
edge(61, 151).
edge(133, 234).
edge(53, 98).
edge(13, 226).
edge(105, 201).
edge(75, 229).
edge(35, 216).
edge(159, 222).
edge(67, 224).
edge(82, 220).
edge(105, 191).
edge(26, 81).
edge(54, 92).
edge(4, 226).
edge(12, 210).
edge(36, 141).
edge(65, 234).
edge(33, 229).
edge(6, 60).
edge(52, 104).
edge(86, 216).
edge(100, 168).
edge(98, 158).
edge(55, 173).
edge(58, 132).
edge(161, 200).
edge(84, 97).
edge(92, 112).
edge(17, 169).
edge(151, 161).
edge(159, 169).
edge(74, 204).
edge(10, 160).
edge(153, 168).
edge(11, 199).
edge(28, 101).
edge(34, 88).
edge(200, 234).
edge(158, 175).
edge(103, 224).
edge(19, 98).
edge(32, 225).
edge(148, 220).
edge(63, 64).
edge(27, 109).
edge(59, 136).
edge(62, 198).
edge(93, 97).
edge(64, 118).
edge(32, 169).
edge(102, 138).
edge(6, 169).
edge(123, 157).
edge(25, 46).
edge(202, 208).
edge(28, 80).
edge(7, 202).
edge(31, 220).
edge(62, 141).
edge(168, 174).
edge(3, 199).
edge(18, 169).
edge(1, 42).
edge(9, 89).
edge(13, 181).
edge(21, 231).
edge(44, 66).
edge(0, 88).
edge(153, 224).
edge(51, 139).
edge(92, 131).
edge(56, 85).
edge(112, 130).
edge(127, 195).
edge(103, 234).
edge(59, 177).
edge(74, 95).
edge(79, 98).
edge(15, 45).
edge(53, 137).
edge(95, 175).
edge(59, 117).
edge(114, 118).
edge(108, 188).
edge(58, 66).
edge(98, 230).
edge(102, 135).
edge(77, 189).
edge(0, 43).
edge(145, 223).
edge(194, 199).
edge(37, 180).
edge(159, 233).
edge(84, 155).
edge(181, 204).
edge(66, 187).
edge(97, 122).
edge(32, 201).
edge(55, 142).
edge(9, 101).
edge(67, 146).
edge(12, 40).
edge(77, 219).
edge(163, 206).
edge(89, 169).
edge(66, 147).
edge(3, 149).
edge(102, 143).
edge(17, 202).
edge(97, 149).
edge(37, 168).
edge(78, 229).
edge(31, 180).
edge(76, 101).
edge(141, 204).
edge(59, 146).
edge(157, 184).
edge(174, 187).
edge(20, 74).
edge(112, 121).
edge(47, 106).
edge(41, 103).
edge(74, 106).
edge(86, 92).
edge(29, 89).
edge(63, 208).
edge(55, 205).
edge(1, 40).
edge(42, 220).
edge(52, 110).
edge(155, 212).
edge(77, 130).
edge(15, 214).
edge(86, 173).
edge(151, 210).
edge(83, 184).
edge(31, 182).
edge(0, 223).
edge(66, 123).
edge(64, 164).
edge(83, 232).
edge(76, 91).
edge(96, 139).
edge(109, 225).
edge(111, 229).
edge(28, 150).
edge(225, 227).
edge(10, 124).
edge(12, 168).
edge(10, 63).
edge(2, 48).
edge(157, 220).
edge(110, 188).
edge(196, 226).
edge(51, 104).
edge(61, 80).
edge(105, 193).
edge(204, 225).
edge(66, 98).
edge(60, 104).
edge(30, 142).
edge(31, 58).
edge(121, 215).
edge(48, 221).
edge(57, 125).
edge(24, 212).
edge(0, 57).
edge(95, 148).
edge(110, 225).
edge(6, 160).
edge(43, 216).
edge(6, 57).
edge(91, 208).
edge(43, 184).
edge(35, 154).
edge(53, 214).
edge(65, 116).
edge(104, 105).
edge(97, 226).
edge(48, 90).
edge(50, 221).
edge(50, 201).
edge(163, 229).
edge(154, 189).
edge(3, 99).
edge(32, 60).
edge(38, 63).
edge(34, 197).
edge(22, 60).
edge(38, 86).
edge(84, 112).
edge(61, 215).
edge(20, 153).
edge(73, 219).
edge(149, 229).
edge(174, 222).
edge(43, 127).
edge(172, 209).
edge(52, 168).
edge(10, 109).
edge(57, 93).
edge(108, 209).
edge(89, 164).
edge(89, 126).
edge(11, 92).
edge(39, 80).
edge(12, 19).
edge(85, 144).
edge(115, 141).
edge(70, 104).
edge(93, 188).
edge(50, 103).
edge(132, 141).
edge(41, 65).
edge(45, 172).
edge(63, 182).
edge(91, 169).
edge(104, 211).
edge(118, 197).
edge(99, 130).
edge(54, 171).
edge(122, 209).
edge(155, 185).
edge(142, 187).
edge(7, 122).
edge(11, 29).
edge(132, 151).
edge(148, 184).
edge(23, 190).
edge(73, 100).
edge(40, 223).
edge(123, 194).
edge(175, 197).
edge(29, 121).
edge(120, 186).
edge(91, 136).
edge(43, 153).
edge(27, 199).
edge(27, 75).
edge(13, 190).
edge(97, 183).
edge(35, 156).
edge(6, 229).
edge(62, 133).
edge(115, 155).
edge(75, 189).
edge(8, 198).
edge(114, 157).
edge(30, 37).
edge(107, 143).
edge(30, 161).
edge(90, 138).
edge(69, 188).
edge(13, 137).
edge(85, 143).
edge(85, 216).
edge(41, 200).
edge(131, 136).
edge(117, 132).
edge(100, 125).
edge(20, 178).
edge(116, 175).
edge(112, 183).
edge(30, 56).
edge(31, 187).
edge(82, 233).
edge(101, 213).
edge(47, 207).
edge(76, 78).
edge(113, 225).
edge(17, 174).
edge(136, 231).
edge(24, 202).
edge(99, 229).
edge(27, 124).
edge(24, 135).
edge(12, 35).
edge(79, 124).
edge(42, 102).
edge(30, 98).
edge(6, 33).
edge(33, 115).
edge(132, 145).
edge(72, 217).
edge(39, 201).
edge(27, 95).
edge(69, 210).
edge(180, 231).
edge(109, 147).
edge(17, 93).
edge(55, 155).
edge(5, 44).
edge(107, 146).
edge(63, 147).
edge(150, 232).
edge(71, 77).
edge(122, 125).
edge(99, 171).
edge(123, 167).
edge(190, 215).
edge(190, 200).
edge(25, 153).
edge(23, 131).
edge(58, 164).
edge(69, 81).
edge(92, 209).
edge(40, 55).
edge(140, 148).
edge(66, 175).
edge(49, 73).
edge(12, 216).
edge(12, 74).
edge(39, 208).
edge(39, 182).
edge(30, 155).
edge(9, 64).
edge(16, 44).
edge(221, 227).
edge(87, 227).
edge(89, 231).
edge(80, 203).
edge(162, 184).
edge(83, 169).
edge(16, 97).
edge(108, 232).
edge(29, 214).
edge(217, 219).
edge(129, 174).
edge(198, 215).
edge(114, 153).
edge(26, 166).
edge(85, 220).
edge(122, 170).
edge(191, 206).
edge(95, 215).
edge(148, 165).
edge(74, 107).
edge(128, 158).
edge(51, 125).
edge(49, 210).
edge(59, 179).
edge(14, 37).
edge(24, 179).
edge(134, 208).
edge(106, 215).
edge(13, 160).
edge(159, 226).
edge(23, 172).
edge(86, 218).
edge(114, 119).
edge(16, 67).
edge(129, 134).
edge(97, 219).
edge(25, 33).
edge(119, 193).
edge(0, 229).
edge(108, 119).
edge(30, 35).
edge(95, 205).
edge(73, 85).
edge(1, 78).
edge(21, 59).
edge(123, 162).
edge(120, 171).
edge(161, 181).
edge(36, 83).
edge(154, 203).
edge(127, 162).
edge(170, 221).
edge(175, 195).
edge(39, 85).
edge(134, 223).
edge(195, 231).
edge(101, 140).
edge(204, 219).
edge(3, 13).
edge(104, 221).
edge(192, 216).
edge(30, 68).
edge(81, 171).
edge(165, 181).
edge(90, 106).
edge(135, 153).
edge(71, 104).
edge(34, 49).
edge(73, 201).
edge(22, 225).
edge(28, 99).
edge(95, 219).
edge(177, 217).
edge(30, 99).
edge(47, 188).
edge(129, 144).
edge(94, 158).
edge(2, 70).
edge(135, 151).
edge(17, 220).
edge(164, 205).
edge(96, 182).
edge(159, 188).
edge(0, 24).
edge(48, 136).
edge(19, 85).
edge(119, 153).
edge(32, 158).
edge(1, 87).
edge(113, 159).
edge(119, 178).
edge(35, 138).
edge(21, 187).
edge(85, 141).
edge(117, 195).
edge(57, 157).
edge(77, 94).
edge(141, 192).
edge(38, 201).
edge(116, 179).
edge(115, 124).
edge(106, 114).
edge(182, 186).
edge(153, 210).
edge(208, 215).
edge(10, 13).
edge(204, 228).
edge(40, 189).
edge(136, 146).
edge(19, 210).
edge(15, 140).
edge(50, 70).
edge(155, 209).
edge(109, 183).
edge(55, 96).
edge(49, 54).
edge(48, 76).
edge(50, 131).
edge(164, 209).
edge(71, 169).
edge(73, 233).
edge(83, 223).
edge(187, 221).
edge(31, 201).
edge(0, 52).
edge(25, 142).
edge(24, 36).
edge(24, 35).
edge(24, 225).
edge(90, 139).
edge(83, 112).
edge(75, 178).
edge(25, 131).
edge(94, 173).
edge(102, 221).
edge(168, 180).
edge(4, 27).
edge(92, 197).
edge(10, 72).
edge(38, 90).
edge(7, 127).
edge(8, 50).
edge(13, 47).
edge(71, 143).
edge(120, 149).
edge(95, 108).
edge(89, 205).
edge(78, 190).
edge(13, 127).
edge(80, 164).
edge(181, 202).
edge(14, 89).
edge(3, 91).
edge(166, 226).
edge(85, 135).
edge(119, 203).
edge(118, 126).
edge(16, 177).
edge(44, 89).
edge(12, 158).
edge(26, 62).
edge(99, 156).
edge(70, 178).
edge(71, 164).
edge(192, 206).
edge(40, 59).
edge(20, 168).
edge(39, 170).
edge(44, 148).
edge(70, 86).
edge(134, 230).
edge(16, 188).
edge(62, 86).
edge(45, 143).
edge(106, 131).
edge(9, 196).
edge(112, 174).
edge(40, 101).
edge(38, 46).
edge(97, 228).
edge(35, 133).
edge(32, 137).
edge(112, 201).
edge(72, 101).
edge(60, 218).
edge(26, 202).
edge(39, 210).
edge(70, 71).
edge(21, 139).
edge(50, 82).
edge(21, 26).
edge(77, 155).
edge(156, 234).
edge(69, 200).
edge(62, 102).
edge(39, 193).
edge(26, 133).
edge(129, 177).
edge(65, 85).
edge(67, 135).
edge(21, 141).
edge(132, 160).
edge(78, 220).
edge(25, 173).
edge(179, 180).
edge(149, 198).
edge(98, 159).
edge(35, 125).
edge(24, 219).
edge(27, 208).
edge(44, 210).
edge(126, 227).
edge(92, 162).
edge(95, 115).
edge(166, 207).
edge(17, 147).
edge(107, 139).
edge(62, 128).
edge(136, 139).
edge(3, 147).
edge(14, 38).
edge(182, 190).
edge(63, 80).
edge(79, 228).
edge(43, 65).
edge(99, 212).
edge(199, 218).
edge(111, 191).
edge(105, 148).
edge(30, 140).
edge(167, 212).
edge(137, 217).
edge(101, 160).
edge(57, 203).
edge(79, 164).
edge(118, 187).
edge(28, 46).
edge(96, 144).
edge(17, 150).
edge(143, 202).
edge(23, 73).
edge(102, 128).
edge(54, 165).
edge(137, 161).
edge(32, 44).
edge(26, 35).
edge(81, 231).
edge(197, 200).
edge(152, 176).
edge(195, 216).
edge(29, 155).
edge(81, 131).
edge(52, 167).
edge(63, 76).
edge(11, 193).
edge(78, 159).
edge(82, 189).
edge(26, 49).
edge(51, 147).
edge(5, 136).
edge(87, 119).
edge(67, 168).
edge(43, 180).
edge(6, 230).
edge(145, 234).
edge(7, 188).
edge(61, 117).
edge(6, 191).
edge(76, 223).
edge(57, 117).
edge(91, 151).
edge(27, 196).
edge(6, 129).
edge(85, 190).
edge(139, 160).
edge(77, 121).
edge(105, 147).
edge(97, 113).
edge(13, 125).
edge(11, 42).
edge(110, 159).
edge(29, 41).
edge(41, 80).
edge(123, 183).
edge(35, 130).
edge(8, 159).
edge(76, 102).
edge(87, 205).
edge(187, 200).
edge(46, 114).
edge(25, 136).
edge(123, 231).
edge(15, 71).
edge(177, 213).
edge(119, 218).
edge(64, 144).
edge(140, 213).
edge(161, 183).
edge(5, 34).
edge(40, 87).
edge(20, 211).
edge(181, 194).
edge(101, 127).
edge(72, 164).
edge(138, 162).
edge(23, 92).
edge(134, 167).
edge(20, 170).
edge(17, 31).
edge(87, 141).
edge(70, 181).
edge(31, 119).
edge(129, 189).
edge(136, 203).
edge(17, 210).
edge(99, 188).
edge(81, 185).
edge(74, 159).
edge(132, 138).
edge(48, 180).
edge(81, 114).
edge(51, 156).
edge(61, 202).
edge(9, 187).
edge(54, 72).
edge(30, 91).
edge(136, 189).
edge(95, 160).
edge(70, 78).
edge(17, 186).
edge(25, 100).
edge(121, 162).
edge(138, 193).
edge(23, 66).
edge(129, 153).
edge(47, 209).
edge(64, 110).
edge(22, 70).
edge(32, 127).
edge(129, 168).
edge(8, 219).
edge(125, 138).
edge(73, 194).
edge(130, 199).
edge(69, 155).
edge(103, 220).
edge(6, 202).
edge(44, 149).
edge(86, 212).
edge(83, 98).
edge(113, 205).
edge(114, 159).
edge(26, 203).
edge(167, 176).
edge(10, 71).
edge(209, 221).
edge(69, 202).
edge(14, 23).
edge(117, 206).
edge(207, 224).
edge(96, 225).
edge(76, 125).
edge(121, 207).
edge(24, 70).
edge(54, 211).
edge(136, 174).
edge(9, 217).
edge(14, 211).
edge(147, 148).
edge(19, 208).
edge(22, 208).
edge(152, 166).
edge(22, 138).
edge(149, 185).
edge(147, 153).
edge(65, 69).
edge(33, 184).
edge(43, 62).
edge(64, 181).
edge(39, 133).
edge(180, 199).
edge(76, 161).
edge(19, 138).
edge(196, 215).
edge(14, 210).
edge(55, 95).
edge(22, 182).
edge(172, 223).
edge(12, 212).
edge(3, 11).
edge(134, 181).
edge(137, 234).
edge(90, 152).
edge(9, 59).
edge(132, 187).
edge(25, 114).
edge(111, 231).
edge(22, 24).
edge(107, 122).
edge(200, 209).
edge(116, 194).
edge(102, 163).
edge(143, 204).
edge(186, 230).
edge(32, 78).
edge(78, 94).
edge(5, 166).
edge(149, 189).
edge(121, 163).
edge(42, 113).
edge(86, 134).
edge(38, 41).
edge(88, 136).
edge(64, 175).
edge(55, 80).
edge(42, 71).
edge(32, 101).
edge(144, 220).
edge(69, 74).
edge(41, 229).
edge(11, 56).
edge(48, 50).
edge(101, 179).
edge(42, 139).
edge(58, 223).
edge(185, 209).
edge(53, 157).
edge(27, 107).
edge(117, 230).
edge(53, 229).
edge(141, 165).
edge(47, 95).
edge(25, 161).
edge(81, 108).
edge(127, 149).
edge(132, 140).
edge(64, 195).
edge(62, 140).
edge(111, 196).
edge(165, 192).
edge(7, 85).
edge(1, 16).
edge(113, 209).
edge(80, 216).
edge(49, 110).
edge(25, 103).
edge(166, 232).
edge(54, 78).
edge(8, 121).
edge(196, 214).
edge(21, 132).
edge(14, 154).
edge(158, 168).
edge(61, 153).
edge(34, 162).
edge(65, 66).
edge(85, 192).
edge(107, 133).
edge(100, 127).
edge(94, 145).
edge(1, 160).
edge(157, 198).
edge(152, 233).
edge(49, 125).
edge(154, 169).
edge(28, 178).
edge(19, 211).
edge(124, 230).
edge(139, 213).
edge(64, 150).
edge(75, 133).
edge(73, 221).
edge(61, 102).
edge(56, 184).
edge(53, 224).
edge(33, 203).
edge(152, 169).
edge(65, 201).
edge(58, 233).
edge(116, 154).
edge(12, 96).
edge(18, 208).
edge(152, 200).
edge(65, 140).
edge(144, 200).
edge(59, 95).
edge(21, 112).
edge(129, 160).
edge(100, 206).
edge(26, 108).
edge(49, 107).
edge(32, 204).
edge(64, 226).
edge(140, 209).
edge(116, 184).
edge(212, 234).
edge(179, 215).
edge(67, 122).
edge(5, 160).
edge(223, 232).
edge(117, 143).
edge(129, 148).
edge(108, 128).
edge(21, 108).
edge(72, 183).
edge(101, 215).
edge(2, 35).
edge(45, 166).
edge(94, 116).
edge(11, 98).
edge(56, 92).
edge(124, 128).
edge(42, 98).
edge(123, 153).
edge(103, 232).
edge(49, 120).
edge(6, 65).
edge(13, 170).
edge(124, 127).
edge(24, 95).
edge(33, 107).
edge(114, 229).
edge(106, 150).
edge(29, 61).
edge(15, 19).
edge(13, 124).
edge(154, 211).
edge(2, 121).
edge(93, 144).
edge(76, 85).
edge(73, 81).
edge(167, 227).
edge(67, 123).
edge(170, 173).
edge(50, 86).
edge(206, 210).
edge(28, 219).
edge(71, 182).
edge(19, 45).
edge(38, 197).
edge(108, 153).
edge(139, 171).
edge(56, 215).
edge(112, 194).
edge(44, 119).
edge(33, 117).
edge(60, 216).
edge(82, 196).
edge(113, 232).
edge(116, 231).
edge(185, 200).
edge(66, 116).
edge(52, 158).
edge(100, 201).
edge(11, 46).
edge(108, 193).
edge(29, 163).
edge(52, 81).
edge(49, 97).
edge(55, 162).
edge(51, 130).
edge(88, 124).
edge(56, 61).
edge(2, 8).
edge(26, 162).
edge(29, 90).
edge(184, 190).
edge(23, 179).
edge(131, 188).
edge(0, 32).
edge(85, 226).
edge(6, 67).
edge(119, 157).
edge(75, 223).
edge(18, 53).
edge(48, 213).
edge(28, 225).
edge(197, 218).
edge(36, 136).
edge(90, 165).
edge(122, 161).
edge(161, 187).
edge(137, 163).
edge(38, 193).
edge(100, 210).
edge(33, 81).
edge(36, 225).
edge(137, 138).
edge(90, 148).
edge(108, 132).
edge(40, 102).
edge(37, 46).
edge(81, 136).
edge(143, 175).
edge(147, 202).
edge(47, 175).
edge(68, 234).
edge(45, 209).
edge(146, 147).
edge(203, 209).
edge(87, 167).
edge(1, 142).
edge(34, 86).
edge(113, 149).
edge(181, 229).
edge(142, 185).
edge(0, 76).
edge(89, 138).
edge(204, 221).
edge(227, 229).
edge(25, 149).
edge(123, 201).
edge(89, 106).
edge(83, 203).
edge(127, 146).
edge(40, 42).
edge(51, 82).
edge(8, 220).
edge(155, 222).
edge(12, 112).
edge(10, 77).
edge(44, 47).
edge(118, 227).
edge(204, 232).
edge(2, 217).
edge(46, 72).
edge(50, 79).
edge(196, 212).
edge(52, 68).
edge(121, 195).
edge(171, 195).
edge(25, 164).
edge(12, 115).
edge(87, 165).
edge(29, 159).
edge(59, 116).
edge(9, 28).
edge(78, 183).
edge(175, 219).
edge(56, 194).
edge(119, 136).
edge(171, 212).
edge(172, 215).
edge(1, 117).
edge(17, 191).
edge(26, 178).
edge(126, 217).
edge(40, 194).
edge(25, 113).
edge(67, 192).
edge(19, 61).
edge(74, 193).
edge(86, 222).
edge(128, 131).
edge(40, 209).
edge(106, 207).
edge(171, 197).
edge(64, 103).
edge(49, 207).
edge(61, 88).
edge(45, 125).
edge(142, 171).
edge(168, 224).
edge(149, 152).
edge(3, 37).
edge(15, 90).
edge(144, 168).
edge(84, 202).
edge(16, 82).
edge(36, 214).
edge(22, 201).
edge(0, 182).
edge(10, 45).
edge(26, 232).
edge(9, 68).
edge(143, 219).
edge(31, 101).
edge(3, 222).
edge(55, 201).
edge(49, 149).
edge(73, 144).
edge(69, 231).
edge(48, 101).
edge(71, 100).
edge(84, 134).
edge(15, 59).
edge(75, 141).
edge(150, 190).
edge(4, 129).
edge(125, 181).
edge(135, 163).
edge(17, 197).
edge(134, 200).
edge(83, 94).
edge(136, 200).
edge(4, 123).
edge(111, 149).
edge(120, 182).
edge(135, 202).
edge(114, 127).
edge(98, 198).
edge(73, 105).
edge(38, 225).
edge(6, 107).
edge(0, 173).
edge(93, 175).
edge(45, 100).
edge(197, 207).
edge(93, 98).
edge(60, 199).
edge(33, 177).
edge(164, 229).
edge(52, 177).
edge(32, 210).
edge(14, 136).
edge(108, 126).
edge(18, 153).
edge(25, 224).
edge(34, 199).
edge(214, 226).
edge(135, 147).
edge(1, 233).
edge(106, 120).
edge(190, 216).
edge(105, 219).
edge(190, 224).
edge(41, 111).
edge(62, 166).
edge(88, 159).
edge(111, 205).
edge(70, 147).
edge(18, 209).
edge(117, 188).
edge(228, 231).
edge(166, 205).
edge(161, 186).
edge(32, 129).
edge(47, 194).
edge(161, 184).
edge(64, 187).
edge(44, 163).
edge(171, 221).
edge(171, 198).
edge(8, 166).
edge(174, 205).
edge(71, 152).
edge(113, 147).
edge(17, 221).
edge(196, 233).
edge(4, 158).
edge(56, 221).
edge(68, 198).
edge(191, 229).
edge(41, 69).
edge(35, 49).
edge(33, 55).
edge(144, 211).
edge(92, 228).
edge(153, 161).
edge(4, 222).
edge(167, 205).
edge(1, 149).
edge(112, 193).
edge(105, 220).
edge(76, 116).
edge(87, 220).
edge(0, 109).
edge(172, 229).
edge(174, 202).
edge(16, 76).
edge(11, 71).
edge(168, 169).
edge(154, 184).
edge(97, 111).
edge(105, 208).
edge(10, 68).
edge(43, 79).
edge(85, 105).
edge(47, 199).
edge(108, 166).
edge(55, 69).
edge(134, 160).
edge(36, 74).
edge(10, 181).
edge(52, 103).
edge(67, 186).
edge(2, 77).
edge(138, 190).
edge(71, 92).
edge(150, 188).
edge(51, 183).
edge(57, 123).
edge(21, 50).
edge(106, 132).
edge(50, 209).
edge(23, 189).
edge(126, 216).
edge(18, 85).
edge(43, 125).
edge(16, 173).
edge(109, 158).
edge(9, 228).
edge(125, 183).
edge(36, 209).
edge(137, 140).
edge(38, 127).
edge(158, 180).
edge(64, 82).
edge(16, 178).
edge(18, 35).
edge(5, 10).
edge(210, 232).
edge(12, 171).
edge(93, 166).
edge(42, 130).
edge(55, 197).
edge(129, 157).
edge(38, 191).
edge(135, 171).
edge(131, 161).
edge(61, 207).
edge(18, 97).
edge(29, 164).
edge(17, 64).
edge(22, 144).
edge(77, 135).
edge(160, 201).
edge(36, 167).
edge(116, 207).
edge(152, 214).
edge(56, 213).
edge(98, 167).
edge(147, 225).
edge(145, 201).
edge(110, 162).
edge(6, 214).
edge(57, 60).
edge(49, 75).
edge(16, 28).
edge(11, 196).
edge(5, 177).
edge(73, 127).
edge(92, 211).
edge(204, 206).
edge(87, 101).
edge(8, 157).
edge(21, 193).
edge(100, 164).
edge(86, 122).
edge(54, 148).
edge(137, 193).
edge(163, 224).
edge(28, 176).
edge(122, 213).
edge(187, 207).
edge(0, 149).
edge(176, 178).
edge(154, 159).
edge(112, 169).
edge(32, 120).
edge(2, 38).
edge(14, 49).
edge(88, 225).
edge(8, 58).
edge(166, 170).
edge(122, 151).
edge(79, 104).
edge(49, 98).
edge(17, 90).
edge(24, 130).
edge(149, 228).
edge(87, 216).
edge(73, 210).
edge(141, 166).
edge(60, 150).
edge(65, 184).
edge(49, 171).
edge(106, 180).
edge(159, 205).
edge(44, 100).
edge(102, 229).
edge(115, 143).
edge(56, 128).
edge(182, 211).
edge(137, 194).
edge(41, 173).
edge(69, 224).
edge(76, 202).
edge(47, 221).
edge(33, 195).
edge(5, 6).
edge(92, 150).
edge(128, 195).
edge(33, 165).
edge(5, 91).
edge(11, 123).
edge(155, 233).
edge(75, 173).
edge(106, 163).
edge(75, 80).
edge(34, 77).
edge(37, 127).
edge(115, 210).
edge(60, 155).
edge(135, 182).
edge(21, 77).
edge(36, 106).
edge(105, 202).
edge(35, 59).
edge(49, 101).
edge(10, 134).
edge(62, 87).
edge(9, 71).
edge(125, 199).
edge(63, 200).
edge(42, 225).
edge(54, 103).
edge(114, 131).
edge(20, 80).
edge(31, 226).
edge(46, 65).
edge(38, 120).
edge(174, 191).
edge(21, 146).
edge(32, 65).
edge(83, 149).
edge(89, 108).
edge(19, 66).
edge(144, 190).
edge(130, 213).
edge(56, 197).
edge(47, 192).
edge(56, 153).
edge(156, 215).
edge(98, 201).
edge(0, 107).
edge(144, 184).
edge(82, 100).
edge(101, 190).
edge(114, 132).
edge(6, 137).
edge(10, 107).
edge(9, 66).
edge(125, 231).
edge(102, 152).
edge(190, 229).
edge(35, 94).
edge(147, 224).
edge(55, 136).
edge(8, 84).
edge(27, 50).
edge(95, 171).
edge(3, 177).
edge(72, 225).
edge(96, 118).
edge(70, 216).
edge(121, 186).
edge(68, 183).
edge(38, 179).
edge(162, 194).
edge(62, 233).
edge(25, 212).
edge(41, 172).
edge(21, 82).
edge(106, 210).
edge(127, 128).
edge(150, 200).
edge(14, 151).
edge(197, 224).
edge(101, 118).
edge(127, 201).
edge(9, 103).
edge(46, 189).
edge(141, 145).
edge(95, 190).
edge(1, 115).
edge(164, 191).
edge(30, 219).
edge(83, 90).
edge(65, 119).
edge(37, 76).
edge(114, 124).
edge(150, 203).
edge(17, 222).
edge(117, 210).
edge(139, 234).
edge(24, 86).
edge(130, 195).
edge(162, 163).
edge(28, 114).
edge(5, 230).
edge(36, 104).
edge(85, 103).
edge(3, 190).
edge(72, 103).
edge(42, 134).
edge(103, 215).
edge(107, 184).
edge(14, 160).
edge(114, 214).
edge(147, 156).
edge(1, 191).
edge(45, 164).
edge(143, 165).
edge(61, 74).
edge(30, 178).
edge(2, 57).
edge(171, 192).
edge(104, 126).
edge(56, 206).
edge(35, 171).
edge(130, 161).
edge(38, 184).
edge(113, 227).
edge(95, 184).
edge(121, 129).
edge(117, 158).
edge(27, 115).
edge(114, 220).
edge(36, 200).
edge(58, 224).
edge(81, 150).
edge(163, 167).
edge(48, 114).
edge(65, 101).
edge(14, 43).
edge(154, 177).
edge(48, 147).
edge(44, 231).
edge(17, 88).
edge(129, 138).
edge(121, 156).
edge(86, 159).
edge(81, 149).
edge(46, 213).
edge(5, 52).
edge(36, 105).
edge(158, 234).
edge(134, 145).
edge(180, 212).
edge(146, 156).
edge(166, 193).
edge(96, 151).
edge(37, 212).
edge(17, 185).
edge(64, 106).
edge(91, 173).
edge(37, 108).
edge(67, 207).
edge(35, 110).
edge(153, 220).
edge(186, 191).
edge(30, 33).
edge(110, 117).
edge(65, 143).
edge(29, 67).
edge(6, 232).
edge(6, 167).
edge(75, 206).
edge(57, 153).
edge(76, 120).
edge(134, 221).
edge(113, 153).
edge(12, 54).
edge(140, 202).
edge(18, 191).
edge(103, 172).
edge(124, 191).
edge(32, 47).
edge(45, 48).
edge(88, 220).
edge(118, 156).
edge(69, 234).
edge(19, 75).
edge(131, 137).
edge(124, 142).
edge(44, 82).
edge(107, 179).
edge(61, 142).
edge(1, 44).
edge(30, 234).
edge(7, 97).
edge(50, 192).
edge(37, 185).
edge(42, 212).
edge(40, 207).
edge(58, 227).
edge(55, 89).
edge(43, 187).
edge(174, 219).
edge(22, 171).
edge(62, 155).
edge(21, 111).
edge(46, 221).
edge(82, 187).
edge(95, 224).
edge(166, 186).
edge(160, 189).
edge(4, 69).
edge(90, 208).
edge(27, 66).
edge(23, 99).
edge(30, 222).
edge(101, 196).
edge(98, 126).
edge(59, 223).
edge(43, 124).
edge(195, 214).
edge(96, 193).
edge(80, 193).
edge(123, 136).
edge(35, 37).
edge(138, 226).
edge(124, 227).
edge(15, 33).
edge(124, 201).
edge(37, 192).
edge(41, 74).
edge(74, 78).
edge(92, 121).
edge(102, 175).
edge(49, 152).
edge(17, 48).
edge(132, 230).
edge(133, 160).
edge(71, 157).
edge(33, 76).
edge(161, 162).
edge(60, 93).
edge(6, 120).
edge(141, 205).
edge(57, 148).
edge(162, 177).
edge(42, 99).
edge(141, 211).
edge(92, 129).
edge(96, 172).
edge(60, 168).
edge(36, 163).
edge(92, 108).
edge(50, 204).
edge(50, 126).
edge(29, 210).
edge(31, 200).
edge(105, 140).
edge(98, 100).
edge(91, 168).
edge(89, 102).
edge(25, 208).
edge(172, 212).
edge(56, 207).
edge(83, 136).
edge(166, 214).
edge(43, 206).
edge(88, 138).
edge(20, 188).
edge(37, 227).
edge(46, 201).
edge(34, 50).
edge(63, 150).
edge(27, 215).
edge(154, 224).
edge(106, 199).
edge(50, 80).
edge(7, 135).
edge(188, 220).
edge(10, 103).
edge(71, 188).
edge(117, 231).
edge(96, 128).
edge(100, 108).
edge(183, 233).
edge(0, 4).
edge(36, 211).
edge(47, 229).
edge(68, 211).
edge(14, 75).
edge(42, 204).
edge(59, 182).
edge(72, 168).
edge(60, 184).
edge(9, 25).
edge(150, 170).
edge(44, 154).
edge(4, 19).
edge(137, 214).
edge(26, 138).
edge(2, 80).
edge(68, 225).
edge(7, 160).
edge(25, 63).
edge(83, 225).
edge(146, 215).
edge(64, 80).
edge(130, 138).
edge(119, 213).
edge(111, 154).
edge(11, 55).
edge(87, 92).
edge(190, 211).
edge(48, 214).
edge(163, 191).
edge(112, 206).
edge(185, 226).
edge(156, 228).
edge(113, 207).
edge(47, 141).
edge(39, 76).
edge(27, 167).
edge(102, 195).
edge(1, 79).
edge(101, 198).
edge(8, 48).
edge(68, 149).
edge(143, 172).
edge(153, 188).
edge(48, 161).
edge(75, 157).
edge(81, 210).
edge(40, 70).
edge(172, 193).
edge(53, 119).
edge(36, 158).
edge(48, 131).
edge(85, 228).
edge(49, 209).
edge(186, 188).
edge(170, 230).
edge(27, 162).
edge(36, 164).
edge(93, 215).
edge(184, 199).
edge(58, 90).
edge(3, 159).
edge(180, 222).
edge(45, 136).
edge(24, 38).
edge(5, 142).
edge(65, 170).
edge(70, 220).
edge(81, 203).
edge(13, 39).
edge(12, 199).
edge(42, 226).
edge(31, 57).
edge(20, 98).
edge(57, 132).
edge(121, 178).
edge(79, 163).
edge(46, 196).
edge(118, 186).
edge(57, 177).
edge(127, 137).
edge(80, 99).
edge(111, 160).
edge(207, 208).
edge(101, 216).
edge(189, 215).
edge(1, 136).
edge(175, 224).
edge(63, 104).
edge(40, 132).
edge(31, 197).
edge(69, 209).
edge(106, 157).
edge(85, 162).
edge(61, 177).
edge(80, 88).
edge(30, 201).
edge(94, 159).
edge(19, 44).
edge(20, 23).
edge(12, 175).
edge(127, 228).
edge(132, 158).
edge(68, 120).
edge(55, 166).
edge(185, 222).
edge(22, 68).
edge(7, 204).
edge(28, 136).
edge(51, 227).
edge(176, 189).
edge(12, 127).
edge(135, 196).
edge(91, 199).
edge(76, 167).
edge(0, 31).
edge(161, 168).
edge(59, 166).
edge(13, 64).
edge(172, 189).
edge(69, 136).
edge(76, 233).
edge(21, 45).
edge(82, 193).
edge(173, 223).
edge(61, 141).
edge(32, 69).
edge(114, 123).
edge(8, 100).
edge(126, 160).
edge(108, 171).
edge(122, 171).
edge(111, 227).
edge(35, 70).
edge(152, 223).
edge(189, 199).
edge(41, 148).
edge(10, 22).
edge(70, 159).
edge(48, 91).
edge(34, 216).
edge(74, 167).
edge(20, 72).
edge(79, 229).
edge(27, 55).
edge(3, 86).
edge(64, 170).
edge(43, 203).
edge(136, 158).
edge(18, 183).
edge(133, 149).
edge(29, 125).
edge(79, 175).
edge(172, 230).
edge(71, 170).
edge(68, 162).
edge(2, 122).
edge(105, 164).
edge(99, 111).
edge(9, 151).
edge(15, 116).
edge(74, 85).
edge(2, 69).
edge(2, 74).
edge(55, 117).
edge(35, 146).
edge(29, 110).
edge(48, 211).
edge(119, 194).
edge(51, 225).
edge(73, 208).
edge(149, 206).
edge(19, 157).
edge(169, 221).
edge(117, 229).
edge(188, 201).
edge(9, 76).
edge(57, 178).
edge(76, 188).
edge(29, 52).
edge(161, 195).
edge(65, 162).
edge(15, 92).
edge(140, 208).
edge(88, 118).
edge(58, 68).
edge(124, 219).
edge(139, 145).
edge(42, 57).
edge(98, 188).
edge(173, 199).
edge(27, 144).
edge(17, 203).
edge(133, 212).
edge(91, 187).
edge(57, 194).
edge(93, 117).
edge(175, 232).
edge(24, 137).
edge(123, 182).
edge(103, 115).
edge(68, 102).
edge(94, 103).
edge(8, 160).
edge(79, 233).
edge(144, 215).
edge(66, 205).
edge(133, 195).
edge(117, 137).
edge(18, 32).
edge(171, 200).
edge(169, 211).
edge(40, 51).
edge(56, 108).
edge(24, 77).
edge(54, 129).
edge(67, 156).
edge(137, 227).
edge(27, 46).
edge(151, 232).
edge(126, 210).
edge(19, 216).
edge(173, 189).
edge(73, 176).
edge(115, 165).
edge(102, 216).
edge(132, 150).
edge(82, 84).
edge(8, 37).
edge(126, 129).
edge(45, 113).
edge(164, 225).
edge(20, 192).
edge(168, 183).
edge(111, 126).
edge(3, 188).
edge(0, 29).
edge(75, 230).
edge(145, 161).
edge(19, 62).
edge(59, 225).
edge(19, 180).
edge(40, 179).
edge(139, 204).
edge(118, 163).
edge(28, 184).
edge(57, 179).
edge(42, 152).
edge(129, 223).
edge(10, 220).
edge(7, 201).
edge(91, 203).
edge(63, 214).
edge(71, 214).
edge(3, 178).
edge(125, 146).
edge(97, 104).
edge(43, 48).
edge(5, 146).
edge(139, 207).
edge(84, 128).
edge(116, 177).
edge(97, 204).
edge(86, 228).
edge(23, 94).
edge(192, 222).
edge(50, 68).
edge(182, 185).
edge(104, 191).
edge(109, 124).
edge(202, 219).
edge(206, 215).
edge(149, 194).
edge(29, 104).
edge(91, 126).
edge(62, 116).
edge(82, 226).
edge(3, 46).
edge(60, 182).
edge(147, 189).
edge(10, 52).
edge(1, 118).
edge(26, 145).
edge(83, 198).
edge(23, 110).
edge(79, 172).
edge(11, 135).
edge(41, 128).
edge(47, 61).
edge(33, 49).
edge(208, 217).
edge(77, 146).
edge(15, 138).
edge(20, 182).
edge(27, 207).
edge(51, 149).
edge(4, 18).
edge(88, 145).
edge(120, 190).
edge(40, 213).
edge(87, 137).
edge(73, 152).
edge(4, 209).
edge(39, 47).
edge(39, 156).
edge(14, 221).
edge(70, 142).
edge(6, 225).
edge(10, 105).
edge(34, 175).
edge(9, 115).
edge(84, 160).
edge(78, 109).
edge(42, 110).
edge(66, 196).
edge(149, 171).
edge(11, 162).
edge(77, 212).
edge(193, 223).
edge(53, 57).
edge(3, 42).
edge(112, 202).
edge(205, 208).
edge(151, 178).
edge(46, 145).
edge(90, 145).
edge(139, 165).
edge(43, 72).
edge(43, 95).
edge(52, 109).
edge(71, 212).
edge(150, 209).
edge(113, 120).
edge(12, 234).
edge(196, 200).
edge(24, 42).
edge(117, 194).
edge(33, 97).
edge(132, 142).
edge(79, 173).
edge(68, 136).
edge(79, 110).
edge(116, 220).
edge(1, 175).
edge(55, 224).
edge(53, 117).
edge(123, 147).
edge(10, 98).
edge(116, 137).
edge(101, 125).
edge(67, 198).
edge(72, 215).
edge(26, 76).
edge(17, 111).
edge(44, 87).
edge(101, 228).
edge(12, 86).
edge(44, 186).
edge(105, 165).
edge(164, 181).
edge(204, 216).
edge(5, 200).
edge(131, 226).
edge(142, 230).
edge(37, 121).
edge(1, 61).
edge(69, 159).
edge(21, 153).
edge(126, 172).
edge(173, 222).
edge(80, 210).
edge(30, 44).
edge(94, 127).
edge(39, 46).
edge(90, 140).
edge(60, 190).
edge(79, 150).
edge(110, 132).
edge(148, 228).
edge(98, 99).
edge(165, 226).
edge(45, 109).
edge(42, 76).
edge(158, 201).
edge(21, 61).
edge(119, 233).
edge(77, 195).
edge(46, 141).
edge(26, 219).
edge(0, 190).
edge(107, 174).
edge(193, 199).
edge(97, 147).
edge(97, 127).
edge(192, 217).
edge(138, 157).
edge(18, 107).
edge(20, 29).
edge(153, 177).
edge(202, 207).
edge(109, 150).
edge(119, 224).
edge(115, 160).
edge(36, 203).
edge(54, 108).
edge(28, 228).
edge(140, 183).
edge(51, 92).
edge(151, 166).
edge(48, 196).
edge(52, 116).
edge(19, 199).
edge(179, 189).
edge(119, 150).
edge(39, 147).
edge(167, 230).
edge(72, 124).
edge(77, 176).
edge(111, 216).
edge(126, 177).
edge(59, 157).
edge(100, 119).
edge(13, 149).
edge(64, 95).
edge(46, 92).
edge(144, 174).
edge(115, 191).
edge(96, 209).
edge(67, 130).
edge(65, 141).
edge(86, 104).
edge(2, 169).
edge(125, 126).
edge(75, 96).
edge(69, 204).
edge(87, 160).
edge(52, 201).
edge(165, 194).
edge(136, 218).
edge(173, 177).
edge(58, 182).
edge(54, 145).
edge(69, 175).
edge(115, 118).
edge(133, 198).
edge(11, 207).
edge(76, 211).
edge(34, 125).
edge(58, 195).
edge(57, 87).
edge(62, 158).
edge(28, 140).
edge(20, 53).
edge(104, 192).
edge(76, 106).
edge(99, 127).
edge(87, 115).
edge(29, 31).
edge(95, 178).
edge(72, 204).
edge(90, 131).
edge(70, 189).
edge(163, 217).
edge(37, 56).
edge(44, 135).
edge(48, 191).
edge(144, 229).
edge(27, 152).
edge(109, 146).
edge(32, 188).
edge(150, 152).
edge(133, 229).
edge(29, 153).
edge(197, 226).
edge(30, 135).
edge(50, 232).
edge(230, 233).
edge(50, 162).
edge(45, 178).
edge(29, 98).
edge(95, 147).
edge(1, 116).
edge(67, 150).
edge(150, 202).
edge(13, 31).
edge(133, 220).
edge(7, 98).
edge(83, 156).
edge(84, 192).
edge(85, 156).
edge(42, 198).
edge(42, 83).
edge(61, 89).
edge(3, 78).
edge(51, 193).
edge(35, 153).
edge(117, 131).
edge(98, 213).
edge(162, 210).
edge(22, 88).
edge(82, 214).
edge(49, 135).
edge(198, 229).
edge(52, 226).
edge(34, 179).
edge(50, 139).
edge(134, 135).
edge(148, 196).
edge(18, 119).
edge(72, 191).
edge(73, 160).
edge(29, 76).
edge(170, 192).
edge(79, 118).
edge(89, 111).
edge(67, 152).
edge(28, 194).
edge(42, 55).
edge(92, 114).
edge(37, 72).
edge(14, 226).
edge(172, 203).
edge(117, 216).
edge(141, 188).
edge(33, 124).
edge(17, 155).
edge(72, 145).
edge(13, 27).
edge(41, 185).
edge(49, 128).
edge(152, 197).
edge(62, 187).
edge(85, 154).
edge(170, 185).
edge(176, 195).
edge(28, 117).
edge(103, 131).
edge(52, 210).
edge(16, 56).
edge(30, 109).
edge(25, 75).
edge(39, 146).
edge(75, 182).
edge(10, 155).
edge(136, 145).
edge(69, 223).
edge(115, 120).
edge(125, 145).
edge(84, 185).
edge(39, 158).
edge(86, 111).
edge(217, 220).
edge(2, 168).
edge(198, 211).
edge(50, 106).
edge(72, 100).
edge(5, 63).
edge(43, 54).
edge(19, 177).
edge(99, 231).
edge(10, 119).
edge(78, 147).
edge(49, 50).
edge(99, 213).
edge(38, 50).
edge(49, 129).
edge(37, 189).
edge(50, 233).
edge(103, 204).
edge(67, 100).
edge(51, 226).
edge(183, 217).
edge(17, 23).
edge(77, 142).
edge(19, 223).
edge(38, 146).
edge(56, 105).
edge(43, 163).
edge(21, 184).
edge(201, 202).
edge(5, 118).
edge(144, 171).
edge(24, 231).
edge(15, 213).
edge(160, 187).
edge(177, 228).
edge(7, 101).
edge(25, 181).
edge(66, 160).
edge(13, 169).
edge(60, 164).
edge(101, 164).
edge(18, 94).
edge(141, 157).
edge(36, 66).
edge(133, 184).
edge(64, 163).
edge(60, 100).
edge(196, 234).
edge(58, 69).
edge(114, 204).
edge(139, 214).
edge(16, 119).
edge(139, 186).
edge(61, 179).
edge(69, 101).
edge(15, 128).
edge(79, 189).
edge(38, 74).
edge(63, 160).
edge(3, 181).
edge(195, 200).
edge(15, 103).
edge(30, 121).
edge(171, 219).
edge(42, 105).
edge(34, 163).
edge(71, 213).
edge(75, 108).
edge(186, 201).
edge(43, 68).
edge(19, 51).
edge(12, 87).
edge(90, 155).
edge(92, 170).
edge(64, 129).
edge(13, 205).
edge(39, 68).
edge(18, 52).
edge(119, 167).
edge(160, 224).
edge(120, 212).
edge(99, 177).
edge(132, 167).
edge(111, 158).
edge(15, 102).
edge(121, 224).
edge(97, 195).
edge(67, 228).
edge(186, 233).
edge(51, 77).
edge(59, 201).
edge(117, 124).
edge(48, 198).
edge(191, 216).
edge(61, 155).
edge(86, 201).
edge(144, 145).
edge(177, 191).
edge(62, 130).
edge(131, 183).
edge(125, 173).
edge(150, 222).
edge(2, 138).
edge(34, 226).
edge(43, 179).
edge(48, 117).
edge(36, 189).
edge(94, 166).
edge(151, 191).
edge(13, 35).
edge(19, 184).
edge(14, 22).
edge(204, 205).
edge(9, 164).
edge(13, 122).
edge(142, 186).
edge(157, 199).
edge(102, 199).
edge(119, 189).
edge(116, 195).
edge(51, 119).
edge(91, 140).
edge(187, 217).
edge(72, 200).
edge(44, 96).
edge(92, 221).
edge(39, 141).
edge(79, 215).
edge(81, 209).
edge(144, 182).
edge(141, 167).
edge(23, 86).
edge(80, 90).
edge(24, 63).
edge(59, 188).
edge(136, 182).
edge(4, 180).
edge(78, 166).
edge(107, 213).
edge(134, 173).
edge(34, 215).
edge(33, 73).
edge(52, 133).
edge(123, 151).
edge(36, 170).
edge(35, 51).
edge(73, 87).
edge(115, 211).
edge(5, 108).
edge(2, 60).
edge(71, 90).
edge(46, 182).
edge(134, 202).
edge(67, 164).
edge(81, 206).
edge(107, 161).
edge(47, 133).
edge(121, 234).
edge(210, 220).
edge(165, 186).
edge(136, 186).
edge(73, 131).
edge(50, 184).
edge(11, 159).
edge(76, 127).
edge(152, 230).
edge(26, 222).
edge(50, 176).
edge(5, 54).
edge(130, 217).
edge(36, 91).
edge(26, 88).
edge(21, 32).
edge(102, 133).
edge(70, 160).
edge(159, 186).
edge(55, 158).
edge(9, 150).
edge(140, 156).
edge(110, 198).
edge(72, 105).
edge(62, 114).
edge(8, 90).
edge(28, 206).
edge(103, 143).
edge(82, 169).
edge(25, 67).
edge(63, 70).
edge(120, 229).
edge(24, 227).
edge(53, 109).
edge(117, 163).
edge(59, 183).
edge(159, 219).
edge(110, 148).
edge(133, 143).
edge(36, 130).
edge(42, 215).
edge(22, 123).
edge(215, 231).
edge(90, 177).
edge(177, 192).
edge(106, 186).
edge(43, 134).
edge(52, 225).
edge(8, 36).
edge(102, 166).
edge(61, 224).
edge(192, 227).
edge(204, 222).
edge(49, 185).
edge(105, 194).
edge(25, 94).
edge(55, 169).
edge(13, 148).
edge(32, 160).
edge(85, 94).
edge(80, 234).
edge(51, 65).
edge(9, 171).
edge(169, 197).
edge(46, 149).
edge(49, 203).
edge(8, 186).
edge(69, 125).
edge(150, 201).
edge(40, 111).
edge(3, 67).
edge(13, 117).
edge(126, 157).
edge(115, 231).
edge(28, 133).
edge(20, 31).
edge(130, 151).
edge(124, 206).
edge(122, 132).
edge(96, 197).
edge(64, 162).
edge(57, 73).
edge(147, 155).
edge(14, 84).
edge(45, 228).
edge(62, 178).
edge(43, 232).
edge(212, 230).
edge(68, 98).
edge(56, 75).
edge(119, 138).
edge(21, 64).
edge(32, 88).
edge(168, 189).
edge(55, 220).
edge(126, 203).
edge(50, 91).
edge(91, 207).
edge(54, 58).
edge(1, 77).
edge(1, 164).
edge(4, 72).
edge(0, 191).
edge(158, 191).
edge(185, 195).
edge(35, 186).
edge(64, 167).
edge(97, 152).
edge(187, 209).
edge(19, 182).
edge(74, 117).
edge(202, 204).
edge(86, 101).
edge(8, 158).
edge(185, 210).
edge(24, 131).
edge(23, 87).
edge(173, 210).
edge(17, 168).
edge(65, 150).
edge(147, 193).
edge(29, 180).
edge(3, 47).
edge(46, 52).
edge(164, 174).
edge(3, 38).
edge(159, 203).
edge(37, 53).
edge(84, 209).
edge(13, 63).
edge(56, 114).
edge(54, 153).
edge(0, 185).
edge(10, 15).
edge(66, 145).
edge(13, 228).
edge(82, 120).
edge(176, 228).
edge(1, 65).
edge(103, 188).
edge(39, 111).
edge(93, 119).
edge(101, 199).
edge(86, 182).
edge(36, 121).
edge(68, 158).
edge(133, 228).
edge(45, 97).
edge(158, 173).
edge(122, 135).
edge(130, 222).
edge(22, 110).
edge(167, 204).
edge(62, 67).
edge(110, 219).
edge(69, 83).
edge(103, 216).
edge(128, 223).
edge(108, 180).
edge(18, 138).
edge(121, 216).
edge(73, 178).
edge(12, 195).
edge(97, 105).
edge(19, 123).
edge(137, 199).
edge(122, 154).
edge(35, 155).
edge(76, 130).
edge(97, 109).
edge(123, 168).
edge(26, 117).
edge(8, 233).
edge(104, 144).
edge(12, 154).
edge(78, 145).
edge(20, 202).
edge(5, 229).
edge(108, 214).
edge(81, 90).
edge(16, 191).
edge(42, 154).
edge(157, 189).
edge(16, 192).
edge(214, 232).
edge(14, 15).
edge(23, 134).
edge(51, 85).
edge(107, 166).
edge(5, 88).
edge(164, 182).
edge(125, 214).
edge(99, 147).
edge(14, 218).
edge(108, 148).
edge(10, 137).
edge(112, 145).
edge(39, 131).
edge(45, 193).
edge(105, 214).
edge(69, 88).
edge(133, 172).
edge(12, 133).
edge(46, 216).
edge(213, 216).
edge(138, 230).
edge(134, 174).
edge(68, 194).
edge(94, 188).
edge(76, 117).
edge(50, 155).
edge(15, 73).
edge(60, 139).
edge(41, 205).
edge(30, 172).
edge(56, 78).
edge(150, 219).
edge(52, 185).
edge(2, 78).
edge(194, 200).
edge(60, 115).
edge(172, 198).
edge(119, 120).
edge(161, 205).
edge(172, 185).
edge(62, 222).
edge(90, 166).
edge(15, 139).
edge(56, 222).
edge(55, 179).
edge(64, 215).
edge(119, 121).
edge(112, 205).
edge(116, 178).
edge(129, 181).
edge(188, 232).
edge(146, 189).
edge(46, 208).
edge(161, 227).
edge(62, 180).
edge(55, 223).
edge(28, 138).
edge(204, 213).
edge(114, 144).
edge(91, 130).
edge(107, 223).
edge(152, 171).
edge(210, 231).
edge(76, 146).
edge(194, 209).
edge(33, 202).
edge(47, 220).
edge(96, 125).
edge(13, 103).
edge(90, 94).
edge(94, 95).
edge(74, 170).
edge(105, 122).
edge(8, 18).
edge(196, 209).
edge(16, 201).
edge(16, 17).
edge(7, 191).
edge(185, 223).
edge(214, 220).
edge(16, 89).
edge(172, 226).
edge(121, 185).
edge(12, 125).
edge(85, 225).
edge(58, 232).
edge(54, 150).
edge(123, 149).
edge(67, 128).
edge(129, 140).
edge(110, 204).
edge(100, 218).
edge(30, 153).
edge(19, 32).
edge(60, 220).
edge(30, 187).
edge(34, 195).
edge(0, 6).
edge(83, 163).
edge(89, 200).
edge(64, 124).
edge(73, 92).
edge(102, 204).
edge(173, 213).
edge(22, 50).
edge(5, 137).
edge(81, 125).
edge(115, 126).
edge(104, 120).
edge(110, 134).
edge(117, 184).
edge(24, 73).
edge(120, 144).
edge(115, 215).
edge(19, 131).
edge(31, 74).
edge(7, 71).
edge(19, 94).
edge(155, 186).
edge(53, 99).
edge(131, 151).
edge(143, 153).
edge(84, 122).
edge(77, 222).
edge(92, 127).
edge(113, 200).
edge(8, 167).
edge(54, 135).
edge(25, 57).
edge(119, 206).
edge(42, 59).
edge(64, 143).
edge(48, 228).
edge(34, 56).
edge(72, 114).
edge(81, 172).
edge(105, 211).
edge(16, 114).
edge(85, 214).
edge(106, 159).
edge(26, 229).
edge(81, 123).
edge(132, 201).
edge(171, 220).
edge(191, 228).
edge(106, 229).
edge(99, 215).
edge(11, 53).
edge(176, 230).
edge(4, 35).
edge(53, 129).
edge(95, 216).
edge(98, 222).
edge(41, 158).
edge(116, 145).
edge(68, 226).
edge(159, 164).
edge(167, 221).
edge(69, 110).
edge(129, 136).
edge(120, 127).
edge(133, 202).
edge(19, 43).
edge(214, 218).
edge(136, 234).
edge(143, 149).
edge(141, 148).
edge(50, 109).
edge(85, 173).
edge(1, 173).
edge(89, 215).
edge(178, 221).
edge(17, 81).
edge(81, 91).
edge(146, 168).
edge(75, 192).
edge(118, 151).
edge(69, 233).
edge(28, 66).
edge(62, 76).
edge(20, 183).
edge(71, 87).
edge(134, 212).
edge(57, 83).
edge(111, 137).
edge(6, 152).
edge(78, 114).
edge(110, 146).
edge(8, 80).
edge(20, 57).
edge(33, 157).
edge(71, 73).
edge(114, 172).
edge(4, 77).
edge(160, 209).
edge(59, 144).
edge(146, 181).
edge(143, 218).
edge(47, 76).
edge(36, 76).
edge(190, 192).
edge(61, 160).
edge(20, 144).
edge(49, 199).
edge(151, 167).
edge(102, 201).
edge(40, 198).
edge(220, 234).
edge(66, 81).
edge(109, 168).
edge(118, 207).
edge(150, 177).
edge(56, 99).
edge(9, 48).
edge(67, 68).
edge(82, 91).
edge(16, 115).
edge(73, 204).
edge(41, 75).
edge(144, 152).
edge(61, 205).
edge(105, 187).
edge(67, 196).
edge(186, 216).
edge(18, 126).
edge(149, 213).
edge(192, 201).
edge(99, 221).
edge(151, 190).
edge(58, 150).
edge(158, 198).
edge(165, 205).
edge(110, 184).
edge(30, 136).
edge(47, 134).
edge(94, 156).
edge(137, 188).
edge(40, 180).
edge(48, 104).
edge(113, 201).
edge(24, 188).
edge(22, 209).
edge(78, 208).
edge(119, 176).
edge(117, 222).
edge(22, 113).
edge(35, 220).
edge(215, 220).
edge(22, 207).
edge(63, 226).
edge(74, 114).
edge(14, 213).
edge(130, 214).
edge(99, 226).
edge(54, 186).
edge(105, 116).
edge(25, 162).
edge(115, 187).
edge(62, 212).
edge(20, 196).
edge(61, 81).
edge(153, 205).
edge(92, 169).
edge(79, 203).
edge(14, 127).
edge(116, 218).
edge(1, 184).
edge(46, 217).
edge(6, 227).
edge(142, 158).
edge(58, 108).
edge(24, 146).
edge(116, 233).
edge(99, 168).
edge(121, 220).
edge(36, 128).
edge(94, 161).
edge(135, 184).
edge(31, 82).
edge(0, 25).
edge(87, 161).
edge(24, 199).
edge(66, 230).
edge(140, 224).
edge(68, 69).
edge(163, 219).
edge(71, 163).
edge(142, 169).
edge(55, 64).
edge(68, 168).
edge(70, 93).
edge(40, 177).
edge(86, 224).
edge(152, 181).
edge(80, 231).
edge(18, 46).
edge(41, 184).
edge(15, 142).
edge(89, 218).
edge(197, 211).
edge(72, 209).
edge(22, 96).
edge(22, 192).
edge(51, 74).
edge(44, 94).
edge(53, 222).
edge(4, 73).
edge(23, 72).
edge(47, 153).
edge(22, 228).
edge(32, 198).
edge(17, 139).
edge(1, 46).
edge(0, 37).
edge(11, 52).
edge(151, 193).
edge(113, 171).
edge(109, 118).
edge(12, 187).
edge(138, 197).
edge(135, 138).
edge(75, 81).
edge(45, 105).
edge(173, 206).
edge(122, 131).
edge(74, 226).
edge(118, 232).
edge(86, 133).
edge(215, 223).
edge(201, 224).
edge(18, 114).
edge(63, 177).
edge(36, 48).
edge(115, 220).
edge(19, 202).
edge(123, 224).
edge(70, 155).
edge(17, 86).
edge(164, 220).
edge(32, 104).
edge(134, 195).
edge(41, 67).
edge(69, 87).
edge(53, 234).
edge(6, 53).
edge(12, 119).
edge(114, 163).
edge(16, 64).
edge(4, 134).
edge(48, 99).
edge(29, 93).
edge(70, 187).
edge(23, 214).
edge(23, 153).
edge(135, 194).
edge(147, 231).
edge(13, 46).
edge(95, 155).
edge(115, 161).
edge(92, 164).
edge(115, 158).
edge(176, 205).
edge(30, 190).
edge(216, 227).
edge(19, 132).
edge(55, 141).
edge(17, 82).
edge(122, 191).
edge(5, 233).
edge(26, 226).
edge(78, 191).
edge(122, 173).
edge(79, 184).
edge(18, 56).
edge(201, 228).
edge(14, 61).
edge(18, 64).
edge(121, 214).
edge(21, 113).
edge(50, 77).
edge(54, 84).
edge(163, 165).
edge(113, 139).
edge(80, 136).
edge(54, 96).
edge(10, 104).
edge(35, 187).
edge(17, 97).
edge(0, 79).
edge(180, 189).
edge(112, 179).
edge(46, 167).
edge(43, 231).
edge(141, 143).
edge(64, 74).
edge(163, 181).
edge(52, 174).
edge(40, 44).
edge(207, 216).
edge(23, 208).
edge(94, 181).
edge(91, 117).
edge(157, 192).
edge(144, 214).
edge(11, 203).
edge(40, 221).
edge(27, 48).
edge(62, 228).
edge(84, 139).
edge(44, 226).
edge(149, 153).
edge(25, 96).
edge(152, 218).
edge(29, 145).
edge(49, 173).
edge(136, 230).
edge(134, 162).
edge(119, 222).
edge(85, 150).
edge(32, 43).
edge(86, 118).
edge(25, 187).
edge(187, 229).
edge(138, 139).
edge(125, 153).
edge(80, 128).
edge(1, 69).
edge(69, 232).
edge(2, 164).
edge(135, 219).
edge(28, 71).
edge(56, 214).
edge(138, 206).
edge(53, 114).
edge(135, 143).
edge(107, 198).
edge(4, 28).
edge(4, 156).
edge(74, 202).
edge(58, 61).
edge(84, 161).
edge(74, 111).
edge(38, 70).
edge(7, 231).
edge(62, 96).
edge(54, 147).
edge(9, 116).
edge(75, 207).
edge(9, 63).
edge(104, 184).
edge(146, 196).
edge(91, 182).
edge(42, 142).
edge(139, 195).
edge(105, 154).
edge(4, 55).
edge(156, 180).
edge(48, 59).
edge(17, 164).
edge(21, 65).
edge(6, 178).
edge(90, 190).
edge(147, 220).
edge(22, 117).
edge(98, 144).
edge(113, 202).
edge(15, 29).
edge(182, 213).
edge(125, 170).
edge(169, 218).
edge(139, 205).
edge(15, 56).
edge(4, 224).
edge(51, 68).
edge(206, 234).
edge(98, 178).
edge(24, 117).
edge(206, 207).
edge(112, 163).
edge(20, 219).
edge(78, 144).
edge(77, 138).
edge(77, 115).
edge(82, 199).
edge(109, 152).
edge(36, 122).
edge(39, 89).
edge(86, 179).
edge(21, 106).
edge(158, 177).
edge(121, 147).
edge(59, 170).
edge(204, 212).
edge(149, 226).
edge(1, 231).
edge(125, 139).
edge(138, 191).
edge(1, 53).
edge(96, 181).
edge(117, 173).
edge(77, 220).
edge(134, 184).
edge(57, 192).
edge(58, 93).
edge(112, 172).
edge(90, 129).
edge(62, 122).
edge(49, 229).
edge(36, 50).
edge(88, 113).
edge(46, 85).
edge(57, 98).
edge(58, 99).
edge(2, 23).
edge(75, 84).
edge(157, 173).
edge(24, 74).
edge(13, 25).
edge(35, 224).
edge(9, 214).
edge(133, 181).
edge(136, 226).
edge(29, 53).
edge(17, 35).
edge(190, 203).
edge(35, 194).
edge(160, 166).
edge(71, 117).
edge(23, 183).
edge(37, 228).
edge(38, 124).
edge(221, 226).
edge(0, 122).
edge(66, 222).
edge(52, 89).
edge(157, 194).
edge(122, 186).
edge(141, 222).
edge(56, 70).
edge(75, 221).
edge(25, 180).
edge(50, 104).
edge(111, 129).
edge(191, 198).
edge(194, 211).
edge(10, 78).
edge(217, 221).
edge(126, 164).
edge(161, 229).
edge(86, 156).
edge(29, 152).
edge(46, 66).
edge(12, 220).
edge(19, 117).
edge(44, 88).
edge(104, 107).
edge(118, 170).
edge(21, 150).
edge(112, 185).
edge(134, 154).
edge(178, 195).
edge(4, 193).
edge(20, 166).
edge(38, 203).
edge(123, 200).
edge(26, 212).
edge(26, 51).
edge(71, 187).
edge(2, 64).
edge(29, 143).
edge(27, 99).
edge(159, 227).
edge(47, 99).
edge(105, 188).
edge(30, 43).
edge(9, 174).
edge(29, 183).
edge(16, 202).
edge(46, 214).
edge(76, 86).
edge(63, 82).
edge(45, 147).
edge(3, 121).
edge(3, 125).
edge(169, 222).
edge(207, 218).
edge(127, 151).
edge(52, 113).
edge(45, 59).
edge(135, 207).
edge(32, 215).
edge(132, 225).
edge(138, 207).
edge(47, 202).
edge(97, 194).
edge(6, 143).
edge(12, 59).
edge(0, 9).
edge(96, 107).
edge(56, 135).
edge(94, 221).
edge(76, 126).
edge(114, 187).
edge(3, 12).
edge(62, 173).
edge(35, 158).
edge(207, 231).
edge(20, 111).
edge(75, 216).
edge(8, 187).
edge(50, 125).
edge(16, 31).
edge(132, 226).
edge(140, 166).
edge(45, 226).
edge(210, 213).
edge(159, 209).
edge(117, 141).
edge(152, 234).
edge(175, 200).
edge(22, 118).
edge(48, 105).
edge(8, 231).
edge(26, 74).
edge(104, 227).
edge(204, 233).
edge(53, 200).
edge(54, 125).
edge(58, 168).
edge(151, 234).
edge(100, 163).
edge(73, 168).
edge(75, 171).
edge(22, 216).
edge(54, 177).
edge(74, 122).
edge(135, 199).
edge(41, 232).
edge(151, 204).
edge(117, 149).
edge(59, 131).
edge(126, 213).
edge(31, 43).
edge(65, 163).
edge(94, 223).
edge(161, 169).
edge(53, 69).
edge(179, 185).
edge(100, 175).
edge(84, 165).
edge(76, 134).
edge(75, 220).
edge(27, 200).
edge(109, 229).
edge(54, 232).
edge(78, 188).
edge(5, 172).
edge(140, 233).
edge(75, 197).
edge(76, 99).
edge(96, 170).
edge(124, 217).
edge(105, 222).
edge(72, 134).
edge(42, 206).
edge(115, 159).
edge(30, 96).
edge(112, 134).
edge(134, 172).
edge(159, 204).
edge(5, 132).
edge(10, 74).
edge(4, 53).
edge(3, 227).
edge(44, 62).
edge(59, 224).
edge(86, 131).
edge(30, 137).
edge(61, 140).
edge(88, 180).
edge(10, 75).
edge(5, 13).
edge(10, 76).
edge(121, 123).
edge(61, 131).
edge(202, 218).
edge(87, 212).
edge(97, 203).
edge(66, 121).
edge(102, 214).
edge(47, 92).
edge(57, 70).
edge(26, 111).
edge(20, 190).
edge(124, 133).
edge(49, 190).
edge(44, 140).
edge(56, 73).
edge(26, 57).
edge(159, 166).
edge(37, 126).
edge(69, 170).
edge(176, 179).
edge(118, 209).
edge(75, 232).
edge(60, 132).
edge(38, 156).
edge(52, 183).
edge(1, 172).
edge(97, 138).
edge(71, 217).
edge(71, 208).
edge(23, 215).
edge(9, 207).
edge(39, 97).
edge(92, 94).
edge(130, 134).
edge(35, 135).
edge(56, 154).
edge(95, 226).
edge(30, 103).
edge(53, 228).
edge(30, 198).
edge(29, 206).
edge(41, 68).
edge(144, 149).
edge(50, 96).
edge(138, 159).
edge(174, 190).
edge(41, 162).
edge(31, 173).
edge(131, 165).
edge(219, 229).
edge(127, 134).
edge(28, 221).
edge(174, 225).
edge(28, 132).
edge(6, 130).
edge(14, 98).
edge(49, 205).
edge(172, 205).
edge(14, 197).
edge(54, 233).
edge(162, 193).
edge(86, 175).
edge(5, 65).
edge(69, 111).
edge(22, 107).
edge(73, 148).
edge(37, 169).
edge(81, 143).
edge(98, 180).
edge(60, 148).
edge(24, 94).
edge(11, 31).
edge(30, 220).
edge(7, 95).
edge(83, 150).
edge(47, 230).
edge(4, 144).
edge(127, 157).
edge(188, 196).
edge(79, 88).
edge(63, 142).
edge(125, 132).
edge(159, 163).
edge(81, 109).
edge(128, 205).
edge(202, 227).
edge(116, 169).
edge(122, 141).
edge(79, 133).
edge(94, 219).
edge(99, 116).
edge(35, 136).
edge(182, 188).
edge(48, 107).
edge(156, 210).
edge(85, 99).
edge(133, 233).
edge(93, 104).
edge(25, 76).
edge(77, 193).
edge(46, 138).
edge(198, 210).
edge(1, 57).
edge(82, 152).
edge(29, 231).
edge(18, 36).
edge(107, 207).
edge(73, 111).
edge(195, 224).
edge(42, 224).
edge(7, 27).
edge(103, 121).
edge(40, 97).
edge(32, 147).
edge(68, 157).
edge(69, 127).
edge(60, 118).
edge(139, 175).
edge(102, 231).
edge(58, 75).
edge(135, 205).
edge(4, 128).
edge(162, 170).
edge(95, 194).
edge(85, 230).
edge(20, 40).
edge(9, 204).
edge(142, 182).
edge(121, 122).
edge(130, 143).
edge(3, 89).
edge(64, 192).
edge(113, 132).
edge(0, 96).
edge(58, 133).
edge(40, 48).
edge(41, 167).
edge(58, 208).
edge(93, 182).
edge(69, 91).
edge(200, 232).
edge(42, 131).
edge(52, 140).
edge(100, 140).
edge(81, 110).
edge(58, 214).
edge(7, 152).
edge(24, 154).
edge(49, 228).
edge(195, 223).
edge(110, 115).
edge(46, 116).
edge(123, 140).
edge(86, 167).
edge(49, 136).
edge(62, 195).
edge(154, 234).
edge(14, 92).
edge(61, 218).
edge(129, 146).
edge(37, 184).
edge(122, 205).
edge(23, 115).
edge(77, 170).
edge(72, 198).
edge(41, 188).
edge(49, 140).
edge(120, 230).
edge(15, 130).
edge(53, 196).
edge(8, 225).
edge(46, 187).
edge(124, 153).
edge(63, 156).
edge(70, 136).
edge(12, 17).
edge(54, 201).
edge(177, 201).
edge(183, 211).
edge(13, 130).
edge(176, 223).
edge(153, 165).
edge(21, 204).
edge(43, 110).
edge(49, 193).
edge(80, 177).
edge(1, 12).
edge(44, 189).
edge(116, 210).
edge(82, 121).
edge(50, 134).
edge(18, 62).
edge(29, 49).
edge(16, 47).
edge(14, 100).
edge(45, 62).
edge(85, 194).
edge(29, 193).
edge(59, 190).
edge(146, 155).
edge(60, 165).
edge(131, 206).
edge(34, 107).
edge(42, 165).
edge(172, 206).
edge(39, 160).
edge(116, 155).
edge(63, 90).
edge(10, 230).
edge(44, 181).
edge(66, 173).
edge(38, 216).
edge(33, 138).
edge(109, 115).
edge(12, 116).
edge(33, 36).
edge(56, 93).
edge(14, 94).
edge(18, 99).
edge(185, 220).
edge(50, 87).
edge(12, 103).
edge(1, 214).
edge(90, 144).
edge(5, 116).
edge(182, 193).
edge(166, 167).
edge(50, 182).
edge(45, 89).
edge(13, 176).
edge(190, 191).
edge(62, 164).
edge(183, 196).
edge(189, 203).
edge(132, 136).
edge(76, 221).
edge(78, 198).
edge(30, 31).
edge(32, 184).
edge(20, 226).
edge(31, 133).
edge(105, 155).
edge(16, 218).
edge(117, 175).
edge(114, 128).
edge(117, 226).
edge(126, 191).
edge(69, 131).
edge(115, 171).
edge(158, 164).
edge(70, 232).
edge(123, 199).
edge(52, 82).
edge(111, 125).
edge(35, 80).
edge(44, 156).
edge(78, 143).
edge(52, 74).
edge(15, 203).
edge(102, 183).
edge(100, 211).
edge(123, 166).
edge(42, 169).
edge(34, 123).
edge(223, 231).
edge(29, 114).
edge(165, 207).
edge(3, 167).
edge(189, 222).
edge(78, 161).
edge(106, 165).
edge(53, 197).
edge(35, 206).
edge(34, 204).
edge(3, 145).
edge(108, 162).
edge(139, 178).
edge(62, 148).
edge(34, 232).
edge(18, 219).
edge(134, 214).
edge(194, 230).
edge(64, 178).
edge(2, 171).
edge(148, 180).
edge(143, 190).
edge(73, 228).
edge(140, 198).
edge(34, 177).
edge(13, 101).
edge(6, 188).
edge(30, 169).
edge(77, 207).
edge(205, 207).
edge(16, 216).
edge(20, 24).
edge(67, 111).
edge(42, 162).
edge(113, 189).
edge(5, 75).
edge(26, 139).
edge(7, 151).
edge(216, 226).
edge(170, 203).
edge(28, 186).
edge(2, 83).
edge(53, 128).
edge(117, 205).
edge(176, 226).
edge(172, 195).
edge(39, 103).
edge(187, 201).
edge(20, 68).
edge(8, 150).
edge(15, 75).
edge(23, 57).
edge(183, 232).
edge(23, 28).
edge(36, 217).
edge(79, 225).
edge(93, 180).
edge(53, 211).
edge(105, 130).
edge(36, 103).
edge(79, 221).
edge(125, 161).
edge(1, 192).
edge(60, 210).
edge(187, 213).
edge(44, 123).
edge(144, 178).
edge(114, 122).
edge(6, 135).
edge(148, 205).
edge(113, 128).
edge(81, 182).
edge(152, 201).
edge(18, 75).
edge(8, 63).
edge(81, 179).
edge(103, 210).
edge(60, 72).
edge(0, 230).
edge(67, 197).
edge(2, 199).
edge(38, 111).
edge(82, 167).
edge(54, 136).
edge(82, 110).
edge(4, 141).
edge(41, 218).
edge(117, 142).
edge(126, 136).
edge(3, 209).
edge(105, 229).
edge(152, 177).
edge(22, 67).
edge(20, 232).
edge(33, 41).
edge(140, 231).
edge(8, 161).
edge(137, 203).
edge(30, 143).
edge(30, 66).
edge(101, 221).
edge(57, 72).
edge(164, 179).
edge(55, 148).
edge(54, 161).
edge(11, 94).
edge(75, 134).
edge(49, 221).
edge(16, 21).
edge(60, 167).
edge(27, 139).
edge(148, 219).
edge(77, 85).
edge(194, 228).
edge(13, 113).
edge(6, 176).
edge(110, 194).
edge(15, 184).
edge(91, 200).
edge(52, 190).
edge(15, 160).
edge(84, 136).
edge(96, 109).
edge(64, 113).
edge(93, 219).
edge(174, 215).
edge(20, 135).
edge(56, 232).
edge(115, 205).
edge(132, 194).
edge(10, 117).
edge(13, 197).
edge(95, 197).
edge(101, 233).
edge(35, 207).
edge(68, 188).
edge(132, 175).
edge(152, 203).
edge(72, 187).
edge(91, 191).
edge(54, 184).
edge(113, 188).
edge(132, 199).
edge(18, 127).
edge(77, 96).
edge(202, 205).
edge(121, 134).
edge(81, 138).
edge(73, 141).
edge(196, 219).
edge(84, 142).
edge(17, 156).
edge(90, 91).
edge(142, 172).
edge(161, 231).
edge(40, 173).
edge(57, 62).
edge(23, 139).
edge(227, 232).
edge(141, 217).
edge(2, 79).
edge(160, 171).
edge(200, 202).
edge(11, 139).
edge(56, 219).
edge(0, 13).
edge(175, 234).
edge(89, 172).
edge(33, 128).
edge(21, 101).
edge(91, 180).
edge(36, 231).
edge(66, 75).
edge(16, 133).
edge(174, 208).
edge(154, 202).
edge(162, 197).
edge(52, 175).
edge(33, 233).
edge(28, 188).
edge(7, 224).
edge(49, 157).
edge(3, 54).
edge(108, 154).
edge(100, 162).
edge(160, 194).
edge(149, 167).
edge(19, 181).
edge(43, 168).
edge(115, 196).
edge(87, 127).
edge(73, 226).
edge(103, 176).
edge(147, 233).
edge(100, 129).
edge(71, 223).
edge(9, 90).
edge(52, 121).
edge(75, 91).
edge(28, 168).
edge(150, 185).
edge(40, 83).
edge(22, 26).
edge(90, 147).
edge(60, 120).
edge(118, 184).
edge(51, 113).
edge(4, 84).
edge(161, 206).
edge(176, 232).
edge(104, 228).
edge(153, 204).
edge(83, 173).
edge(11, 226).
edge(34, 37).
edge(0, 198).
edge(137, 209).
edge(9, 19).
edge(136, 220).
edge(82, 190).
edge(48, 66).
edge(3, 10).
edge(67, 108).
edge(178, 220).
edge(20, 104).
edge(38, 91).
edge(114, 223).
edge(10, 211).
edge(53, 153).
edge(191, 233).
edge(44, 193).
edge(33, 38).
edge(118, 219).
edge(204, 220).
edge(29, 50).
edge(172, 211).
edge(175, 225).
edge(154, 181).
edge(98, 140).
edge(53, 106).
edge(155, 202).
edge(172, 174).
edge(53, 108).
edge(96, 213).
edge(109, 165).
edge(90, 136).
edge(55, 75).
edge(73, 216).
edge(89, 183).
edge(4, 64).
edge(65, 191).
edge(5, 135).
edge(53, 55).
edge(35, 132).
edge(43, 156).
edge(17, 224).
edge(25, 155).
edge(106, 181).
edge(134, 213).
edge(149, 179).
edge(18, 78).
edge(201, 217).
edge(98, 184).
edge(17, 176).
edge(6, 75).
edge(177, 188).
edge(139, 231).
edge(101, 225).
edge(122, 206).
edge(132, 229).
edge(164, 187).
edge(93, 169).
edge(66, 188).
edge(28, 81).
edge(52, 111).
edge(98, 179).
edge(18, 134).
edge(141, 171).
edge(80, 132).
edge(72, 83).
edge(44, 112).
edge(4, 81).
edge(164, 178).
edge(68, 165).
edge(85, 175).
edge(88, 139).
edge(103, 200).
edge(20, 221).
edge(4, 231).
edge(109, 111).
edge(155, 184).
edge(147, 159).
edge(96, 191).
edge(19, 99).
edge(31, 97).
edge(132, 133).
edge(83, 96).
edge(45, 84).
edge(190, 197).
edge(62, 109).
edge(68, 207).
edge(179, 233).
edge(60, 214).
edge(166, 200).
edge(79, 111).
edge(32, 77).
edge(10, 70).
edge(21, 24).
edge(30, 184).
edge(80, 110).
edge(111, 192).
edge(28, 177).
edge(93, 96).
edge(10, 169).
edge(95, 191).
edge(176, 191).
edge(68, 232).
edge(144, 226).
edge(48, 225).
edge(135, 162).
edge(32, 212).
edge(9, 139).
edge(130, 225).
edge(71, 122).
edge(34, 55).
edge(93, 195).
edge(17, 24).
edge(143, 207).
edge(175, 176).
edge(12, 50).
edge(10, 47).
edge(37, 187).
edge(118, 128).
edge(8, 193).
edge(89, 177).
edge(5, 219).
edge(111, 226).
edge(3, 96).
edge(108, 156).
edge(102, 232).
edge(48, 69).
edge(7, 143).
edge(40, 120).
edge(18, 102).
edge(9, 138).
edge(8, 66).
edge(22, 194).
edge(0, 78).
edge(127, 200).
edge(16, 88).
edge(68, 224).
edge(56, 183).
edge(45, 144).
edge(137, 212).
edge(15, 153).
edge(51, 122).
edge(130, 176).
edge(39, 136).
edge(70, 213).
edge(4, 166).
edge(13, 97).
edge(67, 73).
edge(12, 61).
edge(73, 181).
edge(174, 179).
edge(108, 224).
edge(51, 219).
edge(75, 165).
edge(40, 174).
edge(143, 197).
edge(133, 142).
edge(184, 233).
edge(84, 226).
edge(8, 214).
edge(38, 80).
edge(134, 166).
edge(85, 101).
edge(11, 111).
edge(2, 167).
edge(181, 223).
edge(134, 215).
edge(64, 72).
edge(4, 168).
edge(42, 148).
edge(120, 143).
edge(17, 51).
edge(41, 211).
edge(50, 156).
edge(150, 210).
edge(103, 214).
edge(200, 218).
edge(75, 130).
edge(164, 215).
edge(14, 112).
edge(74, 121).
edge(46, 147).
edge(87, 186).
edge(45, 180).
edge(58, 181).
edge(40, 136).
edge(148, 209).
edge(26, 118).
edge(36, 198).
edge(109, 219).
edge(91, 97).
edge(8, 70).
edge(33, 216).
edge(128, 168).
edge(21, 172).
edge(220, 227).
edge(145, 185).
edge(121, 219).
edge(113, 184).
edge(107, 220).
edge(217, 230).
edge(73, 195).
edge(14, 124).
edge(97, 209).
edge(27, 119).
edge(63, 181).
edge(111, 151).
edge(12, 124).
edge(58, 210).
edge(190, 220).
edge(1, 196).
edge(99, 108).
edge(102, 234).
edge(9, 109).
edge(71, 222).
edge(10, 100).
edge(52, 126).
edge(177, 212).
edge(45, 171).
edge(135, 221).
edge(193, 224).
edge(149, 172).
edge(128, 213).
edge(154, 197).
edge(28, 42).
edge(160, 195).
edge(162, 223).
edge(30, 173).
edge(87, 93).
edge(104, 119).
edge(105, 161).
edge(108, 177).
edge(145, 225).
edge(73, 198).
edge(130, 189).
edge(30, 93).
edge(114, 230).
edge(26, 233).
edge(161, 219).
edge(26, 53).
edge(89, 166).
edge(119, 209).
edge(58, 70).
edge(81, 106).
edge(156, 232).
edge(141, 156).
edge(142, 144).
edge(184, 191).
edge(54, 69).
edge(25, 211).
edge(156, 178).
edge(21, 120).
edge(125, 194).
edge(29, 102).
edge(143, 181).
edge(200, 207).
edge(23, 204).
edge(137, 208).
edge(113, 187).
edge(30, 39).
edge(80, 101).
edge(146, 172).
edge(89, 201).
edge(8, 117).
edge(113, 175).
edge(102, 111).
edge(153, 186).
edge(182, 214).
edge(35, 161).
edge(65, 128).
edge(183, 202).
edge(140, 181).
edge(151, 199).
edge(145, 182).
edge(7, 128).
edge(8, 40).
edge(10, 54).
edge(157, 233).
edge(39, 58).
edge(100, 153).
edge(163, 178).
edge(74, 179).
edge(60, 141).
edge(127, 212).
edge(41, 107).
edge(199, 232).
edge(24, 100).
edge(23, 96).
edge(109, 128).
edge(11, 182).
edge(177, 218).
edge(14, 190).
edge(71, 230).
edge(23, 206).
edge(163, 187).
edge(78, 160).
edge(84, 225).
edge(24, 141).
edge(8, 195).
edge(106, 192).
edge(11, 25).
edge(206, 228).
edge(163, 171).
edge(21, 203).
edge(25, 81).
edge(51, 52).
edge(191, 217).
edge(15, 159).
edge(19, 135).
edge(99, 175).
edge(101, 209).
edge(177, 205).
edge(15, 137).
edge(31, 209).
edge(65, 199).
edge(62, 98).
edge(89, 178).
edge(113, 169).
edge(199, 207).
edge(82, 200).
edge(78, 97).
edge(40, 234).
edge(86, 192).
edge(28, 213).
edge(89, 233).
edge(65, 157).
edge(0, 81).
edge(147, 205).
edge(28, 127).
edge(146, 154).
edge(81, 191).
edge(30, 157).
edge(149, 195).
edge(155, 206).
edge(105, 203).
edge(140, 182).
edge(106, 122).
edge(67, 133).
edge(65, 146).
edge(148, 195).
edge(114, 209).
edge(74, 227).
edge(46, 132).
edge(62, 221).
edge(111, 166).
edge(120, 138).
edge(60, 232).
edge(23, 212).
edge(172, 173).
edge(14, 109).
edge(18, 43).
edge(124, 186).
edge(13, 192).
edge(146, 183).
edge(189, 202).
edge(130, 148).
edge(0, 161).
edge(201, 213).
edge(174, 228).
edge(55, 170).
edge(194, 234).
edge(15, 74).
edge(101, 115).
edge(74, 80).
edge(100, 187).
edge(20, 66).
edge(146, 204).
edge(169, 193).
edge(100, 160).
edge(0, 104).
edge(47, 173).
edge(87, 109).
edge(11, 192).
edge(89, 213).
edge(4, 102).
edge(23, 85).
edge(55, 184).
edge(37, 172).
edge(120, 145).
edge(54, 231).
edge(83, 124).
edge(99, 103).
edge(65, 73).
edge(13, 146).
edge(57, 100).
edge(101, 177).
edge(162, 200).
edge(124, 229).
edge(18, 92).
edge(114, 150).
edge(18, 77).
edge(11, 148).
edge(179, 212).
edge(58, 101).
edge(23, 149).
edge(15, 55).
edge(20, 186).
edge(130, 204).
edge(7, 32).
edge(33, 134).
edge(30, 108).
edge(44, 192).
edge(98, 231).
edge(6, 205).
edge(110, 163).
edge(19, 168).
edge(62, 126).
edge(47, 233).
edge(165, 206).
edge(132, 222).
edge(163, 195).
edge(59, 159).
edge(0, 62).
edge(44, 118).
edge(62, 112).
edge(3, 105).
edge(150, 183).
edge(23, 180).
edge(64, 90).
edge(225, 234).
edge(193, 215).
edge(4, 183).
edge(19, 154).
edge(135, 217).
edge(159, 217).
edge(104, 106).
edge(17, 162).
edge(46, 222).
edge(52, 57).
edge(18, 210).
edge(60, 162).
edge(35, 99).
edge(37, 41).
edge(111, 200).
edge(113, 146).
edge(66, 193).
edge(58, 154).
edge(120, 177).
edge(29, 118).
edge(29, 167).
edge(25, 182).
edge(45, 93).
edge(3, 179).
edge(13, 36).
edge(132, 198).
edge(139, 219).
edge(1, 177).
edge(61, 221).
edge(79, 135).
edge(102, 197).
edge(43, 204).
edge(206, 220).
edge(174, 201).
edge(53, 154).
edge(93, 145).
edge(162, 171).
edge(31, 48).
edge(62, 123).
edge(37, 221).
edge(124, 147).
edge(19, 119).
edge(91, 144).
edge(22, 128).
edge(100, 197).
edge(39, 144).
edge(13, 183).
edge(10, 147).
edge(55, 150).
edge(10, 133).
edge(81, 175).
edge(162, 225).
edge(71, 178).
edge(182, 184).
edge(101, 230).
edge(40, 228).
edge(151, 155).
edge(17, 189).
edge(31, 189).
edge(48, 98).
edge(7, 186).
edge(70, 149).
edge(41, 192).
edge(43, 129).
edge(1, 28).
edge(113, 118).
edge(42, 197).
edge(81, 162).
edge(40, 93).
edge(74, 184).
edge(48, 120).
edge(94, 192).
edge(1, 14).
edge(75, 127).
edge(17, 200).
edge(13, 171).
edge(150, 158).
edge(81, 104).
edge(104, 224).
edge(70, 158).
edge(177, 203).
edge(16, 196).
edge(3, 90).
edge(8, 201).
edge(19, 120).
edge(176, 218).
edge(5, 106).
edge(66, 178).
edge(56, 130).
edge(52, 65).
edge(9, 170).
edge(117, 162).
edge(54, 144).
edge(76, 190).
edge(222, 227).
edge(3, 27).
edge(4, 80).
edge(142, 213).
edge(126, 147).
edge(71, 224).
edge(141, 181).
edge(158, 195).
edge(187, 194).
edge(110, 227).
edge(50, 76).
edge(111, 232).
edge(14, 129).
edge(131, 182).
edge(98, 214).
edge(215, 225).
edge(78, 146).
edge(10, 12).
edge(72, 141).
edge(26, 71).
edge(29, 77).
edge(96, 146).
edge(21, 135).
edge(105, 206).
edge(119, 133).
edge(115, 181).
edge(28, 220).
edge(53, 74).
edge(1, 68).
edge(79, 101).
edge(129, 224).
edge(182, 189).
edge(48, 126).
edge(170, 188).
edge(18, 83).
edge(103, 120).
edge(63, 113).
edge(46, 127).
edge(158, 183).
edge(172, 184).
edge(90, 112).
edge(5, 227).
edge(98, 149).
edge(137, 148).
edge(57, 113).
edge(18, 125).
edge(95, 121).
edge(126, 167).
edge(118, 200).
edge(215, 232).
edge(182, 208).
edge(65, 123).
edge(8, 55).
edge(44, 205).
edge(170, 209).
edge(36, 59).
edge(35, 168).
edge(72, 131).
edge(83, 172).
edge(65, 98).
edge(59, 115).
edge(26, 67).
edge(47, 70).
edge(63, 109).
edge(97, 205).
edge(11, 208).
edge(196, 222).
edge(148, 212).
edge(21, 202).
edge(8, 156).
edge(174, 199).
edge(156, 157).
edge(134, 178).
edge(89, 109).
edge(23, 42).
edge(91, 190).
edge(55, 137).
edge(34, 115).
edge(199, 201).
edge(54, 152).
edge(22, 177).
edge(140, 150).
edge(33, 87).
edge(29, 216).
edge(67, 92).
edge(98, 147).
edge(183, 185).
edge(116, 117).
edge(47, 142).
edge(33, 146).
edge(40, 204).
edge(27, 43).
edge(157, 234).
edge(90, 146).
edge(39, 226).
edge(23, 38).
edge(30, 192).
edge(73, 132).
edge(56, 200).
edge(3, 192).
edge(64, 77).
edge(34, 73).
edge(19, 197).
edge(12, 224).
edge(87, 147).
edge(120, 199).
edge(116, 214).
edge(65, 160).
edge(55, 140).
edge(8, 215).
edge(101, 229).
edge(90, 180).
edge(150, 215).
edge(166, 201).
edge(73, 147).
edge(21, 95).
edge(105, 135).
edge(52, 102).
edge(60, 80).
edge(38, 144).
edge(184, 204).
edge(153, 164).
edge(102, 223).
edge(106, 195).
edge(24, 99).
edge(11, 209).
edge(170, 177).
edge(52, 227).
edge(143, 185).
edge(36, 165).
edge(11, 224).
edge(8, 185).
edge(44, 133).
edge(22, 43).
edge(142, 223).
edge(10, 65).
edge(77, 111).
edge(90, 232).
edge(50, 92).
edge(109, 227).
edge(48, 232).
edge(93, 122).
edge(136, 212).
edge(9, 91).
edge(5, 56).
edge(127, 145).
edge(13, 109).
edge(125, 204).
edge(22, 166).
edge(13, 14).
edge(19, 142).
edge(141, 226).
edge(68, 84).
edge(136, 153).
edge(98, 134).
edge(82, 231).
edge(37, 163).
edge(98, 185).
edge(146, 209).
edge(102, 123).
edge(9, 127).
edge(43, 191).
edge(118, 122).
edge(188, 217).
edge(174, 175).
edge(39, 81).
edge(98, 161).
edge(7, 194).
edge(54, 124).
edge(94, 148).
edge(61, 103).
edge(203, 214).
edge(70, 139).
edge(91, 125).
edge(124, 173).
edge(105, 111).
edge(63, 213).
edge(26, 28).
edge(126, 144).
edge(97, 230).
edge(186, 189).
edge(129, 135).
edge(7, 142).
edge(110, 175).
edge(71, 99).
edge(121, 212).
edge(11, 155).
edge(79, 151).
edge(28, 196).
edge(9, 181).
edge(32, 51).
edge(60, 79).
edge(56, 202).
edge(50, 130).
edge(70, 124).
edge(107, 232).
edge(4, 108).
edge(50, 108).
edge(102, 132).
edge(56, 102).
edge(40, 91).
edge(95, 103).
edge(77, 223).
edge(58, 215).
edge(60, 180).
edge(64, 148).
edge(115, 223).
edge(74, 177).
edge(30, 193).
edge(176, 225).
edge(131, 198).
edge(134, 176).
edge(105, 170).
edge(33, 180).
edge(112, 166).
edge(1, 106).
edge(128, 208).
edge(134, 217).
edge(31, 156).
edge(81, 119).
edge(2, 125).
edge(22, 129).
edge(3, 204).
edge(94, 230).
edge(162, 189).
edge(8, 86).
edge(65, 212).
edge(44, 160).
edge(9, 193).
edge(188, 208).
edge(25, 80).
edge(81, 208).
edge(37, 232).
edge(126, 201).
edge(68, 138).
edge(51, 150).
edge(129, 180).
edge(42, 128).
edge(189, 221).
edge(73, 158).
edge(150, 157).
edge(130, 139).
edge(38, 233).
edge(119, 170).
edge(34, 60).
edge(193, 219).
edge(74, 188).
edge(76, 100).
edge(76, 232).
edge(24, 211).
edge(206, 213).
edge(74, 115).
edge(148, 152).
edge(48, 130).
edge(69, 77).
edge(133, 170).
edge(115, 186).
edge(3, 223).
edge(9, 166).
edge(21, 152).
edge(33, 139).
edge(5, 122).
edge(182, 222).
edge(47, 56).
edge(185, 217).
edge(8, 111).
edge(45, 181).
edge(16, 228).
edge(95, 150).
edge(23, 184).
edge(5, 61).
edge(2, 133).
edge(58, 209).
edge(83, 91).
edge(34, 157).
edge(26, 156).
edge(71, 115).
edge(23, 143).
edge(17, 138).
edge(74, 84).
edge(168, 225).
edge(169, 214).
edge(92, 128).
edge(41, 56).
edge(77, 117).
edge(122, 168).
edge(32, 190).
edge(132, 209).
edge(136, 195).
edge(126, 161).
edge(19, 37).
edge(62, 101).
edge(151, 185).
edge(4, 11).
edge(93, 151).
edge(4, 45).
edge(146, 195).
edge(163, 213).
edge(129, 233).
edge(48, 109).
edge(84, 180).
edge(72, 94).
edge(16, 226).
edge(111, 208).
edge(20, 217).
edge(118, 217).
edge(12, 118).
edge(75, 225).
edge(38, 163).
edge(82, 126).
edge(219, 221).
edge(154, 209).
edge(147, 185).
edge(92, 159).
edge(78, 151).
edge(73, 172).
edge(101, 151).
edge(156, 224).
edge(170, 191).
edge(38, 212).
edge(12, 95).
edge(33, 131).
edge(0, 82).
edge(164, 219).
edge(27, 62).
edge(12, 78).
edge(116, 149).
edge(139, 188).
edge(96, 179).
edge(1, 81).
edge(135, 164).
edge(44, 199).
edge(83, 194).
edge(225, 230).
edge(63, 211).
edge(23, 91).
edge(31, 110).
edge(58, 76).
edge(33, 142).
edge(2, 216).
edge(150, 227).
edge(114, 161).
edge(86, 188).
edge(134, 222).
edge(67, 190).
edge(42, 180).
edge(149, 191).
edge(63, 149).
edge(44, 69).
edge(37, 84).
edge(124, 188).
edge(131, 227).
edge(178, 222).
edge(12, 167).
edge(41, 89).
edge(66, 184).
edge(72, 179).
edge(134, 198).
edge(39, 155).
edge(128, 148).
edge(36, 182).
edge(48, 230).
edge(36, 78).
edge(69, 198).
edge(102, 225).
edge(151, 207).
edge(25, 52).
edge(5, 53).
edge(95, 125).
edge(138, 216).
edge(67, 141).
edge(57, 145).
edge(123, 176).
edge(121, 136).
edge(171, 185).
edge(4, 95).
edge(13, 227).
edge(42, 45).
edge(55, 87).
edge(192, 208).
edge(43, 224).
edge(109, 222).
edge(73, 97).
edge(148, 172).
edge(88, 181).
edge(151, 177).
edge(26, 194).
edge(38, 141).
edge(78, 170).
edge(98, 128).
edge(24, 207).
edge(9, 27).
edge(156, 191).
edge(27, 37).
edge(5, 35).
edge(48, 52).
edge(157, 163).
edge(25, 148).
edge(119, 217).
edge(79, 112).
edge(105, 185).
edge(1, 195).
edge(27, 217).
edge(21, 158).
edge(169, 198).
edge(18, 110).
edge(41, 176).
edge(33, 155).
edge(42, 64).
edge(59, 181).
edge(142, 168).
edge(8, 145).
edge(45, 217).
edge(92, 204).
edge(6, 11).
edge(120, 167).
edge(26, 64).
edge(41, 157).
edge(35, 69).
edge(110, 167).
edge(33, 121).
edge(132, 211).
edge(86, 230).
edge(166, 178).
edge(160, 181).
edge(105, 224).
edge(137, 172).
edge(80, 227).
edge(19, 21).
edge(5, 198).
edge(65, 188).
edge(1, 130).
edge(45, 227).
edge(116, 212).
edge(161, 215).
edge(9, 31).
edge(22, 73).
edge(50, 94).
edge(28, 120).
edge(117, 224).
edge(13, 154).
edge(99, 122).
edge(61, 85).
edge(24, 200).
edge(42, 166).
edge(20, 101).
edge(47, 180).
edge(24, 69).
edge(37, 203).
edge(110, 233).
edge(82, 186).
edge(74, 131).
edge(178, 187).
edge(196, 202).
edge(67, 169).
edge(157, 185).
edge(75, 137).
edge(176, 221).
edge(126, 151).
edge(0, 83).
edge(42, 125).
edge(32, 202).
edge(176, 184).
edge(40, 108).
edge(99, 137).
edge(23, 84).
edge(124, 131).
edge(53, 77).
edge(49, 132).
edge(20, 205).
edge(4, 100).
edge(90, 167).
edge(81, 168).
edge(20, 41).
edge(83, 117).
edge(29, 169).
edge(57, 215).
edge(91, 141).
edge(116, 158).
edge(137, 143).
edge(134, 177).
edge(102, 114).
edge(169, 217).
edge(177, 210).
edge(148, 163).
edge(33, 114).
edge(21, 201).
edge(112, 189).
edge(14, 200).
edge(102, 215).
edge(51, 96).
edge(133, 197).
edge(180, 216).
edge(28, 95).
edge(35, 137).
edge(116, 222).
edge(178, 211).
edge(68, 213).
edge(152, 198).
edge(59, 151).
edge(58, 174).
edge(37, 161).
edge(69, 128).
edge(67, 173).
edge(175, 190).
edge(14, 85).
edge(52, 166).
edge(41, 190).
edge(50, 227).
edge(57, 142).
edge(16, 91).
edge(147, 158).
edge(128, 154).
edge(52, 84).
edge(29, 148).
edge(156, 158).
edge(131, 168).
edge(64, 217).
edge(121, 193).
edge(32, 193).
edge(186, 218).
edge(96, 212).
edge(200, 228).
edge(157, 204).
edge(86, 200).
edge(3, 74).
edge(87, 102).
edge(55, 78).
edge(125, 186).
edge(140, 207).
edge(35, 192).
edge(18, 118).
edge(71, 184).
edge(55, 126).
edge(12, 69).
edge(117, 212).
edge(61, 158).
edge(143, 195).
edge(71, 127).
edge(55, 183).
edge(101, 134).
edge(174, 184).
edge(107, 224).
edge(115, 213).
edge(31, 137).
edge(95, 172).
edge(190, 232).
edge(74, 163).
edge(148, 213).
edge(145, 221).
edge(25, 150).
edge(55, 178).
edge(150, 205).
edge(3, 150).
edge(6, 82).
edge(49, 58).
edge(156, 159).
edge(154, 232).
edge(56, 133).
edge(153, 226).
edge(37, 99).
edge(6, 66).
edge(58, 194).
edge(157, 214).
edge(161, 182).
edge(25, 198).
edge(124, 167).
edge(77, 149).
edge(188, 215).
edge(127, 180).
edge(0, 169).
edge(42, 93).
edge(122, 194).
edge(45, 137).
edge(158, 167).
edge(220, 221).
edge(59, 162).
edge(74, 138).
edge(74, 189).
edge(14, 63).
edge(10, 88).
edge(31, 162).
edge(60, 234).
edge(11, 39).
edge(33, 182).
edge(7, 34).
edge(105, 190).
edge(1, 109).
edge(31, 159).
edge(17, 61).
edge(98, 141).
edge(63, 195).
edge(22, 135).
edge(16, 234).
edge(13, 223).
edge(92, 151).
edge(111, 140).
edge(45, 222).
edge(84, 154).
edge(33, 109).
edge(5, 30).
edge(221, 233).
edge(128, 225).
edge(165, 233).
edge(5, 28).
edge(5, 167).
edge(35, 55).
edge(78, 210).
edge(4, 154).
edge(85, 123).
edge(59, 124).
edge(145, 171).
edge(124, 216).
edge(97, 118).
edge(99, 133).
edge(112, 143).
edge(223, 229).
edge(71, 228).
edge(78, 121).
edge(102, 207).
edge(96, 123).
edge(12, 63).
edge(76, 94).
edge(22, 230).
edge(101, 144).
edge(10, 48).
edge(158, 174).
edge(83, 174).
edge(44, 173).
edge(137, 233).
edge(38, 164).
edge(53, 71).
edge(82, 207).
edge(160, 225).
edge(40, 114).
edge(26, 147).
edge(117, 153).
edge(99, 174).
edge(44, 45).
edge(162, 183).
edge(186, 190).
edge(10, 87).
edge(116, 168).
edge(1, 73).
edge(138, 233).
edge(57, 126).
edge(47, 178).
edge(157, 165).
edge(173, 228).
edge(63, 74).
edge(106, 145).
edge(70, 231).
edge(118, 162).
edge(207, 226).
edge(77, 167).
edge(98, 205).
edge(60, 188).
edge(122, 214).
edge(9, 192).
edge(113, 178).
edge(66, 154).
edge(74, 233).
edge(77, 163).
edge(145, 189).
edge(174, 233).
edge(80, 190).
edge(42, 84).
edge(127, 142).
edge(187, 205).
edge(15, 167).
edge(49, 208).
edge(81, 226).
edge(49, 90).
edge(138, 231).
edge(13, 51).
edge(175, 183).
edge(44, 204).
edge(114, 146).
edge(218, 225).
edge(5, 81).
edge(26, 77).
edge(206, 211).
edge(27, 171).
edge(37, 144).
edge(19, 125).
edge(63, 166).
edge(41, 220).
edge(37, 190).
edge(92, 96).
edge(95, 189).
edge(33, 113).
edge(57, 101).
edge(34, 54).
edge(36, 112).
edge(166, 174).
edge(71, 138).
edge(39, 157).
edge(150, 176).
edge(36, 95).
edge(66, 232).
edge(4, 98).
edge(200, 219).
edge(90, 104).
edge(165, 222).
edge(66, 163).
edge(63, 105).
edge(6, 86).
edge(83, 162).
edge(113, 134).
edge(107, 219).
edge(27, 174).
edge(62, 107).
edge(98, 211).
edge(62, 215).
edge(132, 171).
edge(23, 114).
edge(27, 73).
edge(183, 205).
edge(110, 177).
edge(74, 234).
edge(44, 150).
edge(168, 230).
edge(204, 227).
edge(65, 195).
edge(156, 189).
edge(11, 90).
edge(75, 106).
edge(39, 178).
edge(144, 151).
edge(25, 65).
edge(55, 149).
edge(80, 230).
edge(21, 217).
edge(36, 157).
edge(125, 168).
edge(101, 156).
edge(25, 220).
edge(34, 140).
edge(94, 137).
edge(65, 90).
edge(1, 225).
edge(53, 61).
edge(34, 76).
edge(111, 122).
edge(95, 173).
edge(16, 104).
edge(25, 59).
edge(32, 89).
edge(79, 222).
edge(64, 199).
edge(136, 140).
edge(45, 189).
edge(123, 208).
edge(195, 198).
edge(126, 195).
edge(108, 157).
edge(147, 168).
edge(43, 126).
edge(123, 213).
edge(36, 181).
edge(64, 94).
edge(41, 202).
edge(86, 107).
edge(21, 183).
edge(89, 229).
edge(109, 179).
edge(59, 199).
edge(4, 184).
edge(104, 234).
edge(94, 114).
edge(48, 170).
edge(131, 186).
edge(113, 181).
edge(40, 153).
edge(196, 197).
edge(159, 208).
edge(32, 224).
edge(31, 177).
edge(98, 208).
edge(172, 180).
edge(138, 171).
edge(3, 143).
edge(112, 231).
edge(146, 150).
edge(60, 197).
edge(16, 224).
edge(48, 56).
edge(70, 183).
edge(63, 124).
edge(169, 174).
edge(86, 232).
edge(88, 188).
edge(58, 171).
edge(34, 61).
edge(124, 193).
edge(56, 161).
edge(16, 175).
edge(47, 74).
edge(111, 230).
edge(43, 147).
edge(58, 199).
edge(176, 188).
edge(65, 175).
edge(39, 174).
edge(142, 226).
edge(51, 54).
edge(153, 156).
edge(92, 185).
edge(115, 225).
edge(8, 46).
edge(64, 137).
edge(40, 175).
edge(132, 173).
edge(36, 201).
edge(134, 193).
edge(27, 49).
edge(76, 138).
edge(170, 172).
edge(160, 193).
edge(18, 166).
edge(76, 187).
edge(68, 148).
edge(14, 103).
edge(185, 198).
edge(22, 82).
edge(3, 119).
edge(51, 204).
edge(151, 168).
edge(9, 50).
edge(101, 138).
edge(35, 211).
edge(15, 84).
edge(88, 144).
edge(108, 221).
edge(64, 111).
edge(116, 139).
edge(116, 161).
edge(35, 40).
edge(10, 209).
edge(47, 191).
edge(27, 61).
edge(46, 97).
edge(7, 91).
edge(6, 208).
edge(30, 225).
edge(93, 231).
edge(88, 158).
edge(52, 117).
edge(30, 102).
edge(136, 233).
edge(148, 225).
edge(95, 124).
edge(80, 228).
edge(54, 82).
edge(146, 214).
edge(76, 170).
edge(26, 99).
edge(19, 86).
edge(19, 27).
edge(200, 214).
edge(10, 153).
edge(221, 222).
edge(134, 175).
edge(177, 231).
edge(173, 181).
edge(88, 116).
edge(44, 127).
edge(32, 171).
edge(59, 80).
edge(184, 225).
edge(24, 92).
edge(45, 232).
edge(5, 187).
edge(87, 111).
edge(91, 166).
edge(48, 201).
edge(46, 113).
edge(103, 148).
edge(91, 210).
edge(95, 98).
edge(97, 139).
edge(34, 41).
edge(120, 179).
edge(71, 80).
edge(7, 16).
edge(70, 84).
edge(91, 206).
edge(139, 224).
edge(161, 165).
edge(1, 199).
edge(219, 225).
edge(183, 193).
edge(37, 140).
edge(14, 163).
edge(121, 137).
edge(20, 37).
edge(40, 45).
edge(83, 142).
edge(37, 123).
edge(109, 126).
edge(28, 97).
edge(151, 180).
edge(140, 153).
edge(39, 72).
edge(56, 198).
edge(95, 181).
edge(68, 166).
edge(19, 28).
edge(155, 203).
edge(15, 115).
edge(137, 168).
edge(49, 186).
edge(31, 70).
edge(3, 97).
edge(7, 178).
edge(80, 149).
edge(32, 74).
edge(36, 98).
edge(7, 64).
edge(13, 89).
edge(172, 178).
edge(67, 102).
edge(114, 233).
edge(89, 234).
edge(42, 175).
edge(59, 205).
edge(193, 234).
edge(21, 47).
edge(179, 220).
edge(39, 176).
edge(95, 210).
edge(112, 184).
edge(40, 226).
edge(75, 140).
edge(43, 144).
edge(21, 83).
edge(90, 173).
edge(17, 142).
edge(20, 225).
edge(128, 139).
edge(94, 150).
edge(112, 229).
edge(120, 125).
edge(0, 58).
edge(66, 199).
edge(105, 119).
edge(20, 76).
edge(3, 61).
edge(50, 203).
edge(23, 196).
edge(11, 176).
edge(89, 219).
edge(9, 114).
edge(19, 127).
edge(71, 129).
edge(104, 113).
edge(112, 151).
edge(39, 137).
edge(11, 96).
edge(5, 158).
edge(106, 129).
edge(12, 62).
edge(8, 27).
edge(161, 217).
edge(68, 191).
edge(75, 150).
edge(76, 89).
edge(183, 221).
edge(63, 103).
edge(96, 113).
edge(83, 88).
edge(33, 129).
edge(30, 82).
edge(74, 232).
edge(42, 112).
edge(128, 169).
edge(175, 178).
edge(142, 145).
edge(36, 224).
edge(81, 177).
edge(20, 126).
edge(89, 228).
edge(103, 107).
edge(53, 101).
edge(27, 142).
edge(37, 113).
edge(125, 233).
edge(15, 48).
edge(129, 185).
edge(15, 43).
edge(56, 155).
edge(69, 154).
edge(131, 148).
edge(50, 116).
edge(63, 223).
edge(21, 94).
edge(212, 222).
edge(99, 176).
edge(198, 207).
edge(42, 151).
edge(3, 104).
edge(25, 30).
edge(175, 231).
edge(88, 98).
edge(70, 108).
edge(111, 186).
edge(14, 64).
edge(66, 131).
edge(31, 151).
edge(64, 147).
edge(118, 215).
edge(63, 115).
edge(64, 194).
edge(55, 190).
edge(3, 57).
edge(8, 61).
edge(73, 117).
edge(142, 228).
edge(138, 173).
edge(209, 212).
edge(24, 89).
edge(32, 91).
edge(58, 74).
edge(209, 225).
edge(17, 77).
edge(41, 149).
edge(12, 140).
edge(90, 186).
edge(53, 104).
edge(203, 220).
edge(100, 188).
edge(204, 210).
edge(161, 220).
edge(31, 139).
edge(1, 132).
edge(183, 184).
edge(46, 75).
edge(9, 158).
edge(4, 185).
edge(100, 228).
edge(22, 41).
edge(94, 194).
edge(16, 23).
edge(62, 231).
edge(28, 109).
edge(65, 142).
edge(84, 231).
edge(67, 195).
edge(70, 208).
edge(155, 217).
edge(12, 151).
edge(189, 192).
edge(211, 220).
edge(109, 135).
edge(219, 234).
edge(24, 101).
edge(31, 93).
edge(200, 225).
edge(99, 101).
edge(44, 97).
edge(36, 183).
edge(96, 142).
edge(135, 232).
edge(10, 59).
edge(30, 182).
edge(49, 108).
edge(117, 152).
edge(133, 218).
edge(108, 142).
edge(92, 207).
edge(203, 210).
edge(34, 145).
edge(86, 205).
edge(107, 148).
edge(78, 227).
edge(80, 176).
edge(42, 116).
edge(122, 215).
edge(117, 129).
edge(25, 87).
edge(56, 196).
edge(58, 186).
edge(40, 112).
edge(15, 206).
edge(39, 175).
edge(27, 166).
edge(39, 132).
edge(87, 225).
edge(10, 183).
edge(7, 82).
edge(5, 215).
edge(53, 194).
edge(65, 70).
edge(29, 66).
edge(50, 222).
edge(57, 171).
edge(55, 160).
edge(13, 105).
edge(46, 140).
edge(151, 229).
edge(47, 179).
edge(0, 1).
edge(152, 161).
edge(195, 212).
edge(15, 30).
edge(102, 170).
edge(64, 75).
edge(93, 94).
edge(112, 167).
edge(10, 173).
edge(101, 104).
edge(191, 197).
edge(31, 132).
edge(43, 226).
edge(0, 219).
edge(151, 196).
edge(200, 201).
edge(0, 159).
edge(23, 44).
edge(104, 197).
edge(119, 201).
edge(14, 116).
edge(66, 218).
edge(59, 154).
edge(47, 135).
edge(153, 229).
edge(51, 138).
edge(49, 118).
edge(136, 163).
edge(13, 147).
edge(16, 92).
edge(144, 218).
edge(29, 115).
edge(63, 230).
edge(197, 204).
edge(11, 131).
edge(36, 116).
edge(55, 66).
edge(125, 127).
edge(12, 202).
edge(18, 129).
edge(66, 84).
edge(58, 206).
edge(85, 110).
edge(138, 148).
edge(113, 121).
edge(24, 167).
edge(137, 195).
edge(29, 229).
edge(61, 137).
edge(78, 111).
edge(78, 224).
edge(54, 127).
edge(36, 159).
edge(129, 167).
edge(112, 153).
edge(78, 195).
edge(43, 128).
edge(13, 74).
edge(84, 218).
edge(74, 147).
edge(129, 220).
edge(67, 107).
edge(102, 228).
edge(63, 71).
edge(31, 140).
edge(19, 234).
edge(96, 97).
edge(139, 156).
edge(6, 116).
edge(30, 218).
edge(180, 210).
edge(129, 210).
edge(61, 194).
edge(105, 162).
edge(87, 196).
edge(101, 116).
edge(16, 151).
edge(33, 64).
edge(45, 128).
edge(82, 95).
edge(57, 84).
edge(35, 193).
edge(13, 184).
edge(25, 26).
edge(91, 101).
edge(83, 100).
edge(21, 130).
edge(118, 195).
edge(16, 43).
edge(111, 138).
edge(22, 137).
edge(73, 182).
edge(97, 223).
edge(19, 103).
edge(37, 152).
edge(46, 177).
edge(155, 208).
edge(122, 216).
edge(125, 226).
edge(117, 151).
edge(74, 129).
edge(36, 56).
edge(93, 150).
edge(51, 194).
edge(80, 223).
edge(74, 109).
edge(37, 80).
edge(93, 130).
edge(80, 95).
edge(99, 145).
edge(4, 232).
edge(3, 170).
edge(57, 59).
edge(99, 214).
edge(102, 150).
edge(148, 186).
edge(45, 54).
edge(52, 228).
edge(136, 170).
edge(128, 222).
edge(111, 155).
edge(128, 171).
edge(75, 161).
edge(69, 183).
edge(18, 105).
edge(90, 110).
edge(49, 87).
edge(104, 181).
edge(187, 212).
edge(56, 146).
edge(56, 172).
edge(87, 198).
edge(153, 159).
edge(44, 234).
edge(20, 116).
edge(32, 41).
edge(126, 225).
edge(12, 30).
edge(0, 196).
edge(70, 150).
edge(133, 211).
edge(107, 172).
edge(25, 218).
edge(124, 185).
edge(33, 127).
edge(113, 115).
edge(13, 202).
edge(82, 104).
edge(10, 163).
edge(21, 145).
edge(94, 133).
edge(207, 229).
edge(16, 100).
edge(30, 126).
edge(75, 159).
edge(16, 58).
edge(64, 141).
edge(159, 200).
edge(111, 134).
edge(88, 156).
edge(103, 141).
edge(35, 152).
edge(93, 140).
edge(93, 132).
edge(48, 124).
edge(46, 223).
edge(32, 130).
edge(11, 141).
edge(63, 173).
edge(10, 226).
edge(7, 110).
edge(44, 124).
edge(161, 170).
edge(14, 173).
edge(127, 202).
edge(141, 164).
edge(99, 120).
edge(84, 183).
edge(110, 153).
edge(65, 223).
edge(133, 196).
edge(86, 98).
edge(17, 161).
edge(21, 116).
edge(69, 71).
edge(5, 109).
edge(64, 119).
edge(74, 196).
edge(20, 100).
edge(15, 34).
edge(203, 221).
edge(17, 152).
edge(47, 97).
edge(121, 167).
edge(171, 191).
edge(38, 210).
edge(80, 195).
edge(100, 151).
edge(93, 224).
edge(84, 94).
edge(93, 223).
edge(117, 207).
edge(78, 187).
edge(71, 199).
edge(127, 141).
edge(171, 180).
edge(28, 121).
edge(82, 106).
edge(116, 215).
edge(21, 55).
edge(15, 133).
edge(95, 135).
edge(61, 229).
edge(120, 203).
edge(55, 62).
edge(21, 164).
edge(24, 25).
edge(16, 171).
edge(55, 65).
edge(1, 54).
edge(5, 223).
edge(187, 226).
edge(100, 205).
edge(150, 194).
edge(12, 169).
edge(12, 111).
edge(72, 189).
edge(25, 70).
edge(20, 50).
edge(125, 163).
edge(120, 202).
edge(28, 58).
edge(58, 120).
edge(138, 185).
edge(185, 189).
edge(62, 97).
edge(123, 173).
edge(154, 155).
edge(62, 190).
edge(105, 132).
edge(64, 234).
edge(72, 108).
edge(85, 185).
edge(136, 191).
edge(20, 143).
edge(164, 201).
edge(58, 135).
edge(42, 202).
edge(63, 168).
edge(191, 196).
edge(55, 207).
edge(64, 173).
edge(9, 182).
edge(26, 120).
edge(54, 194).
edge(10, 172).
edge(70, 163).
edge(135, 139).
edge(54, 113).
edge(38, 232).
edge(151, 200).
edge(6, 198).
edge(119, 124).
edge(131, 203).
edge(12, 194).
edge(121, 199).
edge(133, 187).
edge(8, 151).
edge(188, 222).
edge(113, 136).
edge(11, 234).
edge(101, 142).
edge(128, 172).
edge(44, 179).
edge(54, 176).
edge(140, 201).
edge(153, 189).
edge(13, 191).
edge(128, 192).
edge(66, 78).
edge(17, 122).
edge(38, 52).
edge(7, 229).
edge(42, 106).
edge(126, 199).
edge(19, 36).
edge(138, 169).
edge(43, 45).
edge(32, 34).
edge(0, 234).
edge(53, 56).
edge(28, 63).
edge(116, 128).
edge(46, 219).
edge(192, 198).
edge(81, 221).
edge(71, 89).
edge(149, 209).
edge(67, 185).
edge(97, 234).
edge(65, 97).
edge(52, 58).
edge(9, 122).
edge(98, 228).
edge(54, 91).
edge(144, 157).
edge(43, 164).
edge(165, 209).
edge(62, 175).
edge(77, 231).
edge(80, 189).
edge(84, 107).
edge(203, 223).
edge(5, 207).
edge(84, 147).
edge(28, 161).
edge(20, 52).
edge(10, 179).
edge(123, 178).
edge(98, 209).
edge(124, 200).
edge(91, 214).
edge(220, 224).
edge(197, 213).
edge(68, 119).
edge(7, 171).
edge(168, 197).
edge(44, 125).
edge(44, 142).
edge(126, 229).
edge(92, 93).
edge(78, 222).
edge(74, 190).
edge(90, 151).
edge(33, 212).
edge(109, 157).
edge(24, 122).
edge(6, 105).
edge(159, 201).
edge(66, 216).
edge(170, 207).
edge(47, 121).
edge(9, 184).
edge(108, 178).
edge(209, 224).
edge(21, 218).
edge(113, 233).
edge(59, 216).
edge(47, 190).
edge(116, 136).
edge(103, 208).
edge(37, 115).
edge(11, 130).
edge(33, 211).
edge(128, 181).
edge(147, 209).
edge(101, 120).
edge(3, 83).
edge(34, 116).
edge(103, 108).
edge(210, 228).
edge(23, 54).
edge(96, 187).
edge(96, 176).
edge(104, 169).
edge(57, 111).
edge(30, 163).
edge(196, 206).
edge(60, 129).
edge(70, 217).
edge(77, 137).
edge(30, 124).
edge(118, 138).
edge(2, 224).
edge(33, 84).
edge(37, 73).
edge(146, 176).
edge(54, 130).
edge(89, 125).
edge(87, 158).
edge(65, 224).
edge(27, 148).
edge(140, 232).
edge(80, 178).
edge(142, 156).
edge(61, 100).
edge(2, 195).
edge(40, 143).
edge(55, 118).
edge(130, 147).
edge(41, 189).
edge(31, 77).
edge(78, 136).
edge(14, 225).
edge(95, 159).
edge(57, 79).
edge(95, 222).
edge(122, 227).
edge(13, 211).
edge(30, 151).
edge(76, 96).
edge(6, 179).
edge(103, 193).
edge(94, 231).
edge(128, 151).
edge(33, 48).
edge(34, 127).
edge(112, 125).
edge(171, 227).
edge(160, 177).
edge(23, 126).
edge(100, 137).
edge(158, 172).
edge(6, 183).
edge(159, 230).
edge(183, 186).
edge(214, 224).
edge(0, 12).
edge(60, 219).
edge(151, 233).
edge(88, 218).
edge(201, 229).
edge(72, 110).
edge(114, 219).
edge(7, 221).
edge(84, 151).
edge(159, 207).
edge(47, 60).
edge(73, 112).
edge(20, 191).
edge(117, 135).
edge(26, 221).
edge(91, 205).
edge(99, 142).
edge(184, 196).
edge(110, 136).
edge(174, 234).
edge(31, 234).
edge(8, 211).
edge(130, 208).
edge(50, 207).
edge(107, 150).
edge(13, 100).
edge(7, 63).
edge(6, 195).
edge(53, 152).
edge(71, 183).
edge(21, 149).
edge(84, 104).
edge(14, 118).
edge(118, 213).
edge(168, 176).
edge(93, 178).
edge(125, 129).
edge(126, 173).
edge(0, 69).
edge(71, 191).
edge(156, 223).
edge(34, 201).
edge(60, 99).
edge(113, 124).
edge(43, 172).
edge(55, 132).
edge(46, 228).
edge(161, 178).
edge(22, 202).
edge(27, 185).
edge(30, 55).
edge(60, 230).
edge(131, 138).
edge(72, 139).
edge(94, 191).
edge(2, 185).
edge(47, 131).
edge(21, 209).
edge(66, 141).
edge(7, 60).
edge(18, 173).
edge(16, 148).
edge(138, 184).
edge(116, 211).
edge(156, 214).
edge(0, 5).
edge(14, 34).
edge(95, 127).
edge(13, 185).
edge(173, 191).
edge(86, 142).
edge(67, 70).
edge(28, 151).
edge(23, 234).
edge(194, 233).
edge(89, 180).
edge(198, 200).
edge(157, 226).
edge(18, 139).
edge(155, 182).
edge(72, 173).
edge(78, 225).
edge(75, 203).
edge(18, 184).
edge(7, 40).
edge(6, 133).
edge(28, 126).
edge(24, 155).
edge(175, 177).
edge(26, 91).
edge(56, 129).
edge(35, 50).
edge(126, 150).
edge(63, 233).
edge(189, 193).
edge(9, 140).
edge(160, 216).
edge(131, 195).
edge(18, 133).
edge(104, 231).
edge(78, 104).
edge(74, 165).
edge(192, 232).
edge(101, 162).
edge(115, 207).
edge(39, 75).
edge(55, 100).
edge(86, 211).
edge(207, 223).
edge(124, 212).
edge(68, 103).
edge(14, 168).
edge(25, 37).
edge(99, 159).
edge(157, 188).
edge(87, 155).
edge(74, 187).
edge(43, 113).
edge(66, 197).
edge(87, 134).
edge(15, 24).
edge(213, 227).
edge(159, 202).
edge(1, 27).
edge(140, 144).
edge(54, 154).
edge(11, 76).
edge(94, 163).
edge(170, 216).
edge(96, 226).
edge(72, 194).
edge(46, 71).
edge(65, 86).
edge(42, 141).
edge(82, 195).
edge(45, 106).
edge(158, 232).
edge(5, 57).
edge(75, 113).
edge(7, 48).
edge(93, 167).
edge(44, 78).
edge(35, 159).
edge(44, 171).
edge(185, 205).
edge(21, 56).
edge(89, 163).
edge(9, 218).
edge(32, 133).
edge(140, 203).
edge(85, 217).
edge(25, 191).
edge(143, 188).
edge(33, 67).
edge(95, 107).
edge(129, 170).
edge(20, 93).
edge(187, 215).
edge(70, 106).
edge(23, 26).
edge(101, 135).
edge(3, 213).
edge(203, 215).
edge(143, 156).
edge(186, 207).
edge(116, 118).
edge(43, 74).
edge(74, 113).
edge(73, 227).
edge(116, 230).
edge(156, 197).
edge(67, 124).
edge(7, 70).
edge(83, 160).
edge(44, 105).
edge(17, 36).
edge(143, 174).
edge(24, 216).
edge(49, 52).
edge(121, 155).
edge(90, 115).
edge(160, 220).
edge(87, 90).
edge(76, 139).
edge(100, 150).
edge(58, 97).
edge(65, 173).
edge(22, 62).
edge(87, 173).
edge(212, 213).
edge(4, 173).
edge(60, 140).
edge(181, 228).
edge(43, 106).
edge(25, 51).
edge(126, 234).
edge(12, 104).
edge(21, 200).
edge(189, 230).
edge(47, 62).
edge(4, 159).
edge(88, 117).
edge(72, 109).
edge(78, 209).
edge(65, 122).
edge(45, 159).
edge(116, 130).
edge(97, 145).
edge(128, 164).
edge(143, 221).
edge(27, 60).
edge(8, 213).
edge(127, 189).
edge(2, 144).
edge(40, 200).
edge(67, 217).
edge(48, 110).
edge(169, 225).
edge(78, 131).
edge(176, 182).
edge(179, 208).
edge(71, 211).
edge(77, 198).
edge(63, 112).
edge(24, 91).
edge(71, 103).
edge(18, 22).
edge(63, 75).
edge(102, 202).
edge(43, 49).
edge(112, 195).
edge(131, 187).
edge(31, 113).
edge(130, 212).
edge(10, 18).
edge(76, 90).
edge(16, 197).
edge(97, 107).
edge(75, 169).
edge(18, 189).
edge(68, 105).
edge(15, 25).
edge(173, 176).
edge(64, 202).
edge(33, 172).
edge(125, 148).
edge(147, 228).
edge(46, 88).
edge(125, 134).
edge(148, 208).
edge(51, 195).
edge(195, 210).
edge(77, 113).
edge(63, 155).
edge(111, 118).
edge(87, 98).
edge(110, 182).
edge(17, 151).
edge(91, 219).
edge(116, 232).
edge(32, 141).
edge(17, 165).
edge(41, 210).
edge(22, 49).
edge(25, 168).
edge(84, 110).
edge(46, 212).
edge(15, 50).
edge(50, 185).
edge(24, 185).
edge(47, 157).
edge(176, 207).
edge(145, 207).
edge(163, 218).
edge(0, 136).
edge(41, 76).
edge(115, 154).
edge(157, 200).
edge(151, 221).
edge(57, 181).
edge(45, 66).
edge(155, 230).
edge(58, 145).
edge(8, 23).
edge(85, 92).
edge(77, 160).
edge(66, 71).
edge(14, 52).
edge(224, 227).
edge(27, 141).
edge(132, 193).
edge(104, 110).
edge(31, 87).
edge(26, 126).
edge(1, 125).
edge(41, 78).
edge(34, 65).
edge(21, 74).
edge(68, 95).
edge(51, 174).
edge(158, 186).
edge(91, 152).
edge(171, 222).
edge(148, 226).
edge(103, 110).
edge(107, 115).
edge(10, 206).
edge(68, 160).
edge(117, 233).
edge(29, 134).
edge(59, 203).
edge(5, 111).
edge(173, 209).
edge(34, 58).
edge(31, 202).
edge(36, 69).
edge(22, 55).
edge(18, 93).
edge(5, 15).
edge(84, 105).
edge(47, 217).
edge(71, 120).
edge(143, 224).
edge(63, 134).
edge(137, 177).
edge(198, 221).
edge(49, 95).
edge(82, 134).
edge(12, 150).
edge(91, 112).
edge(136, 199).
edge(112, 203).
edge(67, 216).
edge(40, 49).
edge(142, 209).
edge(9, 126).
edge(88, 151).
edge(42, 97).
edge(2, 209).
edge(14, 215).
edge(5, 140).
edge(17, 98).
edge(57, 216).
edge(154, 167).
edge(118, 211).
edge(75, 117).
edge(57, 137).
edge(221, 230).
edge(51, 153).
edge(129, 161).
edge(154, 162).
edge(164, 193).
edge(83, 141).
edge(123, 181).
edge(111, 143).
edge(172, 186).
edge(72, 95).
edge(47, 104).
edge(137, 170).
edge(26, 171).
edge(130, 137).
edge(133, 194).
edge(128, 142).
edge(17, 100).
edge(115, 201).
edge(157, 202).
edge(63, 111).
edge(63, 198).
edge(10, 60).
edge(107, 114).
edge(53, 181).
edge(25, 125).
edge(15, 225).
edge(63, 161).
edge(9, 180).
edge(20, 151).
edge(5, 31).
edge(151, 202).
edge(165, 179).
edge(143, 220).
edge(28, 233).
edge(82, 129).
edge(44, 184).
edge(50, 194).
edge(37, 176).
edge(112, 152).
edge(27, 150).
edge(22, 52).
edge(178, 209).
edge(202, 210).
edge(49, 154).
edge(56, 94).
edge(104, 205).
edge(87, 193).
edge(153, 200).
edge(39, 188).
edge(25, 86).
edge(15, 53).
edge(0, 117).
edge(7, 83).
edge(165, 228).
edge(44, 106).
edge(107, 202).
edge(189, 208).
edge(8, 137).
edge(79, 216).
edge(143, 183).
edge(88, 185).
edge(52, 90).
edge(56, 163).
edge(109, 185).
edge(102, 193).
edge(62, 232).
edge(50, 124).
edge(197, 227).
edge(30, 104).
edge(203, 227).
edge(9, 215).
edge(50, 61).
edge(86, 194).
edge(141, 189).
edge(170, 208).
edge(36, 61).
edge(48, 132).
edge(102, 164).
edge(29, 96).
edge(101, 208).
edge(19, 84).
edge(19, 143).
edge(33, 59).
edge(59, 173).
edge(54, 100).
edge(24, 109).
edge(138, 154).
edge(9, 219).
edge(65, 117).
edge(18, 161).
edge(50, 75).
edge(15, 234).
edge(91, 189).
edge(34, 109).
edge(122, 231).
edge(57, 152).
edge(73, 118).
edge(99, 208).
edge(46, 225).
edge(20, 55).
edge(109, 132).
edge(37, 137).
edge(27, 223).
edge(36, 176).
edge(38, 53).
edge(14, 139).
edge(167, 219).
edge(54, 132).
edge(78, 90).
edge(60, 95).
edge(103, 151).
edge(89, 90).
edge(20, 63).
edge(49, 220).
edge(123, 225).
edge(124, 231).
edge(90, 101).
edge(163, 166).
edge(56, 111).
edge(89, 187).
edge(136, 179).
edge(87, 89).
edge(15, 171).
edge(68, 175).
edge(126, 184).
edge(26, 185).
edge(122, 234).
edge(43, 53).
edge(63, 202).
edge(167, 174).
edge(33, 197).
edge(114, 165).
edge(115, 198).
edge(13, 159).
edge(1, 137).
edge(32, 232).
edge(39, 150).
edge(111, 165).
edge(39, 125).
edge(114, 145).
edge(38, 81).
edge(31, 105).
edge(100, 202).
edge(15, 216).
edge(168, 177).
edge(81, 144).
edge(88, 114).
edge(7, 114).
edge(47, 159).
edge(50, 214).
edge(18, 196).
edge(58, 113).
edge(12, 28).
edge(66, 91).
edge(156, 194).
edge(11, 205).
edge(83, 176).
edge(31, 94).
edge(137, 145).
edge(35, 157).
edge(83, 222).
edge(140, 195).
edge(45, 177).
edge(34, 71).
edge(138, 158).
edge(22, 229).
edge(116, 144).
edge(116, 213).
edge(24, 59).
edge(188, 190).
edge(196, 223).
edge(111, 144).
edge(222, 223).
edge(16, 49).
edge(55, 76).
edge(57, 207).
edge(30, 160).
edge(2, 134).
edge(66, 68).
edge(54, 190).
edge(72, 207).
edge(52, 132).
edge(142, 229).
edge(145, 216).
edge(75, 87).
edge(85, 181).
edge(19, 224).
edge(83, 138).
edge(210, 233).
edge(50, 52).
edge(33, 104).
edge(124, 207).
edge(67, 153).
edge(67, 166).
edge(130, 196).
edge(158, 179).
edge(33, 190).
edge(1, 221).
edge(110, 127).
edge(46, 68).
edge(136, 143).
edge(54, 213).
edge(12, 230).
edge(202, 217).
edge(5, 92).
edge(136, 215).
edge(118, 132).
edge(223, 226).
edge(110, 144).
edge(151, 175).
edge(34, 97).
edge(98, 163).
edge(2, 149).
edge(134, 191).
edge(44, 56).
edge(140, 169).
edge(97, 133).
edge(15, 28).
edge(100, 139).
edge(155, 165).
edge(84, 181).
edge(93, 106).
edge(71, 186).
edge(65, 80).
edge(164, 194).
edge(45, 153).
edge(70, 185).
edge(110, 149).
edge(55, 186).
edge(134, 224).
edge(78, 204).
edge(117, 133).
edge(77, 188).
edge(1, 33).
edge(96, 167).
edge(41, 58).
edge(70, 111).
edge(81, 193).
edge(136, 227).
edge(23, 50).
edge(113, 135).
edge(120, 220).
edge(222, 229).
edge(7, 189).
edge(73, 164).
edge(46, 106).
edge(65, 135).
edge(88, 170).
edge(95, 131).
edge(105, 228).
edge(11, 231).
edge(123, 144).
edge(7, 39).
edge(162, 180).
edge(57, 75).
edge(101, 121).
edge(40, 178).
edge(104, 212).
edge(50, 71).
edge(87, 180).
edge(153, 197).
edge(148, 233).
edge(165, 189).
edge(118, 234).
edge(94, 126).
edge(95, 111).
edge(111, 145).
edge(35, 213).
edge(177, 190).
edge(62, 136).
edge(134, 144).
edge(22, 36).
edge(32, 80).
edge(69, 230).
edge(87, 153).
edge(121, 181).
edge(35, 53).
edge(37, 77).
edge(61, 134).
edge(111, 218).
edge(52, 159).
edge(206, 223).
edge(154, 205).
edge(156, 218).
edge(71, 172).
edge(31, 49).
edge(40, 64).
edge(3, 191).
edge(12, 138).
edge(187, 219).
edge(112, 129).
edge(129, 162).
edge(34, 228).
edge(74, 160).
edge(44, 79).
edge(183, 198).
edge(231, 234).
edge(156, 165).
edge(128, 161).
edge(105, 226).
edge(117, 199).
edge(42, 46).
edge(173, 203).
edge(154, 227).
edge(0, 145).
edge(112, 234).
edge(29, 133).
edge(89, 204).
edge(11, 202).
edge(31, 102).
edge(63, 106).
edge(74, 183).
edge(11, 217).
edge(46, 146).
edge(74, 77).
edge(52, 59).
edge(147, 223).
edge(6, 29).
edge(87, 94).
edge(94, 216).
edge(82, 116).
edge(47, 77).
edge(182, 218).
edge(124, 137).
edge(158, 225).
edge(8, 176).
edge(103, 219).
edge(141, 227).
edge(89, 203).
edge(92, 122).
edge(36, 208).
edge(108, 211).
edge(25, 204).
edge(32, 230).
edge(27, 136).
edge(132, 185).
edge(189, 194).
edge(139, 223).
edge(19, 114).
edge(149, 170).
edge(18, 55).
edge(166, 228).
edge(34, 151).
edge(116, 188).
edge(0, 91).
edge(82, 93).
edge(29, 182).
edge(59, 231).
edge(17, 85).
edge(78, 174).
edge(48, 106).
edge(11, 175).
edge(88, 230).
edge(14, 16).
edge(88, 234).
edge(5, 62).
edge(11, 150).
edge(31, 98).
edge(31, 145).
edge(175, 180).
edge(52, 179).
edge(137, 155).
edge(160, 221).
edge(25, 60).
edge(133, 163).
edge(24, 224).
edge(116, 221).
edge(45, 67).
edge(107, 188).
edge(5, 78).
edge(82, 144).
edge(29, 172).
edge(63, 227).
edge(29, 123).
edge(13, 204).
edge(48, 135).
edge(99, 183).
edge(190, 212).
edge(80, 186).
edge(85, 195).
edge(52, 92).
edge(28, 62).
edge(98, 103).
edge(152, 154).
edge(90, 230).
edge(42, 199).
edge(0, 132).
edge(56, 112).
edge(187, 230).
edge(72, 201).
edge(13, 206).
edge(102, 109).
edge(16, 59).
edge(67, 89).
edge(2, 145).
edge(76, 155).
edge(32, 220).
edge(31, 68).
edge(221, 229).
edge(43, 229).
edge(94, 202).
edge(110, 214).
edge(65, 134).
edge(18, 41).
edge(34, 95).
edge(8, 95).
edge(87, 224).
edge(66, 213).
edge(64, 107).
edge(119, 156).
edge(13, 232).
edge(7, 203).
edge(68, 143).
edge(28, 191).
edge(146, 233).
edge(70, 105).
edge(121, 179).
edge(162, 188).
edge(97, 216).
edge(144, 202).
edge(215, 217).
edge(5, 211).
edge(68, 117).
edge(112, 122).
edge(58, 159).
edge(33, 60).
edge(105, 106).
edge(7, 41).
edge(114, 186).
edge(7, 117).
edge(76, 160).
edge(10, 229).
edge(121, 222).
edge(223, 225).
edge(128, 233).
edge(114, 207).
edge(97, 177).
edge(189, 213).
edge(87, 142).
edge(30, 139).
edge(52, 73).
edge(103, 161).
edge(116, 135).
edge(14, 45).
edge(152, 222).
edge(82, 219).
edge(114, 149).
edge(69, 122).
edge(84, 145).
edge(50, 83).
edge(92, 208).
edge(88, 228).
edge(117, 218).
edge(115, 140).
edge(97, 176).
edge(69, 173).
edge(27, 175).
edge(56, 225).
edge(160, 184).
edge(25, 99).
edge(70, 172).
edge(54, 188).
edge(10, 217).
edge(45, 71).
edge(10, 80).
edge(15, 177).
edge(82, 96).
edge(145, 214).
edge(72, 113).
edge(33, 39).
edge(71, 137).
edge(10, 136).
edge(17, 160).
edge(63, 203).
edge(131, 230).
edge(119, 227).
edge(38, 223).
edge(41, 64).
edge(82, 88).
edge(81, 147).
edge(39, 140).
edge(120, 204).
edge(6, 36).
edge(109, 205).
edge(118, 143).
edge(32, 62).
edge(42, 157).
edge(87, 232).
edge(95, 152).
edge(171, 218).
edge(74, 185).
edge(7, 183).
edge(62, 85).
edge(202, 215).
edge(13, 126).
edge(144, 234).
edge(23, 232).
edge(201, 204).
edge(119, 158).
edge(44, 166).
edge(73, 189).
edge(3, 165).
edge(164, 185).
edge(21, 171).
edge(64, 205).
edge(184, 194).
edge(14, 142).
edge(24, 140).
edge(87, 194).
edge(166, 222).
edge(108, 123).
edge(63, 172).
edge(76, 192).
edge(127, 172).
edge(126, 133).
edge(45, 140).
edge(94, 189).
edge(73, 153).
edge(31, 47).
edge(166, 169).
edge(19, 26).
edge(47, 54).
edge(57, 94).
edge(38, 92).
edge(19, 178).
edge(0, 175).
edge(162, 172).
edge(61, 217).
edge(14, 206).
edge(139, 233).
edge(9, 11).
edge(109, 210).
edge(59, 150).
edge(213, 223).
edge(29, 202).
edge(69, 150).
edge(109, 215).
edge(71, 215).
edge(164, 176).
edge(88, 168).
edge(94, 214).
edge(62, 72).
edge(4, 16).
edge(57, 120).
edge(35, 214).
edge(23, 127).
edge(132, 200).
edge(113, 224).
edge(36, 47).
edge(76, 143).
edge(9, 86).
edge(109, 184).
edge(62, 124).
edge(56, 109).
edge(10, 90).
edge(11, 45).
edge(129, 131).
edge(98, 233).
edge(2, 207).
edge(133, 208).
edge(0, 46).
edge(152, 226).
edge(36, 197).
edge(15, 58).
edge(117, 119).
edge(189, 227).
edge(131, 143).
edge(71, 165).
edge(205, 212).
edge(104, 129).
edge(112, 222).
edge(125, 217).
edge(50, 210).
edge(102, 121).
edge(2, 62).
edge(68, 127).
edge(128, 163).
edge(17, 216).
edge(92, 202).
edge(179, 211).
edge(21, 125).
edge(101, 147).
edge(39, 203).
edge(4, 82).
edge(111, 183).
edge(64, 172).
edge(26, 159).
edge(115, 170).
edge(121, 146).
edge(66, 189).
edge(114, 137).
edge(0, 114).
edge(145, 159).
edge(165, 213).
edge(11, 132).
edge(60, 90).
edge(177, 225).
edge(37, 49).
edge(158, 162).
edge(20, 114).
edge(39, 84).
edge(65, 145).
edge(97, 103).
edge(44, 65).
edge(102, 112).
edge(116, 165).
edge(0, 150).
edge(38, 106).
edge(17, 59).
edge(56, 170).
edge(95, 156).
edge(1, 127).
edge(55, 124).
edge(102, 108).
edge(181, 192).
edge(13, 32).
edge(97, 191).
edge(100, 107).
edge(42, 48).
edge(152, 209).
edge(0, 106).
edge(129, 193).
edge(216, 230).
edge(67, 121).
edge(95, 117).
edge(170, 171).
edge(82, 115).
edge(7, 175).
edge(49, 68).
edge(180, 217).
edge(110, 145).
edge(102, 105).
edge(161, 225).
edge(10, 99).
edge(90, 172).
edge(105, 107).
edge(70, 215).
edge(64, 189).
edge(79, 82).
edge(18, 67).
edge(104, 130).
edge(44, 155).
edge(42, 147).
edge(26, 121).
edge(133, 165).
edge(104, 218).
edge(35, 93).
edge(26, 33).
edge(69, 133).
edge(12, 217).
edge(91, 129).
edge(36, 213).
edge(175, 230).
edge(81, 190).
edge(159, 182).
edge(4, 140).
edge(35, 111).
edge(6, 233).
edge(56, 116).
edge(40, 147).
edge(46, 143).
edge(14, 199).
edge(72, 75).
edge(73, 162).
edge(36, 71).
edge(185, 203).
edge(170, 210).
edge(83, 139).
edge(9, 188).
edge(34, 209).
edge(4, 210).
edge(73, 209).
edge(44, 187).
edge(32, 117).
edge(128, 173).
edge(17, 103).
edge(213, 231).
edge(157, 207).
edge(2, 3).
edge(124, 160).
edge(78, 182).
edge(79, 148).
edge(77, 116).
edge(33, 68).
edge(162, 219).
edge(89, 121).
edge(167, 200).
edge(21, 186).
edge(131, 196).
edge(26, 175).
edge(20, 234).
edge(186, 198).
edge(168, 179).
edge(96, 221).
edge(14, 60).
edge(137, 151).
edge(18, 171).
edge(143, 168).
edge(112, 147).
edge(165, 208).
edge(116, 217).
edge(7, 53).
edge(120, 135).
edge(113, 129).
edge(42, 222).
edge(84, 149).
edge(85, 142).
edge(27, 216).
edge(124, 181).
edge(63, 89).
edge(33, 141).
edge(18, 204).
edge(46, 51).
edge(82, 145).
edge(57, 166).
edge(157, 169).
edge(133, 175).
edge(37, 89).
edge(146, 178).
edge(21, 225).
edge(39, 225).
edge(26, 151).
edge(193, 198).
edge(106, 125).
edge(107, 194).
edge(111, 176).
edge(141, 194).
edge(48, 53).
edge(6, 146).
edge(90, 123).
edge(191, 224).
edge(33, 46).
edge(130, 133).
edge(41, 130).
edge(52, 71).
edge(4, 65).
edge(41, 160).
edge(189, 229).
edge(37, 225).
edge(173, 224).
edge(85, 207).
edge(4, 37).
edge(101, 231).
edge(83, 230).
edge(62, 142).
edge(11, 158).
edge(45, 205).
edge(32, 181).
edge(22, 83).
edge(57, 168).
edge(171, 215).
edge(13, 108).
edge(156, 164).
edge(66, 150).
edge(43, 200).
edge(139, 161).
edge(134, 168).
edge(43, 201).
edge(75, 175).
edge(126, 130).
edge(94, 190).
edge(99, 153).
edge(109, 133).
edge(162, 220).
edge(88, 93).
edge(132, 163).
edge(131, 192).
edge(2, 19).
edge(101, 117).
edge(159, 206).
edge(132, 186).
edge(7, 12).
edge(48, 141).
edge(38, 130).
edge(22, 106).
edge(77, 217).
edge(189, 223).
edge(46, 148).
edge(32, 42).
edge(158, 219).
edge(17, 131).
edge(22, 97).
edge(39, 44).
edge(170, 212).
edge(82, 176).
edge(184, 202).
edge(105, 225).
edge(6, 132).
edge(89, 143).
edge(160, 203).
edge(4, 177).
edge(74, 218).
edge(6, 43).
edge(19, 161).
edge(27, 229).
edge(175, 179).
edge(175, 186).
edge(209, 229).
edge(127, 132).
edge(102, 147).
edge(46, 197).
edge(82, 90).
edge(125, 179).
edge(165, 211).
edge(17, 143).
edge(164, 183).
edge(9, 81).
edge(128, 196).
edge(64, 70).
edge(193, 196).
edge(94, 182).
edge(107, 112).
edge(6, 83).
edge(229, 230).
edge(102, 219).
edge(46, 206).
edge(103, 129).
edge(65, 176).
edge(123, 226).
edge(60, 181).
edge(79, 149).
edge(77, 128).
edge(83, 113).
edge(210, 223).
edge(60, 191).
edge(85, 167).
edge(24, 114).
edge(176, 204).
edge(116, 142).
edge(3, 217).
edge(6, 17).
edge(84, 172).
edge(38, 158).
edge(51, 212).
edge(66, 92).
edge(15, 67).
edge(32, 84).
edge(35, 118).
edge(10, 42).
edge(153, 154).
edge(97, 166).
edge(84, 106).
edge(138, 149).
edge(23, 98).
edge(147, 211).
edge(147, 150).
edge(117, 125).
edge(85, 153).
edge(37, 208).
edge(42, 85).
edge(165, 170).
edge(83, 179).
edge(130, 194).
edge(60, 113).
edge(47, 222).
edge(25, 31).
edge(131, 141).
edge(141, 231).
edge(22, 221).
edge(98, 189).
edge(4, 149).
edge(80, 122).
edge(183, 226).
edge(141, 154).
edge(50, 107).
edge(108, 159).
edge(139, 181).
edge(33, 234).
edge(40, 172).
edge(99, 134).
edge(97, 188).
edge(20, 212).
edge(47, 149).
edge(115, 183).
edge(160, 182).
edge(47, 204).
edge(26, 43).
edge(99, 138).
edge(72, 88).
edge(55, 171).
edge(77, 84).
edge(33, 158).
edge(85, 229).
edge(125, 185).
edge(178, 227).
edge(27, 58).
edge(133, 185).
edge(19, 183).
edge(55, 180).
edge(112, 197).
edge(27, 116).
edge(59, 148).
edge(98, 215).
edge(27, 133).
edge(150, 220).
edge(48, 84).
edge(38, 85).
edge(31, 193).
edge(130, 201).
edge(13, 187).
edge(112, 117).
edge(0, 131).
edge(156, 179).
edge(23, 103).
edge(68, 222).
edge(109, 213).
edge(55, 83).
edge(63, 65).
edge(158, 197).
edge(123, 185).
edge(162, 168).
edge(85, 172).
edge(160, 168).
edge(37, 170).
edge(95, 201).
edge(173, 195).
edge(18, 156).
edge(70, 129).
edge(1, 111).
edge(175, 222).
edge(37, 136).
edge(147, 180).
edge(175, 187).
edge(142, 222).
edge(95, 100).
edge(45, 86).
edge(6, 117).
edge(153, 192).
edge(66, 233).
edge(22, 231).
edge(21, 38).
edge(37, 54).
edge(48, 197).
edge(37, 207).
edge(127, 219).
edge(15, 66).
edge(80, 155).
edge(25, 188).
edge(45, 190).
edge(26, 206).
edge(113, 191).
edge(65, 177).
edge(58, 125).
edge(102, 227).
edge(147, 190).
edge(40, 144).
edge(13, 23).
edge(36, 82).
edge(79, 131).
edge(85, 121).
edge(31, 229).
edge(6, 110).
edge(169, 172).
edge(25, 84).
edge(50, 170).
edge(26, 179).
edge(87, 96).
edge(56, 177).
edge(4, 70).
edge(141, 158).
edge(219, 230).
edge(50, 229).
edge(0, 36).
edge(150, 206).
edge(34, 36).
edge(60, 143).
edge(24, 108).
edge(77, 164).
edge(49, 122).
edge(96, 162).
edge(168, 204).
edge(190, 214).
edge(108, 155).
edge(33, 50).
edge(76, 154).
edge(174, 185).
edge(11, 223).
edge(102, 161).
edge(198, 222).
edge(8, 83).
edge(52, 100).
edge(39, 110).
edge(118, 218).
edge(86, 149).
edge(39, 53).
edge(134, 156).
edge(95, 170).
edge(103, 189).
edge(141, 186).
edge(120, 121).
edge(1, 98).
edge(107, 170).
edge(64, 168).
edge(47, 231).
edge(94, 125).
edge(30, 217).
edge(79, 156).
edge(55, 92).
edge(101, 157).
edge(208, 223).
edge(77, 221).
edge(126, 189).
edge(47, 127).
edge(67, 232).
edge(92, 210).
edge(12, 126).
edge(23, 162).
edge(49, 194).
edge(35, 39).
edge(103, 134).
edge(40, 60).
edge(47, 98).
edge(85, 204).
edge(74, 150).
edge(49, 56).
edge(163, 214).
edge(177, 195).
edge(66, 226).
edge(5, 123).
edge(51, 158).
edge(69, 195).
edge(114, 203).
edge(14, 220).
edge(27, 89).
edge(44, 202).
edge(22, 111).
edge(41, 125).
edge(30, 170).
edge(85, 139).
edge(1, 206).
edge(177, 227).
edge(216, 217).
edge(16, 212).
edge(192, 204).
edge(197, 199).
edge(55, 232).
edge(106, 154).
edge(48, 88).
edge(14, 193).
edge(76, 206).
edge(79, 234).
edge(168, 214).
edge(7, 18).
edge(124, 174).
edge(140, 164).
edge(94, 112).
edge(52, 122).
edge(14, 196).
edge(104, 157).
edge(28, 69).
edge(60, 110).
edge(22, 29).
edge(28, 181).
edge(6, 109).
edge(17, 157).
edge(10, 212).
edge(11, 213).
edge(46, 60).
edge(220, 229).
edge(3, 155).
edge(69, 80).
edge(121, 232).
edge(11, 187).
edge(103, 205).
edge(25, 192).
edge(64, 165).
edge(94, 105).
edge(62, 113).
edge(162, 165).
edge(132, 156).
edge(20, 124).
edge(167, 215).
edge(31, 218).
edge(37, 177).
edge(15, 99).
edge(62, 78).
edge(76, 124).
edge(4, 58).
edge(58, 136).
edge(2, 50).
edge(105, 171).
edge(47, 189).
edge(139, 194).
edge(64, 225).
edge(180, 220).
edge(157, 170).
edge(123, 174).
edge(148, 234).
edge(47, 146).
edge(68, 72).
edge(10, 111).
edge(153, 184).
edge(56, 63).
edge(68, 163).
edge(141, 170).
edge(28, 129).
edge(76, 217).
edge(150, 207).
edge(140, 151).
edge(50, 60).
edge(45, 69).
edge(131, 219).
edge(134, 171).
edge(211, 234).
edge(48, 116).
edge(91, 177).
edge(21, 221).
edge(107, 225).
edge(24, 138).
edge(81, 180).
edge(65, 137).
edge(135, 149).
edge(72, 202).
edge(142, 217).
edge(9, 163).
edge(133, 168).
edge(97, 172).
edge(35, 68).
edge(87, 131).
edge(159, 189).
edge(216, 223).
edge(9, 30).
edge(0, 170).
edge(93, 105).
edge(69, 116).
edge(61, 161).
edge(96, 143).
edge(50, 99).
edge(196, 205).
edge(48, 192).
edge(103, 157).
edge(18, 162).
edge(14, 159).
edge(74, 156).
edge(112, 149).
edge(51, 135).
edge(114, 139).
edge(2, 157).
edge(166, 209).
edge(96, 216).
edge(117, 196).
edge(124, 224).
edge(87, 226).
edge(73, 170).
edge(76, 214).
edge(64, 219).
edge(117, 185).
edge(152, 158).
edge(83, 105).
edge(73, 205).
edge(48, 67).
edge(109, 129).
edge(38, 54).
edge(135, 155).
edge(175, 182).
edge(21, 103).
edge(90, 98).
edge(43, 76).
edge(77, 92).
edge(8, 38).
edge(27, 218).
edge(25, 54).
edge(172, 201).
edge(76, 201).
edge(53, 136).
edge(145, 167).
edge(2, 120).
edge(61, 192).
edge(173, 182).
edge(83, 182).
edge(14, 79).
edge(65, 210).
edge(84, 111).
edge(52, 193).
edge(157, 211).
edge(191, 234).
edge(93, 136).
edge(86, 112).
edge(10, 204).
edge(141, 146).
edge(13, 65).
edge(130, 146).
edge(75, 179).
edge(36, 232).
edge(125, 202).
edge(158, 192).
edge(22, 189).
edge(51, 205).
edge(12, 71).
edge(109, 137).
edge(166, 197).
edge(46, 168).
edge(46, 124).
edge(23, 59).
edge(47, 187).
edge(86, 207).
edge(41, 168).
edge(23, 70).
edge(4, 172).
edge(119, 190).
edge(12, 181).
edge(47, 58).
edge(5, 199).
edge(37, 79).
edge(27, 195).
edge(60, 229).
edge(129, 145).
edge(58, 213).
edge(0, 85).
edge(192, 212).
edge(27, 231).
edge(73, 126).
edge(9, 18).
edge(11, 17).
edge(145, 194).
edge(10, 83).
edge(104, 124).
edge(203, 204).
edge(189, 211).
edge(67, 200).
edge(17, 67).
edge(46, 81).
edge(136, 193).
edge(38, 75).
edge(103, 201).
edge(7, 190).
edge(104, 141).
edge(68, 77).
edge(72, 129).
edge(52, 77).
edge(17, 177).
edge(6, 49).
edge(141, 213).
edge(100, 115).
edge(43, 143).
edge(49, 124).
edge(54, 225).
edge(169, 205).
edge(112, 228).
edge(39, 79).
edge(154, 161).
edge(32, 49).
edge(52, 118).
edge(68, 208).
edge(54, 109).
edge(35, 223).
edge(20, 25).
edge(87, 140).
edge(78, 185).
edge(20, 134).
edge(37, 193).
edge(148, 156).
edge(50, 144).
edge(67, 126).
edge(106, 227).
edge(1, 134).
edge(54, 101).
edge(3, 138).
edge(14, 24).
edge(51, 55).
edge(9, 21).
edge(106, 222).
edge(50, 178).
edge(54, 139).
edge(86, 150).
edge(201, 219).
edge(153, 170).
edge(178, 208).
edge(191, 205).
edge(5, 217).
edge(188, 225).
edge(120, 180).
edge(52, 76).
edge(157, 228).
edge(19, 155).
edge(132, 174).
edge(150, 160).
edge(5, 147).
edge(5, 36).
edge(80, 83).
edge(59, 164).
edge(34, 64).
edge(26, 163).
edge(155, 204).
edge(119, 155).
edge(127, 179).
edge(8, 180).
edge(5, 232).
edge(121, 228).
edge(69, 153).
edge(85, 125).
edge(38, 89).
edge(119, 216).
edge(78, 234).
edge(21, 114).
edge(21, 76).
edge(84, 193).
edge(59, 62).
edge(49, 167).
edge(180, 201).
edge(142, 200).
edge(121, 230).
edge(99, 172).
edge(187, 197).
edge(101, 114).
edge(50, 98).
edge(84, 215).
edge(73, 134).
edge(48, 81).
edge(54, 206).
edge(198, 208).
edge(52, 208).
edge(20, 162).
edge(159, 170).
edge(65, 216).
edge(63, 88).
edge(58, 156).
edge(35, 91).
edge(0, 22).
edge(2, 96).
edge(57, 158).
edge(73, 99).
edge(64, 138).
edge(73, 94).
edge(79, 200).
edge(68, 176).
edge(115, 228).
edge(57, 116).
edge(8, 140).
edge(22, 53).
edge(0, 171).
edge(0, 203).
edge(55, 212).
edge(52, 162).
edge(13, 44).
edge(33, 208).
edge(103, 123).
edge(69, 169).
edge(8, 9).
edge(38, 162).
edge(76, 204).
edge(100, 124).
edge(107, 186).
edge(53, 72).
edge(14, 227).
edge(151, 215).
edge(117, 168).
edge(28, 156).
edge(31, 56).
edge(29, 221).
edge(90, 223).
edge(70, 85).
edge(17, 226).
edge(100, 225).
edge(9, 17).
edge(82, 122).
edge(92, 100).
edge(145, 174).
edge(117, 164).
edge(157, 227).
edge(49, 79).
edge(92, 201).
edge(55, 196).
edge(104, 230).
edge(4, 157).
edge(46, 111).
edge(47, 125).
edge(21, 68).
edge(171, 209).
edge(101, 150).
edge(34, 160).
edge(83, 197).
edge(99, 131).
edge(55, 84).
edge(103, 182).
edge(46, 129).
edge(105, 149).
edge(107, 204).
edge(5, 153).
edge(33, 227).
edge(132, 224).
edge(1, 139).
edge(97, 229).
edge(82, 107).
edge(136, 217).
edge(50, 121).
edge(42, 203).
edge(7, 154).
edge(140, 187).
edge(179, 218).
edge(13, 161).
edge(123, 156).
edge(93, 227).
edge(112, 180).
edge(117, 219).
edge(42, 174).
edge(69, 167).
edge(182, 230).
edge(146, 230).
edge(11, 32).
edge(141, 169).
edge(212, 216).
edge(22, 172).
edge(134, 220).
edge(85, 186).
edge(17, 70).
edge(91, 172).
edge(46, 83).
edge(15, 47).
edge(61, 68).
edge(26, 104).
edge(65, 126).
edge(148, 229).
edge(3, 172).
edge(97, 135).
edge(58, 86).
edge(90, 201).
edge(181, 231).
edge(158, 212).
edge(21, 25).
edge(149, 223).
edge(55, 81).
edge(163, 208).
edge(26, 183).
edge(31, 232).
edge(60, 61).
edge(113, 231).
edge(16, 199).
edge(63, 95).
edge(108, 175).
edge(62, 225).
edge(46, 123).
edge(48, 227).
edge(27, 227).
edge(81, 124).
edge(100, 174).
edge(68, 109).
edge(70, 227).
edge(141, 199).
edge(78, 91).
edge(72, 86).
edge(29, 129).
edge(170, 174).
edge(83, 216).
edge(49, 143).
edge(85, 157).
edge(151, 157).
edge(124, 129).
edge(8, 152).
edge(82, 124).
edge(229, 234).
edge(32, 205).
edge(102, 198).
edge(33, 210).
edge(61, 101).
edge(39, 171).
edge(91, 167).
edge(48, 146).
edge(93, 103).
edge(123, 132).
edge(94, 209).
edge(80, 89).
edge(49, 153).
edge(7, 159).
edge(72, 172).
edge(22, 163).
edge(111, 202).
edge(12, 65).
edge(45, 103).
edge(110, 191).
edge(14, 81).
edge(43, 118).
edge(112, 124).
edge(76, 200).
edge(106, 211).
edge(101, 211).
edge(8, 118).
edge(72, 166).
edge(83, 185).
edge(185, 212).
edge(44, 111).
edge(50, 199).
edge(78, 139).
edge(24, 27).
edge(108, 233).
edge(20, 197).
edge(211, 223).
edge(48, 169).
edge(21, 36).
edge(59, 186).
edge(90, 206).
edge(24, 136).
edge(52, 137).
edge(23, 58).
edge(151, 189).
edge(53, 163).
edge(8, 222).
edge(3, 156).
edge(8, 49).
edge(81, 115).
edge(16, 153).
edge(23, 79).
edge(58, 116).
edge(197, 215).
edge(83, 193).
edge(31, 136).
edge(83, 180).
edge(71, 144).
edge(177, 179).
edge(40, 225).
edge(66, 113).
edge(6, 50).
edge(39, 127).
edge(144, 167).
edge(127, 214).
edge(9, 131).
edge(56, 156).
edge(139, 176).
edge(108, 173).
edge(67, 201).
edge(54, 117).
edge(185, 206).
edge(77, 196).
edge(45, 74).
edge(11, 186).
edge(56, 90).
edge(5, 178).
edge(178, 232).
edge(155, 221).
edge(21, 37).
edge(34, 185).
edge(88, 212).
edge(192, 214).
edge(54, 229).
edge(23, 41).
edge(0, 217).
edge(20, 122).
edge(27, 122).
edge(140, 214).
edge(142, 219).
edge(36, 151).
edge(130, 166).
edge(119, 182).
edge(78, 133).
edge(26, 149).
edge(126, 134).
edge(66, 195).
edge(5, 144).
edge(39, 198).
edge(25, 123).
edge(19, 195).
edge(5, 74).
edge(63, 163).
edge(107, 209).
edge(51, 53).
edge(45, 150).
edge(21, 121).
edge(108, 112).
edge(12, 172).
edge(80, 179).
edge(51, 88).
edge(60, 183).
edge(123, 197).
edge(12, 23).
edge(144, 193).
edge(118, 179).
edge(31, 179).
edge(186, 199).
edge(99, 195).
edge(86, 196).
edge(24, 97).
edge(178, 196).
edge(200, 233).
edge(71, 123).
edge(67, 220).
edge(52, 171).
edge(137, 176).
edge(71, 93).
edge(33, 43).
edge(173, 190).
edge(15, 121).
edge(104, 132).
edge(10, 177).
edge(1, 82).
edge(157, 224).
edge(81, 130).
edge(147, 169).
edge(52, 191).
edge(53, 80).
edge(7, 164).
edge(3, 84).
edge(45, 91).
edge(50, 97).
edge(105, 178).
edge(173, 202).
edge(39, 57).
edge(39, 49).
edge(53, 103).
edge(103, 111).
edge(199, 224).
edge(114, 158).
edge(28, 94).
edge(95, 212).
edge(143, 223).
edge(40, 215).
edge(2, 215).
edge(28, 218).
edge(16, 79).
edge(50, 215).
edge(112, 187).
edge(18, 111).
edge(8, 30).
edge(15, 81).
edge(32, 149).
edge(77, 228).
edge(202, 214).
edge(8, 142).
edge(64, 224).
edge(56, 217).
edge(56, 107).
edge(84, 224).
edge(146, 203).
edge(38, 84).
edge(132, 181).
edge(10, 82).
edge(23, 119).
edge(126, 137).
edge(79, 191).
edge(193, 232).
edge(51, 115).
edge(7, 26).
edge(155, 200).
edge(104, 207).
edge(54, 67).
edge(49, 214).
edge(178, 212).
edge(12, 143).
edge(214, 222).
edge(127, 154).
edge(51, 137).
edge(48, 199).
edge(15, 35).
edge(41, 57).
edge(54, 65).
edge(86, 143).
edge(167, 168).
edge(92, 163).
edge(27, 96).
edge(112, 146).
edge(12, 97).
edge(96, 222).
edge(94, 198).
edge(86, 114).
edge(24, 160).
edge(19, 104).
edge(47, 171).
edge(4, 139).
edge(4, 40).
edge(31, 125).
edge(31, 89).
edge(154, 219).
edge(6, 231).
edge(154, 158).
edge(4, 188).
edge(25, 126).
edge(11, 218).
edge(2, 181).
edge(0, 162).
edge(50, 127).
edge(35, 83).
edge(109, 173).
edge(79, 128).
edge(63, 131).
edge(49, 180).
edge(15, 54).
edge(140, 192).
edge(77, 180).
edge(9, 165).
edge(32, 155).
edge(23, 226).
edge(115, 174).
edge(45, 231).
edge(119, 134).
edge(37, 106).
edge(142, 157).
edge(130, 172).
edge(89, 98).
edge(178, 228).
edge(117, 127).
edge(48, 87).
edge(67, 165).
edge(15, 147).
edge(24, 33).
edge(120, 130).
edge(94, 233).
edge(151, 205).
edge(31, 194).
edge(72, 227).
edge(48, 203).
edge(81, 218).
edge(55, 174).
edge(126, 215).
edge(99, 146).
edge(56, 131).
edge(119, 122).
edge(32, 231).
edge(128, 178).
edge(68, 133).
edge(87, 116).
edge(42, 47).
edge(42, 153).
edge(162, 202).
edge(38, 230).
edge(122, 232).
edge(85, 221).
edge(138, 141).
edge(64, 174).
edge(4, 233).
edge(189, 216).
edge(76, 133).
edge(10, 167).
edge(61, 119).
edge(100, 222).
edge(45, 88).
edge(40, 220).
edge(110, 200).
edge(98, 117).
edge(125, 136).
edge(115, 202).
edge(54, 203).
edge(47, 93).
edge(140, 216).
edge(211, 230).
edge(119, 229).
edge(165, 197).
edge(9, 35).
edge(2, 20).
edge(47, 52).
edge(37, 44).
edge(126, 149).
edge(58, 65).
edge(108, 130).
edge(20, 230).
edge(208, 227).
edge(179, 195).
edge(42, 233).
edge(115, 175).
edge(67, 97).
edge(3, 58).
edge(66, 210).
edge(126, 138).
edge(84, 188).
edge(125, 165).
edge(31, 120).
edge(81, 117).
edge(142, 174).
edge(65, 108).
edge(36, 54).
edge(147, 204).
edge(96, 152).
edge(157, 216).
edge(55, 163).
edge(32, 194).
edge(17, 137).
edge(41, 124).
edge(128, 155).
edge(108, 231).
edge(37, 52).
edge(39, 86).
edge(7, 20).
edge(80, 131).
edge(36, 192).
edge(19, 25).
edge(66, 120).
edge(22, 210).
edge(133, 209).
edge(120, 154).
edge(142, 162).
edge(80, 185).
edge(178, 179).
edge(138, 150).
edge(87, 118).
edge(61, 204).
edge(7, 22).
edge(123, 131).
edge(73, 142).
edge(170, 222).
edge(20, 92).
edge(79, 139).
edge(69, 208).
edge(76, 104).
edge(4, 179).
edge(123, 125).
edge(105, 175).
edge(156, 172).
edge(62, 68).
edge(167, 195).
edge(66, 140).
edge(143, 194).
edge(33, 53).
edge(143, 166).
edge(119, 199).
edge(103, 180).
edge(169, 195).
edge(109, 151).
edge(52, 178).
edge(51, 107).
edge(204, 207).
edge(22, 186).
edge(7, 173).
edge(61, 95).
edge(22, 102).
edge(80, 221).
edge(153, 171).
edge(89, 194).
edge(68, 78).
edge(101, 102).
edge(93, 156).
edge(75, 202).
edge(28, 134).
edge(132, 217).
edge(149, 173).
edge(17, 68).
edge(6, 106).
edge(28, 143).
edge(5, 168).
edge(74, 118).
edge(150, 174).
edge(26, 38).
edge(43, 150).
edge(23, 176).
edge(70, 167).
edge(54, 123).
edge(108, 125).
edge(51, 100).
edge(16, 108).
edge(149, 197).
edge(3, 168).
edge(47, 211).
edge(39, 220).
edge(2, 7).
edge(168, 182).
edge(186, 223).
edge(13, 217).
edge(17, 38).
edge(33, 181).
edge(110, 130).
edge(90, 97).
edge(186, 212).
edge(124, 165).
edge(194, 224).
edge(6, 111).
edge(19, 124).
edge(125, 211).
edge(70, 94).
edge(56, 139).
edge(143, 226).
edge(66, 171).
edge(11, 95).
edge(30, 166).
edge(75, 99).
edge(65, 72).
edge(41, 61).
edge(114, 120).
edge(103, 221).
edge(139, 222).
edge(208, 213).
edge(43, 55).
edge(128, 140).
edge(7, 211).
edge(120, 126).
edge(20, 94).
edge(93, 141).
edge(167, 171).
edge(85, 126).
edge(12, 228).
edge(173, 200).
edge(193, 220).
edge(4, 138).
edge(33, 206).
edge(16, 72).
edge(3, 230).
edge(83, 107).
edge(17, 141).
edge(107, 137).
edge(147, 170).
edge(180, 223).
edge(100, 203).
edge(66, 223).
edge(50, 174).
edge(19, 219).
edge(13, 76).
edge(141, 225).
edge(100, 194).
edge(104, 161).
edge(180, 191).
edge(141, 172).
edge(36, 81).
edge(60, 63).
edge(103, 203).
edge(143, 158).
edge(52, 128).
edge(80, 92).
edge(94, 123).
edge(131, 190).
edge(68, 96).
edge(5, 96).
edge(7, 35).
edge(91, 93).
edge(74, 99).
edge(85, 93).
edge(89, 154).
edge(50, 211).
edge(34, 118).
edge(96, 190).
edge(189, 209).
edge(15, 191).
edge(146, 148).
edge(125, 207).
edge(54, 107).
edge(149, 193).
edge(136, 206).
edge(69, 76).
edge(160, 208).
edge(15, 209).
edge(116, 180).
edge(51, 60).
edge(20, 105).
edge(14, 201).
edge(148, 210).
edge(39, 118).
edge(7, 162).
edge(54, 112).
edge(11, 28).
edge(88, 141).
edge(158, 161).
edge(226, 232).
edge(71, 207).
edge(57, 212).
edge(4, 56).
edge(79, 94).
edge(44, 81).
edge(148, 159).
edge(78, 82).
edge(53, 167).
edge(20, 56).
edge(107, 205).
edge(178, 202).
edge(9, 210).
edge(51, 192).
edge(163, 210).
edge(28, 76).
edge(166, 192).
edge(58, 143).
edge(31, 92).
edge(64, 134).
edge(37, 116).
edge(173, 174).
edge(29, 117).
edge(107, 183).
edge(173, 229).
edge(72, 205).
edge(75, 201).
edge(157, 210).
edge(171, 184).
edge(113, 176).
edge(72, 184).
edge(95, 234).
edge(157, 168).
edge(102, 148).
edge(87, 207).
edge(17, 22).
edge(12, 99).
edge(18, 152).
edge(49, 188).
edge(107, 181).
edge(136, 144).
edge(36, 180).
edge(142, 195).
edge(121, 217).
edge(83, 97).
edge(25, 132).
edge(50, 112).
edge(23, 169).
edge(111, 148).
edge(101, 112).
edge(20, 49).
edge(110, 216).
edge(77, 152).
edge(90, 175).
edge(68, 189).
edge(57, 146).
edge(60, 177).
edge(120, 124).
edge(22, 213).
edge(176, 193).
edge(7, 36).
edge(68, 132).
edge(94, 222).
edge(169, 178).
edge(147, 221).
edge(165, 231).
edge(187, 231).
edge(95, 229).
edge(97, 220).
edge(165, 196).
edge(87, 172).
edge(122, 202).
edge(115, 209).
edge(24, 176).
edge(55, 152).
edge(57, 229).
edge(44, 61).
edge(47, 196).
edge(52, 232).
edge(222, 231).
edge(65, 71).
edge(98, 199).
edge(104, 146).
weight(0, 1).
weight(1, 4).
weight(2, 7).
weight(3, 5).
weight(4, 11).
weight(5, 1).
weight(6, 9).
weight(7, 4).
weight(8, 8).
weight(9, 4).
weight(10, 8).
weight(11, 4).
weight(12, 7).
weight(13, 1).
weight(14, 5).
weight(15, 10).
weight(16, 1).
weight(17, 4).
weight(18, 6).
weight(19, 5).
weight(20, 2).
weight(21, 5).
weight(22, 1).
weight(23, 4).
weight(24, 7).
weight(25, 11).
weight(26, 10).
weight(27, 5).
weight(28, 11).
weight(29, 8).
weight(30, 9).
weight(31, 9).
weight(32, 7).
weight(33, 6).
weight(34, 6).
weight(35, 3).
weight(36, 1).
weight(37, 4).
weight(38, 2).
weight(39, 2).
weight(40, 5).
weight(41, 5).
weight(42, 1).
weight(43, 10).
weight(44, 3).
weight(45, 11).
weight(46, 10).
weight(47, 9).
weight(48, 2).
weight(49, 1).
weight(50, 10).
weight(51, 11).
weight(52, 4).
weight(53, 2).
weight(54, 9).
weight(55, 7).
weight(56, 10).
weight(57, 11).
weight(58, 7).
weight(59, 3).
weight(60, 2).
weight(61, 11).
weight(62, 8).
weight(63, 3).
weight(64, 10).
weight(65, 6).
weight(66, 1).
weight(67, 5).
weight(68, 8).
weight(69, 9).
weight(70, 5).
weight(71, 8).
weight(72, 4).
weight(73, 11).
weight(74, 10).
weight(75, 3).
weight(76, 4).
weight(77, 4).
weight(78, 4).
weight(79, 10).
weight(80, 9).
weight(81, 7).
weight(82, 5).
weight(83, 6).
weight(84, 6).
weight(85, 10).
weight(86, 1).
weight(87, 3).
weight(88, 2).
weight(89, 3).
weight(90, 10).
weight(91, 8).
weight(92, 4).
weight(93, 2).
weight(94, 9).
weight(95, 2).
weight(96, 7).
weight(97, 1).
weight(98, 8).
weight(99, 7).
weight(100, 10).
weight(101, 10).
weight(102, 6).
weight(103, 5).
weight(104, 7).
weight(105, 2).
weight(106, 9).
weight(107, 3).
weight(108, 1).
weight(109, 8).
weight(110, 7).
weight(111, 6).
weight(112, 2).
weight(113, 8).
weight(114, 4).
weight(115, 3).
weight(116, 6).
weight(117, 8).
weight(118, 6).
weight(119, 7).
weight(120, 8).
weight(121, 2).
weight(122, 9).
weight(123, 9).
weight(124, 6).
weight(125, 4).
weight(126, 6).
weight(127, 5).
weight(128, 9).
weight(129, 2).
weight(130, 2).
weight(131, 3).
weight(132, 7).
weight(133, 6).
weight(134, 9).
weight(135, 1).
weight(136, 5).
weight(137, 10).
weight(138, 4).
weight(139, 6).
weight(140, 8).
weight(141, 2).
weight(142, 4).
weight(143, 9).
weight(144, 1).
weight(145, 2).
weight(146, 9).
weight(147, 10).
weight(148, 10).
weight(149, 5).
weight(150, 6).
weight(151, 6).
weight(152, 2).
weight(153, 7).
weight(154, 9).
weight(155, 11).
weight(156, 6).
weight(157, 8).
weight(158, 5).
weight(159, 6).
weight(160, 8).
weight(161, 6).
weight(162, 2).
weight(163, 6).
weight(164, 7).
weight(165, 9).
weight(166, 2).
weight(167, 6).
weight(168, 7).
weight(169, 3).
weight(170, 9).
weight(171, 10).
weight(172, 4).
weight(173, 2).
weight(174, 8).
weight(175, 6).
weight(176, 9).
weight(177, 11).
weight(178, 11).
weight(179, 9).
weight(180, 4).
weight(181, 11).
weight(182, 10).
weight(183, 7).
weight(184, 3).
weight(185, 11).
weight(186, 10).
weight(187, 5).
weight(188, 8).
weight(189, 10).
weight(190, 7).
weight(191, 3).
weight(192, 2).
weight(193, 9).
weight(194, 8).
weight(195, 3).
weight(196, 2).
weight(197, 5).
weight(198, 6).
weight(199, 2).
weight(200, 8).
weight(201, 5).
weight(202, 11).
weight(203, 5).
weight(204, 8).
weight(205, 6).
weight(206, 7).
weight(207, 6).
weight(208, 9).
weight(209, 4).
weight(210, 3).
weight(211, 4).
weight(212, 6).
weight(213, 1).
weight(214, 3).
weight(215, 9).
weight(216, 4).
weight(217, 5).
weight(218, 5).
weight(219, 2).
weight(220, 7).
weight(221, 1).
weight(222, 11).
weight(223, 11).
weight(224, 4).
weight(225, 1).
weight(226, 8).
weight(227, 9).
weight(228, 4).
weight(229, 4).
weight(230, 3).
weight(231, 5).
weight(232, 9).
weight(233, 2).
weight(234, 2).
bound(154).

adj(U,V) :- edge(U,V).
adj(U,V) :- edge(V,U).
{in(V)} :- node(V).
dominated(V) :- in(V).
dominated(V) :- in(U), adj(U,V).
:- node(V), not dominated(V).
:- bound(B), #sum{W,V : in(V), weight(V,W)} > B.
:~ in(V), weight(V,W). [W@1,V]
