node(0..221).
edge(73, 189).
edge(134, 169).
edge(85, 96).
edge(70, 118).
edge(71, 128).
edge(125, 202).
edge(70, 84).
edge(91, 131).
edge(57, 177).
edge(40, 48).
edge(109, 129).
edge(53, 141).
edge(86, 101).
edge(157, 216).
edge(13, 107).
edge(11, 27).
edge(192, 204).
edge(55, 193).
edge(0, 2).
edge(110, 126).
edge(12, 120).
edge(89, 139).
edge(51, 120).
edge(97, 113).
edge(57, 174).
edge(68, 169).
edge(8, 42).
edge(46, 53).
edge(113, 154).
edge(91, 104).
edge(109, 159).
edge(48, 172).
edge(50, 114).
edge(54, 89).
edge(137, 179).
edge(204, 207).
edge(138, 217).
edge(117, 194).
edge(45, 118).
edge(7, 61).
edge(102, 174).
edge(131, 145).
edge(136, 185).
edge(79, 162).
edge(45, 180).
edge(135, 218).
edge(47, 219).
edge(93, 127).
edge(95, 122).
edge(37, 113).
edge(106, 127).
edge(102, 163).
edge(63, 211).
edge(132, 220).
edge(106, 113).
edge(3, 211).
edge(51, 215).
edge(3, 207).
edge(103, 124).
edge(57, 124).
edge(13, 191).
edge(30, 91).
edge(203, 206).
edge(133, 161).
edge(84, 158).
edge(32, 88).
edge(25, 122).
edge(100, 119).
edge(5, 119).
edge(88, 155).
edge(5, 82).
edge(15, 120).
edge(12, 140).
edge(20, 95).
edge(112, 152).
edge(136, 179).
edge(136, 176).
edge(36, 210).
edge(100, 130).
edge(169, 202).
edge(124, 202).
edge(38, 78).
edge(80, 184).
edge(42, 65).
edge(23, 45).
edge(24, 114).
edge(17, 175).
edge(48, 158).
edge(21, 43).
edge(13, 140).
edge(34, 71).
edge(62, 108).
edge(60, 187).
edge(139, 150).
edge(70, 153).
edge(176, 202).
edge(29, 87).
edge(8, 64).
edge(178, 219).
edge(49, 216).
edge(101, 219).
edge(12, 129).
edge(5, 15).
edge(61, 188).
edge(7, 180).
edge(105, 160).
edge(90, 93).
edge(14, 121).
edge(15, 99).
edge(188, 199).
edge(8, 98).
edge(54, 127).
edge(39, 131).
edge(12, 101).
edge(14, 30).
edge(31, 129).
edge(13, 130).
edge(102, 159).
edge(48, 134).
edge(50, 152).
edge(190, 211).
edge(176, 212).
edge(103, 217).
edge(104, 163).
edge(28, 202).
edge(122, 194).
edge(122, 201).
edge(90, 154).
edge(61, 120).
edge(142, 210).
edge(105, 209).
edge(127, 216).
edge(106, 195).
edge(43, 208).
edge(13, 57).
edge(42, 87).
edge(64, 213).
edge(154, 168).
edge(95, 211).
edge(84, 121).
edge(108, 189).
edge(52, 77).
edge(70, 107).
edge(19, 23).
edge(40, 64).
edge(105, 123).
edge(81, 143).
edge(26, 128).
edge(58, 70).
edge(60, 65).
edge(34, 179).
edge(83, 180).
edge(113, 160).
edge(60, 75).
edge(12, 31).
edge(54, 185).
edge(101, 186).
edge(20, 67).
edge(98, 165).
edge(52, 203).
edge(109, 182).
edge(28, 175).
edge(188, 218).
edge(46, 173).
edge(44, 153).
edge(125, 148).
edge(16, 164).
edge(49, 113).
edge(212, 216).
edge(47, 191).
edge(42, 49).
edge(52, 137).
edge(53, 103).
edge(55, 217).
edge(60, 192).
edge(51, 78).
edge(113, 211).
edge(76, 184).
edge(7, 16).
edge(48, 128).
edge(94, 200).
edge(51, 158).
edge(66, 134).
edge(74, 219).
edge(39, 162).
edge(55, 152).
edge(48, 193).
edge(178, 203).
edge(139, 141).
edge(89, 184).
edge(5, 45).
edge(61, 181).
edge(107, 199).
edge(58, 106).
edge(60, 73).
edge(80, 157).
edge(31, 82).
edge(169, 178).
edge(57, 207).
edge(149, 200).
edge(50, 119).
edge(35, 171).
edge(20, 180).
edge(49, 107).
edge(88, 129).
edge(76, 214).
edge(90, 184).
edge(5, 79).
edge(71, 162).
edge(4, 53).
edge(15, 123).
edge(62, 204).
edge(52, 149).
edge(33, 156).
edge(117, 142).
edge(126, 175).
edge(21, 137).
edge(95, 154).
edge(143, 155).
edge(35, 97).
edge(98, 186).
edge(31, 174).
edge(104, 146).
edge(133, 148).
edge(114, 190).
edge(56, 58).
edge(43, 81).
edge(144, 199).
edge(109, 117).
edge(167, 169).
edge(42, 98).
edge(154, 197).
edge(16, 210).
edge(177, 218).
edge(11, 87).
edge(4, 161).
edge(122, 158).
edge(3, 220).
edge(41, 94).
edge(147, 192).
edge(185, 220).
edge(39, 143).
edge(10, 210).
edge(11, 88).
edge(74, 194).
edge(48, 82).
edge(58, 153).
edge(14, 158).
edge(20, 171).
edge(2, 150).
edge(137, 198).
edge(79, 195).
edge(97, 196).
edge(155, 180).
edge(16, 214).
edge(45, 104).
edge(91, 165).
edge(173, 212).
edge(176, 189).
edge(17, 128).
edge(18, 128).
edge(137, 139).
edge(200, 205).
edge(179, 181).
edge(68, 77).
edge(11, 207).
edge(200, 214).
edge(48, 148).
edge(162, 176).
edge(92, 173).
edge(106, 178).
edge(115, 158).
edge(75, 208).
edge(108, 117).
edge(24, 127).
edge(145, 146).
edge(54, 56).
edge(103, 104).
edge(13, 220).
edge(4, 42).
edge(91, 110).
edge(61, 85).
edge(24, 106).
edge(40, 46).
edge(150, 204).
edge(182, 202).
edge(123, 150).
edge(60, 148).
edge(56, 174).
edge(18, 177).
edge(62, 116).
edge(164, 185).
edge(91, 192).
edge(45, 120).
edge(41, 108).
edge(2, 187).
edge(30, 105).
edge(165, 197).
edge(81, 83).
edge(97, 213).
edge(136, 187).
edge(53, 58).
edge(64, 189).
edge(15, 130).
edge(96, 144).
edge(66, 84).
edge(78, 166).
edge(62, 191).
edge(94, 102).
edge(127, 210).
edge(79, 170).
edge(30, 102).
edge(84, 221).
edge(39, 156).
edge(152, 190).
edge(84, 126).
edge(41, 112).
edge(83, 220).
edge(72, 176).
edge(51, 132).
edge(29, 198).
edge(107, 211).
edge(62, 114).
edge(107, 168).
edge(90, 126).
edge(47, 178).
edge(78, 173).
edge(68, 84).
edge(186, 193).
edge(149, 166).
edge(65, 138).
edge(63, 103).
edge(212, 215).
edge(160, 198).
edge(6, 180).
edge(18, 152).
edge(149, 162).
edge(27, 58).
edge(93, 201).
edge(77, 187).
edge(17, 220).
edge(44, 215).
edge(13, 75).
edge(85, 156).
edge(26, 95).
edge(45, 94).
edge(27, 196).
edge(89, 132).
edge(52, 172).
edge(30, 146).
edge(78, 80).
edge(110, 146).
edge(4, 69).
edge(55, 162).
edge(75, 194).
edge(63, 64).
edge(30, 66).
edge(14, 110).
edge(16, 138).
edge(22, 156).
edge(50, 181).
edge(48, 208).
edge(84, 182).
edge(56, 127).
edge(12, 74).
edge(126, 214).
edge(31, 183).
edge(91, 116).
edge(33, 125).
edge(51, 61).
edge(114, 121).
edge(38, 44).
edge(3, 198).
edge(57, 106).
edge(58, 67).
edge(83, 154).
edge(13, 33).
edge(103, 135).
edge(31, 202).
edge(42, 129).
edge(53, 199).
edge(126, 161).
edge(40, 66).
edge(66, 183).
edge(23, 54).
edge(154, 218).
edge(110, 163).
edge(126, 162).
edge(140, 219).
edge(20, 41).
edge(139, 189).
edge(89, 140).
edge(101, 156).
edge(79, 174).
edge(3, 90).
edge(32, 96).
edge(60, 212).
edge(10, 49).
edge(29, 141).
edge(37, 39).
edge(22, 147).
edge(33, 127).
edge(136, 215).
edge(168, 221).
edge(159, 216).
edge(68, 219).
edge(15, 109).
edge(122, 209).
edge(9, 119).
edge(9, 52).
edge(16, 187).
edge(56, 126).
edge(152, 176).
edge(135, 173).
edge(48, 178).
edge(103, 195).
edge(60, 112).
edge(37, 83).
edge(12, 108).
edge(26, 105).
edge(70, 143).
edge(63, 179).
edge(105, 115).
edge(24, 182).
edge(144, 203).
edge(33, 83).
edge(18, 38).
edge(11, 187).
edge(32, 207).
edge(22, 121).
edge(136, 138).
edge(76, 112).
edge(162, 209).
edge(70, 194).
edge(56, 151).
edge(30, 180).
edge(15, 182).
edge(53, 67).
edge(99, 203).
edge(111, 203).
edge(70, 81).
edge(182, 188).
edge(5, 193).
edge(39, 46).
edge(162, 164).
edge(40, 57).
edge(41, 200).
edge(12, 175).
edge(64, 201).
edge(70, 208).
edge(54, 86).
edge(14, 36).
edge(172, 208).
edge(25, 163).
edge(60, 203).
edge(143, 218).
edge(31, 113).
edge(6, 69).
edge(131, 170).
edge(63, 151).
edge(16, 186).
edge(57, 163).
edge(17, 151).
edge(36, 195).
edge(29, 169).
edge(109, 123).
edge(179, 183).
edge(47, 190).
edge(32, 101).
edge(55, 161).
edge(57, 195).
edge(82, 88).
edge(36, 59).
edge(152, 195).
edge(74, 128).
edge(59, 157).
edge(47, 200).
edge(101, 152).
edge(52, 54).
edge(31, 86).
edge(77, 114).
edge(38, 77).
edge(66, 70).
edge(113, 120).
edge(8, 145).
edge(109, 220).
edge(47, 156).
edge(62, 216).
edge(14, 152).
edge(17, 70).
edge(137, 149).
edge(40, 101).
edge(172, 180).
edge(75, 132).
edge(31, 210).
edge(52, 160).
edge(162, 165).
edge(152, 194).
edge(11, 103).
edge(81, 134).
edge(18, 143).
edge(28, 112).
edge(27, 54).
edge(10, 82).
edge(174, 191).
edge(151, 186).
edge(2, 76).
edge(33, 131).
edge(77, 87).
edge(68, 123).
edge(22, 74).
edge(104, 133).
edge(6, 121).
edge(32, 210).
edge(3, 154).
edge(28, 183).
edge(42, 173).
edge(91, 209).
edge(57, 82).
edge(46, 211).
edge(75, 157).
edge(147, 183).
edge(41, 64).
edge(24, 216).
edge(17, 123).
edge(99, 102).
edge(66, 205).
edge(139, 202).
edge(33, 187).
edge(141, 218).
edge(91, 156).
edge(116, 159).
edge(77, 152).
edge(183, 187).
edge(36, 82).
edge(127, 220).
edge(48, 143).
edge(0, 70).
edge(94, 163).
edge(52, 144).
edge(117, 207).
edge(2, 90).
edge(2, 215).
edge(6, 125).
edge(69, 165).
edge(74, 186).
edge(63, 81).
edge(201, 219).
edge(44, 76).
edge(66, 153).
edge(57, 68).
edge(1, 152).
edge(10, 142).
edge(64, 114).
edge(142, 176).
edge(34, 169).
edge(6, 212).
edge(138, 141).
edge(114, 208).
edge(51, 207).
edge(67, 81).
edge(8, 148).
edge(39, 44).
edge(116, 137).
edge(83, 175).
edge(17, 156).
edge(65, 116).
edge(86, 218).
edge(130, 215).
edge(77, 193).
edge(175, 199).
edge(12, 69).
edge(83, 188).
edge(33, 219).
edge(27, 138).
edge(113, 142).
edge(44, 79).
edge(35, 177).
edge(106, 172).
edge(174, 177).
edge(100, 120).
edge(28, 54).
edge(170, 173).
edge(80, 125).
edge(88, 200).
edge(35, 47).
edge(19, 199).
edge(50, 95).
edge(11, 59).
edge(11, 134).
edge(85, 217).
edge(0, 20).
edge(68, 212).
edge(36, 72).
edge(83, 202).
edge(60, 159).
edge(70, 170).
edge(150, 188).
edge(35, 121).
edge(63, 186).
edge(114, 196).
edge(16, 151).
edge(105, 218).
edge(88, 219).
edge(140, 207).
edge(157, 158).
edge(75, 146).
edge(83, 140).
edge(50, 147).
edge(24, 101).
edge(125, 199).
edge(120, 151).
edge(158, 210).
edge(85, 200).
edge(15, 78).
edge(88, 105).
edge(7, 88).
edge(73, 166).
edge(70, 140).
edge(191, 207).
edge(35, 128).
edge(53, 206).
edge(19, 84).
edge(40, 106).
edge(96, 206).
edge(114, 170).
edge(48, 116).
edge(131, 208).
edge(66, 200).
edge(179, 189).
edge(91, 96).
edge(25, 128).
edge(91, 100).
edge(18, 43).
edge(52, 208).
edge(1, 184).
edge(82, 114).
edge(107, 120).
edge(71, 131).
edge(35, 204).
edge(70, 201).
edge(46, 154).
edge(53, 127).
edge(204, 213).
edge(87, 143).
edge(118, 136).
edge(23, 62).
edge(52, 129).
edge(157, 172).
edge(52, 221).
edge(126, 202).
edge(34, 85).
edge(29, 42).
edge(5, 32).
edge(34, 156).
edge(194, 218).
edge(18, 83).
edge(114, 214).
edge(8, 34).
edge(130, 153).
edge(6, 215).
edge(140, 144).
edge(114, 201).
edge(96, 172).
edge(165, 183).
edge(53, 106).
edge(66, 217).
edge(154, 155).
edge(87, 190).
edge(107, 163).
edge(128, 160).
edge(45, 161).
edge(184, 189).
edge(86, 90).
edge(166, 218).
edge(62, 148).
edge(42, 80).
edge(117, 141).
edge(111, 155).
edge(53, 120).
edge(54, 183).
edge(38, 179).
edge(102, 118).
edge(6, 199).
edge(26, 200).
edge(72, 149).
edge(49, 143).
edge(15, 140).
edge(52, 189).
edge(131, 139).
edge(1, 100).
edge(42, 145).
edge(111, 134).
edge(152, 166).
edge(106, 207).
edge(64, 217).
edge(28, 71).
edge(56, 176).
edge(0, 1).
edge(52, 161).
edge(99, 100).
edge(48, 63).
edge(14, 210).
edge(142, 147).
edge(11, 167).
edge(31, 64).
edge(70, 148).
edge(144, 155).
edge(89, 191).
edge(3, 115).
edge(56, 65).
edge(121, 201).
edge(14, 135).
edge(5, 47).
edge(43, 131).
edge(78, 212).
edge(104, 172).
edge(73, 118).
edge(93, 134).
edge(27, 211).
edge(48, 54).
edge(174, 183).
edge(18, 165).
edge(157, 177).
edge(178, 188).
edge(109, 199).
edge(50, 201).
edge(48, 124).
edge(68, 215).
edge(24, 154).
edge(23, 50).
edge(26, 29).
edge(67, 202).
edge(73, 141).
edge(191, 208).
edge(27, 166).
edge(27, 133).
edge(114, 166).
edge(23, 88).
edge(18, 162).
edge(174, 218).
edge(111, 190).
edge(27, 33).
edge(140, 179).
edge(22, 36).
edge(146, 185).
edge(99, 170).
edge(94, 136).
edge(94, 133).
edge(29, 208).
edge(2, 198).
edge(1, 73).
edge(111, 121).
edge(106, 179).
edge(25, 200).
edge(40, 85).
edge(96, 198).
edge(69, 107).
edge(124, 181).
edge(33, 183).
edge(52, 74).
edge(70, 159).
edge(117, 186).
edge(16, 185).
edge(117, 126).
edge(141, 187).
edge(42, 203).
edge(114, 168).
edge(112, 153).
edge(141, 200).
edge(91, 194).
edge(63, 65).
edge(39, 197).
edge(146, 216).
edge(193, 210).
edge(15, 25).
edge(48, 104).
edge(138, 170).
edge(30, 34).
edge(56, 180).
edge(58, 205).
edge(77, 200).
edge(73, 144).
edge(128, 150).
edge(185, 201).
edge(78, 102).
edge(4, 105).
edge(34, 180).
edge(12, 176).
edge(159, 166).
edge(98, 114).
edge(41, 76).
edge(136, 203).
edge(23, 69).
edge(33, 198).
edge(22, 45).
edge(29, 221).
edge(143, 205).
edge(21, 109).
edge(58, 63).
edge(130, 168).
edge(142, 216).
edge(40, 88).
edge(27, 86).
edge(21, 68).
edge(25, 206).
edge(77, 139).
edge(122, 207).
edge(153, 203).
edge(107, 140).
edge(54, 82).
edge(12, 30).
edge(11, 131).
edge(126, 176).
edge(76, 181).
edge(203, 221).
edge(28, 99).
edge(0, 58).
edge(68, 148).
edge(63, 76).
edge(49, 168).
edge(136, 167).
edge(137, 168).
edge(88, 193).
edge(85, 120).
edge(98, 179).
edge(106, 141).
edge(189, 190).
edge(39, 94).
edge(190, 206).
edge(47, 195).
edge(96, 168).
edge(52, 82).
edge(39, 189).
edge(115, 141).
edge(19, 117).
edge(87, 211).
edge(46, 130).
edge(44, 100).
edge(70, 147).
edge(49, 212).
edge(17, 212).
edge(69, 139).
edge(145, 149).
edge(28, 49).
edge(85, 202).
edge(73, 181).
edge(50, 56).
edge(56, 96).
edge(48, 81).
edge(11, 85).
edge(91, 114).
edge(30, 130).
edge(106, 194).
edge(148, 178).
edge(19, 214).
edge(1, 93).
edge(46, 110).
edge(143, 199).
edge(65, 88).
edge(7, 19).
edge(3, 44).
edge(26, 67).
edge(8, 129).
edge(60, 161).
edge(173, 187).
edge(7, 15).
edge(81, 86).
edge(175, 201).
edge(100, 115).
edge(127, 166).
edge(88, 109).
edge(82, 96).
edge(14, 65).
edge(20, 188).
edge(67, 127).
edge(27, 146).
edge(130, 187).
edge(57, 149).
edge(81, 101).
edge(52, 70).
edge(92, 129).
edge(14, 117).
edge(11, 154).
edge(119, 219).
edge(45, 220).
edge(51, 192).
edge(75, 79).
edge(183, 195).
edge(122, 217).
edge(41, 78).
edge(34, 177).
edge(31, 97).
edge(142, 214).
edge(71, 166).
edge(64, 158).
edge(23, 73).
edge(102, 219).
edge(21, 197).
edge(42, 66).
edge(93, 162).
edge(151, 207).
edge(189, 220).
edge(86, 164).
edge(92, 139).
edge(127, 219).
edge(111, 193).
edge(43, 115).
edge(62, 178).
edge(71, 175).
edge(12, 71).
edge(33, 129).
edge(117, 119).
edge(29, 76).
edge(71, 199).
edge(108, 203).
edge(24, 178).
edge(98, 211).
edge(97, 152).
edge(48, 181).
edge(55, 208).
edge(18, 186).
edge(100, 169).
edge(65, 71).
edge(115, 171).
edge(22, 119).
edge(61, 165).
edge(23, 103).
edge(11, 78).
edge(8, 200).
edge(96, 97).
edge(102, 113).
edge(21, 149).
edge(45, 133).
edge(111, 176).
edge(164, 190).
edge(52, 153).
edge(8, 139).
edge(111, 120).
edge(54, 148).
edge(151, 200).
edge(146, 178).
edge(83, 160).
edge(7, 123).
edge(83, 100).
edge(52, 135).
edge(27, 89).
edge(159, 184).
edge(15, 106).
edge(46, 218).
edge(83, 197).
edge(108, 141).
edge(103, 175).
edge(54, 163).
edge(14, 182).
edge(188, 195).
edge(14, 163).
edge(11, 144).
edge(33, 206).
edge(101, 205).
edge(36, 87).
edge(9, 31).
edge(164, 187).
edge(87, 187).
edge(30, 154).
edge(50, 118).
edge(162, 191).
edge(33, 92).
edge(57, 216).
edge(135, 202).
edge(58, 167).
edge(54, 112).
edge(22, 117).
edge(29, 186).
edge(34, 109).
edge(88, 167).
edge(10, 77).
edge(107, 201).
edge(49, 52).
edge(4, 137).
edge(65, 135).
edge(20, 174).
edge(73, 172).
edge(70, 133).
edge(83, 198).
edge(113, 219).
edge(180, 192).
edge(52, 139).
edge(66, 111).
edge(46, 107).
edge(64, 94).
edge(10, 133).
edge(15, 219).
edge(99, 123).
edge(7, 215).
edge(137, 176).
edge(148, 217).
edge(71, 139).
edge(163, 181).
edge(23, 38).
edge(146, 213).
edge(88, 92).
edge(7, 158).
edge(79, 177).
edge(132, 219).
edge(121, 167).
edge(16, 179).
edge(181, 210).
edge(25, 137).
edge(82, 152).
edge(47, 118).
edge(31, 63).
edge(174, 214).
edge(3, 195).
edge(130, 214).
edge(53, 149).
edge(29, 210).
edge(23, 104).
edge(9, 77).
edge(130, 141).
edge(10, 13).
edge(166, 191).
edge(14, 57).
edge(149, 165).
edge(2, 221).
edge(100, 172).
edge(146, 176).
edge(1, 87).
edge(22, 39).
edge(143, 220).
edge(47, 126).
edge(133, 152).
edge(14, 72).
edge(49, 183).
edge(121, 190).
edge(53, 181).
edge(60, 125).
edge(90, 212).
edge(60, 185).
edge(58, 142).
edge(48, 202).
edge(13, 54).
edge(89, 114).
edge(52, 155).
edge(20, 158).
edge(143, 195).
edge(25, 100).
edge(100, 109).
edge(74, 140).
edge(2, 212).
edge(5, 168).
edge(18, 114).
edge(51, 145).
edge(88, 177).
edge(13, 137).
edge(138, 143).
edge(58, 95).
edge(29, 60).
edge(13, 23).
edge(55, 172).
edge(62, 215).
edge(118, 200).
edge(93, 146).
edge(89, 207).
edge(55, 142).
edge(97, 171).
edge(55, 83).
edge(76, 99).
edge(6, 80).
edge(50, 186).
edge(55, 191).
edge(26, 46).
edge(95, 150).
edge(41, 177).
edge(75, 116).
edge(78, 211).
edge(70, 101).
edge(56, 108).
edge(135, 208).
edge(43, 95).
edge(101, 137).
edge(205, 214).
edge(0, 14).
edge(113, 203).
edge(86, 97).
edge(28, 58).
edge(24, 201).
edge(100, 131).
edge(154, 173).
edge(63, 213).
edge(103, 207).
edge(21, 55).
edge(138, 201).
edge(9, 141).
edge(52, 171).
edge(172, 215).
edge(88, 147).
edge(54, 218).
edge(79, 215).
edge(94, 208).
edge(143, 214).
edge(69, 203).
edge(1, 59).
edge(62, 187).
edge(45, 177).
edge(170, 219).
edge(121, 143).
edge(90, 140).
edge(5, 219).
edge(112, 130).
edge(23, 78).
edge(144, 185).
edge(13, 175).
edge(85, 192).
edge(139, 176).
edge(78, 190).
edge(102, 123).
edge(122, 214).
edge(43, 174).
edge(159, 200).
edge(38, 177).
edge(49, 90).
edge(107, 129).
edge(41, 65).
edge(52, 170).
edge(62, 111).
edge(55, 132).
edge(2, 154).
edge(119, 203).
edge(30, 151).
edge(9, 10).
edge(175, 221).
edge(59, 165).
edge(83, 161).
edge(58, 172).
edge(115, 160).
edge(79, 122).
edge(26, 154).
edge(124, 205).
edge(142, 202).
edge(79, 151).
edge(123, 185).
edge(50, 67).
edge(86, 214).
edge(36, 100).
edge(41, 190).
edge(18, 48).
edge(132, 176).
edge(28, 61).
edge(48, 180).
edge(75, 164).
edge(16, 33).
edge(193, 215).
edge(159, 181).
edge(8, 195).
edge(54, 81).
edge(60, 167).
edge(83, 135).
edge(0, 132).
edge(76, 105).
edge(210, 217).
edge(128, 141).
edge(4, 51).
edge(132, 150).
edge(9, 206).
edge(170, 221).
edge(103, 157).
edge(69, 80).
edge(47, 169).
edge(25, 59).
edge(38, 206).
edge(87, 214).
edge(102, 210).
edge(62, 173).
edge(2, 188).
edge(0, 125).
edge(5, 148).
edge(44, 135).
edge(141, 161).
edge(58, 144).
edge(29, 155).
edge(122, 210).
edge(18, 176).
edge(86, 200).
edge(62, 136).
edge(48, 107).
edge(130, 199).
edge(36, 91).
edge(53, 213).
edge(87, 89).
edge(36, 213).
edge(137, 184).
edge(151, 170).
edge(103, 193).
edge(56, 125).
edge(38, 182).
edge(13, 155).
edge(30, 112).
edge(97, 111).
edge(73, 145).
edge(93, 169).
edge(96, 136).
edge(63, 107).
edge(76, 98).
edge(18, 86).
edge(31, 169).
edge(22, 94).
edge(140, 218).
edge(94, 146).
edge(105, 133).
edge(9, 168).
edge(96, 127).
edge(151, 195).
edge(73, 212).
edge(57, 67).
edge(9, 47).
edge(33, 87).
edge(14, 41).
edge(58, 191).
edge(26, 28).
edge(125, 208).
edge(58, 124).
edge(14, 165).
edge(199, 216).
edge(119, 199).
edge(136, 141).
edge(83, 132).
edge(115, 180).
edge(100, 180).
edge(59, 210).
edge(202, 212).
edge(2, 52).
edge(3, 116).
edge(162, 170).
edge(2, 13).
edge(4, 115).
edge(106, 142).
edge(33, 191).
edge(127, 170).
edge(167, 182).
edge(72, 193).
edge(49, 165).
edge(12, 171).
edge(58, 96).
edge(0, 181).
edge(86, 184).
edge(103, 152).
edge(12, 219).
edge(81, 103).
edge(22, 143).
edge(2, 123).
edge(13, 26).
edge(189, 219).
edge(60, 107).
edge(151, 206).
edge(60, 72).
edge(48, 108).
edge(48, 74).
edge(61, 139).
edge(151, 213).
edge(158, 216).
edge(150, 157).
edge(69, 163).
edge(41, 129).
edge(72, 183).
edge(141, 206).
edge(33, 39).
edge(88, 178).
edge(42, 148).
edge(27, 129).
edge(65, 131).
edge(37, 97).
edge(103, 162).
edge(27, 154).
edge(141, 188).
edge(37, 52).
edge(39, 61).
edge(156, 183).
edge(113, 192).
edge(49, 198).
edge(78, 142).
edge(90, 209).
edge(11, 60).
edge(40, 196).
edge(91, 138).
edge(21, 200).
edge(79, 164).
edge(35, 122).
edge(2, 121).
edge(155, 196).
edge(118, 205).
edge(8, 168).
edge(73, 179).
edge(102, 211).
edge(42, 175).
edge(77, 122).
edge(74, 156).
edge(114, 124).
edge(40, 121).
edge(6, 84).
edge(8, 136).
edge(135, 176).
edge(21, 66).
edge(60, 127).
edge(5, 23).
edge(11, 38).
edge(44, 115).
edge(41, 74).
edge(30, 68).
edge(9, 207).
edge(123, 155).
edge(14, 24).
edge(40, 75).
edge(59, 194).
edge(29, 127).
edge(144, 176).
edge(181, 212).
edge(47, 199).
edge(33, 151).
edge(50, 169).
edge(12, 32).
edge(94, 219).
edge(101, 199).
edge(10, 212).
edge(44, 101).
edge(103, 191).
edge(198, 221).
edge(6, 94).
edge(175, 179).
edge(13, 109).
edge(121, 147).
edge(3, 187).
edge(84, 179).
edge(146, 171).
edge(8, 59).
edge(10, 148).
edge(21, 170).
edge(139, 199).
edge(20, 135).
edge(58, 146).
edge(190, 219).
edge(124, 178).
edge(51, 206).
edge(63, 85).
edge(88, 159).
edge(30, 208).
edge(40, 95).
edge(65, 186).
edge(79, 102).
edge(93, 199).
edge(14, 166).
edge(69, 189).
edge(3, 192).
edge(77, 100).
edge(75, 169).
edge(57, 146).
edge(132, 160).
edge(38, 175).
edge(56, 215).
edge(8, 131).
edge(172, 204).
edge(15, 178).
edge(77, 112).
edge(138, 185).
edge(73, 161).
edge(8, 62).
edge(41, 174).
edge(58, 94).
edge(41, 144).
edge(3, 142).
edge(8, 87).
edge(171, 197).
edge(72, 109).
edge(83, 211).
edge(79, 175).
edge(19, 25).
edge(96, 209).
edge(111, 131).
edge(72, 172).
edge(77, 205).
edge(54, 182).
edge(2, 112).
edge(67, 208).
edge(52, 148).
edge(53, 90).
edge(51, 193).
edge(54, 217).
edge(56, 141).
edge(95, 189).
edge(53, 154).
edge(5, 121).
edge(160, 193).
edge(113, 153).
edge(163, 175).
edge(85, 168).
edge(137, 159).
edge(91, 152).
edge(70, 146).
edge(11, 49).
edge(79, 119).
edge(18, 75).
edge(49, 124).
edge(74, 124).
edge(73, 170).
edge(33, 58).
edge(73, 200).
edge(112, 193).
edge(32, 49).
edge(112, 202).
edge(35, 219).
edge(83, 221).
edge(45, 110).
edge(12, 110).
edge(120, 221).
edge(77, 197).
edge(132, 162).
edge(27, 217).
edge(140, 180).
edge(175, 188).
edge(9, 76).
edge(93, 119).
edge(7, 194).
edge(146, 169).
edge(42, 177).
edge(16, 213).
edge(46, 213).
edge(42, 68).
edge(49, 76).
edge(25, 49).
edge(147, 190).
edge(95, 165).
edge(123, 151).
edge(96, 142).
edge(2, 131).
edge(44, 81).
edge(136, 165).
edge(155, 214).
edge(17, 86).
edge(107, 198).
edge(26, 80).
edge(152, 197).
edge(26, 52).
edge(10, 185).
edge(20, 179).
edge(74, 95).
edge(89, 101).
edge(202, 205).
edge(113, 202).
edge(11, 74).
edge(163, 189).
edge(33, 163).
edge(43, 153).
edge(61, 146).
edge(51, 157).
edge(35, 184).
edge(28, 120).
edge(86, 133).
edge(68, 125).
edge(24, 176).
edge(150, 210).
edge(198, 207).
edge(38, 161).
edge(44, 108).
edge(28, 69).
edge(88, 164).
edge(14, 198).
edge(56, 202).
edge(216, 221).
edge(54, 136).
edge(78, 118).
edge(75, 189).
edge(174, 199).
edge(164, 198).
edge(112, 160).
edge(68, 89).
edge(86, 216).
edge(58, 111).
edge(23, 35).
edge(80, 85).
edge(108, 185).
edge(155, 186).
edge(27, 126).
edge(37, 192).
edge(26, 161).
edge(33, 164).
edge(19, 196).
edge(12, 22).
edge(136, 219).
edge(53, 94).
edge(40, 179).
edge(148, 199).
edge(38, 54).
edge(72, 188).
edge(84, 93).
edge(18, 59).
edge(85, 129).
edge(176, 198).
edge(151, 155).
edge(18, 132).
edge(9, 195).
edge(10, 217).
edge(1, 70).
edge(100, 203).
edge(72, 217).
edge(62, 158).
edge(132, 188).
edge(23, 53).
edge(91, 147).
edge(133, 167).
edge(25, 26).
edge(35, 139).
edge(66, 142).
edge(145, 154).
edge(24, 138).
edge(156, 172).
edge(141, 160).
edge(102, 189).
edge(56, 66).
edge(75, 105).
edge(24, 69).
edge(16, 162).
edge(104, 174).
edge(110, 188).
edge(125, 182).
edge(51, 111).
edge(94, 186).
edge(153, 199).
edge(124, 170).
edge(89, 116).
edge(36, 56).
edge(54, 118).
edge(47, 206).
edge(118, 181).
edge(42, 201).
edge(91, 106).
edge(8, 198).
edge(13, 114).
edge(1, 196).
edge(137, 156).
edge(17, 48).
edge(20, 207).
edge(72, 98).
edge(43, 159).
edge(48, 87).
edge(153, 216).
edge(161, 175).
edge(22, 81).
edge(73, 99).
edge(136, 209).
edge(12, 179).
edge(68, 94).
edge(43, 56).
edge(67, 206).
edge(120, 179).
edge(26, 113).
edge(103, 116).
edge(60, 136).
edge(160, 200).
edge(57, 119).
edge(53, 107).
edge(114, 131).
edge(141, 155).
edge(65, 219).
edge(185, 214).
edge(162, 182).
edge(124, 219).
edge(40, 89).
edge(85, 157).
edge(54, 149).
edge(4, 57).
edge(154, 157).
edge(8, 67).
edge(49, 208).
edge(89, 151).
edge(106, 173).
edge(22, 59).
edge(105, 128).
edge(121, 124).
edge(100, 128).
edge(15, 194).
edge(64, 194).
edge(75, 181).
edge(42, 192).
edge(32, 119).
edge(4, 125).
edge(109, 111).
edge(89, 129).
edge(3, 135).
edge(40, 215).
edge(79, 97).
edge(12, 73).
edge(36, 64).
edge(34, 162).
edge(23, 41).
edge(90, 100).
edge(12, 13).
edge(130, 158).
edge(73, 139).
edge(164, 201).
edge(13, 72).
edge(14, 221).
edge(86, 144).
edge(11, 211).
edge(104, 206).
edge(148, 212).
edge(77, 170).
edge(92, 182).
edge(22, 146).
edge(11, 182).
edge(49, 163).
edge(36, 215).
edge(41, 73).
edge(137, 151).
edge(71, 189).
edge(72, 211).
edge(82, 130).
edge(41, 193).
edge(16, 142).
edge(31, 38).
edge(61, 67).
edge(51, 220).
edge(49, 61).
edge(86, 215).
edge(70, 128).
edge(139, 157).
edge(60, 211).
edge(48, 209).
edge(39, 49).
edge(115, 152).
edge(4, 169).
edge(144, 177).
edge(23, 44).
edge(39, 174).
edge(29, 121).
edge(87, 197).
edge(69, 210).
edge(14, 212).
edge(115, 219).
edge(140, 170).
edge(17, 187).
edge(65, 123).
edge(123, 127).
edge(46, 194).
edge(0, 15).
edge(12, 60).
edge(28, 85).
edge(76, 175).
edge(119, 218).
edge(1, 114).
edge(195, 219).
edge(30, 214).
edge(66, 83).
edge(57, 154).
edge(123, 211).
edge(65, 87).
edge(107, 177).
edge(25, 167).
edge(132, 216).
edge(74, 218).
edge(156, 182).
edge(23, 185).
edge(32, 48).
edge(25, 203).
edge(110, 151).
edge(5, 210).
edge(16, 111).
edge(38, 63).
edge(103, 159).
edge(138, 221).
edge(27, 119).
edge(157, 221).
edge(53, 93).
edge(149, 212).
edge(137, 215).
edge(4, 156).
edge(46, 143).
edge(54, 142).
edge(149, 168).
edge(136, 143).
edge(58, 59).
edge(90, 121).
edge(74, 115).
edge(81, 126).
edge(119, 121).
edge(122, 126).
edge(53, 155).
edge(46, 183).
edge(112, 162).
edge(40, 182).
edge(184, 187).
edge(9, 167).
edge(101, 201).
edge(189, 211).
edge(54, 188).
edge(194, 217).
edge(53, 209).
edge(140, 176).
edge(2, 35).
edge(70, 151).
edge(96, 141).
edge(2, 110).
edge(22, 106).
edge(131, 209).
edge(119, 120).
edge(14, 127).
edge(182, 221).
edge(122, 134).
edge(147, 204).
edge(81, 97).
edge(190, 221).
edge(17, 90).
edge(0, 155).
edge(189, 208).
edge(16, 167).
edge(2, 36).
edge(51, 60).
edge(89, 182).
edge(18, 190).
edge(38, 42).
edge(57, 141).
edge(12, 48).
edge(46, 220).
edge(23, 98).
edge(111, 205).
edge(6, 191).
edge(46, 138).
edge(181, 215).
edge(40, 112).
edge(11, 28).
edge(43, 213).
edge(19, 59).
edge(56, 154).
edge(28, 110).
edge(1, 139).
edge(129, 172).
edge(180, 209).
edge(6, 63).
edge(214, 219).
edge(40, 74).
edge(41, 212).
edge(31, 41).
edge(26, 186).
edge(127, 144).
edge(84, 184).
edge(46, 69).
edge(49, 194).
edge(7, 144).
edge(5, 89).
edge(26, 142).
edge(87, 171).
edge(76, 150).
edge(39, 60).
edge(197, 221).
edge(39, 150).
edge(131, 164).
edge(104, 216).
edge(170, 218).
edge(73, 194).
edge(90, 186).
edge(3, 109).
edge(49, 213).
edge(22, 162).
edge(96, 215).
edge(83, 101).
edge(70, 219).
edge(137, 171).
edge(35, 74).
edge(3, 173).
edge(47, 106).
edge(140, 193).
edge(26, 39).
edge(1, 77).
edge(18, 105).
edge(11, 99).
edge(51, 55).
edge(116, 164).
edge(5, 9).
edge(169, 192).
edge(94, 213).
edge(74, 168).
edge(22, 198).
edge(41, 52).
edge(57, 98).
edge(152, 155).
edge(45, 117).
edge(103, 123).
edge(80, 154).
edge(43, 112).
edge(147, 199).
edge(60, 202).
edge(96, 169).
edge(18, 210).
edge(167, 215).
edge(23, 174).
edge(21, 102).
edge(137, 167).
edge(54, 70).
edge(126, 201).
edge(34, 61).
edge(13, 129).
edge(139, 193).
edge(38, 93).
edge(30, 55).
edge(16, 127).
edge(125, 207).
edge(15, 213).
edge(138, 212).
edge(24, 87).
edge(4, 147).
edge(56, 78).
edge(55, 135).
edge(116, 144).
edge(62, 78).
edge(93, 110).
edge(20, 191).
edge(16, 117).
edge(78, 143).
edge(6, 16).
edge(115, 137).
edge(52, 194).
edge(22, 182).
edge(22, 60).
edge(69, 197).
edge(40, 216).
edge(46, 208).
edge(17, 98).
edge(151, 154).
edge(104, 161).
edge(144, 206).
edge(39, 144).
edge(16, 116).
edge(90, 159).
edge(23, 32).
edge(177, 188).
edge(58, 62).
edge(120, 149).
edge(160, 180).
edge(15, 43).
edge(180, 204).
edge(0, 57).
edge(47, 91).
edge(100, 189).
edge(80, 86).
edge(11, 147).
edge(161, 164).
edge(8, 204).
edge(53, 139).
edge(82, 185).
edge(89, 181).
edge(174, 216).
edge(152, 203).
edge(17, 185).
edge(8, 56).
edge(92, 97).
edge(85, 219).
edge(78, 138).
edge(5, 91).
edge(29, 90).
edge(47, 101).
edge(52, 146).
edge(17, 221).
edge(52, 173).
edge(64, 101).
edge(33, 50).
edge(98, 184).
edge(22, 171).
edge(69, 77).
edge(24, 95).
edge(118, 212).
edge(24, 166).
edge(9, 155).
edge(20, 120).
edge(51, 93).
edge(96, 130).
edge(35, 142).
edge(30, 206).
edge(13, 205).
edge(20, 52).
edge(87, 145).
edge(15, 162).
edge(12, 72).
edge(16, 136).
edge(98, 173).
edge(119, 185).
edge(52, 177).
edge(51, 173).
edge(69, 215).
edge(54, 176).
edge(1, 117).
edge(45, 80).
edge(7, 11).
edge(111, 199).
edge(55, 212).
edge(38, 96).
edge(97, 187).
edge(30, 52).
edge(21, 173).
edge(12, 174).
edge(130, 193).
edge(41, 42).
edge(10, 111).
edge(181, 220).
edge(31, 194).
edge(59, 94).
edge(79, 120).
edge(10, 104).
edge(160, 181).
edge(72, 160).
edge(21, 37).
edge(72, 120).
edge(133, 220).
edge(30, 87).
edge(0, 82).
edge(11, 178).
edge(35, 78).
edge(145, 212).
edge(65, 73).
edge(59, 111).
edge(44, 211).
edge(11, 56).
edge(5, 221).
edge(41, 127).
edge(120, 157).
edge(24, 32).
edge(118, 127).
edge(1, 166).
edge(93, 136).
edge(68, 114).
edge(154, 156).
edge(53, 114).
edge(65, 195).
edge(53, 68).
edge(135, 177).
edge(118, 133).
edge(143, 207).
edge(92, 132).
edge(2, 149).
edge(110, 213).
edge(52, 116).
edge(180, 210).
edge(114, 180).
edge(0, 168).
edge(80, 214).
edge(45, 106).
edge(181, 199).
edge(142, 189).
edge(16, 34).
edge(28, 77).
edge(21, 214).
edge(56, 165).
edge(196, 215).
edge(89, 96).
edge(70, 174).
edge(27, 153).
edge(7, 165).
edge(2, 206).
edge(82, 169).
edge(19, 49).
edge(73, 183).
edge(54, 192).
edge(164, 208).
edge(47, 55).
edge(73, 121).
edge(168, 200).
edge(0, 72).
edge(82, 175).
edge(19, 109).
edge(69, 213).
edge(14, 172).
edge(57, 97).
edge(42, 74).
edge(76, 160).
edge(100, 210).
edge(23, 63).
edge(92, 165).
edge(57, 169).
edge(20, 172).
edge(116, 200).
edge(59, 64).
edge(152, 162).
edge(72, 92).
edge(22, 142).
edge(21, 88).
edge(61, 220).
edge(42, 162).
edge(10, 152).
edge(41, 86).
edge(46, 56).
edge(60, 174).
edge(131, 166).
edge(20, 36).
edge(86, 166).
edge(67, 182).
edge(114, 123).
edge(75, 197).
edge(4, 31).
edge(115, 149).
edge(61, 182).
edge(1, 167).
edge(35, 127).
edge(10, 125).
edge(15, 85).
edge(53, 97).
edge(144, 168).
edge(97, 207).
edge(117, 180).
edge(78, 90).
edge(94, 124).
edge(83, 92).
edge(22, 55).
edge(84, 106).
edge(8, 192).
edge(33, 126).
edge(9, 215).
edge(207, 213).
edge(42, 160).
edge(12, 114).
edge(186, 211).
edge(158, 189).
edge(3, 64).
edge(91, 213).
edge(155, 193).
edge(6, 216).
edge(42, 195).
edge(123, 209).
edge(134, 197).
edge(55, 124).
edge(71, 195).
edge(8, 111).
edge(9, 20).
edge(17, 55).
edge(137, 192).
edge(8, 167).
edge(16, 120).
edge(14, 62).
edge(27, 157).
edge(179, 206).
edge(28, 98).
edge(76, 145).
edge(23, 31).
edge(12, 40).
edge(27, 194).
edge(3, 156).
edge(26, 101).
edge(110, 150).
edge(108, 198).
edge(76, 158).
edge(35, 88).
edge(69, 200).
edge(54, 131).
edge(22, 133).
edge(3, 134).
edge(57, 102).
edge(112, 127).
edge(106, 181).
edge(91, 198).
edge(38, 61).
edge(32, 79).
edge(178, 179).
edge(120, 201).
edge(154, 185).
edge(63, 177).
edge(118, 148).
edge(57, 182).
edge(84, 135).
edge(93, 117).
edge(21, 90).
edge(6, 116).
edge(113, 204).
edge(81, 170).
edge(116, 190).
edge(55, 187).
edge(0, 208).
edge(57, 70).
edge(29, 61).
edge(64, 68).
edge(183, 201).
edge(42, 82).
edge(6, 150).
edge(23, 165).
edge(164, 167).
edge(80, 209).
edge(52, 216).
edge(93, 170).
edge(6, 126).
edge(143, 170).
edge(33, 122).
edge(155, 167).
edge(6, 221).
edge(21, 114).
edge(73, 93).
edge(66, 213).
edge(17, 145).
edge(176, 194).
edge(51, 180).
edge(24, 110).
edge(80, 191).
edge(40, 43).
edge(19, 215).
edge(156, 207).
edge(168, 218).
edge(97, 144).
edge(130, 188).
edge(88, 110).
edge(96, 111).
edge(1, 148).
edge(20, 185).
edge(143, 166).
edge(72, 99).
edge(61, 159).
edge(22, 110).
edge(14, 51).
edge(60, 63).
edge(55, 158).
edge(124, 176).
edge(33, 76).
edge(59, 69).
edge(51, 152).
edge(169, 218).
edge(65, 86).
edge(82, 168).
edge(32, 204).
edge(93, 179).
edge(131, 157).
edge(7, 67).
edge(102, 106).
edge(15, 71).
edge(117, 181).
edge(21, 124).
edge(141, 163).
edge(43, 65).
edge(28, 79).
edge(85, 148).
edge(95, 147).
edge(67, 87).
edge(40, 149).
edge(66, 166).
edge(60, 92).
edge(168, 193).
edge(6, 23).
edge(3, 206).
edge(87, 183).
edge(4, 86).
edge(169, 219).
edge(33, 89).
edge(79, 91).
edge(24, 209).
edge(78, 172).
edge(150, 161).
edge(85, 144).
edge(10, 70).
edge(54, 105).
edge(4, 163).
edge(101, 181).
edge(97, 130).
edge(181, 192).
edge(38, 126).
edge(72, 196).
edge(152, 198).
edge(147, 221).
edge(77, 220).
edge(218, 219).
edge(17, 177).
edge(93, 181).
edge(121, 180).
edge(88, 166).
edge(36, 103).
edge(73, 116).
edge(72, 208).
edge(66, 165).
edge(89, 94).
edge(107, 176).
edge(162, 174).
edge(74, 202).
edge(132, 159).
edge(60, 144).
edge(25, 187).
edge(50, 80).
edge(77, 210).
edge(64, 185).
edge(136, 197).
edge(101, 171).
edge(14, 145).
edge(179, 197).
edge(44, 148).
edge(52, 104).
edge(26, 69).
edge(146, 175).
edge(95, 131).
edge(114, 209).
edge(47, 213).
edge(72, 113).
edge(41, 187).
edge(13, 80).
edge(31, 189).
edge(112, 118).
edge(2, 39).
edge(171, 202).
edge(32, 112).
edge(74, 164).
edge(78, 100).
edge(17, 204).
edge(74, 109).
edge(47, 129).
edge(55, 147).
edge(133, 203).
edge(187, 197).
edge(68, 207).
edge(84, 166).
edge(218, 221).
edge(34, 139).
edge(127, 182).
edge(10, 195).
edge(69, 78).
edge(25, 60).
edge(102, 203).
edge(4, 28).
edge(163, 179).
edge(63, 91).
edge(0, 36).
edge(64, 77).
edge(12, 220).
edge(64, 106).
edge(30, 115).
edge(185, 204).
edge(55, 180).
edge(47, 148).
edge(32, 85).
edge(88, 100).
edge(135, 200).
edge(70, 86).
edge(19, 21).
edge(125, 177).
edge(149, 184).
edge(144, 210).
edge(199, 209).
edge(139, 166).
edge(144, 209).
edge(102, 153).
edge(2, 218).
edge(52, 121).
edge(98, 164).
edge(91, 144).
edge(62, 202).
edge(23, 132).
edge(27, 124).
edge(46, 115).
edge(49, 153).
edge(39, 99).
edge(44, 146).
edge(44, 131).
edge(133, 201).
edge(48, 97).
edge(30, 32).
edge(104, 120).
edge(101, 176).
edge(140, 165).
edge(9, 80).
edge(149, 172).
edge(23, 212).
edge(93, 154).
edge(90, 141).
edge(26, 158).
edge(11, 36).
edge(98, 111).
edge(78, 133).
edge(23, 195).
edge(120, 186).
edge(12, 217).
edge(13, 52).
edge(70, 127).
edge(69, 79).
edge(37, 120).
edge(165, 173).
edge(26, 31).
edge(86, 105).
edge(53, 96).
edge(28, 134).
edge(129, 136).
edge(144, 196).
edge(77, 137).
edge(18, 120).
edge(119, 144).
edge(39, 115).
edge(34, 185).
edge(33, 150).
edge(176, 192).
edge(48, 198).
edge(111, 210).
edge(7, 190).
edge(47, 52).
edge(115, 156).
edge(180, 220).
edge(9, 181).
edge(129, 142).
edge(175, 211).
edge(36, 142).
edge(25, 155).
edge(44, 71).
edge(36, 206).
edge(76, 203).
edge(81, 188).
edge(188, 211).
edge(0, 54).
edge(51, 70).
edge(97, 121).
edge(79, 185).
edge(135, 169).
edge(152, 160).
edge(133, 151).
edge(18, 117).
edge(71, 159).
edge(50, 183).
edge(47, 163).
edge(3, 190).
edge(109, 206).
edge(27, 195).
edge(73, 97).
edge(93, 100).
edge(162, 194).
edge(64, 204).
edge(60, 152).
edge(95, 110).
edge(28, 125).
edge(89, 214).
edge(74, 211).
edge(132, 152).
edge(19, 102).
edge(52, 97).
edge(46, 180).
edge(101, 110).
edge(54, 108).
edge(184, 186).
edge(65, 169).
edge(184, 185).
edge(65, 114).
edge(137, 165).
edge(139, 148).
edge(5, 22).
edge(15, 37).
edge(19, 56).
edge(27, 75).
edge(40, 130).
edge(107, 108).
edge(50, 68).
edge(175, 193).
edge(110, 180).
edge(30, 212).
edge(59, 106).
edge(3, 35).
edge(13, 131).
edge(36, 67).
edge(18, 74).
edge(174, 203).
edge(12, 67).
edge(29, 39).
edge(91, 95).
edge(173, 208).
edge(3, 213).
edge(55, 154).
edge(62, 66).
edge(18, 122).
edge(74, 80).
edge(106, 180).
edge(58, 135).
edge(63, 93).
edge(80, 109).
edge(34, 64).
edge(136, 137).
edge(111, 183).
edge(77, 94).
edge(171, 200).
edge(65, 91).
edge(159, 203).
edge(171, 187).
edge(129, 167).
edge(85, 210).
edge(146, 164).
edge(134, 176).
edge(18, 206).
edge(123, 134).
edge(66, 206).
edge(106, 164).
edge(29, 108).
edge(91, 177).
edge(6, 208).
edge(168, 206).
edge(47, 204).
edge(79, 115).
edge(62, 164).
edge(86, 177).
edge(82, 178).
edge(127, 207).
edge(21, 136).
edge(63, 88).
edge(94, 113).
edge(80, 173).
edge(84, 212).
edge(31, 198).
edge(56, 152).
edge(170, 194).
edge(33, 70).
edge(11, 170).
edge(138, 148).
edge(21, 211).
edge(0, 83).
edge(8, 175).
edge(19, 192).
edge(160, 202).
edge(23, 105).
edge(163, 215).
edge(146, 217).
edge(71, 101).
edge(71, 215).
edge(98, 193).
edge(66, 109).
edge(69, 92).
edge(151, 162).
edge(66, 81).
edge(211, 221).
edge(91, 170).
edge(209, 215).
edge(18, 193).
edge(170, 209).
edge(57, 183).
edge(76, 127).
edge(137, 162).
edge(33, 159).
edge(71, 147).
edge(23, 149).
edge(132, 177).
edge(73, 160).
edge(37, 149).
edge(114, 189).
edge(2, 84).
edge(137, 146).
edge(120, 135).
edge(39, 97).
edge(34, 151).
edge(21, 189).
edge(5, 42).
edge(15, 148).
edge(190, 210).
edge(11, 29).
edge(101, 202).
edge(152, 219).
edge(50, 135).
edge(106, 150).
edge(34, 208).
edge(13, 206).
edge(80, 164).
edge(137, 144).
edge(85, 208).
edge(88, 170).
edge(140, 145).
edge(9, 63).
edge(121, 186).
edge(25, 91).
edge(30, 201).
edge(117, 213).
edge(82, 156).
edge(84, 91).
edge(128, 192).
edge(1, 5).
edge(24, 151).
edge(15, 205).
edge(11, 164).
edge(102, 183).
edge(192, 202).
edge(197, 205).
edge(77, 91).
edge(53, 125).
edge(118, 211).
edge(110, 158).
edge(74, 96).
edge(36, 180).
edge(32, 70).
edge(98, 155).
edge(32, 57).
edge(34, 175).
edge(63, 148).
edge(81, 209).
edge(59, 159).
edge(117, 184).
edge(96, 152).
edge(170, 213).
edge(6, 162).
edge(73, 204).
edge(64, 89).
edge(52, 163).
edge(124, 162).
edge(1, 99).
edge(80, 217).
edge(166, 177).
edge(40, 55).
edge(4, 11).
edge(48, 217).
edge(13, 194).
edge(77, 213).
edge(166, 220).
edge(99, 209).
edge(72, 164).
edge(7, 113).
edge(121, 192).
edge(42, 70).
edge(58, 123).
edge(92, 134).
edge(91, 180).
edge(7, 172).
edge(125, 179).
edge(69, 130).
edge(49, 167).
edge(68, 159).
edge(30, 95).
edge(130, 171).
edge(124, 155).
edge(143, 200).
edge(191, 196).
edge(196, 211).
edge(118, 194).
edge(41, 44).
edge(83, 155).
edge(6, 167).
edge(11, 118).
edge(65, 106).
edge(76, 163).
edge(21, 174).
edge(17, 213).
edge(114, 160).
edge(114, 156).
edge(122, 191).
edge(208, 216).
edge(89, 212).
edge(98, 132).
edge(30, 132).
edge(79, 100).
edge(28, 133).
edge(89, 199).
edge(2, 220).
edge(150, 166).
edge(149, 192).
edge(157, 194).
edge(32, 152).
edge(43, 57).
edge(52, 131).
edge(23, 71).
edge(1, 65).
edge(30, 108).
edge(65, 82).
edge(151, 194).
edge(160, 195).
edge(21, 162).
edge(42, 119).
edge(8, 213).
edge(43, 44).
edge(13, 219).
edge(142, 172).
edge(31, 120).
edge(34, 51).
edge(91, 201).
edge(4, 219).
edge(112, 135).
edge(9, 125).
edge(45, 219).
edge(92, 117).
edge(22, 66).
edge(0, 191).
edge(6, 53).
edge(92, 116).
edge(24, 161).
edge(57, 193).
edge(154, 192).
edge(22, 95).
edge(44, 155).
edge(31, 152).
edge(89, 215).
edge(178, 199).
edge(28, 53).
edge(102, 130).
edge(129, 205).
edge(2, 186).
edge(87, 153).
edge(143, 191).
edge(66, 105).
edge(186, 210).
edge(19, 195).
edge(143, 201).
edge(43, 191).
edge(29, 162).
edge(48, 214).
edge(61, 114).
edge(175, 205).
edge(134, 167).
edge(118, 202).
edge(54, 115).
edge(86, 152).
edge(56, 97).
edge(72, 85).
edge(45, 193).
edge(175, 202).
edge(38, 75).
edge(174, 175).
edge(58, 147).
edge(8, 91).
edge(137, 161).
edge(168, 176).
edge(67, 207).
edge(38, 197).
edge(39, 102).
edge(21, 95).
edge(7, 192).
edge(200, 203).
edge(64, 159).
edge(7, 219).
edge(14, 99).
edge(157, 164).
edge(31, 65).
edge(71, 182).
edge(75, 143).
edge(0, 106).
edge(62, 192).
edge(26, 53).
edge(13, 36).
edge(136, 164).
edge(116, 161).
edge(73, 120).
edge(1, 7).
edge(109, 167).
edge(0, 129).
edge(70, 113).
edge(54, 206).
edge(40, 214).
edge(54, 113).
edge(153, 182).
edge(180, 214).
edge(72, 102).
edge(5, 135).
edge(72, 90).
edge(165, 209).
edge(13, 112).
edge(158, 203).
edge(63, 142).
edge(107, 154).
edge(27, 174).
edge(132, 157).
edge(177, 207).
edge(70, 145).
edge(86, 178).
edge(24, 36).
edge(46, 78).
edge(120, 146).
edge(75, 213).
edge(96, 156).
edge(73, 199).
edge(86, 198).
edge(0, 192).
edge(123, 142).
edge(10, 196).
edge(0, 167).
edge(3, 163).
edge(104, 154).
edge(17, 38).
edge(22, 150).
edge(23, 115).
edge(69, 106).
edge(137, 185).
edge(39, 64).
edge(92, 184).
edge(192, 215).
edge(40, 58).
edge(84, 169).
edge(93, 186).
edge(173, 210).
edge(123, 205).
edge(26, 188).
edge(67, 136).
edge(5, 41).
edge(103, 161).
edge(85, 198).
edge(35, 180).
edge(105, 146).
edge(21, 75).
edge(37, 66).
edge(63, 164).
edge(71, 112).
edge(16, 44).
edge(36, 208).
edge(184, 210).
edge(38, 82).
edge(173, 195).
edge(75, 91).
edge(95, 109).
edge(108, 197).
edge(116, 138).
edge(48, 106).
edge(166, 204).
edge(136, 190).
edge(20, 139).
edge(8, 184).
edge(42, 114).
edge(160, 214).
edge(36, 202).
edge(6, 183).
edge(165, 184).
edge(96, 203).
edge(82, 171).
edge(153, 220).
edge(29, 178).
edge(38, 89).
edge(112, 174).
edge(66, 94).
edge(46, 54).
edge(32, 188).
edge(10, 98).
edge(37, 99).
edge(15, 206).
edge(4, 196).
edge(66, 79).
edge(45, 127).
edge(143, 172).
edge(34, 74).
edge(169, 198).
edge(25, 55).
edge(173, 183).
edge(32, 111).
edge(18, 155).
edge(44, 200).
edge(91, 151).
edge(105, 200).
edge(7, 122).
edge(125, 137).
edge(82, 116).
edge(115, 154).
edge(24, 28).
edge(196, 202).
edge(0, 115).
edge(14, 156).
edge(118, 161).
edge(53, 81).
edge(23, 131).
edge(87, 140).
edge(157, 192).
edge(142, 174).
edge(42, 211).
edge(45, 136).
edge(141, 146).
edge(18, 65).
edge(35, 151).
edge(88, 221).
edge(1, 122).
edge(162, 168).
edge(134, 211).
edge(140, 199).
edge(152, 217).
edge(63, 218).
edge(37, 106).
edge(118, 209).
edge(99, 187).
edge(13, 38).
edge(124, 195).
edge(127, 211).
edge(83, 214).
edge(38, 97).
edge(97, 117).
edge(28, 114).
edge(7, 171).
edge(124, 220).
edge(77, 180).
edge(26, 204).
edge(107, 197).
edge(45, 130).
edge(27, 93).
edge(30, 184).
edge(50, 208).
edge(38, 86).
edge(79, 172).
edge(7, 177).
edge(32, 154).
edge(9, 89).
edge(40, 129).
edge(27, 72).
edge(74, 105).
edge(108, 153).
edge(0, 177).
edge(59, 107).
edge(33, 185).
edge(1, 44).
edge(21, 113).
edge(16, 88).
edge(80, 218).
edge(162, 187).
edge(110, 162).
edge(61, 145).
edge(169, 199).
edge(50, 170).
edge(147, 170).
edge(15, 217).
edge(4, 41).
edge(64, 219).
edge(169, 191).
edge(8, 203).
edge(53, 104).
edge(23, 201).
edge(194, 208).
edge(43, 106).
edge(38, 115).
edge(169, 189).
edge(153, 206).
edge(48, 70).
edge(47, 133).
edge(92, 214).
edge(119, 172).
edge(58, 152).
edge(78, 86).
edge(30, 117).
edge(39, 92).
edge(125, 215).
edge(34, 165).
edge(37, 117).
edge(71, 164).
edge(50, 88).
edge(68, 110).
edge(116, 215).
edge(123, 153).
edge(153, 173).
edge(31, 95).
edge(44, 190).
edge(97, 212).
edge(56, 129).
edge(23, 141).
edge(19, 106).
edge(114, 177).
edge(91, 158).
edge(11, 67).
edge(33, 99).
edge(39, 42).
edge(30, 50).
edge(8, 212).
edge(74, 196).
edge(90, 191).
edge(39, 62).
edge(10, 76).
edge(44, 125).
edge(12, 190).
edge(170, 198).
edge(102, 152).
edge(80, 112).
edge(34, 40).
edge(110, 129).
edge(116, 177).
edge(71, 217).
edge(26, 150).
edge(1, 94).
edge(3, 168).
edge(12, 100).
edge(11, 142).
edge(67, 138).
edge(67, 140).
edge(155, 188).
edge(40, 100).
edge(50, 53).
edge(41, 198).
edge(117, 127).
edge(46, 195).
edge(45, 128).
edge(7, 132).
edge(72, 131).
edge(206, 219).
edge(97, 190).
edge(176, 211).
edge(20, 165).
edge(25, 181).
edge(66, 82).
edge(68, 119).
edge(117, 176).
edge(10, 186).
edge(14, 214).
edge(6, 75).
edge(25, 215).
edge(23, 109).
edge(54, 213).
edge(91, 187).
edge(53, 86).
edge(50, 166).
edge(47, 134).
edge(86, 183).
edge(6, 205).
edge(8, 68).
edge(18, 106).
edge(40, 107).
edge(89, 169).
edge(13, 49).
edge(56, 88).
edge(22, 211).
edge(173, 209).
edge(4, 177).
edge(63, 198).
edge(18, 135).
edge(29, 145).
edge(101, 184).
edge(25, 113).
edge(59, 92).
edge(178, 214).
edge(24, 142).
edge(95, 175).
edge(209, 220).
edge(171, 189).
edge(1, 141).
edge(26, 42).
edge(47, 76).
edge(24, 218).
edge(23, 173).
edge(13, 201).
edge(45, 156).
edge(21, 205).
edge(128, 197).
edge(123, 139).
edge(81, 113).
edge(15, 35).
edge(57, 213).
edge(122, 177).
edge(11, 50).
edge(195, 200).
edge(51, 135).
edge(9, 100).
edge(35, 150).
edge(144, 208).
edge(111, 112).
edge(77, 214).
edge(12, 166).
edge(47, 102).
edge(182, 217).
edge(117, 208).
edge(13, 104).
edge(85, 216).
edge(29, 82).
edge(101, 167).
edge(27, 78).
edge(110, 217).
edge(7, 77).
edge(98, 127).
edge(14, 130).
edge(107, 114).
edge(56, 110).
edge(142, 151).
edge(35, 37).
edge(139, 205).
edge(25, 114).
edge(33, 136).
edge(103, 214).
edge(75, 80).
edge(74, 90).
edge(87, 88).
edge(87, 159).
edge(12, 160).
edge(77, 194).
edge(62, 87).
edge(147, 211).
edge(83, 139).
edge(70, 203).
edge(48, 114).
edge(165, 199).
edge(72, 114).
edge(116, 194).
edge(52, 209).
edge(187, 199).
edge(35, 176).
edge(61, 172).
edge(72, 137).
edge(44, 191).
edge(54, 71).
edge(62, 207).
edge(78, 85).
edge(38, 170).
edge(114, 167).
edge(31, 43).
edge(34, 201).
edge(138, 193).
edge(51, 95).
edge(139, 155).
edge(103, 105).
edge(52, 125).
edge(101, 180).
edge(72, 111).
edge(185, 188).
edge(154, 180).
edge(67, 180).
edge(38, 95).
edge(30, 58).
edge(36, 153).
edge(113, 145).
edge(128, 146).
edge(41, 147).
edge(163, 209).
edge(11, 192).
edge(109, 162).
edge(66, 80).
edge(64, 137).
edge(48, 101).
edge(76, 210).
edge(82, 86).
edge(38, 143).
edge(112, 183).
edge(51, 208).
edge(73, 156).
edge(24, 220).
edge(38, 56).
edge(43, 128).
edge(113, 216).
edge(41, 199).
edge(97, 150).
edge(92, 211).
edge(37, 187).
edge(79, 113).
edge(134, 209).
edge(43, 101).
edge(115, 212).
edge(32, 86).
edge(126, 157).
edge(128, 210).
edge(81, 117).
edge(1, 113).
edge(76, 209).
edge(18, 113).
edge(88, 212).
edge(135, 183).
edge(110, 191).
edge(78, 159).
edge(62, 171).
edge(1, 126).
edge(114, 182).
edge(171, 172).
edge(80, 151).
edge(12, 115).
edge(70, 116).
edge(120, 153).
edge(89, 167).
edge(116, 218).
edge(5, 96).
edge(26, 192).
edge(114, 140).
edge(14, 31).
edge(134, 217).
edge(174, 178).
edge(13, 142).
edge(182, 207).
edge(41, 81).
edge(12, 91).
edge(6, 77).
edge(35, 44).
edge(74, 136).
edge(66, 152).
edge(49, 112).
edge(54, 197).
edge(138, 214).
edge(29, 84).
edge(23, 143).
edge(0, 209).
edge(58, 154).
edge(7, 166).
edge(25, 108).
edge(9, 106).
edge(40, 91).
edge(13, 143).
edge(48, 60).
edge(108, 175).
edge(78, 144).
edge(15, 36).
edge(122, 130).
edge(87, 193).
edge(20, 150).
edge(76, 191).
edge(177, 192).
edge(70, 142).
edge(113, 189).
edge(162, 199).
edge(71, 183).
edge(170, 216).
edge(72, 124).
edge(28, 57).
edge(19, 83).
edge(132, 217).
edge(124, 216).
edge(75, 210).
edge(174, 202).
edge(123, 133).
edge(102, 217).
edge(24, 48).
edge(21, 47).
edge(8, 130).
edge(44, 67).
edge(12, 185).
edge(96, 181).
edge(62, 85).
edge(16, 99).
edge(11, 219).
edge(191, 213).
edge(41, 67).
edge(84, 204).
edge(22, 197).
edge(108, 144).
edge(55, 195).
edge(38, 99).
edge(0, 30).
edge(10, 107).
edge(156, 181).
edge(19, 209).
edge(102, 185).
edge(22, 192).
edge(31, 157).
edge(125, 141).
edge(49, 129).
edge(52, 154).
edge(197, 208).
edge(155, 201).
edge(24, 187).
edge(2, 104).
edge(173, 198).
edge(173, 214).
edge(46, 106).
edge(68, 157).
edge(159, 197).
edge(113, 161).
edge(9, 169).
edge(81, 185).
edge(11, 116).
edge(30, 48).
edge(113, 183).
edge(90, 198).
edge(78, 82).
edge(82, 181).
edge(30, 116).
edge(168, 217).
edge(55, 116).
edge(38, 186).
edge(40, 116).
edge(142, 154).
edge(55, 137).
edge(53, 122).
edge(58, 200).
edge(73, 153).
edge(42, 146).
edge(83, 152).
edge(47, 193).
edge(19, 76).
edge(93, 142).
edge(38, 151).
edge(112, 145).
edge(164, 170).
edge(31, 34).
edge(189, 203).
edge(70, 161).
edge(144, 220).
edge(158, 166).
edge(165, 213).
edge(174, 210).
edge(28, 170).
edge(91, 133).
edge(138, 183).
edge(183, 208).
edge(62, 170).
edge(111, 147).
edge(40, 173).
edge(143, 145).
edge(61, 78).
edge(136, 144).
edge(44, 204).
edge(28, 83).
edge(189, 200).
edge(77, 203).
edge(3, 204).
edge(128, 177).
edge(102, 177).
edge(105, 124).
edge(73, 128).
edge(46, 124).
edge(148, 213).
edge(133, 212).
edge(16, 89).
edge(192, 214).
edge(35, 161).
edge(141, 190).
edge(80, 220).
edge(128, 174).
edge(30, 94).
edge(103, 141).
edge(171, 217).
edge(14, 54).
edge(77, 130).
edge(133, 176).
edge(118, 122).
edge(88, 183).
edge(80, 106).
edge(101, 113).
edge(152, 215).
edge(65, 105).
edge(12, 194).
edge(20, 70).
edge(10, 31).
edge(9, 111).
edge(96, 110).
edge(3, 127).
edge(38, 145).
edge(146, 157).
edge(31, 208).
edge(23, 64).
edge(84, 134).
edge(96, 122).
edge(110, 145).
edge(146, 159).
edge(40, 133).
edge(23, 97).
edge(24, 74).
edge(33, 78).
edge(59, 214).
edge(159, 172).
edge(169, 212).
edge(53, 126).
edge(89, 142).
edge(168, 170).
edge(46, 126).
edge(127, 198).
edge(4, 90).
edge(123, 178).
edge(84, 99).
edge(77, 165).
edge(27, 109).
edge(27, 41).
edge(58, 159).
edge(42, 221).
edge(112, 141).
edge(124, 182).
edge(16, 75).
edge(139, 213).
edge(20, 83).
edge(98, 167).
edge(10, 78).
edge(159, 193).
edge(193, 208).
edge(26, 76).
edge(8, 171).
edge(89, 174).
edge(113, 209).
edge(39, 171).
edge(2, 16).
edge(113, 182).
edge(8, 180).
edge(75, 202).
edge(30, 147).
edge(30, 157).
edge(121, 151).
edge(55, 112).
edge(61, 201).
edge(109, 161).
edge(91, 162).
edge(95, 106).
edge(111, 141).
edge(120, 143).
edge(98, 130).
edge(35, 96).
edge(67, 76).
edge(146, 207).
edge(134, 146).
edge(178, 190).
edge(141, 212).
edge(148, 197).
edge(10, 41).
edge(54, 75).
edge(153, 176).
edge(126, 220).
edge(0, 18).
edge(64, 95).
edge(13, 50).
edge(110, 116).
edge(18, 119).
edge(21, 22).
edge(40, 168).
edge(114, 150).
edge(144, 219).
edge(49, 145).
edge(6, 135).
edge(12, 216).
edge(5, 66).
edge(12, 96).
edge(106, 129).
edge(28, 188).
edge(78, 186).
edge(44, 203).
edge(89, 192).
edge(84, 187).
edge(34, 206).
edge(47, 121).
edge(93, 178).
edge(118, 140).
edge(66, 132).
edge(4, 5).
edge(37, 143).
edge(127, 154).
edge(32, 136).
edge(32, 117).
edge(182, 216).
edge(18, 50).
edge(14, 141).
edge(4, 170).
edge(13, 40).
edge(65, 149).
edge(73, 191).
edge(14, 39).
edge(80, 147).
edge(25, 123).
edge(118, 159).
edge(126, 194).
edge(34, 186).
edge(7, 212).
edge(10, 59).
edge(21, 110).
edge(111, 216).
edge(37, 130).
edge(86, 130).
edge(122, 159).
edge(79, 159).
edge(62, 65).
edge(39, 83).
edge(16, 207).
edge(63, 90).
edge(158, 220).
edge(119, 124).
edge(13, 100).
edge(1, 204).
edge(129, 162).
edge(110, 122).
edge(45, 121).
edge(4, 190).
edge(46, 205).
edge(146, 199).
edge(82, 124).
edge(69, 158).
edge(7, 170).
edge(133, 202).
edge(183, 200).
edge(5, 124).
edge(65, 137).
edge(16, 51).
edge(104, 197).
edge(128, 144).
edge(101, 132).
edge(20, 48).
edge(22, 65).
edge(102, 136).
edge(48, 111).
edge(12, 18).
edge(63, 130).
edge(86, 106).
edge(167, 187).
edge(51, 56).
edge(59, 68).
edge(85, 212).
edge(121, 184).
edge(1, 179).
edge(26, 221).
edge(160, 182).
edge(136, 218).
edge(50, 59).
edge(49, 105).
edge(99, 172).
edge(24, 213).
edge(104, 166).
edge(81, 129).
edge(35, 108).
edge(112, 216).
edge(32, 215).
edge(98, 135).
edge(42, 112).
edge(131, 192).
edge(92, 220).
edge(52, 98).
edge(42, 113).
edge(151, 179).
edge(17, 110).
edge(152, 210).
edge(51, 124).
edge(114, 116).
edge(7, 155).
edge(38, 178).
edge(37, 144).
edge(79, 193).
edge(128, 201).
edge(2, 169).
edge(146, 212).
edge(127, 158).
edge(51, 147).
edge(87, 198).
edge(143, 221).
edge(63, 215).
edge(14, 189).
edge(64, 79).
edge(89, 166).
edge(17, 89).
edge(43, 198).
edge(13, 41).
edge(36, 95).
edge(5, 172).
edge(161, 210).
edge(83, 215).
edge(6, 20).
edge(73, 94).
edge(44, 107).
edge(47, 86).
edge(19, 92).
edge(178, 216).
edge(104, 108).
edge(163, 220).
edge(50, 79).
edge(74, 151).
edge(59, 138).
edge(171, 212).
edge(46, 156).
edge(182, 205).
edge(93, 120).
edge(89, 153).
edge(76, 84).
edge(77, 117).
edge(8, 16).
edge(167, 189).
edge(55, 62).
edge(159, 168).
edge(2, 100).
edge(151, 192).
edge(7, 213).
edge(113, 122).
edge(38, 136).
edge(4, 157).
edge(100, 219).
edge(11, 14).
edge(120, 171).
edge(162, 213).
edge(16, 68).
edge(1, 58).
edge(65, 126).
edge(1, 156).
edge(27, 114).
edge(74, 108).
edge(33, 134).
edge(39, 95).
edge(117, 199).
edge(49, 92).
edge(95, 181).
edge(125, 127).
edge(66, 193).
edge(5, 125).
edge(57, 92).
edge(55, 57).
edge(89, 105).
edge(116, 182).
edge(149, 154).
edge(68, 134).
edge(69, 138).
edge(20, 107).
edge(14, 90).
edge(82, 184).
edge(63, 200).
edge(161, 216).
edge(124, 154).
edge(155, 220).
edge(79, 182).
edge(27, 113).
edge(69, 153).
edge(81, 218).
edge(20, 30).
edge(19, 46).
edge(49, 74).
edge(101, 214).
edge(65, 184).
edge(111, 129).
edge(60, 70).
edge(197, 218).
edge(57, 145).
edge(99, 154).
edge(34, 178).
edge(81, 100).
edge(59, 145).
edge(26, 30).
edge(83, 173).
edge(119, 141).
edge(76, 190).
edge(36, 221).
edge(52, 215).
edge(11, 198).
edge(17, 102).
edge(7, 205).
edge(26, 75).
edge(140, 175).
edge(22, 57).
edge(64, 187).
edge(144, 181).
edge(54, 58).
edge(18, 219).
edge(96, 101).
edge(85, 139).
edge(90, 115).
edge(120, 134).
edge(76, 179).
edge(0, 198).
edge(46, 215).
edge(13, 101).
edge(66, 159).
edge(134, 135).
edge(23, 139).
edge(140, 166).
edge(7, 184).
edge(205, 221).
edge(50, 117).
edge(52, 200).
edge(206, 217).
edge(84, 103).
edge(20, 91).
edge(107, 210).
edge(187, 210).
edge(112, 120).
edge(1, 69).
edge(65, 85).
edge(89, 172).
edge(64, 124).
edge(9, 203).
edge(51, 102).
edge(29, 153).
edge(105, 165).
edge(2, 184).
edge(25, 118).
edge(86, 95).
edge(21, 84).
edge(44, 158).
edge(186, 188).
edge(168, 188).
edge(19, 188).
edge(77, 167).
edge(83, 151).
edge(151, 174).
edge(148, 192).
edge(105, 208).
edge(156, 206).
edge(105, 151).
edge(86, 179).
edge(76, 208).
edge(16, 124).
edge(101, 148).
edge(172, 191).
edge(30, 177).
edge(73, 131).
edge(51, 211).
edge(19, 64).
edge(146, 210).
edge(56, 216).
edge(17, 109).
edge(64, 188).
edge(42, 81).
edge(61, 175).
edge(63, 126).
edge(121, 218).
edge(166, 212).
edge(61, 200).
edge(7, 185).
edge(71, 200).
edge(10, 166).
edge(66, 203).
edge(134, 158).
edge(6, 175).
edge(100, 164).
edge(21, 120).
edge(28, 159).
edge(9, 101).
edge(71, 212).
edge(178, 191).
edge(176, 196).
edge(9, 165).
edge(81, 131).
edge(45, 160).
edge(36, 146).
edge(9, 128).
edge(33, 46).
edge(49, 140).
edge(26, 96).
edge(5, 49).
edge(99, 220).
edge(76, 173).
edge(39, 84).
edge(162, 221).
edge(178, 206).
edge(164, 197).
edge(108, 168).
edge(54, 117).
edge(55, 215).
edge(121, 220).
edge(12, 111).
edge(157, 183).
edge(8, 122).
edge(135, 194).
edge(17, 104).
edge(131, 147).
edge(72, 178).
edge(178, 201).
edge(142, 194).
edge(3, 95).
edge(151, 178).
edge(16, 212).
edge(15, 187).
edge(66, 188).
edge(176, 195).
edge(39, 168).
edge(33, 75).
edge(18, 55).
edge(202, 210).
edge(65, 205).
edge(64, 210).
edge(85, 103).
edge(168, 187).
edge(171, 211).
edge(67, 176).
edge(94, 120).
edge(194, 211).
edge(132, 197).
edge(9, 174).
edge(10, 150).
edge(35, 148).
edge(170, 220).
edge(49, 158).
edge(95, 119).
edge(47, 130).
edge(0, 3).
edge(133, 194).
edge(45, 61).
edge(118, 196).
edge(20, 130).
edge(57, 60).
edge(5, 64).
edge(47, 159).
edge(96, 205).
edge(8, 11).
edge(38, 193).
edge(83, 184).
edge(63, 84).
edge(2, 80).
edge(158, 196).
edge(4, 84).
edge(80, 137).
edge(121, 217).
edge(122, 138).
edge(40, 198).
edge(88, 218).
edge(118, 123).
edge(27, 147).
edge(59, 93).
edge(121, 206).
edge(3, 59).
edge(189, 194).
edge(77, 116).
edge(16, 194).
edge(27, 151).
edge(2, 19).
edge(134, 171).
edge(40, 137).
edge(84, 149).
edge(98, 136).
edge(95, 172).
edge(12, 106).
edge(105, 111).
edge(9, 87).
edge(32, 46).
edge(42, 90).
edge(22, 160).
edge(47, 205).
edge(107, 151).
edge(53, 100).
edge(38, 130).
edge(148, 206).
edge(98, 148).
edge(113, 198).
edge(45, 205).
edge(61, 109).
edge(102, 114).
edge(29, 114).
edge(3, 43).
edge(81, 163).
edge(58, 99).
edge(133, 141).
edge(145, 188).
edge(40, 183).
edge(48, 213).
edge(16, 67).
edge(22, 104).
edge(133, 215).
edge(13, 202).
edge(30, 31).
edge(133, 173).
edge(22, 48).
edge(60, 77).
edge(129, 168).
edge(22, 51).
edge(99, 211).
edge(39, 100).
edge(35, 106).
edge(25, 116).
edge(183, 207).
edge(25, 148).
edge(165, 185).
edge(32, 118).
edge(16, 42).
edge(2, 81).
edge(100, 121).
edge(129, 155).
edge(121, 129).
edge(104, 211).
edge(75, 201).
edge(28, 132).
edge(179, 201).
edge(150, 184).
edge(157, 208).
edge(62, 188).
edge(18, 94).
edge(61, 97).
edge(101, 188).
edge(142, 153).
edge(99, 189).
edge(141, 199).
edge(64, 97).
edge(7, 176).
edge(169, 216).
edge(16, 92).
edge(89, 133).
edge(180, 206).
edge(67, 179).
edge(50, 84).
edge(66, 78).
edge(18, 104).
edge(23, 121).
edge(5, 53).
edge(153, 221).
edge(65, 172).
edge(216, 217).
edge(67, 154).
edge(115, 214).
edge(49, 217).
edge(31, 209).
edge(26, 187).
edge(126, 208).
edge(195, 210).
edge(103, 160).
edge(113, 149).
edge(19, 166).
edge(15, 124).
edge(7, 202).
edge(31, 220).
edge(19, 163).
edge(67, 88).
edge(9, 68).
edge(110, 140).
edge(140, 142).
edge(155, 209).
edge(124, 212).
edge(127, 192).
edge(167, 205).
edge(133, 154).
edge(69, 83).
edge(163, 172).
edge(63, 154).
edge(155, 204).
edge(17, 44).
edge(35, 104).
edge(126, 167).
edge(23, 192).
edge(61, 152).
edge(48, 112).
edge(36, 157).
edge(132, 168).
edge(77, 142).
edge(1, 52).
edge(149, 219).
edge(138, 206).
edge(68, 202).
edge(135, 145).
edge(95, 187).
edge(30, 131).
edge(59, 206).
edge(33, 85).
edge(36, 40).
edge(14, 204).
edge(26, 212).
edge(177, 220).
edge(9, 29).
edge(27, 152).
edge(110, 154).
edge(63, 163).
edge(68, 168).
edge(110, 124).
edge(129, 214).
edge(119, 179).
edge(43, 71).
edge(12, 133).
edge(32, 146).
edge(159, 219).
edge(97, 106).
edge(34, 122).
edge(175, 218).
edge(102, 196).
edge(106, 191).
edge(144, 175).
edge(59, 90).
edge(64, 122).
edge(148, 172).
edge(2, 83).
edge(116, 119).
edge(2, 147).
edge(51, 195).
edge(4, 208).
edge(50, 153).
edge(143, 213).
edge(176, 186).
edge(105, 197).
edge(2, 67).
edge(80, 187).
edge(65, 147).
edge(119, 171).
edge(1, 104).
edge(84, 144).
edge(1, 62).
edge(157, 189).
edge(61, 119).
edge(165, 219).
edge(56, 89).
edge(23, 151).
edge(47, 174).
edge(59, 164).
edge(42, 58).
edge(79, 89).
edge(38, 129).
edge(10, 21).
edge(48, 179).
edge(183, 215).
edge(148, 200).
edge(184, 190).
edge(12, 81).
edge(17, 103).
edge(123, 180).
edge(83, 87).
edge(130, 133).
edge(2, 111).
edge(87, 106).
edge(18, 159).
edge(1, 181).
edge(76, 196).
edge(81, 212).
edge(87, 173).
edge(61, 166).
edge(12, 205).
edge(18, 96).
edge(121, 168).
edge(138, 209).
edge(27, 216).
edge(102, 132).
edge(30, 220).
edge(112, 191).
edge(37, 181).
edge(61, 194).
edge(30, 163).
edge(58, 208).
edge(49, 63).
edge(30, 136).
edge(85, 209).
edge(97, 176).
edge(17, 206).
edge(91, 174).
edge(13, 93).
edge(156, 184).
edge(26, 94).
edge(52, 211).
edge(102, 164).
edge(99, 213).
edge(48, 186).
edge(64, 130).
edge(23, 145).
edge(40, 118).
edge(48, 212).
edge(131, 149).
edge(1, 119).
edge(118, 213).
edge(16, 201).
edge(11, 73).
edge(10, 63).
edge(61, 82).
edge(60, 114).
edge(45, 215).
edge(163, 166).
edge(28, 84).
edge(31, 83).
edge(209, 210).
edge(90, 106).
edge(92, 183).
edge(174, 192).
edge(16, 140).
edge(214, 220).
edge(83, 218).
edge(28, 205).
edge(123, 206).
edge(0, 114).
edge(54, 99).
edge(126, 196).
edge(119, 180).
edge(57, 215).
edge(101, 169).
edge(118, 142).
edge(24, 34).
edge(43, 173).
edge(57, 142).
edge(83, 119).
edge(115, 143).
edge(83, 169).
edge(95, 195).
edge(30, 77).
edge(45, 48).
edge(40, 201).
edge(29, 43).
edge(41, 178).
edge(3, 88).
edge(21, 49).
edge(111, 144).
edge(46, 164).
edge(61, 65).
edge(59, 196).
edge(61, 96).
edge(0, 180).
edge(35, 190).
edge(3, 214).
edge(112, 163).
edge(104, 169).
edge(4, 111).
edge(61, 179).
edge(13, 48).
edge(59, 135).
edge(35, 103).
edge(5, 30).
edge(47, 124).
edge(85, 166).
edge(17, 64).
edge(108, 111).
edge(37, 103).
edge(19, 114).
edge(23, 213).
edge(80, 133).
edge(92, 192).
edge(116, 197).
edge(86, 135).
edge(47, 152).
edge(32, 35).
edge(141, 186).
edge(113, 159).
edge(11, 58).
edge(211, 212).
edge(110, 144).
edge(48, 78).
edge(205, 209).
edge(14, 47).
edge(34, 128).
edge(113, 194).
edge(74, 112).
edge(31, 201).
edge(29, 150).
edge(102, 194).
edge(66, 164).
edge(115, 205).
edge(53, 75).
edge(65, 152).
edge(66, 68).
edge(87, 114).
edge(53, 74).
edge(37, 60).
edge(43, 55).
edge(18, 125).
edge(53, 66).
edge(24, 33).
edge(77, 126).
edge(50, 78).
edge(119, 160).
edge(103, 107).
edge(148, 214).
edge(155, 161).
edge(117, 164).
edge(70, 196).
edge(119, 206).
edge(105, 135).
edge(49, 154).
edge(125, 145).
edge(65, 92).
edge(130, 192).
edge(14, 69).
edge(69, 94).
edge(7, 50).
edge(44, 198).
edge(64, 73).
edge(28, 195).
edge(130, 216).
edge(23, 207).
edge(182, 189).
edge(45, 174).
edge(82, 182).
edge(39, 101).
edge(32, 169).
edge(75, 163).
edge(130, 144).
edge(110, 164).
edge(30, 84).
edge(6, 163).
edge(107, 116).
edge(15, 54).
edge(128, 164).
edge(60, 94).
edge(31, 117).
edge(190, 194).
edge(7, 198).
edge(52, 195).
edge(124, 150).
edge(105, 174).
edge(94, 189).
edge(89, 130).
edge(105, 125).
edge(69, 202).
edge(9, 43).
edge(143, 211).
edge(91, 211).
edge(9, 37).
edge(153, 187).
edge(9, 196).
edge(94, 214).
edge(31, 51).
edge(11, 122).
edge(69, 71).
edge(20, 221).
edge(108, 151).
edge(16, 121).
edge(28, 210).
edge(134, 159).
edge(29, 46).
edge(121, 125).
edge(131, 220).
edge(84, 110).
edge(97, 216).
edge(68, 194).
edge(25, 82).
edge(95, 142).
edge(17, 30).
edge(139, 195).
edge(54, 69).
edge(45, 78).
edge(28, 158).
edge(31, 212).
edge(50, 65).
edge(11, 148).
edge(19, 68).
edge(183, 206).
edge(27, 207).
edge(36, 144).
edge(34, 174).
edge(30, 57).
edge(23, 215).
edge(103, 215).
edge(57, 65).
edge(37, 172).
edge(2, 32).
edge(145, 184).
edge(5, 98).
edge(15, 181).
edge(10, 14).
edge(31, 200).
edge(95, 170).
edge(12, 128).
edge(75, 176).
edge(124, 175).
edge(43, 209).
edge(58, 175).
edge(37, 87).
edge(137, 203).
edge(17, 136).
edge(87, 219).
edge(94, 125).
edge(19, 143).
edge(124, 201).
edge(8, 47).
edge(27, 64).
edge(168, 202).
edge(124, 147).
edge(71, 77).
edge(17, 211).
edge(61, 193).
edge(26, 64).
edge(54, 106).
edge(94, 166).
edge(1, 96).
edge(5, 17).
edge(98, 170).
edge(110, 198).
edge(29, 213).
edge(76, 211).
edge(170, 212).
edge(24, 29).
edge(34, 173).
edge(93, 126).
edge(81, 106).
edge(138, 191).
edge(2, 4).
edge(11, 72).
edge(106, 200).
edge(120, 173).
edge(124, 206).
edge(53, 171).
edge(56, 207).
edge(64, 126).
edge(18, 188).
edge(19, 124).
edge(159, 183).
edge(55, 109).
edge(61, 115).
edge(32, 132).
edge(51, 84).
edge(104, 143).
edge(20, 176).
edge(116, 172).
edge(102, 193).
edge(149, 220).
edge(4, 99).
edge(143, 206).
edge(185, 221).
edge(37, 122).
edge(49, 148).
edge(9, 72).
edge(53, 102).
edge(12, 177).
edge(63, 205).
edge(14, 150).
edge(36, 78).
edge(148, 191).
edge(24, 93).
edge(2, 89).
edge(7, 75).
edge(193, 214).
edge(35, 61).
edge(121, 156).
edge(108, 161).
edge(136, 147).
edge(86, 127).
edge(90, 176).
edge(18, 201).
edge(21, 202).
edge(81, 95).
edge(78, 201).
edge(113, 116).
edge(0, 176).
edge(78, 217).
edge(6, 160).
edge(86, 88).
edge(46, 72).
edge(160, 179).
edge(25, 63).
edge(168, 189).
edge(42, 133).
edge(123, 136).
edge(44, 128).
edge(21, 117).
edge(159, 176).
edge(143, 177).
edge(11, 115).
edge(44, 119).
edge(9, 118).
edge(34, 41).
edge(11, 128).
edge(119, 155).
edge(27, 201).
edge(94, 165).
edge(75, 212).
edge(112, 178).
edge(93, 166).
edge(152, 208).
edge(46, 47).
edge(110, 113).
edge(104, 114).
edge(10, 34).
edge(97, 180).
edge(77, 204).
edge(41, 126).
edge(47, 61).
edge(186, 203).
edge(20, 124).
edge(52, 78).
edge(86, 129).
edge(107, 175).
edge(17, 163).
edge(94, 210).
edge(161, 220).
edge(9, 199).
edge(175, 182).
edge(27, 71).
edge(7, 76).
edge(140, 202).
edge(186, 189).
edge(54, 156).
edge(84, 117).
edge(14, 119).
edge(142, 197).
edge(81, 183).
edge(167, 171).
edge(12, 116).
edge(71, 125).
edge(135, 147).
edge(75, 165).
edge(126, 218).
edge(73, 124).
edge(23, 206).
edge(16, 203).
edge(165, 167).
edge(132, 189).
edge(46, 139).
edge(5, 50).
edge(29, 69).
edge(179, 214).
edge(88, 215).
edge(90, 153).
edge(33, 197).
edge(55, 163).
edge(98, 109).
edge(46, 105).
edge(58, 182).
edge(25, 94).
edge(89, 119).
edge(134, 185).
edge(97, 201).
edge(119, 147).
edge(96, 182).
edge(42, 180).
edge(92, 153).
edge(42, 212).
edge(20, 152).
edge(33, 146).
edge(87, 207).
edge(17, 124).
edge(21, 180).
edge(115, 175).
edge(49, 95).
edge(21, 56).
edge(32, 125).
edge(168, 212).
edge(83, 189).
edge(34, 39).
edge(188, 203).
edge(90, 206).
edge(116, 168).
edge(5, 204).
edge(52, 87).
edge(130, 135).
edge(97, 167).
edge(2, 180).
edge(129, 146).
edge(10, 145).
edge(180, 181).
edge(40, 155).
edge(172, 210).
edge(82, 137).
edge(194, 206).
edge(95, 191).
edge(24, 60).
edge(76, 212).
edge(69, 209).
edge(119, 137).
edge(32, 104).
edge(91, 143).
edge(58, 131).
edge(57, 117).
edge(110, 138).
edge(172, 176).
edge(37, 110).
edge(30, 195).
edge(86, 170).
edge(63, 193).
edge(47, 127).
edge(63, 194).
edge(32, 103).
edge(58, 82).
edge(110, 115).
edge(46, 204).
edge(13, 43).
edge(95, 125).
edge(58, 162).
edge(65, 192).
edge(33, 145).
edge(25, 164).
edge(182, 219).
edge(51, 137).
edge(40, 206).
edge(176, 179).
edge(126, 134).
edge(76, 171).
edge(61, 214).
edge(9, 66).
edge(139, 149).
edge(31, 116).
edge(128, 175).
edge(61, 208).
edge(36, 63).
edge(117, 145).
edge(116, 221).
edge(20, 96).
edge(10, 170).
edge(12, 221).
edge(6, 211).
edge(36, 151).
edge(13, 214).
edge(64, 207).
edge(201, 208).
edge(94, 130).
edge(6, 210).
edge(46, 87).
edge(71, 95).
edge(113, 173).
edge(14, 60).
edge(7, 21).
edge(57, 144).
edge(43, 89).
edge(33, 40).
edge(125, 194).
edge(167, 208).
edge(44, 169).
edge(158, 208).
edge(51, 175).
edge(112, 148).
edge(5, 44).
edge(125, 196).
edge(6, 92).
edge(15, 154).
edge(65, 150).
edge(74, 171).
edge(57, 127).
edge(36, 200).
edge(84, 108).
edge(151, 164).
edge(100, 153).
edge(74, 144).
edge(92, 120).
edge(120, 150).
edge(96, 186).
edge(46, 118).
edge(56, 118).
edge(23, 48).
edge(12, 103).
edge(85, 215).
edge(159, 162).
edge(132, 161).
edge(92, 99).
edge(27, 209).
edge(80, 211).
edge(109, 134).
edge(139, 186).
edge(0, 76).
edge(101, 207).
edge(203, 205).
edge(121, 191).
edge(25, 44).
edge(88, 202).
edge(58, 138).
edge(104, 129).
edge(59, 70).
edge(140, 174).
edge(3, 165).
edge(107, 206).
edge(87, 98).
edge(90, 158).
edge(175, 212).
edge(163, 204).
edge(3, 4).
edge(97, 148).
edge(69, 87).
edge(12, 66).
edge(86, 158).
edge(95, 143).
edge(168, 201).
edge(47, 99).
edge(187, 209).
edge(108, 148).
edge(23, 152).
edge(11, 44).
edge(139, 171).
edge(9, 103).
edge(21, 172).
edge(209, 211).
edge(9, 105).
edge(74, 148).
edge(1, 146).
edge(39, 130).
edge(5, 162).
edge(88, 173).
edge(121, 140).
edge(16, 41).
edge(182, 198).
edge(77, 109).
edge(164, 211).
edge(137, 214).
edge(89, 165).
edge(10, 207).
edge(86, 125).
edge(91, 126).
edge(65, 207).
edge(28, 185).
edge(183, 191).
edge(77, 85).
edge(8, 164).
edge(26, 89).
edge(58, 108).
edge(63, 157).
edge(39, 161).
edge(88, 106).
edge(88, 149).
edge(106, 120).
edge(78, 162).
edge(12, 43).
edge(83, 96).
edge(166, 186).
edge(123, 140).
edge(20, 206).
edge(3, 69).
edge(26, 88).
edge(21, 126).
edge(141, 148).
edge(175, 196).
edge(122, 179).
edge(191, 201).
edge(46, 182).
edge(95, 215).
edge(161, 188).
edge(96, 128).
edge(106, 163).
edge(99, 196).
edge(162, 206).
edge(44, 56).
edge(151, 193).
edge(109, 195).
edge(121, 182).
edge(121, 159).
edge(185, 191).
edge(195, 201).
edge(60, 193).
edge(27, 204).
edge(158, 211).
edge(114, 179).
edge(154, 179).
edge(8, 154).
edge(50, 185).
edge(74, 77).
edge(207, 211).
edge(66, 122).
edge(32, 183).
edge(51, 82).
edge(69, 149).
edge(79, 207).
edge(0, 172).
edge(83, 98).
edge(193, 196).
edge(184, 199).
edge(42, 117).
edge(16, 55).
edge(33, 155).
edge(21, 155).
edge(71, 208).
edge(102, 212).
edge(37, 159).
edge(145, 155).
edge(26, 110).
edge(140, 206).
edge(186, 214).
edge(6, 143).
edge(103, 180).
edge(26, 168).
edge(60, 219).
edge(23, 133).
edge(46, 144).
edge(200, 213).
edge(139, 167).
edge(26, 122).
edge(146, 206).
edge(123, 160).
edge(122, 149).
edge(15, 70).
edge(21, 133).
edge(129, 175).
edge(114, 220).
edge(55, 131).
edge(16, 97).
edge(51, 63).
edge(80, 198).
edge(50, 141).
edge(128, 137).
edge(92, 171).
edge(57, 88).
edge(85, 160).
edge(17, 193).
edge(98, 145).
edge(11, 71).
edge(86, 116).
edge(106, 115).
edge(9, 75).
edge(42, 209).
edge(44, 140).
edge(16, 86).
edge(21, 62).
edge(88, 104).
edge(120, 174).
edge(88, 187).
edge(76, 169).
edge(25, 50).
edge(145, 208).
edge(120, 159).
edge(160, 212).
edge(126, 146).
edge(116, 124).
edge(100, 125).
edge(83, 201).
edge(9, 149).
edge(8, 214).
edge(84, 203).
edge(14, 125).
edge(153, 207).
edge(70, 130).
edge(136, 199).
edge(88, 163).
edge(11, 52).
edge(120, 182).
edge(131, 176).
edge(71, 88).
edge(136, 161).
edge(27, 197).
edge(42, 210).
edge(105, 176).
edge(12, 46).
edge(105, 187).
edge(148, 176).
edge(178, 210).
edge(165, 177).
edge(45, 119).
edge(84, 193).
edge(38, 173).
edge(98, 191).
edge(53, 92).
edge(131, 181).
edge(75, 130).
edge(51, 88).
edge(68, 220).
edge(61, 137).
edge(86, 91).
edge(112, 218).
edge(12, 209).
edge(0, 39).
edge(62, 218).
edge(85, 125).
edge(12, 79).
edge(16, 196).
edge(139, 192).
edge(34, 124).
edge(13, 218).
edge(58, 220).
edge(40, 53).
edge(7, 110).
edge(52, 174).
edge(155, 195).
edge(12, 215).
edge(1, 61).
edge(14, 215).
edge(1, 33).
edge(209, 213).
edge(112, 212).
edge(64, 203).
edge(27, 215).
edge(105, 198).
edge(75, 173).
edge(32, 37).
edge(155, 159).
edge(38, 120).
edge(33, 79).
edge(78, 114).
edge(13, 17).
edge(168, 210).
edge(75, 97).
edge(56, 128).
edge(61, 133).
edge(189, 221).
edge(68, 213).
edge(3, 89).
edge(87, 111).
edge(16, 174).
edge(7, 174).
edge(70, 191).
edge(37, 43).
edge(87, 218).
edge(44, 77).
edge(133, 165).
edge(150, 197).
edge(66, 184).
edge(39, 212).
edge(27, 103).
edge(5, 87).
edge(189, 217).
edge(141, 185).
edge(138, 219).
edge(5, 189).
edge(89, 200).
edge(7, 130).
edge(31, 66).
edge(179, 212).
edge(161, 178).
edge(94, 109).
edge(190, 200).
edge(115, 122).
edge(27, 164).
edge(3, 209).
edge(175, 190).
edge(29, 191).
edge(39, 114).
edge(156, 170).
edge(123, 182).
edge(69, 174).
edge(127, 148).
edge(33, 36).
edge(42, 217).
edge(3, 92).
edge(14, 170).
edge(55, 219).
edge(214, 217).
edge(11, 145).
edge(32, 140).
edge(168, 197).
edge(7, 38).
edge(95, 188).
edge(137, 177).
edge(35, 186).
edge(92, 127).
edge(127, 195).
edge(3, 183).
edge(214, 218).
edge(88, 152).
edge(40, 115).
edge(48, 191).
edge(79, 150).
edge(3, 128).
edge(140, 168).
edge(93, 173).
edge(48, 92).
edge(136, 169).
edge(78, 199).
edge(108, 178).
edge(116, 162).
edge(98, 203).
edge(122, 186).
edge(124, 128).
edge(126, 172).
edge(33, 96).
edge(113, 140).
edge(31, 213).
edge(116, 192).
edge(59, 208).
edge(38, 102).
edge(48, 185).
edge(3, 36).
edge(87, 199).
edge(2, 135).
edge(56, 158).
edge(51, 99).
edge(47, 67).
edge(42, 159).
edge(15, 22).
edge(2, 199).
edge(117, 178).
edge(164, 203).
edge(65, 104).
edge(161, 169).
edge(115, 130).
edge(141, 216).
edge(60, 108).
edge(45, 66).
edge(24, 84).
edge(8, 137).
edge(83, 118).
edge(27, 205).
edge(46, 114).
edge(48, 150).
edge(79, 168).
edge(63, 174).
edge(102, 170).
edge(62, 89).
edge(46, 120).
edge(59, 131).
edge(160, 174).
edge(92, 200).
edge(41, 143).
edge(62, 91).
edge(16, 79).
edge(46, 79).
edge(53, 79).
edge(102, 200).
edge(125, 164).
edge(11, 80).
edge(23, 116).
edge(16, 118).
edge(11, 35).
edge(82, 84).
edge(72, 144).
edge(155, 213).
edge(12, 33).
edge(105, 109).
edge(20, 119).
edge(44, 138).
edge(24, 96).
edge(176, 191).
edge(77, 107).
edge(7, 53).
edge(46, 103).
edge(70, 104).
edge(126, 184).
edge(115, 179).
edge(70, 138).
edge(82, 220).
edge(125, 159).
edge(37, 63).
edge(194, 196).
edge(95, 118).
edge(85, 181).
edge(133, 147).
edge(96, 129).
edge(4, 73).
edge(165, 200).
edge(109, 118).
edge(108, 124).
edge(83, 106).
edge(103, 184).
edge(32, 135).
edge(2, 64).
edge(39, 48).
edge(169, 176).
edge(29, 142).
edge(57, 63).
edge(82, 132).
edge(14, 16).
edge(13, 119).
edge(80, 219).
edge(71, 130).
edge(65, 127).
edge(89, 213).
edge(72, 151).
edge(2, 88).
edge(151, 215).
edge(35, 216).
edge(86, 212).
edge(156, 169).
edge(37, 80).
edge(87, 148).
edge(97, 100).
edge(17, 61).
edge(28, 145).
edge(83, 121).
edge(139, 197).
edge(15, 82).
edge(88, 213).
edge(118, 135).
edge(71, 143).
edge(97, 206).
edge(5, 218).
edge(202, 219).
edge(103, 178).
edge(124, 146).
edge(26, 72).
edge(49, 58).
edge(15, 113).
edge(26, 201).
edge(148, 177).
edge(180, 216).
edge(57, 133).
edge(191, 200).
edge(45, 165).
edge(157, 200).
edge(32, 102).
edge(71, 219).
edge(118, 215).
edge(153, 181).
edge(105, 193).
edge(94, 148).
edge(157, 160).
edge(129, 160).
edge(215, 217).
edge(4, 184).
edge(155, 182).
edge(60, 130).
edge(15, 188).
edge(57, 75).
edge(6, 64).
edge(44, 149).
edge(159, 195).
edge(40, 204).
edge(72, 108).
edge(41, 169).
edge(13, 66).
edge(69, 221).
edge(187, 188).
edge(96, 179).
edge(92, 191).
edge(46, 66).
edge(62, 205).
edge(19, 104).
edge(122, 173).
edge(81, 151).
edge(11, 162).
edge(58, 86).
edge(99, 131).
edge(74, 130).
edge(40, 61).
edge(20, 138).
edge(208, 221).
edge(65, 175).
edge(129, 159).
edge(14, 184).
edge(2, 134).
edge(110, 178).
edge(6, 153).
edge(174, 189).
edge(88, 153).
edge(8, 178).
edge(135, 152).
edge(114, 219).
edge(91, 172).
edge(33, 209).
edge(119, 151).
edge(16, 31).
edge(132, 169).
edge(88, 138).
edge(94, 155).
edge(47, 165).
edge(63, 132).
edge(178, 202).
edge(12, 121).
edge(103, 181).
edge(16, 77).
edge(93, 128).
edge(146, 165).
edge(92, 118).
edge(34, 62).
edge(147, 215).
edge(84, 186).
edge(19, 111).
edge(139, 208).
edge(103, 179).
edge(120, 214).
edge(90, 101).
edge(5, 20).
edge(60, 124).
edge(187, 212).
edge(23, 167).
edge(58, 129).
edge(57, 86).
edge(72, 74).
edge(16, 175).
edge(74, 120).
edge(75, 207).
edge(107, 136).
edge(89, 111).
edge(159, 205).
edge(122, 203).
edge(112, 200).
edge(26, 196).
edge(179, 216).
edge(172, 189).
edge(84, 118).
edge(93, 190).
edge(83, 128).
edge(132, 133).
edge(126, 127).
edge(184, 191).
edge(102, 151).
edge(72, 156).
edge(58, 188).
edge(125, 146).
edge(40, 217).
edge(4, 78).
edge(19, 87).
edge(164, 206).
edge(12, 38).
edge(32, 208).
edge(46, 157).
edge(85, 172).
edge(61, 209).
edge(34, 96).
edge(29, 173).
edge(108, 116).
edge(62, 139).
edge(194, 203).
edge(38, 185).
edge(174, 208).
edge(29, 187).
edge(134, 198).
edge(132, 202).
edge(19, 155).
edge(75, 89).
edge(107, 123).
edge(17, 60).
edge(4, 61).
edge(83, 206).
edge(36, 155).
edge(55, 169).
edge(170, 204).
edge(145, 213).
edge(44, 180).
edge(66, 121).
edge(158, 185).
edge(139, 156).
edge(3, 177).
edge(32, 162).
edge(23, 166).
edge(24, 195).
edge(168, 173).
edge(62, 96).
edge(147, 208).
edge(62, 212).
edge(117, 202).
edge(20, 94).
edge(115, 190).
edge(36, 126).
edge(114, 146).
edge(30, 67).
edge(21, 58).
edge(23, 183).
edge(137, 145).
edge(49, 210).
edge(96, 199).
edge(100, 142).
edge(101, 102).
edge(34, 82).
edge(104, 218).
edge(180, 194).
edge(29, 157).
edge(129, 157).
edge(6, 87).
edge(200, 206).
edge(52, 60).
edge(113, 152).
edge(84, 125).
edge(106, 216).
edge(37, 201).
edge(69, 162).
edge(11, 132).
edge(195, 204).
edge(83, 105).
edge(210, 214).
edge(131, 199).
edge(78, 146).
edge(47, 78).
edge(92, 169).
edge(74, 142).
edge(57, 148).
edge(45, 123).
edge(24, 105).
edge(174, 200).
edge(46, 167).
edge(128, 140).
edge(116, 155).
edge(0, 37).
edge(4, 71).
edge(187, 221).
edge(29, 164).
edge(111, 184).
edge(66, 72).
edge(3, 158).
edge(76, 194).
edge(13, 177).
edge(101, 134).
edge(196, 209).
edge(53, 220).
edge(90, 109).
edge(86, 159).
edge(177, 189).
edge(101, 120).
edge(51, 187).
edge(8, 51).
edge(142, 199).
edge(147, 200).
edge(127, 169).
edge(134, 148).
edge(88, 128).
edge(145, 192).
edge(0, 99).
edge(11, 124).
edge(187, 200).
edge(14, 102).
edge(117, 155).
edge(27, 165).
edge(110, 159).
edge(56, 163).
edge(19, 186).
edge(41, 109).
edge(184, 203).
edge(22, 70).
edge(150, 186).
edge(15, 151).
edge(30, 175).
edge(80, 192).
edge(93, 151).
edge(163, 168).
edge(153, 209).
edge(49, 79).
edge(88, 142).
edge(29, 160).
edge(95, 123).
edge(65, 77).
edge(84, 100).
edge(79, 88).
edge(2, 58).
edge(127, 143).
edge(40, 94).
edge(36, 217).
edge(140, 152).
edge(61, 131).
edge(0, 92).
edge(176, 210).
edge(42, 219).
edge(10, 113).
edge(44, 132).
edge(32, 56).
edge(12, 187).
edge(67, 215).
edge(132, 185).
edge(163, 167).
edge(23, 136).
edge(105, 168).
edge(34, 81).
edge(2, 115).
edge(2, 40).
edge(4, 102).
edge(46, 97).
edge(46, 192).
edge(126, 215).
edge(102, 184).
edge(72, 186).
edge(118, 183).
edge(28, 29).
edge(83, 107).
edge(42, 174).
edge(56, 166).
edge(135, 201).
edge(90, 167).
edge(76, 198).
edge(20, 89).
edge(119, 198).
edge(101, 135).
edge(39, 134).
edge(77, 195).
edge(10, 110).
edge(103, 129).
edge(192, 219).
edge(129, 177).
edge(11, 197).
edge(112, 205).
edge(73, 117).
edge(14, 139).
edge(124, 209).
edge(74, 100).
edge(169, 186).
edge(158, 219).
edge(32, 84).
edge(116, 125).
edge(180, 217).
edge(145, 171).
edge(28, 204).
edge(44, 188).
edge(141, 205).
edge(9, 192).
edge(135, 180).
edge(10, 172).
edge(45, 148).
edge(130, 217).
edge(78, 108).
edge(109, 124).
edge(145, 205).
edge(179, 187).
edge(32, 40).
edge(26, 57).
edge(81, 206).
edge(104, 117).
edge(49, 83).
edge(40, 209).
edge(65, 198).
edge(8, 82).
edge(74, 147).
edge(77, 159).
edge(79, 206).
edge(42, 126).
edge(50, 180).
edge(41, 209).
edge(15, 108).
edge(3, 34).
edge(37, 213).
edge(0, 31).
edge(25, 125).
edge(78, 139).
edge(42, 55).
edge(108, 169).
edge(61, 212).
edge(28, 208).
edge(69, 204).
edge(76, 141).
edge(130, 221).
edge(47, 167).
edge(46, 76).
edge(10, 29).
edge(68, 155).
edge(68, 181).
edge(93, 171).
edge(129, 219).
edge(146, 194).
edge(18, 72).
edge(124, 199).
edge(104, 187).
edge(15, 203).
edge(140, 209).
edge(31, 80).
edge(22, 27).
edge(25, 142).
edge(59, 139).
edge(114, 141).
edge(6, 62).
edge(157, 198).
edge(74, 106).
edge(41, 156).
edge(73, 90).
edge(16, 143).
edge(29, 65).
edge(90, 179).
edge(140, 182).
edge(1, 198).
edge(133, 145).
edge(92, 131).
edge(72, 154).
edge(19, 89).
edge(98, 183).
edge(61, 132).
edge(87, 120).
edge(158, 198).
edge(91, 103).
edge(51, 89).
edge(40, 120).
edge(20, 147).
edge(132, 144).
edge(4, 77).
edge(132, 173).
edge(117, 143).
edge(10, 40).
edge(30, 173).
edge(172, 185).
edge(136, 206).
edge(155, 156).
edge(115, 118).
edge(42, 111).
edge(36, 161).
edge(96, 113).
edge(34, 219).
edge(74, 173).
edge(169, 177).
edge(124, 145).
edge(140, 156).
edge(22, 137).
edge(65, 94).
edge(87, 142).
edge(53, 99).
edge(30, 219).
edge(102, 214).
edge(92, 188).
edge(52, 55).
edge(67, 99).
edge(50, 60).
edge(132, 141).
edge(99, 174).
edge(14, 46).
edge(38, 71).
edge(123, 172).
edge(52, 79).
edge(157, 214).
edge(47, 160).
edge(167, 174).
edge(55, 92).
edge(38, 43).
edge(34, 187).
edge(40, 132).
edge(54, 153).
edge(60, 173).
edge(155, 181).
edge(43, 185).
edge(120, 205).
edge(144, 221).
edge(45, 131).
edge(60, 116).
edge(115, 210).
edge(150, 176).
edge(37, 198).
edge(21, 218).
edge(16, 171).
edge(86, 121).
edge(31, 37).
edge(21, 51).
edge(53, 69).
edge(27, 88).
edge(134, 145).
edge(21, 151).
edge(56, 105).
edge(130, 178).
edge(104, 156).
edge(61, 160).
edge(45, 84).
edge(65, 154).
edge(55, 89).
edge(4, 87).
edge(96, 123).
edge(89, 131).
edge(49, 98).
edge(15, 34).
edge(99, 116).
edge(35, 94).
edge(75, 155).
edge(31, 204).
edge(45, 69).
edge(37, 81).
edge(25, 35).
edge(26, 125).
edge(4, 22).
edge(119, 216).
edge(53, 129).
edge(5, 18).
edge(83, 172).
edge(107, 173).
edge(61, 86).
edge(82, 198).
edge(121, 154).
edge(53, 112).
edge(27, 28).
edge(97, 146).
edge(4, 186).
edge(96, 104).
edge(173, 213).
edge(41, 63).
edge(62, 125).
edge(1, 108).
edge(15, 101).
edge(24, 30).
edge(5, 109).
edge(39, 118).
edge(14, 196).
edge(11, 184).
edge(64, 86).
edge(18, 60).
edge(142, 187).
edge(51, 65).
edge(57, 197).
edge(56, 214).
edge(197, 217).
edge(96, 134).
edge(68, 158).
edge(70, 125).
edge(68, 128).
edge(72, 218).
edge(109, 153).
edge(17, 210).
edge(97, 101).
edge(53, 111).
edge(55, 90).
edge(62, 185).
edge(63, 220).
edge(119, 139).
edge(45, 169).
edge(4, 59).
edge(67, 118).
edge(51, 177).
edge(104, 131).
edge(23, 157).
edge(78, 79).
edge(76, 148).
edge(153, 193).
edge(14, 75).
edge(34, 213).
edge(17, 168).
edge(45, 72).
edge(3, 178).
edge(140, 210).
edge(17, 161).
edge(34, 211).
edge(82, 176).
edge(39, 205).
edge(78, 136).
edge(103, 174).
edge(76, 197).
edge(55, 182).
edge(16, 172).
edge(22, 172).
edge(145, 219).
edge(80, 113).
edge(39, 133).
edge(56, 120).
edge(134, 190).
edge(80, 129).
edge(17, 28).
edge(55, 106).
edge(142, 143).
edge(99, 108).
edge(45, 139).
edge(179, 219).
edge(94, 114).
edge(154, 161).
edge(64, 176).
edge(22, 24).
edge(2, 211).
edge(139, 209).
edge(120, 193).
edge(98, 188).
edge(62, 149).
edge(4, 64).
edge(90, 202).
edge(121, 196).
edge(101, 174).
edge(120, 202).
edge(48, 205).
edge(98, 119).
edge(59, 201).
edge(15, 100).
edge(2, 204).
edge(127, 193).
edge(5, 7).
edge(51, 91).
edge(87, 112).
edge(66, 130).
edge(75, 177).
edge(7, 118).
edge(91, 149).
edge(8, 158).
edge(37, 217).
edge(0, 161).
edge(139, 215).
edge(6, 93).
edge(8, 80).
edge(25, 85).
edge(68, 164).
edge(46, 217).
edge(129, 178).
edge(2, 157).
edge(46, 96).
edge(75, 203).
edge(97, 221).
edge(147, 166).
edge(69, 191).
edge(35, 82).
edge(34, 92).
edge(145, 162).
edge(39, 206).
edge(202, 218).
edge(58, 130).
edge(2, 190).
edge(142, 205).
edge(68, 145).
edge(163, 217).
edge(1, 211).
edge(68, 106).
edge(84, 130).
edge(173, 206).
edge(38, 46).
edge(36, 220).
edge(60, 101).
edge(2, 172).
edge(59, 180).
edge(32, 126).
edge(64, 157).
edge(38, 85).
edge(54, 187).
edge(9, 19).
edge(109, 143).
edge(16, 220).
edge(62, 118).
edge(72, 216).
edge(5, 165).
edge(91, 153).
edge(217, 219).
edge(64, 141).
edge(43, 166).
edge(63, 113).
edge(193, 198).
edge(113, 201).
edge(67, 103).
edge(50, 138).
edge(30, 144).
edge(64, 139).
edge(43, 51).
edge(70, 210).
edge(128, 185).
edge(30, 98).
edge(10, 108).
edge(60, 154).
edge(113, 158).
edge(137, 217).
edge(7, 163).
edge(26, 83).
edge(2, 3).
edge(12, 58).
edge(5, 198).
edge(19, 187).
edge(173, 202).
edge(37, 173).
edge(156, 160).
edge(81, 210).
edge(84, 115).
edge(11, 143).
edge(82, 139).
edge(130, 138).
edge(100, 135).
edge(66, 215).
edge(101, 177).
edge(21, 105).
edge(20, 173).
edge(21, 161).
edge(91, 119).
edge(110, 195).
edge(95, 201).
edge(53, 151).
edge(45, 183).
edge(16, 134).
edge(104, 162).
edge(80, 107).
edge(51, 69).
edge(99, 149).
edge(17, 105).
edge(168, 209).
edge(144, 151).
edge(96, 165).
edge(176, 178).
edge(57, 209).
edge(4, 180).
edge(28, 160).
edge(15, 220).
edge(68, 107).
edge(6, 174).
edge(123, 193).
edge(93, 137).
edge(58, 198).
edge(5, 103).
edge(143, 149).
edge(88, 195).
edge(113, 190).
edge(32, 53).
edge(123, 197).
edge(26, 59).
edge(40, 141).
edge(139, 173).
edge(108, 183).
edge(64, 91).
edge(14, 115).
edge(163, 192).
edge(160, 187).
edge(145, 183).
edge(43, 45).
edge(72, 201).
edge(20, 78).
edge(0, 151).
edge(127, 134).
edge(74, 162).
edge(127, 153).
edge(81, 219).
edge(64, 145).
edge(107, 132).
edge(97, 142).
edge(85, 177).
edge(131, 146).
edge(7, 34).
edge(38, 139).
edge(66, 106).
edge(17, 18).
edge(29, 159).
edge(67, 93).
edge(55, 184).
edge(146, 209).
edge(100, 197).
edge(1, 199).
edge(145, 170).
edge(122, 180).
edge(144, 169).
edge(8, 74).
edge(15, 62).
edge(70, 139).
edge(64, 154).
edge(103, 166).
edge(70, 136).
edge(65, 143).
edge(121, 139).
edge(100, 141).
edge(60, 171).
edge(44, 99).
edge(85, 167).
edge(100, 149).
edge(46, 50).
edge(14, 28).
edge(19, 150).
edge(37, 164).
edge(47, 172).
edge(187, 195).
edge(141, 168).
edge(32, 38).
edge(30, 51).
edge(58, 177).
edge(21, 128).
edge(22, 208).
edge(64, 96).
edge(116, 163).
edge(15, 161).
edge(36, 90).
edge(36, 52).
edge(37, 186).
edge(160, 175).
edge(121, 195).
edge(23, 187).
edge(96, 214).
edge(121, 214).
edge(64, 75).
edge(23, 191).
edge(102, 109).
edge(96, 219).
edge(139, 190).
edge(103, 126).
edge(79, 110).
edge(21, 165).
edge(0, 142).
edge(8, 48).
edge(100, 199).
edge(41, 97).
edge(28, 198).
edge(66, 90).
edge(183, 211).
edge(154, 163).
edge(104, 209).
edge(172, 186).
edge(22, 203).
edge(40, 150).
edge(38, 159).
edge(157, 167).
edge(74, 154).
edge(85, 123).
edge(37, 90).
edge(177, 195).
edge(127, 151).
edge(77, 199).
edge(121, 171).
edge(141, 198).
edge(1, 151).
edge(15, 94).
edge(131, 197).
edge(187, 220).
edge(139, 154).
edge(9, 213).
edge(79, 93).
edge(61, 123).
edge(59, 79).
edge(26, 131).
edge(72, 110).
edge(13, 170).
edge(117, 158).
edge(161, 195).
edge(113, 188).
edge(103, 143).
edge(68, 156).
edge(2, 71).
edge(12, 84).
edge(32, 138).
edge(11, 150).
edge(104, 202).
edge(35, 45).
edge(77, 177).
edge(69, 116).
edge(10, 215).
edge(18, 35).
edge(45, 214).
edge(71, 89).
edge(5, 142).
edge(9, 94).
edge(154, 213).
edge(60, 189).
edge(69, 70).
edge(4, 215).
edge(179, 198).
edge(12, 86).
edge(69, 103).
edge(42, 69).
edge(29, 174).
edge(6, 157).
edge(2, 45).
edge(41, 55).
edge(60, 220).
edge(102, 150).
edge(15, 200).
edge(74, 163).
edge(5, 184).
edge(2, 142).
edge(15, 218).
edge(80, 116).
edge(66, 186).
edge(53, 168).
edge(157, 191).
edge(23, 108).
edge(96, 148).
edge(44, 183).
edge(21, 148).
edge(55, 63).
edge(98, 213).
edge(103, 213).
edge(41, 141).
edge(14, 195).
edge(60, 123).
edge(30, 86).
edge(26, 102).
edge(145, 214).
edge(97, 125).
edge(74, 143).
edge(129, 166).
edge(128, 219).
edge(52, 184).
edge(50, 98).
edge(44, 139).
edge(90, 163).
edge(115, 133).
edge(112, 114).
edge(18, 27).
edge(73, 187).
edge(48, 96).
edge(121, 177).
edge(3, 189).
edge(37, 65).
edge(80, 93).
edge(21, 33).
edge(48, 103).
edge(32, 200).
edge(13, 127).
edge(1, 124).
edge(83, 209).
edge(22, 139).
edge(76, 183).
edge(6, 171).
edge(50, 86).
edge(26, 27).
edge(19, 136).
edge(152, 171).
edge(127, 206).
edge(98, 133).
edge(13, 128).
edge(164, 176).
edge(84, 105).
edge(143, 161).
edge(3, 29).
edge(86, 89).
edge(3, 147).
edge(35, 136).
edge(39, 216).
edge(45, 157).
edge(96, 213).
edge(143, 163).
edge(99, 183).
edge(2, 137).
edge(122, 165).
edge(91, 98).
edge(31, 143).
edge(120, 144).
edge(5, 33).
edge(52, 198).
edge(146, 218).
edge(8, 114).
edge(60, 91).
edge(115, 189).
edge(29, 184).
edge(25, 54).
edge(47, 48).
edge(124, 135).
edge(73, 159).
edge(157, 178).
edge(49, 149).
edge(22, 177).
edge(37, 169).
edge(93, 133).
edge(17, 155).
edge(47, 109).
edge(49, 72).
edge(42, 88).
edge(95, 159).
edge(153, 164).
edge(6, 139).
edge(73, 214).
edge(37, 135).
edge(90, 120).
edge(72, 128).
edge(38, 198).
edge(30, 78).
edge(7, 114).
edge(118, 155).
edge(10, 147).
edge(163, 184).
edge(4, 70).
edge(97, 129).
edge(73, 190).
edge(141, 170).
edge(1, 41).
edge(29, 201).
edge(8, 69).
edge(7, 68).
edge(8, 76).
edge(6, 102).
edge(163, 194).
edge(8, 45).
edge(24, 208).
edge(102, 173).
edge(190, 212).
edge(66, 171).
edge(79, 199).
edge(119, 208).
edge(55, 188).
edge(137, 181).
edge(40, 51).
edge(96, 164).
edge(6, 123).
edge(46, 117).
edge(34, 60).
edge(171, 199).
edge(109, 170).
edge(35, 134).
edge(77, 104).
edge(70, 74).
edge(138, 154).
edge(4, 83).
edge(163, 203).
edge(83, 130).
edge(150, 189).
edge(31, 47).
edge(83, 114).
edge(64, 107).
edge(6, 109).
edge(7, 106).
edge(118, 172).
edge(184, 197).
edge(1, 23).
edge(33, 133).
edge(15, 41).
edge(190, 195).
edge(34, 77).
edge(34, 149).
edge(6, 217).
edge(97, 193).
edge(176, 214).
edge(46, 68).
edge(76, 186).
edge(94, 205).
edge(18, 123).
edge(60, 176).
edge(61, 63).
edge(1, 82).
edge(181, 183).
edge(67, 178).
edge(22, 122).
edge(24, 210).
edge(6, 56).
edge(22, 163).
edge(190, 204).
edge(81, 108).
edge(88, 162).
edge(192, 211).
edge(89, 117).
edge(43, 216).
edge(93, 210).
edge(9, 201).
edge(10, 203).
edge(15, 60).
edge(53, 64).
edge(188, 196).
edge(151, 203).
edge(77, 120).
edge(90, 103).
edge(44, 113).
edge(75, 129).
edge(62, 75).
edge(170, 203).
edge(134, 157).
edge(23, 92).
edge(83, 127).
edge(178, 181).
edge(43, 87).
edge(129, 170).
edge(6, 156).
edge(62, 166).
edge(70, 175).
edge(14, 143).
edge(122, 170).
edge(67, 220).
edge(12, 52).
edge(60, 81).
edge(129, 181).
edge(142, 190).
edge(78, 130).
edge(76, 106).
edge(63, 102).
edge(147, 176).
edge(208, 214).
edge(34, 154).
edge(91, 182).
edge(46, 75).
edge(36, 73).
edge(39, 139).
edge(22, 209).
edge(26, 123).
edge(19, 65).
edge(65, 120).
edge(6, 71).
edge(154, 205).
edge(110, 127).
edge(19, 48).
edge(5, 25).
edge(102, 139).
edge(100, 122).
edge(26, 219).
edge(19, 115).
edge(154, 158).
edge(105, 127).
edge(4, 209).
edge(65, 121).
edge(18, 30).
edge(145, 180).
edge(5, 126).
edge(62, 194).
edge(81, 172).
edge(186, 187).
edge(34, 146).
edge(109, 188).
edge(27, 171).
edge(163, 170).
edge(157, 173).
edge(2, 9).
edge(45, 173).
edge(116, 156).
edge(19, 61).
edge(43, 78).
edge(93, 185).
edge(76, 130).
edge(169, 174).
edge(182, 215).
edge(104, 139).
edge(55, 119).
edge(8, 125).
edge(161, 167).
edge(109, 128).
edge(57, 200).
edge(154, 188).
edge(40, 170).
edge(57, 116).
edge(124, 166).
edge(92, 199).
edge(106, 198).
edge(73, 91).
edge(4, 179).
edge(22, 220).
edge(9, 21).
edge(81, 204).
edge(167, 207).
edge(139, 207).
edge(14, 111).
edge(41, 46).
edge(37, 124).
edge(34, 141).
edge(126, 188).
edge(161, 192).
edge(72, 175).
edge(63, 149).
edge(23, 65).
edge(43, 73).
edge(16, 65).
edge(159, 192).
edge(4, 85).
edge(70, 160).
edge(82, 170).
edge(45, 81).
edge(43, 114).
edge(171, 177).
edge(19, 153).
edge(70, 149).
edge(17, 80).
edge(69, 169).
edge(8, 32).
edge(31, 144).
edge(1, 128).
edge(53, 161).
edge(137, 199).
edge(28, 95).
edge(74, 213).
edge(55, 151).
edge(19, 38).
edge(134, 141).
edge(7, 87).
edge(26, 151).
edge(3, 101).
edge(119, 174).
edge(104, 123).
edge(33, 179).
edge(16, 130).
edge(80, 83).
edge(1, 219).
edge(56, 188).
edge(91, 127).
edge(1, 11).
edge(36, 162).
edge(109, 202).
edge(188, 197).
edge(63, 114).
edge(182, 203).
edge(183, 186).
edge(52, 69).
edge(93, 183).
edge(104, 124).
edge(86, 151).
edge(70, 120).
edge(39, 198).
edge(18, 199).
edge(100, 209).
edge(97, 165).
edge(77, 186).
edge(21, 132).
edge(37, 69).
edge(22, 120).
edge(160, 201).
edge(3, 30).
edge(175, 207).
edge(91, 188).
edge(162, 212).
edge(69, 101).
edge(180, 202).
edge(62, 104).
edge(185, 209).
edge(51, 75).
edge(31, 139).
edge(9, 96).
edge(56, 100).
edge(99, 206).
edge(134, 156).
edge(37, 180).
edge(157, 217).
edge(91, 102).
edge(85, 104).
edge(93, 219).
edge(11, 20).
edge(136, 163).
edge(150, 180).
edge(36, 122).
edge(21, 31).
edge(59, 211).
edge(212, 221).
edge(77, 81).
edge(38, 219).
edge(59, 174).
edge(113, 138).
edge(1, 98).
edge(132, 158).
edge(133, 174).
edge(116, 205).
edge(47, 161).
edge(42, 157).
edge(3, 70).
edge(61, 211).
edge(58, 78).
edge(27, 80).
edge(149, 176).
edge(4, 140).
edge(87, 132).
edge(117, 197).
edge(174, 185).
edge(66, 113).
edge(14, 84).
edge(60, 158).
edge(1, 190).
edge(38, 144).
edge(57, 113).
edge(51, 148).
edge(139, 145).
edge(166, 202).
edge(58, 196).
edge(46, 129).
edge(73, 85).
edge(75, 99).
edge(26, 165).
edge(87, 169).
edge(63, 101).
edge(52, 182).
edge(47, 173).
edge(37, 74).
edge(77, 202).
edge(28, 34).
edge(86, 87).
edge(67, 151).
edge(20, 137).
edge(41, 49).
edge(56, 91).
edge(39, 158).
edge(40, 60).
edge(45, 209).
edge(129, 197).
edge(109, 171).
edge(129, 207).
edge(1, 177).
edge(17, 83).
edge(17, 78).
edge(83, 138).
edge(19, 107).
edge(98, 118).
edge(1, 173).
edge(86, 219).
edge(186, 201).
edge(52, 66).
edge(3, 98).
edge(49, 144).
edge(82, 93).
edge(131, 142).
edge(43, 134).
edge(23, 203).
edge(30, 142).
edge(99, 221).
edge(51, 125).
edge(173, 175).
edge(74, 149).
edge(39, 53).
edge(192, 201).
edge(84, 160).
edge(2, 119).
edge(56, 124).
edge(155, 205).
edge(41, 220).
edge(61, 167).
edge(170, 205).
edge(159, 160).
edge(13, 174).
edge(32, 33).
edge(101, 109).
edge(78, 207).
edge(67, 192).
edge(119, 159).
edge(51, 74).
edge(22, 176).
edge(108, 159).
edge(133, 216).
edge(5, 106).
edge(75, 117).
edge(82, 211).
edge(54, 216).
edge(110, 165).
edge(190, 203).
edge(93, 113).
edge(12, 63).
edge(117, 191).
edge(138, 144).
edge(65, 153).
edge(196, 205).
edge(3, 41).
edge(62, 175).
edge(19, 112).
edge(117, 147).
edge(190, 193).
edge(37, 218).
edge(93, 191).
edge(149, 163).
edge(158, 170).
edge(179, 196).
edge(158, 171).
edge(11, 62).
edge(93, 203).
edge(6, 114).
edge(10, 57).
edge(18, 160).
edge(8, 99).
edge(0, 46).
edge(84, 151).
edge(65, 140).
edge(204, 211).
edge(15, 153).
edge(190, 202).
edge(111, 192).
edge(66, 209).
edge(53, 143).
edge(83, 153).
edge(73, 171).
edge(111, 214).
edge(187, 218).
edge(73, 205).
edge(166, 174).
edge(43, 212).
edge(22, 166).
edge(100, 200).
edge(124, 180).
edge(146, 196).
edge(37, 118).
edge(14, 209).
edge(102, 146).
edge(11, 46).
edge(9, 54).
edge(146, 177).
edge(168, 174).
edge(74, 134).
edge(81, 201).
edge(34, 153).
edge(120, 199).
edge(63, 77).
edge(164, 192).
edge(140, 163).
edge(119, 129).
edge(48, 136).
edge(102, 213).
edge(9, 107).
edge(109, 184).
edge(125, 153).
edge(2, 117).
edge(141, 178).
edge(49, 220).
edge(53, 158).
edge(30, 221).
edge(122, 129).
edge(72, 94).
edge(33, 171).
edge(65, 167).
edge(38, 114).
edge(9, 58).
edge(161, 163).
edge(153, 161).
edge(36, 74).
edge(9, 144).
edge(76, 122).
edge(6, 82).
edge(96, 120).
edge(91, 120).
edge(150, 172).
edge(75, 84).
edge(46, 119).
edge(51, 101).
edge(26, 44).
edge(122, 135).
edge(59, 149).
edge(121, 174).
edge(7, 169).
edge(82, 172).
edge(169, 221).
edge(171, 192).
edge(18, 36).
edge(132, 208).
edge(122, 141).
edge(78, 182).
edge(72, 167).
edge(102, 161).
edge(126, 205).
edge(58, 209).
edge(31, 39).
edge(14, 83).
edge(22, 158).
edge(14, 159).
edge(30, 44).
edge(34, 131).
edge(25, 130).
edge(35, 149).
edge(91, 101).
edge(74, 113).
edge(35, 156).
edge(49, 131).
edge(149, 173).
edge(30, 169).
edge(109, 169).
edge(4, 145).
edge(42, 142).
edge(0, 63).
edge(102, 145).
edge(5, 56).
edge(30, 215).
edge(144, 214).
edge(60, 86).
edge(55, 192).
edge(4, 214).
edge(146, 186).
edge(185, 212).
edge(120, 189).
edge(104, 113).
edge(150, 151).
edge(79, 132).
edge(96, 145).
edge(81, 217).
edge(127, 165).
edge(68, 163).
edge(92, 187).
edge(63, 92).
edge(64, 149).
edge(116, 147).
edge(0, 148).
edge(79, 148).
edge(60, 122).
edge(62, 81).
edge(22, 169).
edge(138, 147).
edge(152, 206).
edge(43, 219).
edge(151, 165).
edge(151, 216).
edge(108, 112).
edge(18, 217).
edge(95, 179).
edge(94, 203).
edge(92, 198).
edge(161, 173).
edge(123, 137).
edge(40, 105).
edge(164, 178).
edge(78, 125).
edge(125, 212).
edge(53, 178).
edge(135, 167).
edge(132, 143).
edge(130, 219).
edge(84, 89).
edge(14, 88).
edge(16, 165).
edge(6, 81).
edge(133, 207).
edge(41, 99).
edge(89, 195).
edge(59, 104).
edge(23, 80).
edge(46, 59).
edge(153, 190).
edge(26, 66).
edge(34, 134).
edge(24, 80).
edge(25, 43).
edge(15, 139).
edge(21, 138).
edge(126, 185).
edge(42, 92).
edge(33, 100).
edge(121, 210).
edge(22, 204).
edge(52, 118).
edge(18, 77).
edge(78, 220).
edge(159, 182).
edge(4, 6).
edge(18, 161).
edge(15, 195).
edge(107, 220).
edge(63, 188).
edge(175, 176).
edge(21, 28).
edge(76, 205).
edge(46, 60).
edge(148, 167).
edge(76, 114).
edge(49, 175).
edge(35, 173).
edge(10, 204).
edge(30, 101).
edge(8, 142).
edge(140, 208).
edge(137, 158).
edge(87, 118).
edge(70, 111).
edge(16, 129).
edge(81, 211).
edge(46, 168).
edge(92, 163).
edge(17, 215).
edge(166, 199).
edge(19, 202).
edge(132, 212).
edge(4, 88).
edge(15, 177).
edge(14, 177).
edge(189, 197).
edge(4, 211).
edge(116, 134).
edge(5, 191).
edge(9, 18).
edge(106, 182).
edge(60, 183).
edge(12, 51).
edge(125, 204).
edge(159, 164).
edge(58, 112).
edge(135, 206).
edge(94, 154).
edge(35, 188).
edge(29, 78).
edge(8, 147).
edge(62, 120).
edge(39, 89).
edge(123, 194).
edge(46, 171).
edge(62, 182).
edge(6, 196).
edge(0, 26).
edge(19, 58).
edge(19, 168).
edge(44, 61).
edge(194, 213).
edge(27, 100).
edge(123, 138).
edge(91, 136).
edge(52, 103).
edge(161, 205).
edge(96, 143).
edge(120, 191).
edge(8, 183).
edge(149, 195).
edge(152, 192).
edge(59, 144).
edge(8, 95).
edge(129, 204).
edge(102, 148).
edge(93, 207).
edge(96, 105).
edge(13, 160).
edge(47, 212).
edge(27, 163).
edge(25, 105).
edge(57, 205).
edge(107, 143).
edge(17, 50).
edge(136, 200).
edge(14, 208).
edge(34, 137).
edge(77, 207).
edge(197, 214).
edge(56, 122).
edge(40, 102).
edge(151, 161).
edge(81, 208).
edge(143, 190).
edge(77, 189).
edge(23, 180).
edge(45, 197).
edge(63, 128).
edge(60, 117).
edge(28, 173).
edge(24, 90).
edge(26, 124).
edge(27, 81).
edge(44, 69).
edge(38, 127).
edge(88, 216).
edge(119, 215).
edge(87, 186).
edge(93, 205).
edge(32, 148).
edge(55, 189).
edge(35, 194).
edge(59, 183).
edge(87, 216).
edge(90, 162).
edge(83, 176).
edge(157, 169).
edge(18, 67).
edge(55, 121).
edge(3, 13).
edge(21, 142).
edge(4, 112).
edge(83, 143).
edge(54, 186).
edge(146, 202).
edge(19, 135).
edge(23, 198).
edge(48, 154).
edge(13, 30).
edge(8, 20).
edge(102, 147).
edge(59, 182).
edge(65, 212).
edge(92, 218).
edge(14, 64).
edge(20, 39).
edge(55, 210).
edge(184, 205).
edge(2, 126).
edge(57, 109).
edge(119, 189).
edge(114, 115).
edge(67, 84).
edge(81, 120).
edge(46, 70).
edge(137, 155).
edge(41, 139).
edge(51, 221).
edge(89, 95).
edge(122, 156).
edge(7, 28).
edge(2, 203).
edge(27, 115).
edge(118, 131).
edge(24, 171).
edge(123, 162).
edge(10, 143).
edge(7, 12).
edge(116, 167).
edge(144, 160).
edge(23, 163).
edge(17, 157).
edge(30, 185).
edge(23, 202).
edge(106, 147).
edge(44, 150).
edge(4, 101).
edge(2, 202).
edge(37, 47).
edge(181, 200).
edge(196, 206).
edge(201, 213).
edge(37, 197).
edge(113, 208).
edge(130, 147).
edge(45, 88).
edge(134, 173).
edge(34, 56).
edge(158, 204).
edge(36, 125).
edge(0, 174).
edge(1, 183).
edge(24, 153).
edge(82, 128).
edge(19, 207).
edge(63, 83).
edge(139, 181).
edge(117, 206).
edge(87, 217).
edge(192, 207).
edge(39, 137).
edge(120, 133).
edge(132, 155).
edge(70, 80).
edge(21, 140).
edge(78, 89).
edge(18, 91).
edge(178, 192).
edge(42, 100).
edge(17, 58).
edge(95, 124).
edge(129, 210).
edge(7, 183).
edge(150, 162).
edge(18, 115).
edge(110, 118).
edge(147, 185).
edge(156, 196).
edge(71, 75).
edge(68, 187).
edge(6, 11).
edge(172, 187).
edge(100, 102).
edge(51, 162).
edge(61, 219).
edge(108, 138).
edge(7, 119).
edge(75, 133).
edge(83, 123).
edge(87, 162).
edge(3, 148).
edge(71, 151).
edge(47, 63).
edge(12, 47).
edge(76, 147).
edge(114, 143).
edge(104, 213).
edge(18, 45).
edge(17, 132).
edge(48, 113).
edge(97, 154).
edge(98, 105).
edge(75, 112).
edge(59, 156).
edge(38, 45).
edge(29, 220).
edge(139, 159).
edge(22, 75).
edge(15, 210).
edge(30, 107).
edge(93, 158).
edge(11, 83).
edge(103, 115).
edge(37, 79).
edge(141, 154).
edge(74, 205).
edge(26, 159).
edge(97, 163).
edge(123, 128).
edge(58, 183).
edge(58, 92).
edge(91, 189).
edge(73, 210).
edge(20, 21).
edge(144, 182).
edge(54, 150).
edge(78, 134).
edge(150, 187).
edge(8, 13).
edge(135, 142).
edge(84, 167).
edge(94, 187).
edge(111, 180).
edge(23, 99).
edge(104, 199).
edge(89, 171).
edge(188, 219).
edge(162, 198).
edge(190, 220).
edge(52, 73).
edge(44, 52).
edge(27, 53).
edge(33, 188).
edge(7, 48).
edge(173, 193).
edge(3, 144).
edge(24, 65).
edge(52, 127).
edge(7, 103).
edge(114, 176).
edge(28, 142).
edge(202, 203).
edge(10, 176).
edge(59, 175).
edge(34, 215).
edge(150, 205).
edge(67, 203).
edge(15, 192).
edge(70, 187).
edge(86, 137).
edge(165, 201).
edge(101, 138).
edge(6, 108).
edge(117, 122).
edge(25, 76).
edge(26, 78).
edge(54, 154).
edge(4, 197).
edge(12, 117).
edge(161, 185).
edge(58, 216).
edge(197, 206).
edge(61, 185).
edge(36, 83).
edge(91, 221).
edge(85, 93).
edge(10, 179).
edge(9, 143).
edge(67, 171).
edge(12, 45).
edge(47, 149).
edge(117, 179).
edge(120, 154).
edge(113, 126).
edge(65, 171).
edge(148, 205).
edge(110, 175).
edge(41, 215).
edge(48, 147).
edge(128, 212).
edge(132, 192).
edge(30, 162).
edge(95, 186).
edge(139, 203).
edge(14, 123).
edge(203, 219).
edge(23, 186).
edge(139, 142).
edge(170, 217).
edge(2, 125).
edge(105, 118).
edge(41, 183).
edge(1, 4).
edge(44, 86).
edge(45, 91).
edge(160, 162).
edge(19, 40).
edge(16, 72).
edge(72, 91).
edge(165, 176).
edge(73, 81).
edge(35, 162).
edge(2, 46).
edge(140, 177).
edge(67, 119).
edge(103, 138).
edge(22, 183).
edge(129, 158).
edge(113, 119).
edge(34, 191).
edge(15, 91).
edge(8, 169).
edge(88, 112).
edge(80, 215).
edge(73, 78).
edge(32, 197).
edge(3, 52).
edge(0, 107).
edge(37, 44).
edge(82, 89).
edge(80, 98).
edge(1, 40).
edge(125, 216).
edge(125, 133).
edge(75, 142).
edge(108, 220).
edge(57, 204).
edge(34, 104).
edge(21, 116).
edge(106, 153).
edge(20, 69).
edge(186, 207).
edge(29, 171).
edge(57, 219).
edge(112, 171).
edge(97, 102).
edge(49, 184).
edge(78, 176).
edge(65, 185).
edge(48, 200).
edge(45, 159).
edge(31, 101).
edge(2, 130).
edge(11, 161).
edge(94, 128).
edge(48, 72).
edge(40, 188).
edge(22, 189).
edge(121, 209).
edge(59, 142).
edge(48, 79).
edge(38, 183).
edge(9, 194).
edge(43, 53).
edge(57, 85).
edge(57, 138).
edge(1, 9).
edge(5, 60).
edge(31, 90).
edge(44, 116).
edge(3, 176).
edge(30, 176).
edge(121, 138).
edge(151, 181).
edge(20, 31).
edge(3, 14).
edge(46, 88).
edge(44, 106).
edge(18, 31).
edge(124, 193).
edge(92, 174).
edge(98, 198).
edge(13, 56).
edge(26, 33).
edge(65, 119).
edge(37, 89).
edge(103, 156).
edge(19, 33).
edge(6, 106).
edge(105, 126).
edge(78, 168).
edge(79, 80).
edge(126, 131).
edge(47, 93).
edge(29, 102).
edge(202, 221).
edge(132, 137).
edge(186, 204).
edge(129, 188).
edge(89, 121).
edge(190, 196).
edge(91, 208).
edge(121, 179).
edge(21, 207).
edge(2, 60).
edge(88, 103).
edge(155, 198).
edge(41, 113).
edge(54, 196).
edge(36, 89).
edge(12, 172).
edge(130, 156).
edge(128, 216).
edge(41, 111).
edge(6, 145).
edge(86, 114).
edge(81, 104).
edge(49, 218).
edge(97, 139).
edge(11, 205).
edge(21, 195).
edge(117, 150).
edge(99, 207).
edge(91, 186).
edge(55, 104).
edge(120, 187).
edge(56, 142).
edge(18, 127).
edge(0, 187).
edge(100, 133).
edge(6, 19).
edge(30, 41).
edge(79, 104).
edge(51, 96).
edge(0, 152).
edge(54, 155).
edge(14, 21).
edge(1, 217).
edge(111, 171).
edge(133, 183).
edge(100, 205).
edge(159, 201).
edge(132, 154).
edge(12, 76).
edge(116, 201).
edge(4, 202).
edge(126, 133).
edge(46, 145).
edge(192, 194).
edge(63, 124).
edge(1, 200).
edge(209, 216).
edge(159, 167).
edge(84, 177).
edge(55, 58).
edge(33, 101).
edge(56, 161).
edge(8, 121).
edge(29, 58).
edge(33, 221).
edge(82, 136).
edge(72, 104).
edge(1, 175).
edge(1, 135).
edge(134, 147).
edge(136, 183).
edge(118, 169).
edge(60, 113).
edge(66, 71).
edge(25, 80).
edge(87, 215).
edge(114, 197).
edge(45, 190).
edge(135, 175).
edge(150, 194).
edge(40, 125).
edge(55, 105).
edge(127, 149).
edge(118, 177).
edge(49, 116).
edge(66, 129).
edge(119, 167).
edge(63, 120).
edge(194, 221).
edge(63, 178).
edge(20, 183).
edge(98, 196).
edge(34, 54).
edge(0, 190).
edge(68, 151).
edge(150, 215).
edge(38, 58).
edge(50, 52).
edge(1, 56).
edge(87, 204).
edge(116, 169).
edge(142, 206).
edge(106, 154).
edge(64, 112).
edge(88, 214).
edge(49, 150).
edge(12, 92).
edge(0, 137).
edge(176, 185).
edge(175, 181).
edge(158, 174).
edge(13, 204).
edge(51, 98).
edge(60, 95).
edge(52, 95).
edge(66, 150).
edge(81, 207).
edge(207, 220).
edge(72, 101).
edge(94, 131).
edge(119, 217).
edge(93, 99).
edge(75, 114).
edge(186, 198).
edge(170, 208).
edge(137, 190).
edge(61, 206).
edge(47, 176).
edge(194, 205).
edge(77, 89).
edge(111, 206).
edge(15, 156).
edge(13, 99).
edge(5, 178).
edge(86, 128).
edge(153, 162).
edge(88, 118).
edge(63, 150).
edge(166, 209).
edge(70, 173).
edge(51, 121).
edge(84, 98).
edge(130, 161).
edge(55, 122).
edge(186, 216).
edge(36, 160).
edge(35, 129).
edge(70, 207).
edge(143, 178).
edge(77, 84).
edge(82, 188).
edge(112, 139).
edge(144, 152).
edge(147, 219).
edge(43, 52).
edge(111, 149).
edge(191, 193).
edge(120, 122).
edge(35, 178).
edge(11, 138).
edge(109, 132).
edge(1, 76).
edge(29, 70).
edge(35, 218).
edge(92, 137).
edge(12, 168).
edge(128, 188).
edge(91, 105).
edge(15, 135).
edge(5, 71).
edge(16, 23).
edge(7, 46).
edge(84, 156).
edge(65, 208).
edge(106, 146).
edge(129, 138).
edge(74, 145).
edge(64, 132).
edge(110, 186).
edge(33, 38).
edge(33, 160).
edge(32, 195).
edge(97, 218).
edge(54, 205).
edge(58, 114).
edge(36, 57).
edge(0, 196).
edge(27, 132).
edge(23, 46).
edge(73, 96).
edge(198, 202).
edge(2, 139).
edge(82, 209).
edge(41, 221).
edge(54, 140).
edge(116, 153).
edge(49, 114).
edge(45, 164).
edge(4, 67).
edge(76, 117).
edge(85, 115).
edge(1, 132).
edge(3, 157).
edge(122, 221).
edge(44, 64).
edge(30, 54).
edge(152, 177).
edge(152, 154).
edge(33, 37).
edge(201, 216).
edge(171, 175).
edge(115, 125).
edge(78, 154).
edge(32, 168).
edge(51, 186).
edge(19, 30).
edge(91, 107).
edge(94, 209).
edge(176, 177).
edge(56, 173).
edge(17, 94).
edge(13, 31).
edge(15, 97).
edge(188, 215).
edge(22, 72).
edge(86, 123).
edge(22, 124).
edge(43, 218).
edge(63, 66).
edge(74, 178).
edge(35, 119).
edge(134, 164).
edge(62, 93).
edge(19, 77).
edge(109, 164).
edge(108, 174).
edge(36, 189).
edge(210, 218).
edge(67, 79).
edge(77, 196).
edge(83, 117).
edge(212, 220).
edge(45, 71).
edge(83, 158).
edge(4, 187).
edge(78, 180).
edge(4, 220).
edge(58, 184).
edge(103, 198).
edge(21, 147).
edge(69, 121).
edge(36, 105).
edge(28, 39).
edge(164, 202).
edge(56, 83).
edge(138, 196).
edge(11, 108).
edge(61, 163).
edge(140, 190).
edge(106, 174).
edge(15, 207).
edge(51, 170).
edge(45, 105).
edge(26, 202).
edge(129, 133).
edge(20, 215).
edge(99, 179).
edge(27, 104).
edge(184, 209).
edge(21, 93).
edge(81, 167).
edge(60, 180).
edge(7, 210).
edge(36, 133).
edge(71, 115).
edge(116, 158).
edge(15, 119).
edge(59, 103).
edge(26, 136).
edge(161, 162).
edge(8, 220).
edge(49, 60).
edge(43, 60).
edge(125, 205).
edge(113, 195).
edge(54, 172).
edge(78, 140).
edge(16, 46).
edge(3, 161).
edge(4, 203).
edge(60, 147).
edge(136, 150).
edge(48, 138).
edge(23, 144).
edge(120, 167).
edge(85, 117).
edge(13, 64).
edge(51, 58).
edge(62, 201).
edge(137, 208).
edge(59, 67).
edge(123, 154).
edge(33, 111).
edge(28, 109).
edge(57, 160).
edge(42, 102).
edge(45, 52).
edge(103, 163).
edge(56, 62).
edge(151, 180).
edge(11, 90).
edge(24, 67).
edge(64, 127).
edge(33, 215).
edge(93, 213).
edge(94, 117).
edge(130, 189).
edge(20, 168).
edge(127, 217).
edge(44, 60).
edge(97, 131).
edge(10, 116).
edge(154, 198).
edge(187, 202).
edge(62, 154).
edge(168, 184).
edge(178, 184).
edge(127, 200).
edge(38, 205).
edge(33, 204).
edge(55, 108).
edge(129, 199).
edge(158, 179).
edge(64, 173).
edge(61, 70).
edge(40, 210).
edge(58, 190).
edge(82, 98).
edge(203, 215).
edge(199, 210).
edge(54, 123).
edge(45, 155).
edge(4, 75).
edge(23, 93).
edge(99, 107).
edge(147, 159).
edge(142, 196).
edge(98, 197).
edge(182, 199).
edge(4, 182).
edge(98, 194).
edge(16, 17).
edge(140, 167).
edge(82, 146).
edge(88, 131).
edge(103, 153).
edge(177, 184).
edge(51, 219).
edge(62, 131).
edge(57, 147).
edge(79, 99).
edge(2, 138).
edge(33, 152).
edge(29, 119).
edge(158, 168).
edge(97, 200).
edge(62, 214).
edge(157, 195).
edge(180, 191).
edge(92, 104).
edge(106, 109).
edge(74, 119).
edge(20, 210).
edge(35, 69).
edge(144, 195).
edge(129, 183).
edge(7, 181).
edge(51, 122).
edge(106, 158).
edge(127, 203).
edge(44, 165).
edge(3, 199).
edge(18, 26).
edge(140, 195).
edge(68, 102).
edge(21, 159).
edge(5, 73).
edge(27, 32).
edge(32, 212).
edge(43, 157).
edge(163, 208).
edge(76, 142).
edge(50, 132).
edge(154, 195).
edge(41, 121).
edge(62, 199).
edge(98, 216).
edge(157, 196).
edge(69, 134).
edge(38, 87).
edge(53, 157).
edge(18, 118).
edge(54, 95).
edge(9, 102).
edge(108, 207).
edge(22, 86).
edge(20, 186).
edge(61, 156).
edge(36, 77).
edge(112, 176).
edge(105, 155).
edge(52, 62).
edge(102, 195).
edge(79, 161).
edge(21, 72).
edge(35, 92).
edge(30, 75).
edge(12, 188).
edge(205, 216).
edge(13, 105).
edge(76, 216).
edge(99, 202).
edge(111, 213).
edge(29, 94).
edge(29, 214).
edge(14, 49).
edge(5, 12).
edge(9, 114).
edge(14, 153).
edge(42, 163).
edge(98, 201).
edge(79, 176).
edge(147, 181).
edge(79, 171).
edge(66, 167).
edge(81, 139).
edge(26, 163).
edge(4, 193).
edge(10, 124).
edge(144, 189).
edge(119, 191).
edge(138, 179).
edge(33, 153).
edge(191, 195).
edge(40, 212).
edge(52, 106).
edge(160, 217).
edge(8, 84).
edge(28, 143).
edge(2, 8).
edge(7, 101).
edge(17, 141).
edge(41, 91).
edge(84, 165).
edge(91, 113).
edge(32, 51).
edge(107, 167).
edge(51, 160).
edge(127, 194).
edge(51, 130).
edge(90, 111).
edge(25, 173).
edge(170, 199).
edge(11, 12).
edge(28, 116).
edge(79, 86).
edge(32, 193).
edge(114, 130).
edge(153, 166).
edge(55, 220).
edge(51, 196).
edge(158, 178).
edge(19, 31).
edge(92, 168).
edge(59, 148).
edge(85, 143).
edge(22, 219).
edge(84, 109).
edge(24, 163).
edge(130, 220).
edge(32, 166).
edge(92, 210).
edge(96, 162).
edge(92, 142).
edge(38, 113).
edge(95, 156).
edge(35, 220).
edge(156, 221).
edge(49, 108).
edge(164, 216).
edge(8, 193).
edge(7, 139).
edge(123, 183).
edge(87, 150).
edge(75, 98).
edge(53, 146).
edge(31, 89).
edge(82, 186).
edge(113, 170).
edge(66, 168).
edge(131, 216).
edge(59, 88).
edge(2, 185).
edge(129, 154).
edge(76, 79).
edge(30, 129).
edge(55, 81).
edge(85, 187).
edge(45, 200).
edge(15, 209).
edge(7, 83).
edge(114, 126).
edge(89, 163).
edge(150, 208).
edge(157, 174).
edge(59, 78).
edge(80, 130).
edge(29, 129).
edge(14, 213).
edge(3, 51).
edge(23, 199).
edge(34, 221).
edge(41, 105).
edge(179, 211).
edge(25, 172).
edge(117, 183).
edge(30, 120).
edge(94, 95).
edge(71, 100).
edge(123, 217).
edge(85, 147).
edge(43, 58).
edge(30, 172).
edge(26, 198).
edge(186, 209).
edge(97, 181).
edge(167, 221).
edge(17, 39).
edge(61, 128).
edge(81, 152).
edge(118, 175).
edge(14, 148).
edge(12, 155).
edge(100, 113).
edge(95, 180).
edge(37, 167).
edge(70, 134).
edge(119, 131).
edge(106, 167).
edge(183, 217).
edge(18, 142).
edge(105, 137).
edge(188, 216).
edge(126, 219).
edge(36, 75).
edge(154, 183).
edge(15, 122).
edge(92, 157).
edge(59, 125).
edge(89, 164).
edge(21, 64).
edge(39, 185).
edge(17, 129).
edge(139, 180).
edge(31, 179).
edge(62, 83).
edge(5, 58).
edge(164, 166).
edge(40, 123).
edge(11, 69).
edge(13, 208).
edge(52, 166).
edge(5, 108).
edge(96, 188).
edge(40, 110).
edge(167, 213).
edge(123, 167).
edge(127, 160).
edge(42, 72).
edge(114, 202).
edge(122, 212).
edge(162, 205).
edge(118, 197).
edge(18, 102).
edge(44, 95).
edge(71, 120).
edge(13, 207).
edge(156, 176).
edge(112, 206).
edge(43, 69).
edge(51, 115).
edge(92, 103).
edge(99, 151).
edge(155, 211).
edge(17, 25).
edge(28, 100).
edge(80, 92).
edge(65, 122).
edge(195, 196).
edge(125, 219).
edge(85, 114).
edge(130, 139).
edge(39, 110).
edge(98, 115).
edge(95, 204).
edge(40, 157).
edge(188, 202).
edge(45, 97).
edge(101, 153).
edge(43, 140).
edge(111, 209).
edge(43, 80).
edge(39, 124).
edge(12, 149).
edge(41, 219).
edge(95, 163).
edge(68, 171).
edge(18, 124).
edge(37, 49).
edge(172, 218).
edge(120, 209).
edge(67, 92).
edge(113, 220).
edge(2, 93).
edge(105, 207).
edge(180, 205).
edge(56, 69).
edge(5, 75).
edge(8, 194).
edge(24, 203).
edge(43, 142).
edge(0, 94).
edge(86, 131).
edge(5, 163).
edge(14, 74).
edge(158, 193).
edge(12, 210).
edge(154, 206).
edge(26, 149).
edge(56, 116).
edge(160, 184).
edge(127, 181).
edge(7, 150).
edge(46, 158).
edge(64, 65).
edge(28, 156).
edge(46, 191).
edge(169, 208).
edge(3, 201).
edge(210, 220).
edge(138, 210).
edge(56, 148).
edge(203, 208).
edge(72, 112).
edge(76, 165).
edge(9, 117).
edge(111, 189).
edge(175, 191).
edge(38, 137).
edge(88, 205).
edge(7, 153).
edge(33, 49).
edge(89, 161).
edge(77, 138).
edge(190, 208).
edge(173, 176).
edge(130, 140).
edge(98, 168).
edge(43, 210).
edge(43, 108).
edge(109, 121).
edge(30, 207).
edge(88, 158).
edge(153, 177).
edge(68, 104).
edge(149, 156).
edge(29, 95).
edge(0, 97).
edge(94, 184).
edge(85, 220).
edge(96, 173).
edge(27, 210).
edge(5, 116).
edge(210, 211).
edge(36, 86).
edge(38, 118).
edge(59, 129).
edge(1, 51).
edge(97, 132).
edge(142, 169).
edge(126, 221).
edge(65, 117).
edge(15, 88).
edge(176, 219).
edge(60, 221).
edge(88, 90).
edge(70, 100).
edge(73, 84).
edge(8, 10).
edge(7, 162).
edge(129, 202).
edge(61, 162).
edge(9, 178).
edge(84, 199).
edge(24, 49).
edge(159, 211).
edge(89, 134).
edge(83, 208).
edge(93, 195).
edge(9, 211).
edge(70, 193).
edge(74, 183).
edge(4, 95).
edge(35, 100).
edge(111, 166).
edge(3, 133).
edge(106, 190).
edge(67, 105).
edge(55, 145).
edge(68, 167).
edge(7, 70).
edge(89, 159).
edge(78, 209).
edge(107, 200).
edge(5, 19).
edge(38, 164).
edge(39, 172).
edge(31, 57).
edge(35, 71).
edge(192, 199).
edge(45, 211).
edge(84, 185).
edge(84, 209).
edge(196, 214).
edge(15, 152).
edge(187, 217).
edge(112, 198).
edge(20, 23).
edge(203, 216).
edge(211, 216).
edge(77, 171).
edge(57, 107).
edge(5, 86).
edge(20, 160).
edge(53, 175).
edge(29, 96).
edge(148, 219).
edge(27, 160).
edge(32, 69).
edge(212, 219).
edge(50, 137).
edge(67, 196).
edge(99, 199).
edge(37, 193).
edge(37, 68).
edge(124, 133).
edge(139, 163).
edge(22, 114).
edge(15, 146).
edge(7, 120).
edge(49, 206).
edge(76, 88).
edge(8, 37).
edge(82, 144).
edge(30, 171).
edge(16, 64).
edge(45, 206).
edge(153, 169).
edge(15, 133).
edge(27, 52).
edge(40, 134).
edge(156, 215).
edge(81, 181).
edge(40, 199).
edge(17, 148).
edge(101, 189).
edge(56, 196).
edge(111, 198).
edge(42, 110).
edge(46, 206).
edge(26, 215).
edge(118, 137).
edge(170, 180).
edge(137, 140).
edge(160, 172).
edge(15, 189).
edge(2, 153).
edge(39, 125).
edge(10, 158).
edge(153, 154).
edge(130, 195).
edge(85, 158).
edge(14, 96).
edge(172, 193).
edge(87, 141).
edge(169, 211).
edge(155, 221).
edge(55, 85).
edge(16, 183).
edge(29, 134).
edge(164, 173).
edge(55, 66).
edge(94, 164).
edge(39, 96).
edge(124, 198).
edge(34, 57).
edge(51, 176).
edge(64, 172).
edge(105, 211).
edge(34, 183).
edge(67, 94).
edge(188, 210).
edge(88, 117).
edge(63, 160).
edge(139, 214).
edge(66, 163).
edge(66, 74).
edge(55, 65).
edge(146, 193).
edge(27, 125).
edge(141, 173).
edge(115, 157).
edge(11, 169).
edge(49, 99).
edge(211, 217).
edge(14, 173).
edge(126, 130).
edge(150, 170).
edge(108, 155).
edge(70, 157).
edge(128, 172).
edge(22, 63).
edge(103, 137).
edge(102, 115).
edge(54, 204).
edge(9, 48).
edge(135, 220).
edge(138, 220).
edge(193, 194).
edge(27, 168).
edge(82, 153).
edge(121, 202).
edge(82, 120).
edge(143, 159).
edge(31, 106).
edge(59, 171).
edge(103, 173).
edge(63, 184).
edge(33, 44).
edge(84, 124).
edge(129, 156).
edge(34, 148).
edge(108, 130).
edge(22, 154).
edge(11, 216).
edge(105, 148).
edge(59, 119).
edge(4, 20).
edge(1, 210).
edge(11, 208).
edge(136, 154).
edge(158, 188).
edge(110, 130).
edge(206, 212).
edge(107, 172).
edge(135, 179).
edge(128, 198).
edge(33, 42).
edge(38, 76).
edge(127, 140).
edge(67, 102).
edge(74, 182).
edge(70, 141).
edge(99, 125).
edge(60, 134).
edge(0, 116).
edge(115, 193).
edge(42, 165).
edge(82, 203).
edge(140, 150).
edge(96, 190).
edge(167, 196).
edge(5, 113).
edge(61, 213).
edge(93, 108).
edge(132, 171).
edge(60, 165).
edge(26, 155).
edge(161, 187).
edge(6, 177).
edge(99, 112).
edge(176, 188).
edge(156, 213).
edge(119, 190).
edge(0, 164).
edge(184, 214).
edge(92, 221).
edge(103, 114).
edge(112, 213).
edge(152, 175).
edge(128, 168).
edge(70, 112).
edge(99, 198).
edge(6, 42).
edge(62, 144).
edge(42, 181).
edge(98, 125).
edge(11, 157).
edge(74, 170).
edge(159, 210).
edge(37, 151).
edge(115, 186).
edge(97, 184).
edge(30, 37).
edge(32, 209).
edge(167, 178).
edge(134, 172).
edge(72, 93).
edge(196, 204).
edge(16, 221).
edge(105, 110).
edge(199, 205).
edge(3, 172).
edge(69, 220).
edge(14, 70).
edge(77, 201).
edge(20, 42).
edge(121, 207).
edge(147, 195).
edge(14, 205).
edge(38, 192).
edge(17, 196).
edge(20, 118).
edge(17, 143).
edge(23, 182).
edge(9, 157).
edge(166, 205).
edge(20, 205).
edge(22, 111).
edge(42, 60).
edge(41, 132).
edge(11, 102).
edge(92, 196).
edge(9, 191).
edge(180, 211).
edge(5, 157).
edge(65, 203).
edge(65, 93).
edge(19, 96).
edge(7, 96).
edge(174, 204).
edge(183, 220).
edge(95, 184).
edge(113, 197).
edge(28, 102).
edge(192, 218).
edge(27, 65).
edge(112, 199).
edge(92, 172).
edge(29, 68).
edge(26, 74).
edge(129, 200).
edge(98, 210).
edge(56, 70).
edge(109, 215).
edge(67, 100).
edge(47, 115).
edge(89, 99).
edge(164, 214).
edge(36, 94).
edge(52, 105).
edge(173, 190).
edge(205, 215).
edge(79, 142).
edge(54, 101).
edge(62, 107).
edge(212, 217).
edge(59, 128).
edge(53, 95).
edge(62, 129).
edge(166, 167).
edge(24, 172).
edge(47, 56).
edge(44, 137).
edge(10, 120).
edge(93, 121).
edge(18, 196).
edge(60, 164).
edge(90, 143).
edge(148, 190).
edge(65, 124).
edge(70, 198).
edge(95, 157).
edge(15, 52).
edge(110, 143).
edge(92, 170).
edge(105, 191).
edge(190, 199).
edge(44, 206).
edge(26, 60).
edge(38, 110).
edge(98, 134).
edge(36, 65).
edge(86, 126).
edge(73, 182).
edge(52, 85).
edge(8, 153).
edge(87, 180).
edge(56, 135).
edge(32, 123).
edge(49, 211).
edge(39, 151).
edge(3, 196).
edge(14, 104).
edge(35, 211).
edge(92, 106).
edge(35, 126).
edge(39, 157).
edge(15, 61).
edge(22, 41).
edge(48, 53).
edge(59, 141).
edge(27, 184).
edge(172, 177).
edge(39, 86).
edge(94, 126).
edge(127, 142).
edge(47, 162).
edge(157, 212).
edge(19, 32).
edge(157, 159).
edge(66, 204).
edge(19, 220).
edge(50, 75).
edge(198, 208).
edge(37, 182).
edge(3, 86).
edge(196, 199).
edge(51, 167).
edge(37, 185).
edge(58, 195).
edge(11, 202).
edge(178, 215).
edge(20, 34).
edge(170, 189).
edge(112, 215).
edge(106, 201).
edge(10, 132).
edge(27, 134).
edge(75, 139).
edge(102, 181).
edge(115, 187).
edge(23, 55).
edge(14, 162).
edge(65, 160).
edge(10, 12).
edge(91, 137).
edge(9, 146).
edge(26, 99).
edge(56, 181).
edge(17, 181).
edge(70, 195).
edge(85, 193).
edge(38, 109).
edge(48, 201).
edge(14, 19).
edge(9, 91).
edge(41, 197).
edge(58, 119).
edge(106, 197).
edge(179, 203).
edge(107, 130).
edge(8, 33).
edge(132, 142).
edge(188, 190).
edge(105, 180).
edge(177, 212).
edge(89, 118).
edge(39, 85).
edge(177, 201).
edge(51, 149).
edge(189, 218).
edge(16, 208).
edge(71, 79).
edge(96, 135).
edge(145, 174).
edge(10, 182).
edge(37, 95).
edge(20, 106).
edge(131, 144).
edge(5, 110).
edge(130, 134).
edge(49, 178).
edge(147, 156).
edge(9, 188).
edge(205, 211).
edge(27, 107).
edge(13, 91).
edge(46, 176).
edge(12, 65).
edge(17, 125).
edge(46, 89).
edge(97, 217).
edge(64, 174).
edge(50, 165).
edge(45, 90).
edge(79, 194).
edge(113, 199).
edge(116, 212).
edge(43, 165).
edge(109, 155).
edge(36, 149).
edge(45, 166).
edge(30, 93).
edge(87, 191).
edge(163, 193).
edge(69, 102).
edge(96, 137).
edge(34, 188).
edge(69, 170).
edge(74, 79).
edge(72, 75).
edge(9, 164).
edge(73, 198).
edge(58, 128).
edge(24, 145).
edge(66, 151).
edge(23, 129).
edge(85, 171).
edge(138, 218).
edge(15, 83).
edge(79, 165).
edge(11, 186).
edge(34, 218).
edge(76, 152).
edge(108, 217).
edge(114, 172).
edge(101, 106).
edge(69, 81).
edge(110, 153).
edge(19, 70).
edge(125, 186).
edge(128, 181).
edge(94, 196).
edge(32, 110).
edge(1, 115).
edge(0, 126).
edge(15, 59).
edge(47, 94).
edge(69, 177).
edge(111, 177).
edge(64, 212).
edge(104, 112).
edge(106, 110).
edge(31, 62).
edge(102, 216).
edge(136, 145).
edge(34, 95).
edge(119, 210).
edge(185, 216).
edge(92, 177).
edge(140, 214).
edge(175, 204).
edge(62, 195).
edge(152, 179).
edge(50, 136).
edge(35, 130).
edge(63, 131).
edge(110, 155).
edge(207, 218).
edge(168, 183).
edge(34, 78).
edge(64, 175).
edge(147, 202).
edge(59, 62).
edge(42, 54).
edge(22, 170).
edge(26, 139).
edge(185, 208).
edge(133, 204).
edge(62, 117).
edge(149, 203).
edge(162, 215).
edge(161, 189).
edge(22, 68).
edge(32, 44).
edge(9, 16).
edge(2, 54).
edge(118, 221).
edge(127, 173).
edge(111, 133).
edge(97, 120).
edge(142, 208).
edge(159, 207).
edge(45, 46).
edge(132, 175).
edge(56, 157).
edge(5, 84).
edge(23, 101).
edge(89, 186).
edge(57, 214).
edge(10, 151).
edge(10, 177).
edge(46, 82).
edge(87, 133).
edge(59, 187).
edge(35, 153).
edge(40, 152).
edge(212, 218).
edge(123, 149).
edge(92, 114).
edge(18, 69).
edge(101, 151).
edge(110, 117).
edge(135, 164).
edge(54, 203).
edge(7, 187).
edge(136, 221).
edge(25, 217).
edge(114, 145).
edge(35, 197).
edge(67, 164).
edge(158, 192).
edge(56, 60).
edge(30, 88).
edge(9, 61).
edge(174, 201).
edge(5, 27).
edge(68, 81).
edge(46, 169).
edge(90, 197).
edge(167, 203).
edge(15, 128).
edge(63, 138).
edge(0, 34).
edge(115, 161).
edge(99, 147).
edge(134, 180).
edge(24, 160).
edge(21, 101).
edge(161, 165).
edge(45, 189).
edge(117, 157).
edge(131, 171).
edge(108, 109).
edge(13, 102).
edge(21, 61).
edge(5, 207).
edge(69, 104).
edge(120, 166).
edge(99, 214).
edge(71, 136).
edge(93, 111).
edge(52, 65).
edge(75, 81).
edge(12, 196).
edge(111, 207).
edge(37, 62).
edge(65, 165).
edge(12, 42).
edge(9, 84).
edge(76, 219).
edge(105, 201).
edge(99, 181).
edge(39, 165).
edge(138, 178).
edge(112, 217).
edge(181, 216).
edge(176, 183).
edge(169, 188).
edge(48, 109).
edge(88, 144).
edge(49, 103).
edge(40, 164).
edge(3, 112).
edge(52, 92).
edge(66, 88).
edge(146, 149).
edge(94, 119).
edge(21, 160).
edge(61, 90).
edge(76, 189).
edge(201, 206).
edge(28, 169).
edge(138, 139).
edge(103, 187).
edge(129, 209).
edge(62, 163).
edge(18, 212).
edge(14, 103).
edge(15, 105).
edge(113, 139).
edge(72, 182).
edge(197, 210).
edge(155, 172).
edge(38, 141).
edge(95, 190).
edge(65, 72).
edge(51, 189).
edge(72, 145).
edge(8, 160).
edge(135, 148).
edge(10, 15).
edge(81, 164).
edge(80, 128).
edge(5, 217).
edge(24, 175).
edge(111, 182).
edge(78, 193).
edge(82, 215).
edge(91, 197).
edge(26, 206).
edge(74, 157).
edge(71, 104).
edge(55, 221).
edge(28, 162).
edge(119, 178).
edge(62, 112).
edge(48, 189).
edge(67, 134).
edge(90, 182).
edge(111, 158).
edge(30, 60).
edge(11, 111).
edge(33, 132).
edge(82, 207).
edge(46, 198).
edge(73, 163).
edge(0, 146).
edge(112, 151).
edge(2, 192).
edge(10, 25).
edge(165, 171).
edge(24, 77).
edge(20, 184).
edge(177, 180).
edge(125, 162).
edge(133, 168).
edge(46, 127).
edge(55, 130).
edge(97, 211).
edge(13, 168).
edge(142, 188).
edge(65, 191).
edge(100, 101).
edge(152, 188).
edge(153, 211).
edge(39, 72).
edge(27, 77).
edge(45, 75).
edge(153, 194).
edge(41, 213).
edge(5, 62).
edge(68, 211).
edge(122, 155).
edge(152, 185).
edge(71, 148).
edge(0, 133).
edge(7, 95).
edge(25, 71).
edge(32, 187).
edge(169, 197).
edge(32, 185).
edge(0, 74).
edge(63, 122).
edge(24, 200).
edge(14, 48).
edge(11, 123).
edge(82, 212).
edge(65, 157).
edge(80, 101).
edge(37, 216).
edge(24, 146).
edge(49, 200).
edge(129, 165).
edge(142, 178).
edge(9, 60).
edge(8, 22).
edge(104, 190).
edge(26, 58).
edge(60, 121).
edge(35, 83).
edge(8, 120).
edge(32, 73).
edge(64, 98).
edge(27, 156).
edge(27, 63).
edge(31, 112).
edge(131, 167).
edge(58, 187).
edge(130, 198).
edge(69, 147).
edge(18, 100).
edge(125, 142).
edge(87, 151).
edge(92, 155).
edge(15, 102).
edge(54, 161).
edge(185, 200).
edge(81, 149).
edge(134, 181).
edge(131, 154).
edge(93, 152).
edge(20, 216).
edge(109, 207).
edge(45, 194).
edge(52, 91).
edge(31, 163).
edge(19, 47).
edge(119, 213).
edge(38, 199).
edge(59, 207).
edge(53, 203).
edge(33, 98).
edge(31, 49).
edge(18, 126).
edge(53, 182).
edge(132, 148).
edge(159, 191).
edge(42, 178).
edge(108, 209).
edge(80, 139).
edge(6, 40).
edge(68, 133).
edge(145, 215).
edge(63, 80).
edge(145, 221).
edge(159, 208).
edge(26, 164).
edge(34, 44).
edge(101, 124).
edge(10, 149).
edge(111, 200).
edge(10, 214).
edge(15, 24).
edge(38, 125).
edge(89, 113).
edge(74, 195).
edge(155, 200).
edge(213, 217).
edge(45, 107).
edge(111, 142).
edge(106, 206).
edge(145, 218).
edge(59, 86).
edge(47, 218).
edge(2, 87).
edge(12, 170).
edge(56, 144).
edge(127, 145).
edge(121, 187).
edge(5, 131).
edge(3, 194).
edge(56, 90).
edge(31, 91).
edge(203, 211).
edge(58, 199).
edge(33, 218).
edge(15, 150).
edge(135, 162).
edge(45, 77).
edge(36, 193).
edge(11, 42).
edge(16, 81).
edge(27, 200).
edge(117, 201).
edge(19, 26).
edge(17, 165).
edge(111, 157).
edge(69, 160).
edge(42, 73).
edge(39, 112).
edge(48, 162).
edge(17, 26).
edge(106, 186).
edge(108, 212).
edge(26, 126).
edge(49, 109).
edge(55, 149).
edge(56, 159).
edge(24, 46).
edge(77, 119).
edge(51, 131).
edge(5, 176).
edge(36, 152).
edge(140, 154).
edge(69, 110).
edge(41, 164).
edge(34, 181).
edge(124, 165).
edge(105, 131).
edge(73, 92).
edge(174, 221).
edge(1, 163).
edge(23, 158).
edge(80, 132).
edge(50, 145).
edge(31, 184).
edge(56, 92).
edge(97, 198).
edge(107, 138).
edge(42, 120).
edge(149, 199).
edge(87, 195).
edge(113, 172).
edge(24, 43).
edge(139, 170).
edge(65, 213).
edge(56, 67).
edge(3, 53).
edge(125, 172).
edge(24, 40).
edge(22, 64).
edge(127, 146).
edge(167, 176).
edge(54, 179).
edge(106, 121).
edge(61, 66).
edge(104, 173).
edge(87, 138).
edge(11, 212).
edge(56, 130).
edge(34, 99).
edge(78, 157).
edge(24, 88).
edge(1, 22).
edge(11, 163).
edge(91, 121).
edge(98, 124).
edge(40, 79).
edge(72, 152).
edge(14, 193).
edge(64, 111).
edge(158, 205).
edge(3, 67).
edge(154, 199).
edge(165, 198).
edge(176, 204).
edge(73, 103).
edge(93, 192).
edge(119, 197).
edge(5, 153).
edge(9, 13).
edge(172, 219).
edge(8, 138).
edge(78, 120).
edge(149, 193).
edge(0, 127).
edge(10, 154).
edge(106, 210).
edge(31, 186).
edge(50, 219).
edge(40, 169).
edge(92, 201).
edge(2, 113).
edge(62, 73).
edge(54, 144).
edge(92, 158).
edge(36, 119).
edge(1, 191).
edge(9, 122).
edge(30, 126).
edge(80, 127).
edge(166, 187).
edge(65, 97).
edge(27, 96).
edge(96, 115).
edge(64, 99).
edge(150, 209).
edge(123, 202).
edge(66, 220).
edge(60, 69).
edge(16, 206).
edge(8, 75).
edge(61, 141).
edge(29, 101).
edge(50, 197).
edge(148, 156).
edge(59, 137).
edge(191, 205).
edge(55, 160).
edge(143, 202).
edge(105, 194).
edge(42, 187).
edge(84, 214).
edge(64, 115).
edge(193, 200).
edge(65, 110).
edge(146, 156).
edge(127, 137).
edge(134, 188).
edge(134, 177).
edge(111, 138).
edge(62, 196).
edge(133, 196).
edge(135, 190).
edge(57, 126).
edge(90, 190).
edge(91, 109).
edge(26, 121).
edge(30, 82).
edge(125, 206).
edge(17, 130).
edge(11, 43).
edge(42, 51).
edge(48, 219).
edge(8, 19).
edge(18, 192).
edge(76, 164).
edge(3, 113).
edge(19, 69).
edge(153, 200).
edge(26, 133).
edge(163, 207).
edge(12, 107).
edge(51, 159).
edge(152, 204).
edge(106, 159).
edge(51, 118).
edge(132, 200).
edge(55, 88).
edge(157, 165).
edge(66, 197).
edge(25, 140).
edge(51, 52).
edge(127, 209).
edge(44, 221).
edge(27, 143).
edge(25, 194).
edge(99, 117).
edge(129, 179).
edge(47, 189).
edge(32, 106).
edge(143, 168).
edge(24, 85).
edge(61, 129).
edge(169, 193).
edge(110, 184).
edge(48, 51).
edge(112, 115).
edge(13, 96).
edge(20, 62).
edge(48, 125).
edge(90, 210).
edge(90, 147).
edge(127, 141).
edge(117, 182).
edge(89, 179).
edge(107, 171).
edge(103, 189).
edge(87, 172).
edge(8, 53).
edge(76, 89).
edge(63, 217).
edge(21, 97).
edge(128, 215).
edge(130, 159).
edge(114, 198).
edge(95, 155).
edge(19, 204).
edge(90, 134).
edge(81, 166).
edge(70, 200).
edge(69, 175).
edge(89, 108).
edge(210, 213).
edge(6, 9).
edge(137, 173).
edge(103, 204).
edge(142, 181).
edge(194, 201).
edge(72, 142).
edge(35, 217).
edge(39, 160).
edge(100, 132).
edge(76, 77).
edge(10, 221).
edge(173, 180).
edge(27, 66).
edge(51, 171).
edge(145, 163).
edge(31, 187).
edge(19, 140).
edge(156, 203).
edge(117, 137).
edge(109, 175).
edge(54, 87).
edge(119, 133).
edge(170, 191).
edge(74, 81).
edge(76, 115).
edge(168, 196).
edge(29, 154).
edge(32, 42).
edge(33, 115).
edge(6, 88).
edge(100, 184).
edge(62, 70).
edge(131, 187).
edge(47, 54).
edge(197, 203).
edge(46, 203).
edge(142, 204).
edge(137, 178).
edge(58, 110).
edge(20, 127).
edge(40, 156).
edge(128, 131).
edge(19, 203).
edge(17, 43).
edge(114, 171).
edge(50, 96).
edge(16, 113).
edge(158, 182).
edge(3, 61).
edge(25, 81).
edge(113, 214).
edge(3, 7).
edge(130, 132).
edge(182, 214).
edge(150, 206).
edge(44, 55).
edge(6, 104).
edge(138, 161).
edge(192, 213).
edge(0, 122).
edge(21, 24).
edge(14, 80).
edge(31, 114).
edge(30, 211).
edge(93, 138).
edge(25, 107).
edge(24, 102).
edge(110, 211).
edge(38, 92).
edge(89, 145).
edge(23, 177).
edge(47, 141).
edge(76, 162).
edge(128, 218).
edge(37, 57).
edge(17, 186).
edge(43, 188).
edge(12, 57).
edge(152, 186).
edge(34, 194).
edge(29, 55).
edge(41, 103).
edge(46, 197).
edge(103, 111).
edge(98, 147).
edge(63, 108).
edge(30, 138).
edge(21, 81).
edge(196, 207).
edge(99, 175).
edge(17, 195).
edge(115, 131).
edge(27, 192).
edge(128, 133).
edge(154, 201).
edge(0, 28).
edge(22, 115).
edge(54, 129).
edge(24, 82).
edge(1, 192).
edge(73, 106).
edge(34, 119).
edge(122, 136).
edge(105, 163).
edge(0, 29).
edge(55, 84).
edge(116, 195).
edge(31, 181).
edge(10, 93).
edge(2, 29).
edge(80, 202).
edge(37, 150).
edge(67, 137).
edge(23, 86).
edge(6, 198).
edge(19, 63).
edge(131, 180).
edge(100, 168).
edge(62, 122).
edge(161, 172).
edge(35, 193).
edge(31, 178).
edge(64, 181).
edge(189, 213).
edge(60, 197).
edge(0, 6).
edge(26, 214).
edge(50, 203).
edge(130, 155).
edge(48, 100).
edge(5, 179).
edge(191, 218).
edge(87, 96).
edge(1, 180).
edge(26, 191).
edge(166, 211).
edge(154, 165).
edge(164, 210).
edge(48, 120).
edge(32, 149).
edge(107, 218).
edge(91, 215).
edge(73, 219).
edge(122, 147).
edge(98, 159).
edge(57, 158).
edge(78, 153).
edge(163, 213).
edge(35, 67).
edge(86, 117).
edge(74, 99).
edge(136, 205).
edge(34, 106).
edge(134, 137).
edge(112, 189).
edge(92, 197).
edge(34, 126).
edge(66, 126).
edge(162, 217).
edge(79, 180).
edge(100, 154).
edge(32, 142).
edge(67, 200).
edge(148, 210).
edge(147, 175).
edge(68, 198).
edge(59, 212).
edge(118, 218).
edge(3, 58).
edge(153, 159).
edge(62, 159).
edge(25, 211).
edge(93, 139).
edge(30, 71).
edge(55, 77).
edge(111, 187).
edge(150, 160).
edge(181, 213).
edge(167, 219).
edge(131, 143).
edge(39, 63).
edge(10, 135).
edge(3, 185).
edge(28, 106).
edge(110, 132).
edge(72, 209).
edge(28, 174).
edge(2, 120).
edge(110, 167).
edge(8, 83).
edge(62, 128).
edge(44, 120).
edge(134, 175).
edge(114, 134).
edge(143, 182).
edge(47, 117).
edge(65, 148).
edge(127, 130).
edge(44, 205).
edge(13, 67).
edge(15, 44).
edge(89, 152).
edge(3, 149).
edge(64, 148).
edge(86, 120).
edge(13, 200).
edge(14, 185).
edge(18, 103).
edge(189, 204).
edge(58, 168).
edge(131, 151).
edge(80, 182).
edge(11, 96).
edge(45, 86).
edge(125, 190).
edge(96, 114).
edge(172, 209).
edge(75, 124).
edge(193, 209).
edge(102, 131).
edge(2, 114).
edge(14, 217).
edge(79, 108).
edge(141, 196).
edge(7, 200).
edge(64, 170).
edge(109, 218).
edge(94, 211).
edge(12, 26).
edge(37, 136).
edge(124, 184).
edge(58, 69).
edge(143, 150).
edge(88, 196).
edge(45, 124).
edge(198, 214).
edge(41, 211).
edge(58, 158).
edge(172, 221).
edge(50, 209).
edge(35, 143).
edge(19, 39).
edge(13, 180).
edge(84, 200).
edge(122, 213).
edge(158, 201).
edge(92, 167).
edge(66, 143).
edge(135, 210).
edge(191, 192).
edge(73, 143).
edge(150, 175).
edge(62, 206).
edge(60, 103).
edge(47, 144).
edge(173, 217).
edge(76, 100).
edge(77, 182).
edge(206, 211).
edge(106, 220).
edge(95, 128).
edge(5, 175).
edge(101, 187).
edge(55, 86).
edge(36, 71).
edge(69, 173).
edge(127, 171).
edge(38, 132).
edge(70, 188).
edge(15, 204).
edge(71, 209).
edge(88, 171).
edge(3, 5).
edge(161, 212).
edge(114, 204).
edge(74, 139).
edge(159, 165).
edge(57, 87).
edge(1, 110).
edge(105, 202).
edge(205, 220).
edge(22, 216).
edge(43, 211).
edge(18, 57).
edge(128, 151).
edge(194, 219).
edge(28, 90).
edge(14, 85).
edge(174, 179).
edge(2, 179).
edge(94, 197).
edge(88, 176).
edge(120, 121).
edge(35, 209).
edge(57, 186).
edge(1, 74).
edge(33, 54).
edge(21, 152).
edge(22, 38).
edge(134, 192).
edge(42, 79).
edge(4, 104).
edge(19, 72).
edge(113, 176).
edge(22, 101).
edge(26, 129).
edge(37, 175).
edge(181, 221).
edge(2, 118).
edge(76, 118).
edge(129, 191).
edge(97, 156).
edge(32, 74).
edge(146, 163).
edge(10, 112).
edge(5, 196).
edge(9, 124).
edge(128, 136).
edge(28, 182).
edge(85, 170).
edge(48, 64).
edge(53, 128).
edge(36, 48).
edge(38, 207).
edge(95, 101).
edge(16, 115).
edge(6, 83).
edge(100, 191).
edge(17, 87).
edge(79, 186).
edge(70, 197).
edge(41, 48).
edge(114, 206).
edge(71, 83).
edge(64, 147).
edge(60, 140).
edge(14, 78).
edge(157, 203).
edge(7, 127).
edge(135, 186).
edge(140, 221).
edge(109, 204).
edge(157, 171).
edge(122, 199).
edge(200, 207).
edge(78, 163).
edge(9, 170).
edge(88, 175).
edge(122, 146).
edge(104, 159).
edge(0, 25).
edge(166, 179).
edge(26, 81).
edge(23, 218).
edge(93, 209).
edge(105, 153).
edge(107, 203).
edge(133, 171).
edge(136, 194).
edge(102, 112).
edge(98, 219).
edge(96, 220).
edge(31, 191).
edge(28, 74).
edge(93, 220).
edge(10, 139).
edge(116, 160).
edge(20, 97).
edge(73, 122).
edge(11, 129).
edge(13, 181).
edge(98, 138).
edge(82, 166).
edge(34, 103).
edge(84, 217).
edge(8, 93).
edge(39, 146).
edge(118, 217).
edge(9, 64).
edge(97, 138).
edge(133, 200).
edge(28, 151).
edge(64, 196).
edge(15, 116).
edge(85, 109).
edge(35, 221).
edge(57, 112).
edge(128, 142).
edge(135, 171).
edge(134, 203).
edge(127, 138).
edge(197, 216).
edge(104, 215).
edge(116, 186).
edge(98, 153).
edge(183, 205).
edge(19, 206).
edge(18, 137).
edge(44, 63).
edge(69, 156).
edge(137, 160).
edge(19, 42).
edge(119, 127).
edge(21, 71).
edge(132, 179).
edge(1, 206).
edge(122, 181).
edge(126, 143).
edge(54, 124).
edge(16, 83).
edge(156, 193).
edge(156, 163).
edge(154, 210).
edge(93, 221).
edge(192, 221).
edge(36, 186).
edge(102, 192).
edge(52, 169).
edge(114, 199).
edge(18, 197).
edge(2, 106).
edge(122, 151).
edge(86, 211).
edge(123, 210).
edge(65, 125).
edge(162, 210).
edge(67, 166).
edge(34, 196).
edge(182, 184).
edge(16, 139).
edge(12, 204).
edge(109, 112).
edge(120, 162).
edge(47, 128).
edge(50, 182).
edge(61, 92).
edge(47, 122).
edge(25, 33).
edge(22, 69).
edge(121, 123).
edge(195, 199).
edge(173, 177).
edge(172, 197).
edge(29, 140).
edge(140, 183).
edge(2, 25).
edge(23, 25).
edge(53, 192).
edge(13, 215).
edge(149, 177).
edge(23, 130).
edge(11, 112).
edge(5, 63).
edge(13, 211).
edge(137, 205).
edge(160, 169).
edge(43, 192).
edge(196, 219).
edge(112, 201).
edge(134, 201).
edge(45, 195).
edge(121, 212).
edge(97, 109).
edge(40, 160).
edge(18, 121).
edge(1, 131).
edge(57, 128).
edge(14, 155).
edge(123, 130).
edge(75, 103).
edge(54, 175).
edge(43, 138).
edge(14, 118).
edge(18, 195).
edge(137, 195).
edge(17, 217).
edge(87, 91).
edge(86, 167).
edge(183, 194).
edge(41, 142).
edge(60, 182).
edge(133, 155).
edge(83, 141).
edge(7, 141).
edge(31, 165).
edge(47, 58).
edge(198, 205).
edge(180, 187).
edge(69, 73).
edge(6, 10).
edge(136, 173).
edge(29, 75).
edge(3, 186).
edge(3, 48).
edge(42, 141).
edge(112, 119).
edge(106, 212).
edge(134, 200).
edge(59, 130).
edge(13, 165).
edge(121, 152).
edge(4, 216).
edge(77, 166).
edge(110, 209).
edge(29, 197).
edge(8, 172).
edge(7, 58).
edge(10, 191).
edge(70, 102).
edge(184, 218).
edge(60, 191).
edge(31, 78).
edge(28, 140).
edge(47, 51).
edge(36, 61).
edge(31, 135).
edge(72, 116).
edge(96, 107).
edge(14, 147).
edge(209, 212).
edge(111, 124).
edge(63, 94).
edge(49, 54).
edge(107, 162).
edge(48, 119).
edge(150, 156).
edge(111, 173).
edge(66, 140).
edge(120, 196).
edge(120, 198).
edge(130, 146).
edge(1, 129).
edge(98, 178).
edge(177, 208).
edge(122, 171).
edge(30, 76).
edge(39, 47).
edge(94, 129).
edge(115, 183).
edge(54, 134).
edge(180, 195).
edge(68, 165).
edge(32, 194).
edge(111, 170).
edge(180, 188).
edge(28, 180).
edge(180, 190).
edge(61, 113).
edge(151, 199).
edge(1, 120).
edge(27, 218).
edge(90, 187).
edge(12, 184).
edge(13, 22).
edge(43, 172).
edge(36, 46).
edge(76, 126).
edge(120, 128).
edge(0, 81).
edge(23, 57).
edge(23, 72).
edge(71, 210).
edge(80, 177).
edge(122, 193).
edge(61, 177).
edge(52, 157).
edge(134, 213).
edge(49, 197).
edge(153, 168).
edge(20, 57).
edge(42, 128).
edge(87, 156).
edge(10, 102).
edge(42, 116).
edge(22, 49).
edge(167, 209).
edge(82, 87).
edge(19, 93).
edge(10, 205).
edge(83, 171).
edge(18, 146).
edge(14, 203).
edge(66, 216).
edge(129, 163).
edge(39, 186).
edge(154, 190).
edge(25, 117).
edge(27, 177).
edge(132, 210).
edge(39, 59).
edge(52, 102).
edge(136, 196).
edge(103, 131).
edge(156, 159).
edge(25, 170).
edge(0, 193).
edge(178, 213).
edge(159, 188).
edge(179, 202).
edge(20, 202).
edge(70, 192).
edge(13, 150).
edge(137, 196).
edge(93, 161).
edge(52, 71).
edge(2, 12).
edge(49, 156).
edge(73, 173).
edge(129, 161).
edge(25, 210).
edge(94, 144).
edge(8, 101).
edge(5, 159).
edge(44, 154).
edge(78, 219).
edge(5, 97).
edge(1, 31).
edge(6, 131).
edge(63, 86).
edge(5, 54).
edge(22, 140).
edge(76, 119).
edge(116, 202).
edge(74, 138).
edge(86, 104).
edge(78, 123).
edge(121, 193).
edge(12, 95).
edge(3, 19).
edge(54, 202).
edge(68, 85).
edge(159, 170).
edge(83, 163).
edge(162, 192).
edge(185, 207).
edge(161, 200).
edge(96, 166).
edge(138, 182).
edge(32, 76).
edge(123, 159).
edge(9, 82).
edge(35, 212).
edge(129, 141).
edge(101, 104).
edge(98, 108).
edge(162, 188).
edge(62, 140).
edge(13, 158).
edge(151, 198).
edge(19, 210).
edge(156, 200).
edge(15, 31).
edge(41, 196).
edge(7, 140).
edge(80, 206).
edge(144, 193).
edge(144, 154).
edge(10, 194).
edge(135, 141).
edge(27, 117).
edge(17, 209).
edge(45, 146).
edge(60, 109).
edge(91, 150).
edge(28, 168).
edge(140, 147).
edge(63, 212).
edge(4, 66).
edge(43, 175).
edge(29, 72).
edge(79, 192).
edge(129, 189).
edge(14, 18).
edge(104, 118).
edge(68, 137).
edge(69, 142).
edge(7, 115).
edge(60, 68).
edge(32, 114).
edge(122, 198).
edge(6, 124).
edge(125, 156).
edge(37, 200).
edge(46, 190).
edge(105, 179).
edge(71, 214).
edge(7, 199).
edge(182, 194).
edge(69, 179).
edge(33, 194).
edge(5, 90).
edge(45, 54).
edge(11, 183).
edge(67, 114).
edge(85, 183).
edge(74, 169).
edge(111, 154).
edge(45, 163).
edge(106, 166).
edge(102, 134).
edge(127, 155).
edge(10, 50).
edge(32, 164).
edge(114, 210).
edge(122, 154).
edge(78, 203).
edge(76, 180).
edge(116, 141).
edge(73, 123).
edge(84, 96).
edge(82, 134).
edge(37, 219).
edge(141, 184).
edge(140, 162).
edge(159, 175).
edge(67, 126).
edge(59, 110).
edge(67, 160).
edge(59, 143).
edge(164, 200).
edge(102, 125).
edge(107, 113).
edge(38, 202).
edge(24, 174).
edge(1, 48).
edge(24, 103).
edge(140, 205).
edge(22, 54).
edge(150, 171).
edge(66, 146).
edge(163, 199).
edge(31, 104).
edge(149, 191).
edge(39, 210).
edge(28, 107).
edge(34, 205).
edge(127, 218).
edge(66, 179).
edge(99, 105).
edge(44, 196).
edge(18, 209).
edge(133, 189).
edge(117, 152).
edge(42, 170).
edge(117, 151).
edge(129, 145).
edge(201, 210).
edge(143, 174).
edge(8, 78).
edge(127, 156).
edge(59, 195).
edge(99, 173).
edge(68, 160).
edge(54, 135).
edge(137, 207).
edge(88, 123).
edge(24, 189).
edge(165, 178).
edge(44, 207).
edge(94, 194).
edge(65, 103).
edge(78, 87).
edge(6, 172).
edge(150, 177).
edge(25, 189).
edge(45, 111).
edge(8, 63).
edge(44, 123).
edge(16, 109).
edge(94, 168).
edge(86, 197).
edge(8, 28).
edge(22, 181).
edge(118, 165).
edge(115, 169).
edge(23, 124).
edge(144, 164).
edge(32, 65).
edge(107, 110).
edge(90, 185).
edge(27, 135).
edge(53, 73).
edge(143, 203).
edge(2, 79).
edge(30, 47).
edge(19, 213).
edge(126, 166).
edge(103, 142).
edge(73, 75).
edge(97, 159).
edge(103, 199).
edge(155, 175).
edge(27, 148).
edge(36, 116).
edge(28, 126).
edge(117, 198).
edge(82, 90).
edge(183, 189).
edge(5, 78).
edge(24, 72).
edge(20, 29).
edge(76, 178).
edge(3, 46).
edge(51, 138).
edge(70, 110).
edge(131, 162).
edge(40, 165).
edge(135, 203).
edge(5, 139).
edge(68, 189).
edge(121, 164).
edge(31, 188).
edge(56, 107).
edge(25, 146).
edge(6, 213).
edge(106, 143).
edge(99, 146).
edge(39, 196).
edge(36, 62).
edge(24, 68).
edge(22, 167).
edge(40, 47).
edge(81, 145).
edge(46, 155).
edge(142, 186).
edge(36, 108).
edge(129, 208).
edge(163, 178).
edge(128, 207).
edge(154, 202).
edge(9, 55).
edge(51, 204).
edge(100, 147).
edge(145, 216).
edge(150, 212).
edge(66, 125).
edge(171, 209).
edge(27, 34).
edge(80, 158).
edge(65, 89).
edge(51, 153).
edge(76, 155).
edge(70, 204).
edge(52, 99).
edge(163, 216).
edge(116, 143).
edge(130, 170).
edge(13, 121).
edge(55, 68).
edge(182, 220).
edge(139, 153).
edge(95, 130).
edge(25, 182).
edge(154, 221).
edge(43, 158).
edge(117, 168).
edge(177, 217).
edge(28, 129).
edge(38, 65).
edge(119, 184).
edge(55, 76).
edge(55, 139).
edge(16, 30).
edge(55, 205).
edge(77, 151).
edge(103, 106).
edge(56, 167).
edge(11, 26).
edge(89, 143).
edge(182, 208).
edge(100, 201).
edge(3, 131).
edge(36, 51).
edge(26, 49).
edge(163, 185).
edge(174, 212).
edge(43, 91).
edge(0, 84).
edge(14, 109).
edge(0, 153).
edge(6, 118).
edge(77, 121).
edge(149, 152).
edge(57, 210).
edge(191, 194).
edge(7, 69).
edge(118, 198).
edge(125, 209).
edge(2, 49).
edge(167, 175).
edge(94, 122).
edge(172, 183).
edge(108, 120).
edge(19, 27).
edge(62, 138).
edge(2, 26).
edge(101, 206).
edge(21, 186).
edge(2, 14).
edge(39, 50).
edge(39, 140).
edge(12, 94).
edge(105, 145).
edge(95, 177).
edge(26, 148).
edge(17, 180).
edge(168, 220).
edge(104, 167).
edge(36, 201).
edge(35, 191).
edge(55, 138).
edge(104, 119).
edge(14, 154).
edge(52, 150).
edge(95, 144).
edge(0, 86).
edge(15, 216).
edge(142, 212).
edge(103, 122).
edge(211, 219).
edge(18, 182).
edge(26, 203).
edge(34, 130).
edge(120, 188).
edge(47, 123).
edge(181, 217).
edge(72, 115).
edge(40, 73).
edge(108, 188).
edge(96, 174).
edge(138, 197).
edge(18, 157).
edge(13, 146).
edge(10, 86).
edge(31, 121).
edge(10, 73).
edge(174, 188).
edge(35, 196).
edge(69, 97).
edge(145, 191).
edge(40, 72).
edge(32, 156).
edge(12, 21).
edge(146, 187).
edge(115, 167).
edge(144, 173).
edge(124, 141).
edge(31, 149).
edge(13, 161).
edge(77, 132).
edge(30, 193).
edge(26, 34).
edge(9, 49).
edge(15, 191).
edge(2, 181).
edge(103, 110).
edge(32, 120).
edge(109, 180).
edge(26, 32).
edge(80, 181).
edge(90, 165).
edge(87, 185).
edge(68, 92).
edge(27, 57).
edge(109, 172).
edge(14, 164).
edge(77, 124).
edge(31, 172).
edge(47, 116).
edge(36, 179).
edge(161, 215).
edge(23, 175).
edge(104, 193).
edge(31, 145).
edge(9, 25).
edge(183, 210).
edge(51, 113).
edge(49, 132).
edge(57, 152).
edge(8, 165).
edge(27, 30).
edge(9, 32).
edge(16, 101).
edge(48, 91).
edge(32, 182).
edge(149, 198).
edge(62, 82).
edge(27, 220).
edge(56, 217).
edge(117, 220).
edge(26, 145).
edge(143, 173).
edge(81, 107).
edge(53, 80).
edge(21, 118).
edge(63, 69).
edge(10, 79).
edge(103, 203).
edge(59, 102).
edge(53, 115).
edge(41, 130).
edge(169, 171).
edge(126, 150).
edge(22, 87).
edge(104, 149).
edge(0, 42).
edge(0, 147).
edge(142, 156).
edge(94, 132).
edge(72, 146).
edge(83, 216).
edge(147, 182).
edge(115, 136).
edge(128, 162).
edge(4, 142).
edge(8, 79).
edge(104, 115).
edge(13, 90).
edge(13, 53).
edge(29, 71).
edge(8, 77).
edge(3, 72).
edge(51, 106).
edge(80, 134).
edge(179, 221).
edge(33, 124).
edge(2, 216).
edge(103, 128).
edge(78, 95).
edge(103, 155).
edge(142, 159).
edge(113, 135).
edge(60, 149).
edge(114, 169).
edge(57, 129).
edge(73, 167).
edge(88, 154).
edge(122, 176).
edge(75, 219).
edge(30, 35).
edge(75, 192).
edge(16, 153).
edge(16, 37).
edge(30, 79).
edge(7, 65).
edge(56, 68).
edge(49, 125).
edge(152, 182).
edge(62, 143).
edge(55, 64).
edge(114, 128).
edge(152, 174).
edge(20, 108).
edge(10, 137).
edge(77, 154).
edge(96, 192).
edge(70, 166).
edge(106, 148).
edge(64, 78).
edge(44, 187).
edge(6, 35).
edge(38, 166).
edge(13, 111).
edge(62, 172).
edge(106, 171).
edge(106, 133).
edge(2, 102).
edge(75, 118).
edge(60, 87).
edge(101, 173).
edge(90, 203).
edge(79, 154).
edge(116, 203).
edge(33, 190).
edge(80, 108).
edge(73, 220).
edge(32, 54).
edge(84, 211).
edge(78, 167).
edge(34, 172).
edge(107, 212).
edge(68, 174).
edge(134, 216).
edge(151, 172).
edge(72, 173).
edge(8, 49).
edge(85, 178).
edge(39, 76).
edge(101, 195).
edge(10, 48).
edge(26, 211).
edge(34, 93).
edge(174, 187).
edge(7, 62).
edge(218, 220).
edge(26, 38).
edge(31, 46).
edge(19, 73).
edge(93, 140).
edge(155, 176).
edge(156, 164).
edge(168, 180).
edge(23, 134).
edge(60, 62).
edge(36, 183).
edge(39, 155).
edge(110, 192).
edge(55, 56).
edge(23, 30).
edge(45, 87).
edge(28, 56).
edge(161, 182).
edge(118, 138).
edge(14, 149).
edge(45, 56).
edge(199, 215).
edge(147, 174).
edge(83, 205).
edge(27, 123).
edge(53, 142).
edge(56, 213).
edge(105, 213).
edge(134, 193).
edge(0, 87).
edge(87, 200).
edge(14, 98).
edge(11, 51).
edge(54, 199).
edge(6, 127).
edge(35, 159).
edge(6, 136).
edge(107, 165).
edge(148, 158).
edge(112, 122).
edge(30, 43).
edge(25, 160).
edge(16, 19).
edge(16, 215).
edge(24, 70).
edge(170, 200).
edge(67, 152).
edge(32, 47).
edge(20, 113).
edge(125, 217).
edge(150, 203).
edge(101, 114).
edge(73, 203).
edge(96, 124).
edge(30, 134).
edge(15, 42).
edge(109, 150).
edge(15, 92).
edge(121, 175).
edge(98, 117).
edge(77, 172).
edge(7, 129).
edge(12, 126).
edge(1, 8).
edge(78, 214).
edge(5, 167).
edge(44, 178).
edge(53, 65).
edge(9, 74).
edge(38, 150).
edge(33, 114).
edge(48, 67).
edge(197, 211).
edge(82, 197).
edge(105, 117).
edge(126, 164).
edge(27, 212).
edge(132, 156).
edge(36, 216).
edge(104, 160).
edge(144, 166).
edge(66, 158).
edge(50, 172).
edge(107, 214).
edge(18, 42).
edge(50, 72).
edge(8, 86).
edge(30, 210).
edge(10, 68).
edge(134, 168).
edge(61, 173).
edge(23, 168).
edge(24, 121).
edge(48, 68).
edge(62, 177).
edge(65, 156).
edge(150, 192).
edge(81, 203).
edge(43, 117).
edge(14, 66).
edge(106, 144).
edge(176, 208).
edge(44, 152).
edge(138, 150).
edge(107, 109).
edge(40, 146).
edge(16, 45).
edge(21, 29).
edge(89, 218).
edge(127, 199).
edge(143, 210).
edge(68, 186).
edge(56, 86).
edge(26, 40).
edge(101, 203).
edge(79, 200).
edge(110, 123).
edge(138, 155).
edge(170, 192).
edge(111, 126).
edge(20, 28).
edge(35, 158).
edge(4, 181).
edge(6, 27).
edge(56, 171).
edge(136, 180).
edge(23, 197).
edge(150, 159).
edge(124, 213).
edge(24, 25).
edge(155, 203).
edge(134, 153).
edge(113, 210).
edge(4, 185).
edge(133, 138).
edge(120, 165).
edge(125, 154).
edge(171, 185).
edge(82, 214).
edge(1, 164).
edge(215, 220).
edge(111, 156).
edge(44, 68).
edge(54, 139).
edge(57, 203).
edge(8, 216).
weight(0, 5).
weight(1, 1).
weight(2, 1).
weight(3, 1).
weight(4, 2).
weight(5, 6).
weight(6, 9).
weight(7, 4).
weight(8, 6).
weight(9, 3).
weight(10, 7).
weight(11, 5).
weight(12, 1).
weight(13, 9).
weight(14, 2).
weight(15, 8).
weight(16, 8).
weight(17, 10).
weight(18, 6).
weight(19, 9).
weight(20, 1).
weight(21, 7).
weight(22, 4).
weight(23, 4).
weight(24, 2).
weight(25, 7).
weight(26, 9).
weight(27, 3).
weight(28, 6).
weight(29, 5).
weight(30, 5).
weight(31, 7).
weight(32, 6).
weight(33, 3).
weight(34, 7).
weight(35, 9).
weight(36, 5).
weight(37, 10).
weight(38, 9).
weight(39, 6).
weight(40, 4).
weight(41, 6).
weight(42, 10).
weight(43, 7).
weight(44, 5).
weight(45, 6).
weight(46, 4).
weight(47, 10).
weight(48, 4).
weight(49, 7).
weight(50, 9).
weight(51, 8).
weight(52, 8).
weight(53, 9).
weight(54, 5).
weight(55, 9).
weight(56, 1).
weight(57, 9).
weight(58, 1).
weight(59, 7).
weight(60, 9).
weight(61, 7).
weight(62, 1).
weight(63, 8).
weight(64, 7).
weight(65, 5).
weight(66, 1).
weight(67, 6).
weight(68, 2).
weight(69, 4).
weight(70, 3).
weight(71, 6).
weight(72, 6).
weight(73, 8).
weight(74, 6).
weight(75, 6).
weight(76, 5).
weight(77, 6).
weight(78, 2).
weight(79, 4).
weight(80, 4).
weight(81, 8).
weight(82, 1).
weight(83, 9).
weight(84, 9).
weight(85, 4).
weight(86, 9).
weight(87, 4).
weight(88, 2).
weight(89, 6).
weight(90, 1).
weight(91, 1).
weight(92, 7).
weight(93, 3).
weight(94, 7).
weight(95, 10).
weight(96, 7).
weight(97, 3).
weight(98, 4).
weight(99, 5).
weight(100, 5).
weight(101, 7).
weight(102, 2).
weight(103, 5).
weight(104, 6).
weight(105, 7).
weight(106, 3).
weight(107, 2).
weight(108, 6).
weight(109, 6).
weight(110, 8).
weight(111, 7).
weight(112, 6).
weight(113, 7).
weight(114, 4).
weight(115, 7).
weight(116, 6).
weight(117, 9).
weight(118, 9).
weight(119, 1).
weight(120, 9).
weight(121, 7).
weight(122, 3).
weight(123, 7).
weight(124, 9).
weight(125, 2).
weight(126, 7).
weight(127, 6).
weight(128, 9).
weight(129, 1).
weight(130, 9).
weight(131, 4).
weight(132, 10).
weight(133, 3).
weight(134, 3).
weight(135, 8).
weight(136, 7).
weight(137, 6).
weight(138, 3).
weight(139, 3).
weight(140, 9).
weight(141, 5).
weight(142, 6).
weight(143, 4).
weight(144, 10).
weight(145, 9).
weight(146, 7).
weight(147, 8).
weight(148, 4).
weight(149, 7).
weight(150, 2).
weight(151, 10).
weight(152, 2).
weight(153, 5).
weight(154, 7).
weight(155, 9).
weight(156, 5).
weight(157, 7).
weight(158, 4).
weight(159, 8).
weight(160, 6).
weight(161, 2).
weight(162, 10).
weight(163, 2).
weight(164, 10).
weight(165, 4).
weight(166, 10).
weight(167, 2).
weight(168, 9).
weight(169, 9).
weight(170, 4).
weight(171, 7).
weight(172, 6).
weight(173, 9).
weight(174, 10).
weight(175, 8).
weight(176, 4).
weight(177, 1).
weight(178, 7).
weight(179, 4).
weight(180, 10).
weight(181, 7).
weight(182, 1).
weight(183, 1).
weight(184, 7).
weight(185, 3).
weight(186, 10).
weight(187, 5).
weight(188, 10).
weight(189, 9).
weight(190, 9).
weight(191, 3).
weight(192, 4).
weight(193, 4).
weight(194, 10).
weight(195, 1).
weight(196, 2).
weight(197, 4).
weight(198, 1).
weight(199, 3).
weight(200, 6).
weight(201, 1).
weight(202, 9).
weight(203, 7).
weight(204, 1).
weight(205, 9).
weight(206, 3).
weight(207, 3).
weight(208, 8).
weight(209, 1).
weight(210, 1).
weight(211, 10).
weight(212, 8).
weight(213, 5).
weight(214, 10).
weight(215, 8).
weight(216, 3).
weight(217, 2).
weight(218, 3).
weight(219, 3).
weight(220, 5).
weight(221, 6).
bound(139).

adj(U,V) :- edge(U,V).
adj(U,V) :- edge(V,U).
{in(V)} :- node(V).
dominated(V) :- in(V).
dominated(V) :- in(U), adj(U,V).
:- node(V), not dominated(V).
:- bound(B), #sum{W,V : in(V), weight(V,W)} > B.
:~ in(V), weight(V,W). [W@1,V]
