node(0..242).
edge(117, 165).
edge(137, 240).
edge(142, 210).
edge(78, 227).
edge(62, 190).
edge(109, 165).
edge(95, 183).
edge(25, 100).
edge(72, 200).
edge(45, 192).
edge(137, 171).
edge(117, 182).
edge(107, 237).
edge(85, 118).
edge(208, 228).
edge(23, 107).
edge(31, 37).
edge(128, 167).
edge(144, 191).
edge(150, 181).
edge(9, 204).
edge(22, 97).
edge(96, 152).
edge(66, 122).
edge(44, 185).
edge(99, 131).
edge(36, 83).
edge(135, 233).
edge(68, 160).
edge(24, 137).
edge(25, 190).
edge(51, 63).
edge(25, 31).
edge(58, 108).
edge(3, 48).
edge(93, 94).
edge(147, 232).
edge(57, 142).
edge(47, 143).
edge(139, 140).
edge(51, 154).
edge(129, 197).
edge(19, 59).
edge(34, 111).
edge(91, 214).
edge(25, 155).
edge(81, 167).
edge(70, 133).
edge(40, 225).
edge(83, 153).
edge(48, 220).
edge(111, 136).
edge(64, 166).
edge(58, 182).
edge(34, 210).
edge(145, 195).
edge(16, 155).
edge(151, 193).
edge(62, 139).
edge(10, 54).
edge(143, 230).
edge(62, 73).
edge(136, 212).
edge(86, 202).
edge(141, 199).
edge(47, 238).
edge(162, 183).
edge(88, 207).
edge(84, 218).
edge(4, 224).
edge(32, 87).
edge(66, 238).
edge(213, 223).
edge(176, 183).
edge(41, 208).
edge(157, 158).
edge(129, 143).
edge(130, 239).
edge(182, 228).
edge(137, 159).
edge(100, 107).
edge(84, 138).
edge(10, 32).
edge(83, 144).
edge(102, 148).
edge(23, 205).
edge(21, 166).
edge(7, 37).
edge(167, 221).
edge(21, 63).
edge(52, 148).
edge(61, 78).
edge(70, 180).
edge(40, 138).
edge(5, 221).
edge(84, 178).
edge(28, 208).
edge(45, 64).
edge(5, 143).
edge(34, 162).
edge(176, 205).
edge(209, 217).
edge(132, 174).
edge(109, 203).
edge(148, 161).
edge(19, 213).
edge(85, 226).
edge(59, 112).
edge(99, 145).
edge(87, 172).
edge(178, 199).
edge(140, 193).
edge(66, 73).
edge(14, 147).
edge(124, 224).
edge(45, 47).
edge(89, 183).
edge(147, 193).
edge(199, 242).
edge(181, 235).
edge(126, 162).
edge(124, 142).
edge(42, 173).
edge(48, 106).
edge(124, 223).
edge(121, 165).
edge(150, 213).
edge(3, 198).
edge(100, 233).
edge(79, 221).
edge(6, 228).
edge(142, 194).
edge(3, 49).
edge(63, 98).
edge(46, 167).
edge(44, 202).
edge(69, 241).
edge(208, 214).
edge(201, 228).
edge(42, 49).
edge(99, 193).
edge(157, 236).
edge(34, 232).
edge(25, 209).
edge(28, 139).
edge(165, 199).
edge(66, 237).
edge(32, 177).
edge(154, 223).
edge(54, 131).
edge(196, 221).
edge(15, 107).
edge(22, 55).
edge(137, 198).
edge(107, 176).
edge(134, 181).
edge(88, 226).
edge(117, 158).
edge(197, 236).
edge(199, 223).
edge(25, 40).
edge(95, 242).
edge(73, 105).
edge(212, 216).
edge(133, 205).
edge(173, 192).
edge(47, 69).
edge(19, 113).
edge(175, 216).
edge(46, 127).
edge(175, 176).
edge(106, 189).
edge(60, 125).
edge(106, 179).
edge(63, 239).
edge(124, 238).
edge(204, 208).
edge(68, 84).
edge(177, 184).
edge(43, 117).
edge(19, 57).
edge(77, 240).
edge(1, 52).
edge(150, 199).
edge(236, 242).
edge(21, 142).
edge(34, 35).
edge(48, 104).
edge(164, 219).
edge(133, 210).
edge(233, 241).
edge(91, 203).
edge(63, 165).
edge(108, 240).
edge(16, 30).
edge(164, 182).
edge(120, 236).
edge(36, 230).
edge(135, 211).
edge(46, 122).
edge(81, 173).
edge(95, 173).
edge(137, 232).
edge(2, 193).
edge(180, 240).
edge(111, 199).
edge(146, 227).
edge(37, 127).
edge(166, 233).
edge(34, 66).
edge(39, 163).
edge(186, 239).
edge(85, 108).
edge(3, 197).
edge(3, 125).
edge(24, 61).
edge(35, 133).
edge(111, 178).
edge(116, 141).
edge(146, 153).
edge(72, 208).
edge(10, 210).
edge(70, 173).
edge(91, 232).
edge(141, 220).
edge(54, 112).
edge(35, 83).
edge(53, 68).
edge(42, 104).
edge(26, 205).
edge(132, 237).
edge(31, 217).
edge(100, 209).
edge(19, 183).
edge(40, 151).
edge(112, 231).
edge(59, 203).
edge(213, 231).
edge(167, 176).
edge(97, 191).
edge(163, 166).
edge(207, 231).
edge(54, 135).
edge(38, 88).
edge(136, 164).
edge(119, 147).
edge(65, 97).
edge(56, 156).
edge(175, 204).
edge(3, 144).
edge(10, 89).
edge(194, 195).
edge(193, 216).
edge(88, 214).
edge(90, 131).
edge(42, 77).
edge(112, 113).
edge(209, 241).
edge(48, 83).
edge(52, 185).
edge(15, 228).
edge(82, 116).
edge(54, 85).
edge(32, 138).
edge(101, 130).
edge(26, 142).
edge(81, 197).
edge(99, 185).
edge(103, 186).
edge(90, 186).
edge(75, 108).
edge(138, 204).
edge(10, 110).
edge(101, 123).
edge(68, 144).
edge(20, 206).
edge(17, 109).
edge(213, 240).
edge(157, 202).
edge(5, 201).
edge(9, 241).
edge(53, 183).
edge(46, 121).
edge(13, 142).
edge(65, 191).
edge(60, 230).
edge(79, 93).
edge(110, 215).
edge(1, 103).
edge(126, 144).
edge(52, 75).
edge(33, 160).
edge(1, 227).
edge(41, 68).
edge(179, 210).
edge(50, 151).
edge(116, 147).
edge(19, 227).
edge(101, 235).
edge(40, 69).
edge(25, 45).
edge(33, 241).
edge(213, 241).
edge(55, 87).
edge(107, 160).
edge(138, 240).
edge(232, 233).
edge(114, 162).
edge(176, 177).
edge(56, 123).
edge(27, 118).
edge(126, 177).
edge(93, 210).
edge(182, 221).
edge(159, 239).
edge(47, 183).
edge(115, 117).
edge(74, 108).
edge(5, 189).
edge(81, 222).
edge(158, 161).
edge(147, 199).
edge(70, 86).
edge(5, 74).
edge(78, 129).
edge(43, 56).
edge(22, 147).
edge(26, 78).
edge(2, 106).
edge(145, 157).
edge(15, 200).
edge(20, 61).
edge(3, 64).
edge(3, 73).
edge(103, 148).
edge(78, 138).
edge(159, 202).
edge(118, 131).
edge(25, 240).
edge(32, 40).
edge(24, 130).
edge(60, 73).
edge(38, 99).
edge(169, 170).
edge(29, 126).
edge(117, 174).
edge(13, 57).
edge(18, 140).
edge(4, 240).
edge(53, 80).
edge(58, 210).
edge(27, 192).
edge(122, 182).
edge(97, 131).
edge(150, 187).
edge(64, 228).
edge(130, 166).
edge(80, 208).
edge(52, 235).
edge(20, 204).
edge(7, 140).
edge(38, 39).
edge(45, 200).
edge(86, 232).
edge(68, 139).
edge(90, 215).
edge(87, 91).
edge(26, 223).
edge(39, 150).
edge(202, 236).
edge(52, 163).
edge(33, 114).
edge(87, 144).
edge(111, 112).
edge(116, 236).
edge(96, 234).
edge(87, 235).
edge(143, 229).
edge(41, 137).
edge(48, 127).
edge(41, 149).
edge(156, 192).
edge(30, 226).
edge(162, 209).
edge(122, 222).
edge(53, 57).
edge(178, 180).
edge(105, 178).
edge(108, 119).
edge(174, 182).
edge(78, 124).
edge(3, 56).
edge(9, 11).
edge(35, 42).
edge(156, 176).
edge(79, 152).
edge(27, 105).
edge(57, 169).
edge(40, 165).
edge(133, 218).
edge(34, 189).
edge(156, 189).
edge(116, 138).
edge(7, 115).
edge(61, 180).
edge(72, 79).
edge(48, 105).
edge(11, 166).
edge(135, 186).
edge(171, 222).
edge(83, 178).
edge(173, 208).
edge(86, 174).
edge(116, 188).
edge(103, 231).
edge(51, 80).
edge(72, 197).
edge(117, 241).
edge(3, 186).
edge(39, 192).
edge(11, 51).
edge(180, 221).
edge(51, 165).
edge(27, 100).
edge(129, 219).
edge(108, 204).
edge(201, 207).
edge(127, 171).
edge(199, 203).
edge(26, 69).
edge(182, 224).
edge(7, 241).
edge(19, 230).
edge(47, 224).
edge(147, 233).
edge(136, 169).
edge(59, 116).
edge(77, 118).
edge(106, 154).
edge(192, 216).
edge(43, 62).
edge(58, 78).
edge(15, 48).
edge(1, 36).
edge(33, 89).
edge(211, 228).
edge(30, 97).
edge(195, 236).
edge(33, 70).
edge(114, 208).
edge(82, 194).
edge(58, 117).
edge(152, 184).
edge(83, 221).
edge(174, 196).
edge(143, 158).
edge(2, 9).
edge(15, 204).
edge(4, 100).
edge(37, 53).
edge(2, 126).
edge(38, 87).
edge(67, 70).
edge(18, 148).
edge(23, 99).
edge(82, 178).
edge(38, 111).
edge(166, 206).
edge(107, 139).
edge(112, 203).
edge(42, 212).
edge(183, 222).
edge(77, 105).
edge(98, 224).
edge(86, 187).
edge(89, 218).
edge(116, 124).
edge(62, 80).
edge(2, 42).
edge(83, 87).
edge(34, 148).
edge(236, 239).
edge(53, 82).
edge(110, 188).
edge(147, 218).
edge(76, 238).
edge(139, 229).
edge(80, 219).
edge(53, 139).
edge(182, 225).
edge(12, 109).
edge(63, 167).
edge(157, 187).
edge(15, 100).
edge(33, 75).
edge(71, 152).
edge(40, 240).
edge(12, 150).
edge(90, 241).
edge(85, 242).
edge(150, 214).
edge(82, 152).
edge(188, 220).
edge(98, 228).
edge(36, 59).
edge(57, 233).
edge(24, 41).
edge(40, 226).
edge(12, 164).
edge(225, 226).
edge(149, 162).
edge(72, 141).
edge(99, 102).
edge(18, 23).
edge(6, 117).
edge(122, 173).
edge(45, 153).
edge(85, 163).
edge(2, 178).
edge(155, 242).
edge(53, 123).
edge(26, 199).
edge(128, 192).
edge(55, 101).
edge(39, 241).
edge(80, 164).
edge(3, 37).
edge(20, 224).
edge(25, 50).
edge(177, 222).
edge(66, 139).
edge(109, 116).
edge(2, 154).
edge(40, 208).
edge(47, 86).
edge(233, 235).
edge(138, 143).
edge(195, 238).
edge(48, 241).
edge(96, 197).
edge(0, 17).
edge(48, 124).
edge(23, 226).
edge(196, 197).
edge(25, 101).
edge(200, 228).
edge(32, 161).
edge(121, 198).
edge(42, 134).
edge(14, 225).
edge(125, 138).
edge(180, 239).
edge(4, 15).
edge(62, 68).
edge(51, 232).
edge(45, 162).
edge(111, 218).
edge(36, 94).
edge(36, 165).
edge(18, 163).
edge(135, 235).
edge(74, 175).
edge(131, 209).
edge(131, 218).
edge(226, 241).
edge(79, 197).
edge(155, 186).
edge(165, 166).
edge(97, 128).
edge(154, 242).
edge(93, 143).
edge(75, 131).
edge(10, 115).
edge(134, 234).
edge(101, 149).
edge(189, 206).
edge(2, 149).
edge(159, 214).
edge(108, 233).
edge(145, 209).
edge(60, 97).
edge(29, 178).
edge(56, 113).
edge(69, 242).
edge(74, 106).
edge(103, 228).
edge(114, 214).
edge(75, 218).
edge(98, 170).
edge(124, 196).
edge(105, 227).
edge(8, 14).
edge(4, 80).
edge(20, 58).
edge(22, 171).
edge(111, 207).
edge(42, 229).
edge(118, 207).
edge(68, 99).
edge(29, 144).
edge(138, 201).
edge(186, 209).
edge(35, 177).
edge(217, 220).
edge(52, 191).
edge(6, 45).
edge(45, 126).
edge(58, 138).
edge(1, 148).
edge(15, 88).
edge(84, 240).
edge(146, 187).
edge(233, 242).
edge(113, 119).
edge(115, 168).
edge(44, 160).
edge(133, 146).
edge(39, 236).
edge(163, 219).
edge(134, 227).
edge(181, 219).
edge(74, 203).
edge(194, 225).
edge(68, 231).
edge(84, 149).
edge(220, 226).
edge(67, 138).
edge(46, 208).
edge(190, 240).
edge(136, 232).
edge(64, 170).
edge(14, 205).
edge(11, 154).
edge(25, 36).
edge(109, 140).
edge(15, 93).
edge(15, 126).
edge(0, 174).
edge(57, 83).
edge(84, 88).
edge(52, 65).
edge(193, 232).
edge(0, 1).
edge(146, 196).
edge(216, 229).
edge(94, 215).
edge(84, 197).
edge(68, 149).
edge(48, 207).
edge(46, 139).
edge(228, 237).
edge(20, 105).
edge(96, 232).
edge(103, 119).
edge(220, 232).
edge(208, 223).
edge(111, 189).
edge(2, 87).
edge(82, 166).
edge(74, 167).
edge(134, 172).
edge(74, 94).
edge(16, 230).
edge(132, 239).
edge(172, 232).
edge(61, 82).
edge(81, 138).
edge(74, 146).
edge(74, 210).
edge(19, 217).
edge(93, 184).
edge(144, 213).
edge(177, 204).
edge(80, 167).
edge(9, 139).
edge(119, 215).
edge(34, 219).
edge(151, 155).
edge(21, 227).
edge(207, 235).
edge(116, 229).
edge(25, 59).
edge(30, 145).
edge(84, 117).
edge(29, 186).
edge(209, 242).
edge(210, 227).
edge(24, 32).
edge(47, 63).
edge(89, 237).
edge(118, 173).
edge(73, 132).
edge(76, 119).
edge(71, 240).
edge(16, 56).
edge(35, 118).
edge(134, 175).
edge(169, 240).
edge(36, 133).
edge(22, 39).
edge(78, 132).
edge(83, 242).
edge(44, 112).
edge(33, 198).
edge(82, 100).
edge(100, 110).
edge(178, 203).
edge(7, 175).
edge(192, 209).
edge(115, 236).
edge(31, 205).
edge(121, 127).
edge(102, 164).
edge(24, 206).
edge(39, 170).
edge(27, 140).
edge(37, 77).
edge(193, 195).
edge(39, 138).
edge(144, 151).
edge(181, 195).
edge(117, 187).
edge(201, 235).
edge(44, 64).
edge(98, 128).
edge(228, 230).
edge(151, 218).
edge(117, 125).
edge(122, 160).
edge(2, 150).
edge(165, 177).
edge(88, 129).
edge(95, 236).
edge(9, 36).
edge(136, 211).
edge(84, 91).
edge(48, 216).
edge(28, 94).
edge(47, 126).
edge(48, 228).
edge(52, 86).
edge(83, 89).
edge(6, 95).
edge(27, 202).
edge(159, 201).
edge(105, 115).
edge(24, 190).
edge(160, 205).
edge(104, 107).
edge(157, 183).
edge(30, 172).
edge(40, 206).
edge(210, 217).
edge(31, 32).
edge(22, 190).
edge(11, 41).
edge(14, 113).
edge(99, 157).
edge(72, 166).
edge(157, 178).
edge(1, 119).
edge(5, 10).
edge(96, 140).
edge(154, 185).
edge(25, 30).
edge(97, 234).
edge(106, 224).
edge(145, 205).
edge(69, 183).
edge(81, 200).
edge(2, 44).
edge(116, 176).
edge(7, 157).
edge(124, 195).
edge(37, 133).
edge(200, 208).
edge(2, 73).
edge(6, 168).
edge(193, 198).
edge(33, 226).
edge(47, 135).
edge(108, 239).
edge(142, 147).
edge(8, 188).
edge(25, 158).
edge(73, 81).
edge(9, 35).
edge(157, 164).
edge(87, 215).
edge(215, 218).
edge(50, 116).
edge(148, 151).
edge(145, 182).
edge(202, 235).
edge(43, 86).
edge(23, 177).
edge(90, 133).
edge(54, 123).
edge(53, 181).
edge(76, 156).
edge(4, 46).
edge(31, 216).
edge(59, 128).
edge(6, 15).
edge(212, 224).
edge(181, 239).
edge(45, 93).
edge(36, 68).
edge(131, 238).
edge(100, 236).
edge(83, 202).
edge(108, 127).
edge(53, 227).
edge(95, 161).
edge(47, 124).
edge(55, 106).
edge(136, 192).
edge(231, 233).
edge(30, 181).
edge(132, 189).
edge(44, 171).
edge(24, 90).
edge(23, 95).
edge(28, 201).
edge(141, 165).
edge(150, 204).
edge(81, 129).
edge(1, 44).
edge(175, 241).
edge(3, 208).
edge(7, 120).
edge(33, 216).
edge(120, 159).
edge(128, 139).
edge(89, 201).
edge(12, 82).
edge(53, 112).
edge(34, 177).
edge(18, 74).
edge(150, 174).
edge(35, 211).
edge(40, 169).
edge(225, 227).
edge(41, 201).
edge(48, 91).
edge(1, 114).
edge(197, 220).
edge(11, 63).
edge(129, 141).
edge(15, 76).
edge(126, 203).
edge(58, 71).
edge(3, 211).
edge(143, 233).
edge(79, 127).
edge(33, 120).
edge(5, 160).
edge(127, 179).
edge(177, 226).
edge(105, 184).
edge(20, 223).
edge(29, 75).
edge(35, 93).
edge(85, 194).
edge(33, 102).
edge(7, 48).
edge(210, 229).
edge(95, 102).
edge(78, 177).
edge(29, 135).
edge(50, 67).
edge(30, 44).
edge(53, 155).
edge(46, 81).
edge(189, 208).
edge(28, 111).
edge(0, 32).
edge(57, 159).
edge(142, 238).
edge(83, 140).
edge(46, 65).
edge(45, 128).
edge(18, 78).
edge(86, 88).
edge(20, 143).
edge(37, 138).
edge(140, 208).
edge(156, 188).
edge(10, 93).
edge(188, 205).
edge(6, 156).
edge(160, 169).
edge(74, 182).
edge(48, 77).
edge(123, 211).
edge(30, 41).
edge(16, 233).
edge(13, 24).
edge(22, 194).
edge(40, 51).
edge(85, 126).
edge(136, 209).
edge(14, 206).
edge(126, 138).
edge(116, 223).
edge(179, 223).
edge(160, 168).
edge(120, 239).
edge(196, 219).
edge(56, 70).
edge(37, 194).
edge(69, 161).
edge(113, 171).
edge(24, 131).
edge(12, 174).
edge(48, 205).
edge(22, 214).
edge(0, 71).
edge(155, 229).
edge(35, 185).
edge(16, 223).
edge(39, 215).
edge(26, 227).
edge(155, 157).
edge(39, 202).
edge(161, 178).
edge(55, 135).
edge(12, 79).
edge(78, 136).
edge(78, 148).
edge(25, 113).
edge(62, 226).
edge(27, 145).
edge(105, 203).
edge(78, 127).
edge(11, 16).
edge(112, 237).
edge(51, 141).
edge(154, 229).
edge(100, 123).
edge(163, 204).
edge(39, 228).
edge(137, 154).
edge(86, 160).
edge(59, 108).
edge(43, 59).
edge(121, 158).
edge(10, 41).
edge(118, 180).
edge(153, 233).
edge(17, 28).
edge(47, 197).
edge(135, 154).
edge(42, 222).
edge(19, 162).
edge(53, 184).
edge(34, 112).
edge(38, 135).
edge(128, 134).
edge(125, 214).
edge(194, 219).
edge(94, 199).
edge(123, 124).
edge(12, 238).
edge(40, 95).
edge(52, 107).
edge(33, 141).
edge(74, 132).
edge(159, 167).
edge(79, 81).
edge(59, 80).
edge(95, 209).
edge(82, 175).
edge(228, 238).
edge(2, 30).
edge(0, 80).
edge(70, 134).
edge(17, 70).
edge(179, 217).
edge(97, 162).
edge(15, 70).
edge(104, 202).
edge(203, 205).
edge(104, 219).
edge(128, 231).
edge(8, 128).
edge(76, 148).
edge(52, 140).
edge(58, 146).
edge(62, 127).
edge(126, 210).
edge(12, 56).
edge(68, 198).
edge(63, 123).
edge(65, 178).
edge(6, 202).
edge(77, 204).
edge(166, 232).
edge(37, 88).
edge(119, 241).
edge(74, 89).
edge(11, 141).
edge(81, 211).
edge(132, 205).
edge(42, 236).
edge(181, 207).
edge(10, 205).
edge(95, 184).
edge(33, 190).
edge(124, 201).
edge(23, 235).
edge(118, 198).
edge(17, 97).
edge(32, 227).
edge(81, 229).
edge(87, 139).
edge(4, 137).
edge(126, 237).
edge(13, 207).
edge(174, 186).
edge(189, 216).
edge(153, 196).
edge(52, 72).
edge(197, 219).
edge(97, 98).
edge(15, 97).
edge(22, 35).
edge(38, 190).
edge(58, 193).
edge(92, 104).
edge(119, 236).
edge(56, 170).
edge(61, 203).
edge(26, 76).
edge(25, 165).
edge(75, 136).
edge(76, 88).
edge(165, 186).
edge(74, 154).
edge(70, 121).
edge(36, 70).
edge(222, 223).
edge(79, 193).
edge(174, 232).
edge(27, 229).
edge(73, 115).
edge(59, 111).
edge(120, 213).
edge(61, 181).
edge(70, 135).
edge(45, 193).
edge(31, 120).
edge(37, 92).
edge(33, 177).
edge(71, 235).
edge(164, 180).
edge(176, 196).
edge(65, 193).
edge(68, 80).
edge(79, 169).
edge(77, 121).
edge(4, 230).
edge(72, 137).
edge(46, 128).
edge(213, 234).
edge(203, 236).
edge(184, 199).
edge(155, 159).
edge(27, 54).
edge(25, 210).
edge(95, 130).
edge(15, 49).
edge(16, 240).
edge(73, 97).
edge(51, 87).
edge(8, 234).
edge(43, 88).
edge(160, 190).
edge(28, 228).
edge(89, 186).
edge(33, 214).
edge(37, 177).
edge(120, 184).
edge(97, 241).
edge(69, 148).
edge(60, 99).
edge(12, 162).
edge(156, 233).
edge(101, 236).
edge(101, 159).
edge(36, 177).
edge(60, 150).
edge(74, 115).
edge(39, 117).
edge(109, 196).
edge(56, 63).
edge(61, 149).
edge(128, 129).
edge(82, 235).
edge(145, 148).
edge(50, 196).
edge(115, 156).
edge(58, 101).
edge(136, 152).
edge(56, 79).
edge(16, 207).
edge(67, 114).
edge(80, 170).
edge(127, 202).
edge(36, 140).
edge(8, 46).
edge(47, 93).
edge(71, 168).
edge(33, 95).
edge(50, 135).
edge(15, 161).
edge(36, 63).
edge(7, 65).
edge(34, 173).
edge(167, 242).
edge(39, 121).
edge(91, 95).
edge(74, 125).
edge(5, 57).
edge(102, 236).
edge(38, 171).
edge(13, 197).
edge(59, 75).
edge(33, 207).
edge(156, 213).
edge(43, 120).
edge(66, 90).
edge(67, 232).
edge(163, 197).
edge(4, 163).
edge(121, 147).
edge(141, 222).
edge(58, 178).
edge(188, 194).
edge(144, 212).
edge(10, 198).
edge(58, 214).
edge(83, 230).
edge(71, 213).
edge(28, 47).
edge(147, 212).
edge(205, 220).
edge(154, 241).
edge(17, 110).
edge(89, 130).
edge(28, 95).
edge(12, 45).
edge(8, 79).
edge(81, 237).
edge(16, 180).
edge(11, 237).
edge(4, 11).
edge(59, 236).
edge(126, 205).
edge(102, 240).
edge(105, 214).
edge(66, 142).
edge(91, 164).
edge(17, 121).
edge(157, 232).
edge(28, 89).
edge(33, 230).
edge(112, 175).
edge(5, 215).
edge(97, 231).
edge(124, 219).
edge(13, 82).
edge(185, 192).
edge(9, 240).
edge(125, 185).
edge(142, 200).
edge(137, 158).
edge(4, 155).
edge(37, 59).
edge(37, 78).
edge(25, 151).
edge(61, 88).
edge(117, 188).
edge(2, 233).
edge(130, 234).
edge(118, 225).
edge(121, 231).
edge(49, 83).
edge(128, 164).
edge(18, 168).
edge(18, 24).
edge(134, 154).
edge(133, 217).
edge(57, 193).
edge(34, 113).
edge(152, 237).
edge(93, 229).
edge(5, 36).
edge(170, 231).
edge(7, 131).
edge(96, 200).
edge(63, 108).
edge(31, 197).
edge(221, 237).
edge(44, 172).
edge(168, 199).
edge(131, 147).
edge(26, 39).
edge(143, 164).
edge(41, 179).
edge(7, 75).
edge(118, 201).
edge(14, 79).
edge(140, 206).
edge(23, 53).
edge(95, 198).
edge(92, 146).
edge(102, 200).
edge(114, 172).
edge(5, 138).
edge(141, 154).
edge(40, 108).
edge(4, 99).
edge(14, 228).
edge(67, 172).
edge(14, 55).
edge(126, 140).
edge(131, 169).
edge(27, 73).
edge(68, 110).
edge(93, 209).
edge(90, 128).
edge(159, 191).
edge(228, 239).
edge(82, 201).
edge(85, 174).
edge(11, 76).
edge(122, 235).
edge(159, 195).
edge(90, 234).
edge(205, 207).
edge(77, 176).
edge(201, 206).
edge(16, 179).
edge(37, 109).
edge(84, 180).
edge(67, 68).
edge(52, 214).
edge(54, 91).
edge(11, 56).
edge(96, 105).
edge(152, 202).
edge(65, 77).
edge(50, 69).
edge(24, 78).
edge(152, 175).
edge(44, 73).
edge(82, 227).
edge(116, 172).
edge(89, 154).
edge(4, 204).
edge(48, 240).
edge(67, 83).
edge(110, 138).
edge(115, 170).
edge(181, 196).
edge(151, 173).
edge(4, 66).
edge(65, 213).
edge(38, 216).
edge(42, 237).
edge(96, 202).
edge(2, 110).
edge(14, 214).
edge(154, 230).
edge(85, 181).
edge(143, 159).
edge(42, 179).
edge(140, 195).
edge(136, 149).
edge(40, 61).
edge(19, 160).
edge(69, 209).
edge(195, 239).
edge(40, 231).
edge(121, 207).
edge(21, 181).
edge(115, 119).
edge(163, 216).
edge(45, 51).
edge(81, 140).
edge(49, 55).
edge(36, 192).
edge(71, 177).
edge(209, 216).
edge(69, 216).
edge(1, 62).
edge(26, 66).
edge(16, 94).
edge(15, 37).
edge(31, 101).
edge(15, 102).
edge(77, 96).
edge(51, 235).
edge(237, 238).
edge(88, 205).
edge(90, 164).
edge(31, 85).
edge(78, 170).
edge(65, 136).
edge(11, 211).
edge(21, 192).
edge(45, 239).
edge(79, 99).
edge(60, 134).
edge(10, 83).
edge(90, 193).
edge(8, 84).
edge(150, 178).
edge(13, 103).
edge(30, 174).
edge(71, 74).
edge(53, 127).
edge(21, 43).
edge(163, 202).
edge(62, 188).
edge(102, 185).
edge(81, 226).
edge(17, 147).
edge(19, 149).
edge(196, 206).
edge(192, 195).
edge(29, 68).
edge(48, 114).
edge(224, 230).
edge(46, 209).
edge(112, 227).
edge(45, 119).
edge(167, 175).
edge(37, 145).
edge(155, 194).
edge(53, 130).
edge(116, 125).
edge(73, 216).
edge(220, 231).
edge(149, 212).
edge(79, 102).
edge(184, 187).
edge(187, 231).
edge(17, 114).
edge(4, 116).
edge(70, 91).
edge(43, 194).
edge(152, 187).
edge(59, 196).
edge(154, 157).
edge(174, 213).
edge(6, 65).
edge(13, 170).
edge(99, 196).
edge(21, 50).
edge(45, 173).
edge(114, 202).
edge(113, 152).
edge(176, 209).
edge(89, 156).
edge(81, 204).
edge(89, 215).
edge(78, 157).
edge(12, 70).
edge(148, 230).
edge(77, 227).
edge(14, 51).
edge(8, 26).
edge(104, 241).
edge(141, 214).
edge(22, 188).
edge(100, 221).
edge(101, 121).
edge(83, 99).
edge(42, 155).
edge(12, 124).
edge(62, 78).
edge(115, 121).
edge(16, 211).
edge(67, 73).
edge(38, 42).
edge(108, 156).
edge(28, 32).
edge(8, 126).
edge(117, 144).
edge(12, 172).
edge(164, 228).
edge(49, 193).
edge(15, 60).
edge(103, 165).
edge(18, 227).
edge(196, 213).
edge(17, 201).
edge(67, 198).
edge(57, 111).
edge(208, 217).
edge(114, 242).
edge(52, 125).
edge(56, 189).
edge(17, 135).
edge(90, 122).
edge(183, 219).
edge(77, 120).
edge(13, 139).
edge(46, 84).
edge(106, 176).
edge(74, 105).
edge(116, 183).
edge(115, 214).
edge(220, 240).
edge(113, 133).
edge(16, 109).
edge(56, 132).
edge(43, 214).
edge(134, 238).
edge(32, 170).
edge(55, 150).
edge(14, 222).
edge(28, 134).
edge(47, 190).
edge(132, 147).
edge(99, 217).
edge(7, 171).
edge(76, 174).
edge(131, 219).
edge(87, 110).
edge(104, 161).
edge(31, 34).
edge(67, 109).
edge(128, 131).
edge(231, 237).
edge(39, 177).
edge(56, 187).
edge(1, 87).
edge(105, 107).
edge(123, 242).
edge(177, 208).
edge(180, 224).
edge(69, 221).
edge(80, 107).
edge(18, 167).
edge(51, 105).
edge(57, 75).
edge(62, 158).
edge(7, 191).
edge(15, 183).
edge(90, 177).
edge(104, 178).
edge(121, 217).
edge(33, 46).
edge(11, 146).
edge(96, 211).
edge(3, 219).
edge(15, 232).
edge(46, 96).
edge(59, 127).
edge(15, 202).
edge(108, 142).
edge(44, 139).
edge(17, 143).
edge(73, 158).
edge(10, 36).
edge(47, 70).
edge(80, 101).
edge(80, 141).
edge(1, 113).
edge(39, 147).
edge(116, 225).
edge(6, 164).
edge(66, 218).
edge(110, 240).
edge(38, 235).
edge(18, 85).
edge(117, 128).
edge(7, 74).
edge(94, 229).
edge(91, 233).
edge(29, 172).
edge(28, 184).
edge(8, 200).
edge(3, 157).
edge(72, 218).
edge(90, 180).
edge(27, 77).
edge(139, 217).
edge(35, 109).
edge(4, 189).
edge(27, 61).
edge(197, 217).
edge(79, 137).
edge(137, 211).
edge(127, 183).
edge(137, 242).
edge(15, 121).
edge(40, 121).
edge(78, 191).
edge(39, 203).
edge(160, 228).
edge(43, 74).
edge(64, 215).
edge(84, 155).
edge(179, 209).
edge(58, 99).
edge(89, 117).
edge(54, 143).
edge(113, 176).
edge(137, 214).
edge(196, 229).
edge(75, 213).
edge(8, 88).
edge(110, 115).
edge(35, 166).
edge(132, 135).
edge(54, 72).
edge(122, 127).
edge(42, 232).
edge(4, 220).
edge(85, 112).
edge(96, 231).
edge(39, 71).
edge(20, 33).
edge(23, 51).
edge(53, 64).
edge(135, 160).
edge(12, 129).
edge(2, 19).
edge(3, 105).
edge(30, 127).
edge(164, 191).
edge(62, 234).
edge(6, 180).
edge(20, 208).
edge(34, 53).
edge(48, 144).
edge(101, 164).
edge(13, 239).
edge(110, 123).
edge(154, 234).
edge(28, 222).
edge(18, 45).
edge(139, 200).
edge(77, 203).
edge(157, 237).
edge(93, 212).
edge(67, 124).
edge(85, 182).
edge(198, 215).
edge(69, 151).
edge(148, 189).
edge(126, 225).
edge(34, 188).
edge(12, 198).
edge(39, 210).
edge(168, 189).
edge(170, 205).
edge(192, 204).
edge(50, 181).
edge(93, 217).
edge(5, 173).
edge(88, 236).
edge(59, 234).
edge(47, 138).
edge(34, 70).
edge(39, 103).
edge(100, 139).
edge(220, 228).
edge(113, 169).
edge(73, 159).
edge(124, 205).
edge(91, 131).
edge(139, 241).
edge(62, 183).
edge(4, 37).
edge(139, 174).
edge(75, 210).
edge(80, 123).
edge(94, 160).
edge(215, 230).
edge(94, 185).
edge(68, 152).
edge(18, 195).
edge(84, 123).
edge(11, 167).
edge(125, 133).
edge(71, 242).
edge(59, 167).
edge(8, 198).
edge(171, 195).
edge(75, 204).
edge(23, 81).
edge(47, 222).
edge(68, 221).
edge(31, 209).
edge(4, 69).
edge(24, 108).
edge(85, 195).
edge(73, 222).
edge(15, 120).
edge(58, 62).
edge(206, 242).
edge(100, 235).
edge(22, 178).
edge(15, 218).
edge(64, 139).
edge(121, 153).
edge(0, 136).
edge(54, 212).
edge(6, 75).
edge(139, 228).
edge(95, 182).
edge(29, 226).
edge(40, 163).
edge(8, 100).
edge(78, 111).
edge(57, 199).
edge(2, 39).
edge(61, 161).
edge(167, 218).
edge(20, 190).
edge(21, 106).
edge(27, 121).
edge(64, 74).
edge(152, 229).
edge(27, 90).
edge(50, 180).
edge(149, 179).
edge(183, 221).
edge(10, 92).
edge(78, 236).
edge(28, 112).
edge(97, 161).
edge(27, 124).
edge(74, 117).
edge(15, 114).
edge(88, 121).
edge(187, 234).
edge(22, 59).
edge(159, 176).
edge(102, 222).
edge(181, 187).
edge(20, 28).
edge(54, 119).
edge(192, 206).
edge(16, 23).
edge(13, 52).
edge(7, 200).
edge(52, 198).
edge(41, 80).
edge(140, 148).
edge(56, 220).
edge(86, 241).
edge(4, 126).
edge(2, 136).
edge(170, 242).
edge(74, 88).
edge(80, 190).
edge(75, 93).
edge(9, 121).
edge(126, 188).
edge(151, 202).
edge(78, 98).
edge(84, 222).
edge(12, 32).
edge(15, 38).
edge(24, 96).
edge(22, 41).
edge(130, 206).
edge(138, 229).
edge(30, 186).
edge(143, 206).
edge(23, 74).
edge(70, 100).
edge(152, 201).
edge(222, 230).
edge(143, 223).
edge(3, 148).
edge(35, 56).
edge(187, 217).
edge(152, 208).
edge(25, 52).
edge(38, 41).
edge(107, 172).
edge(164, 195).
edge(73, 127).
edge(70, 78).
edge(87, 90).
edge(26, 174).
edge(81, 171).
edge(96, 186).
edge(79, 126).
edge(86, 138).
edge(3, 70).
edge(146, 191).
edge(105, 168).
edge(148, 195).
edge(50, 120).
edge(1, 206).
edge(102, 139).
edge(9, 61).
edge(122, 198).
edge(173, 193).
edge(17, 182).
edge(57, 116).
edge(69, 106).
edge(62, 197).
edge(64, 90).
edge(11, 34).
edge(35, 58).
edge(58, 154).
edge(53, 189).
edge(163, 224).
edge(91, 224).
edge(52, 205).
edge(94, 108).
edge(149, 234).
edge(117, 236).
edge(110, 219).
edge(107, 109).
edge(26, 27).
edge(12, 157).
edge(78, 192).
edge(74, 96).
edge(50, 201).
edge(85, 130).
edge(145, 181).
edge(213, 236).
edge(144, 169).
edge(174, 192).
edge(14, 210).
edge(54, 165).
edge(49, 190).
edge(108, 116).
edge(58, 206).
edge(30, 218).
edge(116, 133).
edge(91, 120).
edge(89, 213).
edge(80, 93).
edge(49, 106).
edge(39, 67).
edge(0, 232).
edge(68, 201).
edge(4, 133).
edge(37, 170).
edge(192, 227).
edge(28, 204).
edge(119, 166).
edge(129, 186).
edge(60, 155).
edge(185, 234).
edge(169, 223).
edge(105, 160).
edge(112, 155).
edge(41, 47).
edge(2, 224).
edge(14, 175).
edge(64, 72).
edge(46, 104).
edge(1, 92).
edge(99, 241).
edge(117, 238).
edge(178, 235).
edge(56, 90).
edge(103, 138).
edge(24, 149).
edge(78, 231).
edge(15, 224).
edge(120, 146).
edge(11, 27).
edge(103, 215).
edge(70, 95).
edge(29, 150).
edge(152, 204).
edge(5, 182).
edge(29, 109).
edge(148, 203).
edge(18, 202).
edge(99, 230).
edge(63, 154).
edge(86, 161).
edge(62, 231).
edge(70, 172).
edge(0, 97).
edge(61, 105).
edge(85, 216).
edge(48, 98).
edge(24, 111).
edge(92, 199).
edge(1, 49).
edge(29, 156).
edge(175, 226).
edge(76, 104).
edge(148, 220).
edge(108, 155).
edge(87, 129).
edge(58, 240).
edge(200, 221).
edge(160, 211).
edge(31, 142).
edge(13, 106).
edge(140, 180).
edge(65, 201).
edge(22, 23).
edge(167, 230).
edge(74, 174).
edge(19, 206).
edge(88, 157).
edge(24, 233).
edge(130, 150).
edge(49, 105).
edge(58, 223).
edge(124, 204).
edge(74, 224).
edge(57, 237).
edge(152, 224).
edge(43, 119).
edge(41, 92).
edge(10, 150).
edge(64, 218).
edge(204, 206).
edge(82, 86).
edge(37, 162).
edge(29, 125).
edge(14, 241).
edge(55, 190).
edge(49, 84).
edge(199, 230).
edge(128, 130).
edge(90, 119).
edge(94, 209).
edge(117, 133).
edge(21, 145).
edge(122, 175).
edge(50, 203).
edge(151, 225).
edge(8, 40).
edge(173, 195).
edge(127, 225).
edge(54, 80).
edge(31, 46).
edge(144, 194).
edge(74, 221).
edge(144, 205).
edge(81, 207).
edge(86, 208).
edge(44, 225).
edge(25, 156).
edge(160, 226).
edge(24, 146).
edge(95, 211).
edge(131, 171).
edge(7, 165).
edge(27, 237).
edge(70, 184).
edge(13, 100).
edge(16, 91).
edge(20, 39).
edge(93, 189).
edge(112, 122).
edge(52, 123).
edge(81, 139).
edge(33, 63).
edge(15, 217).
edge(43, 183).
edge(161, 228).
edge(21, 44).
edge(53, 62).
edge(9, 185).
edge(25, 107).
edge(103, 179).
edge(42, 83).
edge(105, 149).
edge(27, 201).
edge(25, 114).
edge(202, 225).
edge(225, 242).
edge(149, 239).
edge(11, 157).
edge(44, 238).
edge(69, 80).
edge(15, 20).
edge(125, 183).
edge(96, 122).
edge(26, 140).
edge(62, 97).
edge(191, 226).
edge(22, 158).
edge(119, 179).
edge(49, 224).
edge(118, 127).
edge(31, 152).
edge(4, 79).
edge(36, 228).
edge(129, 162).
edge(158, 175).
edge(104, 157).
edge(57, 157).
edge(115, 192).
edge(17, 72).
edge(154, 183).
edge(27, 133).
edge(36, 178).
edge(147, 179).
edge(171, 178).
edge(41, 51).
edge(7, 198).
edge(190, 203).
edge(26, 166).
edge(31, 59).
edge(133, 176).
edge(123, 177).
edge(70, 144).
edge(192, 207).
edge(49, 119).
edge(20, 134).
edge(105, 193).
edge(23, 96).
edge(3, 78).
edge(124, 183).
edge(176, 216).
edge(71, 154).
edge(159, 163).
edge(7, 233).
edge(147, 230).
edge(70, 101).
edge(83, 215).
edge(199, 235).
edge(40, 183).
edge(62, 168).
edge(25, 46).
edge(108, 136).
edge(23, 25).
edge(65, 158).
edge(94, 207).
edge(55, 189).
edge(108, 206).
edge(59, 63).
edge(40, 171).
edge(94, 192).
edge(30, 110).
edge(20, 117).
edge(0, 187).
edge(84, 89).
edge(61, 118).
edge(21, 208).
edge(23, 166).
edge(94, 100).
edge(66, 233).
edge(103, 117).
edge(29, 203).
edge(26, 148).
edge(51, 213).
edge(46, 49).
edge(16, 200).
edge(98, 135).
edge(10, 207).
edge(230, 232).
edge(176, 224).
edge(88, 111).
edge(1, 124).
edge(69, 178).
edge(42, 194).
edge(55, 94).
edge(103, 176).
edge(154, 199).
edge(87, 206).
edge(97, 102).
edge(26, 110).
edge(119, 130).
edge(35, 99).
edge(8, 240).
edge(218, 241).
edge(30, 219).
edge(151, 241).
edge(36, 126).
edge(28, 153).
edge(90, 167).
edge(21, 212).
edge(176, 184).
edge(54, 121).
edge(37, 232).
edge(113, 175).
edge(95, 187).
edge(58, 192).
edge(80, 87).
edge(158, 181).
edge(6, 36).
edge(179, 183).
edge(48, 121).
edge(110, 157).
edge(55, 120).
edge(53, 209).
edge(16, 19).
edge(13, 101).
edge(79, 85).
edge(48, 85).
edge(33, 52).
edge(145, 228).
edge(115, 218).
edge(169, 217).
edge(157, 210).
edge(101, 220).
edge(28, 106).
edge(45, 204).
edge(9, 217).
edge(21, 73).
edge(50, 84).
edge(208, 219).
edge(42, 182).
edge(12, 117).
edge(183, 230).
edge(178, 211).
edge(175, 191).
edge(99, 229).
edge(46, 124).
edge(9, 198).
edge(129, 142).
edge(199, 226).
edge(18, 153).
edge(36, 218).
edge(141, 188).
edge(64, 93).
edge(103, 209).
edge(153, 214).
edge(123, 187).
edge(134, 193).
edge(165, 221).
edge(67, 161).
edge(166, 200).
edge(23, 94).
edge(197, 206).
edge(8, 237).
edge(38, 85).
edge(68, 186).
edge(22, 228).
edge(56, 232).
edge(79, 128).
edge(31, 194).
edge(12, 27).
edge(193, 219).
edge(27, 110).
edge(124, 164).
edge(65, 175).
edge(189, 228).
edge(141, 202).
edge(100, 188).
edge(32, 141).
edge(99, 170).
edge(13, 147).
edge(142, 166).
edge(110, 197).
edge(184, 190).
edge(185, 204).
edge(46, 230).
edge(66, 222).
edge(21, 163).
edge(47, 196).
edge(5, 100).
edge(141, 143).
edge(75, 195).
edge(190, 225).
edge(93, 133).
edge(47, 165).
edge(76, 79).
edge(135, 218).
edge(65, 101).
edge(169, 172).
edge(72, 156).
edge(114, 237).
edge(166, 181).
edge(49, 184).
edge(89, 229).
edge(74, 151).
edge(78, 121).
edge(21, 159).
edge(47, 153).
edge(11, 176).
edge(115, 171).
edge(68, 184).
edge(184, 233).
edge(87, 128).
edge(48, 131).
edge(114, 131).
edge(77, 116).
edge(52, 238).
edge(144, 224).
edge(167, 193).
edge(144, 236).
edge(96, 123).
edge(50, 238).
edge(10, 108).
edge(35, 197).
edge(43, 156).
edge(34, 239).
edge(17, 197).
edge(107, 121).
edge(42, 102).
edge(18, 61).
edge(172, 175).
edge(83, 134).
edge(171, 183).
edge(142, 222).
edge(6, 130).
edge(2, 24).
edge(20, 157).
edge(51, 100).
edge(41, 175).
edge(5, 171).
edge(132, 144).
edge(55, 183).
edge(143, 195).
edge(21, 189).
edge(143, 155).
edge(18, 234).
edge(187, 241).
edge(16, 75).
edge(142, 237).
edge(8, 205).
edge(16, 136).
edge(52, 224).
edge(51, 152).
edge(67, 156).
edge(85, 238).
edge(155, 160).
edge(22, 182).
edge(18, 165).
edge(96, 162).
edge(65, 146).
edge(75, 116).
edge(57, 224).
edge(46, 156).
edge(19, 139).
edge(146, 192).
edge(19, 29).
edge(62, 154).
edge(23, 231).
edge(151, 242).
edge(119, 209).
edge(199, 215).
edge(92, 99).
edge(57, 60).
edge(54, 56).
edge(54, 58).
edge(65, 102).
edge(91, 115).
edge(109, 223).
edge(56, 238).
edge(48, 185).
edge(51, 112).
edge(162, 164).
edge(92, 148).
edge(124, 173).
edge(110, 147).
edge(18, 111).
edge(178, 205).
edge(18, 63).
edge(77, 228).
edge(151, 156).
edge(19, 108).
edge(205, 227).
edge(120, 179).
edge(189, 233).
edge(194, 232).
edge(90, 206).
edge(71, 110).
edge(26, 206).
edge(180, 218).
edge(134, 146).
edge(22, 66).
edge(48, 160).
edge(37, 202).
edge(139, 160).
edge(17, 191).
edge(139, 220).
edge(77, 129).
edge(69, 159).
edge(192, 236).
edge(229, 232).
edge(22, 144).
edge(46, 94).
edge(39, 123).
edge(76, 111).
edge(43, 49).
edge(5, 77).
edge(85, 219).
edge(97, 169).
edge(16, 123).
edge(26, 37).
edge(50, 168).
edge(22, 227).
edge(36, 66).
edge(37, 51).
edge(92, 127).
edge(11, 120).
edge(210, 234).
edge(36, 78).
edge(144, 240).
edge(35, 204).
edge(63, 71).
edge(71, 98).
edge(84, 105).
edge(87, 239).
edge(153, 204).
edge(86, 222).
edge(48, 195).
edge(102, 228).
edge(11, 59).
edge(68, 168).
edge(79, 208).
edge(72, 187).
edge(129, 175).
edge(30, 56).
edge(58, 179).
edge(143, 186).
edge(125, 233).
edge(59, 84).
edge(0, 85).
edge(152, 168).
edge(7, 203).
edge(70, 235).
edge(56, 127).
edge(177, 227).
edge(100, 172).
edge(163, 186).
edge(75, 187).
edge(101, 111).
edge(209, 221).
edge(104, 224).
edge(59, 175).
edge(45, 152).
edge(22, 90).
edge(17, 105).
edge(135, 150).
edge(100, 150).
edge(27, 214).
edge(125, 204).
edge(3, 34).
edge(155, 206).
edge(20, 193).
edge(76, 133).
edge(30, 241).
edge(106, 207).
edge(195, 214).
edge(24, 161).
edge(66, 78).
edge(85, 220).
edge(21, 42).
edge(90, 126).
edge(107, 151).
edge(89, 135).
edge(0, 238).
edge(31, 100).
edge(33, 173).
edge(77, 126).
edge(28, 224).
edge(117, 223).
edge(99, 187).
edge(24, 150).
edge(34, 150).
edge(47, 118).
edge(61, 138).
edge(50, 200).
edge(48, 111).
edge(191, 225).
edge(64, 160).
edge(25, 150).
edge(121, 236).
edge(30, 239).
edge(12, 63).
edge(114, 125).
edge(33, 122).
edge(31, 173).
edge(3, 110).
edge(1, 64).
edge(61, 225).
edge(26, 42).
edge(74, 169).
edge(43, 60).
edge(100, 159).
edge(200, 209).
edge(66, 167).
edge(36, 156).
edge(121, 197).
edge(31, 107).
edge(93, 183).
edge(127, 206).
edge(51, 184).
edge(39, 166).
edge(36, 212).
edge(93, 242).
edge(78, 95).
edge(50, 56).
edge(74, 215).
edge(39, 60).
edge(91, 133).
edge(193, 233).
edge(115, 228).
edge(7, 147).
edge(9, 171).
edge(154, 211).
edge(2, 72).
edge(104, 176).
edge(7, 239).
edge(197, 215).
edge(52, 213).
edge(72, 234).
edge(52, 241).
edge(185, 187).
edge(102, 239).
edge(114, 150).
edge(8, 207).
edge(0, 143).
edge(167, 191).
edge(106, 229).
edge(228, 240).
edge(51, 97).
edge(167, 220).
edge(1, 194).
edge(168, 181).
edge(18, 166).
edge(31, 55).
edge(109, 138).
edge(28, 178).
edge(132, 197).
edge(86, 118).
edge(109, 191).
edge(53, 223).
edge(141, 174).
edge(68, 209).
edge(27, 49).
edge(133, 234).
edge(170, 209).
edge(16, 108).
edge(35, 141).
edge(91, 165).
edge(28, 155).
edge(116, 151).
edge(29, 64).
edge(194, 218).
edge(124, 202).
edge(38, 166).
edge(47, 149).
edge(41, 121).
edge(125, 228).
edge(18, 42).
edge(134, 176).
edge(113, 127).
edge(108, 230).
edge(7, 240).
edge(197, 224).
edge(183, 233).
edge(62, 213).
edge(24, 50).
edge(59, 185).
edge(35, 239).
edge(86, 135).
edge(104, 106).
edge(103, 222).
edge(22, 121).
edge(71, 187).
edge(104, 145).
edge(60, 227).
edge(35, 98).
edge(211, 221).
edge(1, 239).
edge(167, 205).
edge(40, 86).
edge(14, 31).
edge(129, 189).
edge(57, 118).
edge(206, 214).
edge(52, 206).
edge(91, 148).
edge(35, 202).
edge(141, 213).
edge(78, 135).
edge(21, 119).
edge(2, 108).
edge(138, 235).
edge(143, 196).
edge(131, 182).
edge(185, 186).
edge(141, 224).
edge(19, 119).
edge(174, 221).
edge(60, 87).
edge(52, 172).
edge(59, 137).
edge(175, 180).
edge(11, 198).
edge(46, 217).
edge(51, 151).
edge(31, 210).
edge(37, 103).
edge(119, 206).
edge(43, 76).
edge(1, 68).
edge(127, 238).
edge(109, 217).
edge(18, 82).
edge(104, 136).
edge(103, 137).
edge(10, 30).
edge(61, 202).
edge(28, 174).
edge(179, 185).
edge(21, 90).
edge(22, 52).
edge(19, 49).
edge(33, 231).
edge(148, 191).
edge(5, 113).
edge(40, 115).
edge(29, 73).
edge(17, 154).
edge(36, 153).
edge(31, 90).
edge(69, 143).
edge(10, 190).
edge(15, 165).
edge(46, 145).
edge(62, 151).
edge(54, 221).
edge(36, 64).
edge(13, 148).
edge(23, 155).
edge(29, 101).
edge(8, 192).
edge(116, 148).
edge(143, 190).
edge(165, 217).
edge(5, 211).
edge(62, 123).
edge(51, 114).
edge(63, 237).
edge(13, 182).
edge(33, 91).
edge(3, 46).
edge(38, 220).
edge(74, 185).
edge(130, 161).
edge(49, 71).
edge(171, 193).
edge(103, 128).
edge(31, 221).
edge(85, 234).
edge(17, 42).
edge(133, 137).
edge(34, 169).
edge(16, 138).
edge(43, 142).
edge(11, 156).
edge(111, 213).
edge(151, 174).
edge(2, 216).
edge(85, 107).
edge(103, 109).
edge(162, 235).
edge(58, 127).
edge(22, 48).
edge(89, 222).
edge(30, 108).
edge(18, 152).
edge(60, 132).
edge(49, 228).
edge(154, 238).
edge(162, 226).
edge(16, 104).
edge(102, 157).
edge(10, 169).
edge(166, 168).
edge(35, 121).
edge(77, 132).
edge(59, 198).
edge(74, 111).
edge(17, 24).
edge(31, 35).
edge(35, 114).
edge(38, 121).
edge(147, 169).
edge(110, 230).
edge(140, 176).
edge(125, 200).
edge(30, 199).
edge(21, 77).
edge(140, 146).
edge(0, 90).
edge(180, 199).
edge(10, 55).
edge(118, 120).
edge(107, 150).
edge(51, 197).
edge(100, 120).
edge(44, 156).
edge(144, 147).
edge(122, 176).
edge(79, 131).
edge(97, 209).
edge(125, 207).
edge(96, 224).
edge(101, 197).
edge(145, 187).
edge(116, 195).
edge(192, 213).
edge(12, 216).
edge(22, 241).
edge(13, 143).
edge(26, 221).
edge(29, 227).
edge(120, 177).
edge(56, 180).
edge(65, 82).
edge(171, 225).
edge(69, 213).
edge(81, 162).
edge(103, 197).
edge(25, 131).
edge(218, 237).
edge(86, 90).
edge(164, 233).
edge(45, 221).
edge(72, 173).
edge(5, 35).
edge(31, 187).
edge(114, 234).
edge(7, 49).
edge(11, 60).
edge(64, 210).
edge(136, 140).
edge(39, 77).
edge(64, 145).
edge(95, 163).
edge(78, 116).
edge(135, 236).
edge(108, 198).
edge(81, 214).
edge(35, 174).
edge(59, 170).
edge(145, 224).
edge(176, 194).
edge(49, 232).
edge(110, 213).
edge(113, 194).
edge(86, 201).
edge(96, 145).
edge(165, 209).
edge(119, 193).
edge(31, 166).
edge(61, 98).
edge(68, 123).
edge(90, 138).
edge(18, 80).
edge(145, 240).
edge(12, 229).
edge(122, 170).
edge(3, 8).
edge(21, 54).
edge(4, 145).
edge(106, 231).
edge(225, 238).
edge(116, 131).
edge(15, 192).
edge(62, 118).
edge(166, 235).
edge(44, 140).
edge(221, 225).
edge(136, 227).
edge(5, 129).
edge(3, 89).
edge(74, 220).
edge(4, 31).
edge(4, 184).
edge(51, 125).
edge(48, 180).
edge(39, 108).
edge(5, 68).
edge(84, 200).
edge(11, 121).
edge(94, 105).
edge(108, 178).
edge(161, 234).
edge(0, 30).
edge(133, 157).
edge(54, 90).
edge(34, 65).
edge(96, 149).
edge(196, 216).
edge(110, 121).
edge(59, 230).
edge(23, 204).
edge(0, 126).
edge(139, 185).
edge(62, 134).
edge(84, 228).
edge(20, 175).
edge(149, 207).
edge(42, 127).
edge(131, 207).
edge(44, 198).
edge(54, 82).
edge(23, 223).
edge(45, 227).
edge(21, 165).
edge(38, 104).
edge(63, 147).
edge(0, 103).
edge(27, 241).
edge(204, 221).
edge(56, 161).
edge(67, 90).
edge(157, 206).
edge(135, 231).
edge(45, 174).
edge(155, 210).
edge(103, 162).
edge(100, 218).
edge(56, 68).
edge(78, 145).
edge(152, 206).
edge(154, 204).
edge(11, 169).
edge(177, 200).
edge(11, 25).
edge(0, 160).
edge(116, 121).
edge(62, 144).
edge(10, 91).
edge(88, 198).
edge(28, 76).
edge(193, 199).
edge(56, 148).
edge(177, 194).
edge(82, 99).
edge(12, 90).
edge(191, 196).
edge(75, 239).
edge(7, 227).
edge(86, 142).
edge(71, 200).
edge(54, 200).
edge(93, 127).
edge(125, 168).
edge(185, 226).
edge(35, 163).
edge(90, 99).
edge(43, 223).
edge(0, 61).
edge(19, 86).
edge(160, 220).
edge(38, 198).
edge(176, 228).
edge(80, 214).
edge(88, 191).
edge(147, 171).
edge(24, 186).
edge(66, 88).
edge(34, 158).
edge(201, 213).
edge(184, 218).
edge(76, 235).
edge(56, 183).
edge(56, 67).
edge(179, 188).
edge(27, 178).
edge(188, 216).
edge(93, 197).
edge(75, 86).
edge(145, 168).
edge(193, 224).
edge(108, 177).
edge(10, 126).
edge(19, 141).
edge(39, 66).
edge(87, 131).
edge(38, 127).
edge(48, 237).
edge(101, 206).
edge(87, 115).
edge(37, 180).
edge(194, 207).
edge(48, 179).
edge(89, 143).
edge(124, 165).
edge(87, 103).
edge(87, 125).
edge(42, 120).
edge(10, 43).
edge(89, 224).
edge(64, 217).
edge(39, 174).
edge(8, 165).
edge(179, 192).
edge(62, 201).
edge(40, 166).
edge(19, 35).
edge(66, 184).
edge(64, 126).
edge(16, 47).
edge(123, 224).
edge(102, 107).
edge(22, 107).
edge(82, 219).
edge(107, 241).
edge(142, 167).
edge(34, 51).
edge(51, 67).
edge(71, 214).
edge(42, 73).
edge(3, 50).
edge(92, 193).
edge(16, 194).
edge(38, 163).
edge(52, 146).
edge(35, 116).
edge(173, 182).
edge(168, 183).
edge(78, 104).
edge(108, 113).
edge(22, 225).
edge(121, 173).
edge(129, 184).
edge(32, 226).
edge(101, 168).
edge(36, 182).
edge(44, 181).
edge(155, 235).
edge(210, 222).
edge(49, 76).
edge(71, 93).
edge(0, 75).
edge(72, 237).
edge(53, 208).
edge(47, 172).
edge(137, 206).
edge(18, 92).
edge(113, 163).
edge(26, 237).
edge(72, 150).
edge(54, 239).
edge(124, 207).
edge(56, 224).
edge(126, 217).
edge(157, 163).
edge(22, 27).
edge(55, 202).
edge(30, 170).
edge(21, 78).
edge(103, 114).
edge(42, 143).
edge(6, 21).
edge(92, 125).
edge(95, 124).
edge(135, 155).
edge(48, 183).
edge(12, 217).
edge(92, 234).
edge(135, 209).
edge(31, 69).
edge(148, 237).
edge(47, 203).
edge(64, 65).
edge(124, 188).
edge(72, 122).
edge(67, 151).
edge(51, 172).
edge(110, 225).
edge(9, 99).
edge(144, 161).
edge(20, 41).
edge(64, 169).
edge(96, 134).
edge(3, 173).
edge(84, 202).
edge(100, 161).
edge(42, 96).
edge(125, 190).
edge(27, 80).
edge(180, 197).
edge(35, 122).
edge(34, 89).
edge(85, 171).
edge(76, 217).
edge(136, 146).
edge(93, 231).
edge(14, 216).
edge(2, 100).
edge(20, 80).
edge(64, 195).
edge(13, 237).
edge(122, 207).
edge(157, 220).
edge(32, 93).
edge(91, 150).
edge(121, 184).
edge(112, 232).
edge(31, 182).
edge(19, 87).
edge(136, 221).
edge(112, 153).
edge(16, 214).
edge(130, 189).
edge(201, 219).
edge(29, 198).
edge(21, 242).
edge(22, 67).
edge(5, 209).
edge(145, 238).
edge(27, 153).
edge(110, 221).
edge(74, 158).
edge(105, 212).
edge(113, 118).
edge(87, 102).
edge(211, 223).
edge(61, 167).
edge(37, 41).
edge(1, 170).
edge(45, 112).
edge(80, 118).
edge(15, 103).
edge(41, 168).
edge(93, 171).
edge(148, 163).
edge(52, 204).
edge(20, 165).
edge(107, 188).
edge(2, 79).
edge(89, 192).
edge(86, 230).
edge(79, 90).
edge(185, 242).
edge(83, 193).
edge(48, 95).
edge(132, 152).
edge(122, 197).
edge(85, 144).
edge(15, 106).
edge(39, 52).
edge(49, 75).
edge(126, 240).
edge(96, 217).
edge(17, 203).
edge(117, 166).
edge(71, 186).
edge(157, 204).
edge(158, 192).
edge(139, 242).
edge(49, 130).
edge(136, 210).
edge(182, 218).
edge(13, 189).
edge(19, 167).
edge(71, 234).
edge(30, 102).
edge(39, 139).
edge(8, 102).
edge(36, 136).
edge(119, 190).
edge(27, 72).
edge(4, 182).
edge(26, 71).
edge(82, 146).
edge(76, 198).
edge(192, 224).
edge(14, 159).
edge(166, 236).
edge(5, 49).
edge(29, 89).
edge(89, 205).
edge(24, 142).
edge(44, 196).
edge(7, 210).
edge(64, 167).
edge(10, 223).
edge(96, 124).
edge(194, 209).
edge(72, 111).
edge(13, 236).
edge(26, 190).
edge(107, 181).
edge(28, 115).
edge(60, 178).
edge(104, 128).
edge(137, 222).
edge(180, 235).
edge(43, 153).
edge(10, 50).
edge(44, 83).
edge(53, 59).
edge(109, 219).
edge(136, 151).
edge(83, 84).
edge(47, 185).
edge(80, 126).
edge(166, 189).
edge(103, 134).
edge(4, 124).
edge(119, 141).
edge(99, 207).
edge(8, 190).
edge(29, 92).
edge(27, 36).
edge(25, 111).
edge(121, 126).
edge(118, 190).
edge(20, 59).
edge(132, 231).
edge(134, 189).
edge(203, 207).
edge(90, 201).
edge(20, 155).
edge(138, 141).
edge(88, 230).
edge(27, 123).
edge(143, 180).
edge(128, 183).
edge(137, 202).
edge(7, 111).
edge(20, 226).
edge(28, 109).
edge(175, 238).
edge(113, 173).
edge(89, 100).
edge(119, 212).
edge(64, 143).
edge(160, 233).
edge(87, 94).
edge(206, 226).
edge(68, 146).
edge(197, 200).
edge(170, 187).
edge(34, 114).
edge(38, 46).
edge(65, 240).
edge(15, 145).
edge(106, 190).
edge(44, 108).
edge(21, 229).
edge(11, 103).
edge(100, 177).
edge(105, 130).
edge(16, 113).
edge(227, 234).
edge(184, 213).
edge(158, 216).
edge(52, 228).
edge(18, 145).
edge(68, 195).
edge(86, 130).
edge(52, 194).
edge(132, 210).
edge(76, 94).
edge(170, 235).
edge(103, 178).
edge(50, 195).
edge(23, 213).
edge(120, 171).
edge(101, 190).
edge(1, 143).
edge(32, 236).
edge(52, 59).
edge(163, 177).
edge(45, 113).
edge(170, 215).
edge(127, 198).
edge(175, 188).
edge(235, 237).
edge(7, 146).
edge(196, 212).
edge(155, 219).
edge(102, 178).
edge(223, 231).
edge(122, 229).
edge(148, 185).
edge(172, 179).
edge(35, 169).
edge(201, 232).
edge(9, 51).
edge(28, 58).
edge(158, 172).
edge(68, 101).
edge(107, 191).
edge(36, 154).
edge(156, 215).
edge(94, 174).
edge(6, 236).
edge(20, 152).
edge(98, 184).
edge(49, 143).
edge(81, 90).
edge(43, 178).
edge(0, 3).
edge(90, 149).
edge(113, 233).
edge(19, 212).
edge(103, 169).
edge(41, 100).
edge(150, 151).
edge(178, 224).
edge(40, 237).
edge(26, 208).
edge(98, 208).
edge(45, 234).
edge(125, 182).
edge(44, 127).
edge(90, 216).
edge(155, 179).
edge(34, 233).
edge(24, 228).
edge(131, 176).
edge(116, 132).
edge(30, 196).
edge(49, 59).
edge(82, 128).
edge(31, 89).
edge(57, 180).
edge(1, 210).
edge(222, 237).
edge(97, 232).
edge(35, 115).
edge(95, 99).
edge(1, 45).
edge(39, 59).
edge(40, 153).
edge(182, 198).
edge(90, 136).
edge(47, 179).
edge(110, 136).
edge(30, 197).
edge(62, 131).
edge(48, 223).
edge(81, 150).
edge(149, 204).
edge(138, 173).
edge(79, 216).
edge(131, 222).
edge(44, 102).
edge(178, 230).
edge(134, 160).
edge(90, 95).
edge(27, 70).
edge(174, 180).
edge(194, 240).
edge(167, 223).
edge(85, 211).
edge(26, 179).
edge(49, 136).
edge(130, 240).
edge(10, 228).
edge(83, 177).
edge(117, 148).
edge(147, 228).
edge(0, 105).
edge(47, 184).
edge(69, 240).
edge(33, 145).
edge(216, 220).
edge(105, 166).
edge(137, 200).
edge(187, 207).
edge(45, 179).
edge(146, 219).
edge(75, 111).
edge(127, 230).
edge(133, 187).
edge(43, 200).
edge(160, 188).
edge(50, 90).
edge(92, 235).
edge(2, 94).
edge(55, 192).
edge(70, 84).
edge(84, 226).
edge(103, 217).
edge(200, 215).
edge(98, 100).
edge(178, 182).
edge(135, 201).
edge(5, 23).
edge(74, 166).
edge(47, 168).
edge(79, 162).
edge(42, 195).
edge(136, 204).
edge(24, 189).
edge(8, 75).
edge(135, 206).
edge(164, 203).
edge(2, 148).
edge(113, 129).
edge(169, 231).
edge(165, 191).
edge(73, 135).
edge(11, 33).
edge(8, 181).
edge(43, 65).
edge(154, 202).
edge(150, 241).
edge(197, 234).
edge(39, 159).
edge(101, 218).
edge(146, 234).
edge(18, 29).
edge(53, 221).
edge(6, 59).
edge(156, 236).
edge(11, 129).
edge(0, 101).
edge(108, 238).
edge(13, 40).
edge(230, 234).
edge(181, 232).
edge(97, 101).
edge(103, 160).
edge(28, 210).
edge(42, 109).
edge(51, 230).
edge(194, 208).
edge(99, 108).
edge(122, 148).
edge(101, 183).
edge(2, 140).
edge(55, 166).
edge(126, 157).
edge(163, 208).
edge(59, 143).
edge(35, 134).
edge(195, 215).
edge(79, 180).
edge(176, 212).
edge(30, 146).
edge(141, 147).
edge(76, 137).
edge(72, 99).
edge(47, 200).
edge(181, 222).
edge(10, 191).
edge(73, 103).
edge(78, 133).
edge(78, 89).
edge(125, 155).
edge(148, 200).
edge(77, 148).
edge(155, 227).
edge(111, 191).
edge(105, 207).
edge(160, 235).
edge(3, 202).
edge(28, 100).
edge(175, 228).
edge(119, 135).
edge(96, 196).
edge(121, 233).
edge(43, 136).
edge(168, 194).
edge(16, 144).
edge(68, 135).
edge(78, 195).
edge(40, 164).
edge(167, 192).
edge(30, 38).
edge(38, 82).
edge(39, 219).
edge(19, 78).
edge(126, 174).
edge(56, 165).
edge(190, 202).
edge(18, 139).
edge(61, 227).
edge(48, 203).
edge(9, 29).
edge(68, 175).
edge(104, 139).
edge(23, 158).
edge(38, 49).
edge(205, 225).
edge(29, 194).
edge(50, 182).
edge(94, 211).
edge(33, 35).
edge(127, 128).
edge(143, 151).
edge(28, 39).
edge(63, 121).
edge(10, 25).
edge(149, 150).
edge(7, 22).
edge(147, 151).
edge(24, 169).
edge(61, 151).
edge(18, 228).
edge(64, 156).
edge(36, 239).
edge(41, 203).
edge(169, 177).
edge(61, 221).
edge(212, 222).
edge(57, 128).
edge(201, 230).
edge(85, 179).
edge(44, 166).
edge(67, 184).
edge(194, 196).
edge(170, 180).
edge(109, 170).
edge(99, 119).
edge(132, 226).
edge(17, 55).
edge(182, 223).
edge(5, 134).
edge(80, 232).
edge(183, 198).
edge(67, 105).
edge(56, 86).
edge(94, 201).
edge(73, 174).
edge(102, 158).
edge(66, 172).
edge(74, 164).
edge(112, 146).
edge(23, 220).
edge(102, 182).
edge(24, 214).
edge(170, 208).
edge(11, 178).
edge(150, 236).
edge(10, 217).
edge(16, 208).
edge(70, 225).
edge(166, 216).
edge(89, 226).
edge(24, 122).
edge(102, 108).
edge(167, 213).
edge(83, 162).
edge(48, 139).
edge(5, 33).
edge(90, 105).
edge(98, 113).
edge(107, 227).
edge(38, 57).
edge(171, 196).
edge(116, 142).
edge(93, 213).
edge(46, 92).
edge(128, 210).
edge(161, 227).
edge(5, 210).
edge(89, 178).
edge(2, 102).
edge(72, 199).
edge(59, 191).
edge(33, 149).
edge(12, 187).
edge(109, 189).
edge(66, 198).
edge(17, 224).
edge(1, 105).
edge(101, 127).
edge(54, 104).
edge(67, 146).
edge(51, 59).
edge(121, 136).
edge(14, 156).
edge(64, 123).
edge(4, 235).
edge(38, 136).
edge(164, 207).
edge(139, 180).
edge(124, 140).
edge(120, 210).
edge(55, 129).
edge(124, 218).
edge(113, 160).
edge(224, 242).
edge(106, 109).
edge(31, 129).
edge(139, 159).
edge(0, 42).
edge(49, 124).
edge(49, 112).
edge(15, 33).
edge(66, 154).
edge(64, 212).
edge(152, 180).
edge(65, 160).
edge(62, 152).
edge(137, 162).
edge(0, 64).
edge(174, 240).
edge(30, 85).
edge(78, 91).
edge(160, 175).
edge(0, 200).
edge(11, 12).
edge(35, 216).
edge(137, 172).
edge(158, 205).
edge(2, 77).
edge(33, 164).
edge(21, 239).
edge(17, 236).
edge(39, 149).
edge(104, 151).
edge(58, 235).
edge(5, 75).
edge(97, 213).
edge(33, 181).
edge(53, 105).
edge(171, 174).
edge(53, 136).
edge(165, 242).
edge(17, 195).
edge(59, 153).
edge(31, 72).
edge(86, 150).
edge(186, 213).
edge(130, 241).
edge(34, 129).
edge(78, 182).
edge(123, 171).
edge(79, 112).
edge(8, 229).
edge(48, 164).
edge(60, 169).
edge(73, 177).
edge(188, 234).
edge(157, 166).
edge(53, 215).
edge(115, 125).
edge(207, 229).
edge(68, 98).
edge(66, 176).
edge(29, 58).
edge(186, 207).
edge(18, 91).
edge(115, 120).
edge(38, 195).
edge(150, 159).
edge(78, 92).
edge(145, 223).
edge(58, 171).
edge(85, 189).
edge(25, 171).
edge(35, 189).
edge(107, 124).
edge(141, 231).
edge(214, 233).
edge(169, 200).
edge(53, 99).
edge(20, 63).
edge(128, 140).
edge(102, 163).
edge(39, 165).
edge(2, 197).
edge(24, 180).
edge(97, 207).
edge(54, 229).
edge(71, 169).
edge(60, 199).
edge(78, 187).
edge(45, 201).
edge(47, 50).
edge(70, 108).
edge(201, 205).
edge(44, 61).
edge(155, 178).
edge(92, 175).
edge(9, 242).
edge(7, 173).
edge(137, 189).
edge(62, 217).
edge(17, 23).
edge(17, 211).
edge(185, 207).
edge(104, 191).
edge(75, 191).
edge(48, 53).
edge(4, 81).
edge(107, 215).
edge(222, 235).
edge(144, 165).
edge(6, 232).
edge(119, 165).
edge(177, 240).
edge(136, 220).
edge(37, 206).
edge(97, 122).
edge(94, 196).
edge(63, 166).
edge(31, 84).
edge(127, 162).
edge(50, 185).
edge(204, 236).
edge(6, 224).
edge(55, 221).
edge(56, 175).
edge(116, 192).
edge(37, 54).
edge(89, 102).
edge(10, 174).
edge(24, 98).
edge(149, 215).
edge(151, 227).
edge(86, 173).
edge(105, 228).
edge(6, 53).
edge(165, 226).
edge(154, 235).
edge(199, 239).
edge(152, 163).
edge(52, 112).
edge(89, 238).
edge(69, 185).
edge(149, 159).
edge(171, 229).
edge(52, 175).
edge(4, 193).
edge(172, 192).
edge(25, 34).
edge(142, 146).
edge(133, 173).
edge(21, 237).
edge(34, 122).
edge(90, 170).
edge(61, 152).
edge(60, 184).
edge(68, 222).
edge(65, 163).
edge(71, 182).
edge(176, 189).
edge(58, 77).
edge(38, 44).
edge(138, 231).
edge(3, 190).
edge(12, 88).
edge(8, 162).
edge(164, 192).
edge(104, 216).
edge(136, 219).
edge(86, 116).
edge(59, 142).
edge(71, 218).
edge(1, 86).
edge(3, 59).
edge(83, 85).
edge(123, 239).
edge(73, 202).
edge(23, 153).
edge(35, 236).
edge(157, 165).
edge(4, 202).
edge(161, 194).
edge(84, 237).
edge(41, 183).
edge(72, 217).
edge(190, 221).
edge(35, 96).
edge(52, 197).
edge(10, 137).
edge(162, 207).
edge(19, 123).
edge(23, 63).
edge(161, 203).
edge(142, 206).
edge(135, 140).
edge(55, 228).
edge(78, 149).
edge(90, 219).
edge(81, 87).
edge(21, 224).
edge(101, 205).
edge(161, 210).
edge(86, 183).
edge(36, 116).
edge(174, 178).
edge(14, 80).
edge(40, 120).
edge(53, 240).
edge(194, 224).
edge(106, 210).
edge(148, 193).
edge(201, 217).
edge(7, 208).
edge(45, 79).
edge(47, 113).
edge(64, 208).
edge(72, 229).
edge(27, 53).
edge(74, 95).
edge(87, 218).
edge(201, 236).
edge(153, 207).
edge(75, 115).
edge(57, 148).
edge(185, 232).
edge(101, 163).
edge(9, 15).
edge(47, 95).
edge(102, 173).
edge(24, 60).
edge(143, 240).
edge(161, 186).
edge(14, 25).
edge(74, 218).
edge(148, 175).
edge(3, 165).
edge(133, 180).
edge(25, 229).
edge(72, 74).
edge(175, 219).
edge(81, 125).
edge(75, 219).
edge(17, 198).
edge(9, 229).
edge(93, 186).
edge(43, 228).
edge(134, 211).
edge(29, 87).
edge(16, 53).
edge(192, 221).
edge(46, 117).
edge(40, 194).
edge(106, 218).
edge(39, 63).
edge(77, 91).
edge(20, 27).
edge(25, 177).
edge(186, 222).
edge(146, 235).
edge(29, 132).
edge(8, 123).
edge(93, 109).
edge(148, 170).
edge(119, 145).
edge(94, 180).
edge(7, 107).
edge(66, 232).
edge(19, 144).
edge(4, 83).
edge(73, 224).
edge(213, 230).
edge(1, 236).
edge(221, 232).
edge(165, 173).
edge(169, 198).
edge(105, 135).
edge(59, 98).
edge(34, 155).
edge(83, 195).
edge(0, 22).
edge(91, 127).
edge(177, 188).
edge(9, 100).
edge(13, 157).
edge(40, 60).
edge(59, 71).
edge(96, 158).
edge(48, 93).
edge(67, 205).
edge(26, 74).
edge(147, 210).
edge(89, 137).
edge(157, 182).
edge(167, 238).
edge(33, 200).
edge(16, 38).
edge(135, 145).
edge(169, 182).
edge(83, 160).
edge(123, 178).
edge(97, 218).
edge(76, 216).
edge(26, 137).
edge(71, 107).
edge(45, 69).
edge(41, 229).
edge(148, 158).
edge(174, 198).
edge(163, 200).
edge(61, 193).
edge(150, 216).
edge(236, 237).
edge(110, 235).
edge(51, 134).
edge(34, 144).
edge(29, 40).
edge(145, 172).
edge(8, 148).
edge(84, 94).
edge(108, 218).
edge(36, 238).
edge(65, 207).
edge(63, 214).
edge(142, 149).
edge(218, 240).
edge(120, 166).
edge(2, 179).
edge(69, 147).
edge(193, 218).
edge(76, 82).
edge(75, 231).
edge(126, 134).
edge(26, 47).
edge(30, 91).
edge(160, 162).
edge(23, 52).
edge(18, 237).
edge(10, 69).
edge(13, 174).
edge(75, 99).
edge(46, 183).
edge(15, 219).
edge(29, 33).
edge(89, 232).
edge(147, 148).
edge(99, 149).
edge(5, 197).
edge(51, 128).
edge(147, 166).
edge(49, 61).
edge(188, 193).
edge(13, 123).
edge(118, 122).
edge(221, 228).
edge(7, 209).
edge(60, 220).
edge(140, 156).
edge(135, 152).
edge(93, 101).
edge(90, 106).
edge(44, 88).
edge(95, 149).
edge(49, 210).
edge(114, 145).
edge(75, 103).
edge(12, 55).
edge(86, 159).
edge(28, 124).
edge(36, 187).
edge(2, 184).
edge(88, 103).
edge(181, 188).
edge(25, 199).
edge(234, 242).
edge(95, 138).
edge(89, 194).
edge(124, 231).
edge(107, 113).
edge(105, 200).
edge(196, 200).
edge(54, 113).
edge(149, 217).
edge(9, 135).
edge(17, 127).
edge(3, 23).
edge(92, 161).
edge(73, 107).
edge(71, 85).
edge(26, 219).
edge(5, 228).
edge(125, 210).
edge(125, 202).
edge(98, 131).
edge(106, 212).
edge(189, 232).
edge(71, 175).
edge(60, 189).
edge(23, 64).
edge(56, 218).
edge(39, 155).
edge(15, 201).
edge(21, 130).
edge(108, 114).
edge(83, 241).
edge(82, 150).
edge(112, 167).
edge(128, 155).
edge(141, 186).
edge(57, 58).
edge(0, 16).
edge(56, 169).
edge(103, 110).
edge(100, 116).
edge(29, 212).
edge(222, 224).
edge(81, 157).
edge(43, 107).
edge(30, 135).
edge(24, 166).
edge(111, 159).
edge(114, 196).
edge(41, 120).
edge(11, 197).
edge(159, 216).
edge(24, 223).
edge(129, 191).
edge(0, 224).
edge(37, 207).
edge(11, 43).
edge(159, 229).
edge(9, 80).
edge(15, 92).
edge(152, 160).
edge(56, 223).
edge(89, 99).
edge(7, 24).
edge(134, 237).
edge(26, 54).
edge(22, 80).
edge(71, 147).
edge(32, 152).
edge(133, 206).
edge(97, 108).
edge(13, 87).
edge(106, 148).
edge(19, 129).
edge(147, 159).
edge(96, 237).
edge(174, 234).
edge(109, 201).
edge(181, 238).
edge(145, 227).
edge(189, 242).
edge(86, 181).
edge(128, 163).
edge(90, 237).
edge(133, 219).
edge(8, 12).
edge(26, 131).
edge(24, 127).
edge(86, 148).
edge(146, 218).
edge(112, 139).
edge(3, 44).
edge(84, 208).
edge(26, 151).
edge(126, 155).
edge(137, 221).
edge(16, 44).
edge(14, 217).
edge(30, 205).
edge(92, 121).
edge(17, 49).
edge(62, 70).
edge(161, 207).
edge(8, 64).
edge(2, 202).
edge(33, 113).
edge(37, 61).
edge(27, 45).
edge(95, 199).
edge(33, 153).
edge(2, 49).
edge(0, 25).
edge(34, 212).
edge(16, 145).
edge(14, 168).
edge(10, 240).
edge(128, 185).
edge(135, 212).
edge(75, 169).
edge(134, 203).
edge(98, 125).
edge(87, 155).
edge(108, 109).
edge(104, 140).
edge(27, 222).
edge(75, 189).
edge(212, 229).
edge(153, 186).
edge(128, 137).
edge(38, 199).
edge(0, 132).
edge(179, 215).
edge(44, 153).
edge(95, 238).
edge(46, 150).
edge(90, 112).
edge(94, 222).
edge(79, 183).
edge(108, 112).
edge(67, 74).
edge(38, 224).
edge(196, 242).
edge(53, 111).
edge(104, 182).
edge(32, 160).
edge(57, 109).
edge(82, 153).
edge(173, 231).
edge(71, 151).
edge(77, 229).
edge(155, 193).
edge(170, 188).
edge(77, 110).
edge(181, 227).
edge(9, 77).
edge(61, 77).
edge(113, 154).
edge(76, 213).
edge(156, 228).
edge(75, 223).
edge(134, 201).
edge(118, 179).
edge(64, 121).
edge(53, 144).
edge(123, 196).
edge(48, 234).
edge(113, 125).
edge(66, 71).
edge(150, 212).
edge(56, 119).
edge(178, 222).
edge(132, 159).
edge(97, 148).
edge(66, 96).
edge(27, 78).
edge(30, 84).
edge(43, 187).
edge(1, 55).
edge(132, 217).
edge(60, 148).
edge(87, 149).
edge(81, 231).
edge(36, 159).
edge(101, 175).
edge(135, 208).
edge(37, 73).
edge(172, 208).
edge(29, 31).
edge(158, 218).
edge(189, 235).
edge(141, 232).
edge(31, 115).
edge(53, 163).
edge(54, 182).
edge(51, 76).
edge(27, 138).
edge(6, 131).
edge(107, 135).
edge(147, 157).
edge(20, 127).
edge(41, 91).
edge(194, 226).
edge(143, 200).
edge(15, 206).
edge(94, 97).
edge(63, 68).
edge(203, 216).
edge(96, 233).
edge(35, 76).
edge(92, 149).
edge(100, 153).
edge(110, 129).
edge(128, 133).
edge(54, 103).
edge(50, 72).
edge(170, 186).
edge(107, 149).
edge(16, 73).
edge(38, 196).
edge(106, 199).
edge(104, 187).
edge(69, 172).
edge(3, 93).
edge(19, 152).
edge(44, 182).
edge(30, 59).
edge(147, 236).
edge(1, 13).
edge(70, 189).
edge(18, 119).
edge(31, 103).
edge(26, 107).
edge(109, 160).
edge(79, 160).
edge(10, 212).
edge(30, 144).
edge(196, 204).
edge(20, 196).
edge(71, 120).
edge(60, 153).
edge(107, 207).
edge(103, 158).
edge(72, 152).
edge(193, 238).
edge(16, 172).
edge(195, 224).
edge(39, 176).
edge(30, 149).
edge(1, 54).
edge(67, 239).
edge(71, 116).
edge(99, 166).
edge(122, 165).
edge(47, 181).
edge(87, 181).
edge(104, 211).
edge(109, 208).
edge(43, 151).
edge(83, 96).
edge(22, 95).
edge(46, 48).
edge(88, 127).
edge(149, 160).
edge(63, 241).
edge(41, 152).
edge(65, 203).
edge(210, 235).
edge(29, 91).
edge(110, 227).
edge(24, 73).
edge(84, 100).
edge(51, 61).
edge(196, 228).
edge(18, 207).
edge(74, 148).
edge(6, 98).
edge(114, 230).
edge(117, 130).
edge(106, 187).
edge(135, 216).
edge(21, 214).
edge(76, 158).
edge(52, 139).
edge(120, 168).
edge(123, 139).
edge(169, 196).
edge(93, 134).
edge(18, 56).
edge(186, 229).
edge(32, 221).
edge(16, 189).
edge(35, 124).
edge(54, 158).
edge(120, 212).
edge(122, 195).
edge(96, 219).
edge(74, 103).
edge(128, 138).
edge(183, 192).
edge(55, 208).
edge(120, 165).
edge(99, 188).
edge(80, 155).
edge(58, 152).
edge(26, 43).
edge(119, 195).
edge(30, 120).
edge(55, 136).
edge(81, 206).
edge(108, 216).
edge(25, 239).
edge(93, 182).
edge(0, 38).
edge(3, 240).
edge(51, 88).
edge(85, 221).
edge(228, 235).
edge(9, 40).
edge(36, 132).
edge(13, 218).
edge(171, 234).
edge(49, 168).
edge(192, 200).
edge(179, 197).
edge(55, 127).
edge(70, 190).
edge(76, 212).
edge(55, 232).
edge(103, 212).
edge(47, 110).
edge(56, 130).
edge(154, 231).
edge(57, 188).
edge(211, 240).
edge(2, 21).
edge(65, 109).
edge(19, 85).
edge(106, 222).
edge(95, 100).
edge(59, 241).
edge(57, 113).
edge(16, 206).
edge(95, 160).
edge(127, 180).
edge(77, 196).
edge(45, 65).
edge(151, 153).
edge(186, 217).
edge(1, 110).
edge(0, 87).
edge(32, 96).
edge(58, 79).
edge(23, 144).
edge(46, 178).
edge(51, 120).
edge(148, 165).
edge(19, 51).
edge(116, 206).
edge(5, 144).
edge(42, 86).
edge(102, 212).
edge(197, 240).
edge(17, 39).
edge(13, 130).
edge(20, 191).
edge(5, 127).
edge(20, 85).
edge(50, 224).
edge(23, 233).
edge(98, 222).
edge(61, 63).
edge(6, 37).
edge(13, 184).
edge(72, 236).
edge(12, 221).
edge(208, 237).
edge(91, 137).
edge(143, 182).
edge(58, 207).
edge(115, 123).
edge(3, 128).
edge(19, 182).
edge(128, 173).
edge(215, 229).
edge(30, 179).
edge(15, 151).
edge(47, 152).
edge(101, 193).
edge(66, 108).
edge(52, 134).
edge(43, 94).
edge(144, 231).
edge(48, 118).
edge(59, 147).
edge(191, 198).
edge(130, 235).
edge(118, 214).
edge(64, 242).
edge(42, 145).
edge(62, 107).
edge(13, 225).
edge(92, 225).
edge(110, 242).
edge(47, 79).
edge(54, 222).
edge(148, 152).
edge(170, 184).
edge(149, 184).
edge(124, 137).
edge(32, 148).
edge(26, 32).
edge(13, 23).
edge(16, 162).
edge(13, 202).
edge(9, 33).
edge(140, 212).
edge(14, 171).
edge(4, 165).
edge(51, 90).
edge(10, 60).
edge(80, 140).
edge(12, 166).
edge(52, 155).
edge(52, 73).
edge(38, 204).
edge(173, 239).
edge(126, 196).
edge(178, 184).
edge(0, 47).
edge(43, 128).
edge(141, 193).
edge(41, 64).
edge(5, 65).
edge(57, 101).
edge(17, 40).
edge(0, 236).
edge(62, 176).
edge(34, 91).
edge(149, 225).
edge(39, 82).
edge(155, 221).
edge(120, 218).
edge(114, 225).
edge(114, 128).
edge(112, 179).
edge(80, 216).
edge(71, 158).
edge(165, 202).
edge(2, 146).
edge(26, 99).
edge(99, 215).
edge(85, 137).
edge(87, 164).
edge(95, 181).
edge(62, 162).
edge(22, 140).
edge(157, 218).
edge(5, 158).
edge(115, 165).
edge(114, 224).
edge(27, 48).
edge(32, 122).
edge(62, 149).
edge(166, 193).
edge(147, 197).
edge(131, 138).
edge(7, 182).
edge(11, 171).
edge(185, 197).
edge(178, 187).
edge(58, 140).
edge(107, 190).
edge(52, 183).
edge(1, 183).
edge(94, 238).
edge(46, 95).
edge(21, 38).
edge(101, 192).
edge(29, 196).
edge(103, 211).
edge(218, 232).
edge(69, 110).
edge(99, 112).
edge(4, 152).
edge(33, 137).
edge(67, 121).
edge(31, 108).
edge(138, 152).
edge(118, 153).
edge(0, 58).
edge(162, 176).
edge(56, 129).
edge(2, 157).
edge(93, 148).
edge(79, 125).
edge(50, 140).
edge(107, 242).
edge(31, 150).
edge(113, 239).
edge(40, 204).
edge(164, 205).
edge(97, 110).
edge(58, 110).
edge(50, 149).
edge(7, 30).
edge(22, 187).
edge(89, 96).
edge(213, 239).
edge(144, 181).
edge(24, 222).
edge(35, 135).
edge(39, 175).
edge(10, 234).
edge(17, 73).
edge(123, 125).
edge(22, 129).
edge(27, 99).
edge(65, 171).
edge(59, 151).
edge(43, 236).
edge(49, 238).
edge(41, 125).
edge(99, 238).
edge(211, 232).
edge(26, 187).
edge(17, 138).
edge(11, 122).
edge(34, 182).
edge(30, 148).
edge(21, 68).
edge(22, 213).
edge(59, 93).
edge(165, 230).
edge(1, 101).
edge(1, 139).
edge(173, 213).
edge(141, 144).
edge(113, 203).
edge(204, 213).
edge(106, 173).
edge(72, 238).
edge(201, 208).
edge(8, 160).
edge(32, 53).
edge(30, 193).
edge(210, 213).
edge(2, 206).
edge(33, 80).
edge(161, 172).
edge(116, 153).
edge(92, 236).
edge(3, 153).
edge(3, 195).
edge(38, 115).
edge(15, 68).
edge(202, 208).
edge(58, 82).
edge(79, 230).
edge(45, 148).
edge(77, 207).
edge(142, 176).
edge(196, 217).
edge(159, 166).
edge(64, 109).
edge(106, 242).
edge(16, 71).
edge(141, 204).
edge(37, 81).
edge(229, 233).
edge(20, 205).
edge(11, 170).
edge(60, 77).
edge(139, 230).
edge(187, 188).
edge(34, 171).
edge(54, 129).
edge(31, 127).
edge(60, 95).
edge(151, 157).
edge(173, 202).
edge(198, 228).
edge(34, 82).
edge(62, 113).
edge(84, 116).
edge(60, 235).
edge(140, 162).
edge(231, 242).
edge(95, 241).
edge(195, 221).
edge(42, 115).
edge(24, 57).
edge(120, 186).
edge(28, 180).
edge(92, 126).
edge(103, 181).
edge(67, 110).
edge(30, 176).
edge(43, 207).
edge(38, 236).
edge(159, 162).
edge(54, 170).
edge(98, 109).
edge(173, 217).
edge(189, 230).
edge(82, 197).
edge(56, 126).
edge(139, 233).
edge(120, 240).
edge(178, 236).
edge(71, 188).
edge(19, 64).
edge(83, 91).
edge(77, 90).
edge(29, 213).
edge(104, 171).
edge(62, 76).
edge(182, 184).
edge(7, 20).
edge(67, 171).
edge(187, 215).
edge(155, 191).
edge(0, 206).
edge(72, 121).
edge(24, 92).
edge(144, 162).
edge(34, 179).
edge(49, 231).
edge(153, 229).
edge(219, 232).
edge(101, 124).
edge(25, 102).
edge(128, 157).
edge(47, 74).
edge(135, 142).
edge(39, 105).
edge(33, 179).
edge(17, 78).
edge(1, 212).
edge(10, 109).
edge(100, 193).
edge(121, 151).
edge(113, 126).
edge(62, 191).
edge(194, 210).
edge(64, 144).
edge(0, 133).
edge(53, 154).
edge(73, 83).
edge(104, 111).
edge(182, 211).
edge(134, 138).
edge(65, 95).
edge(75, 114).
edge(11, 49).
edge(36, 135).
edge(29, 83).
edge(46, 151).
edge(113, 155).
edge(32, 83).
edge(41, 109).
edge(187, 189).
edge(17, 112).
edge(141, 175).
edge(132, 235).
edge(3, 206).
edge(30, 47).
edge(32, 57).
edge(78, 224).
edge(138, 193).
edge(41, 162).
edge(156, 205).
edge(129, 148).
edge(44, 189).
edge(147, 217).
edge(60, 98).
edge(185, 215).
edge(25, 26).
edge(7, 226).
edge(30, 73).
edge(1, 51).
edge(36, 49).
edge(8, 213).
edge(139, 226).
edge(44, 162).
edge(5, 155).
edge(98, 145).
edge(146, 171).
edge(202, 214).
edge(19, 34).
edge(56, 146).
edge(26, 59).
edge(44, 51).
edge(122, 158).
edge(5, 34).
edge(21, 36).
edge(167, 232).
edge(69, 130).
edge(32, 42).
edge(24, 135).
edge(17, 134).
edge(53, 232).
edge(143, 220).
edge(70, 197).
edge(30, 235).
edge(39, 184).
edge(116, 202).
edge(162, 205).
edge(10, 129).
edge(46, 202).
edge(60, 103).
edge(168, 198).
edge(14, 202).
edge(18, 27).
edge(194, 238).
edge(129, 157).
edge(150, 202).
edge(102, 237).
edge(138, 183).
edge(83, 184).
edge(99, 183).
edge(114, 204).
edge(87, 101).
edge(25, 147).
edge(170, 214).
edge(196, 198).
edge(9, 160).
edge(144, 232).
edge(30, 104).
edge(4, 5).
edge(39, 223).
edge(188, 190).
edge(10, 148).
edge(0, 82).
edge(38, 175).
edge(147, 163).
edge(66, 75).
edge(42, 198).
edge(53, 126).
edge(25, 33).
edge(12, 242).
edge(59, 103).
edge(55, 197).
edge(111, 177).
edge(102, 138).
edge(111, 133).
edge(67, 188).
edge(132, 242).
edge(86, 212).
edge(172, 176).
edge(47, 204).
edge(131, 240).
edge(85, 206).
edge(163, 234).
edge(102, 118).
edge(82, 131).
edge(115, 145).
edge(143, 202).
edge(11, 118).
edge(32, 219).
edge(62, 93).
edge(6, 238).
edge(39, 225).
edge(36, 117).
edge(59, 183).
edge(167, 224).
edge(165, 214).
edge(126, 141).
edge(141, 206).
edge(123, 142).
edge(21, 148).
edge(168, 220).
edge(35, 219).
edge(65, 164).
edge(30, 112).
edge(3, 67).
edge(23, 150).
edge(19, 101).
edge(53, 237).
edge(22, 193).
edge(155, 209).
edge(103, 173).
edge(101, 152).
edge(78, 209).
edge(76, 120).
edge(24, 162).
edge(133, 134).
edge(38, 73).
edge(58, 81).
edge(40, 174).
edge(5, 14).
edge(22, 174).
edge(70, 124).
edge(55, 153).
edge(69, 184).
edge(138, 224).
edge(17, 169).
edge(9, 101).
edge(68, 95).
edge(204, 219).
edge(43, 203).
edge(56, 124).
edge(98, 186).
edge(185, 202).
edge(156, 231).
edge(113, 131).
edge(144, 207).
edge(214, 241).
edge(76, 225).
edge(178, 195).
edge(44, 118).
edge(160, 196).
edge(29, 74).
edge(132, 238).
edge(117, 233).
edge(202, 228).
edge(64, 234).
edge(27, 190).
edge(68, 69).
edge(95, 218).
edge(18, 178).
edge(86, 111).
edge(28, 88).
edge(95, 154).
edge(172, 213).
edge(124, 216).
edge(33, 104).
edge(18, 21).
edge(182, 187).
edge(0, 219).
edge(158, 173).
edge(30, 109).
edge(124, 158).
edge(69, 117).
edge(51, 82).
edge(98, 140).
edge(69, 99).
edge(55, 118).
edge(80, 234).
edge(10, 51).
edge(12, 34).
edge(2, 123).
edge(16, 78).
edge(40, 110).
edge(163, 185).
edge(40, 170).
edge(119, 160).
edge(175, 239).
edge(136, 175).
edge(127, 150).
edge(61, 141).
edge(28, 137).
edge(69, 191).
edge(90, 183).
edge(180, 203).
edge(6, 31).
edge(15, 59).
edge(168, 191).
edge(12, 149).
edge(149, 237).
edge(41, 122).
edge(28, 220).
edge(114, 231).
edge(18, 184).
edge(128, 220).
edge(40, 55).
edge(12, 96).
edge(194, 228).
edge(174, 208).
edge(28, 53).
edge(54, 211).
edge(69, 73).
edge(92, 185).
edge(106, 111).
edge(18, 134).
edge(31, 238).
edge(90, 146).
edge(19, 137).
edge(51, 214).
edge(50, 55).
edge(147, 206).
edge(123, 127).
edge(57, 229).
edge(27, 149).
edge(63, 78).
edge(23, 101).
edge(28, 217).
edge(75, 132).
edge(107, 132).
edge(45, 224).
edge(8, 196).
edge(141, 167).
edge(86, 147).
edge(136, 186).
edge(93, 185).
edge(180, 212).
edge(101, 107).
edge(10, 233).
edge(185, 193).
edge(143, 192).
edge(175, 207).
edge(95, 156).
edge(69, 103).
edge(80, 202).
edge(198, 205).
edge(23, 92).
edge(154, 237).
edge(14, 21).
edge(157, 161).
edge(58, 87).
edge(3, 216).
edge(68, 220).
edge(126, 130).
edge(89, 166).
edge(199, 241).
edge(74, 192).
edge(0, 116).
edge(9, 82).
edge(67, 212).
edge(5, 124).
edge(55, 187).
edge(65, 216).
edge(45, 107).
edge(93, 204).
edge(86, 162).
edge(128, 227).
edge(64, 230).
edge(56, 92).
edge(123, 128).
edge(32, 123).
edge(114, 241).
edge(59, 102).
edge(5, 30).
edge(66, 138).
edge(87, 123).
edge(59, 205).
edge(67, 200).
edge(226, 238).
edge(71, 95).
edge(91, 212).
edge(20, 24).
edge(103, 206).
edge(21, 113).
edge(7, 167).
edge(143, 160).
edge(115, 124).
edge(75, 152).
edge(172, 212).
edge(20, 221).
edge(118, 166).
edge(105, 171).
edge(30, 36).
edge(60, 122).
edge(98, 138).
edge(73, 150).
edge(162, 225).
edge(102, 211).
edge(30, 229).
edge(36, 180).
edge(16, 89).
edge(211, 226).
edge(112, 114).
edge(74, 187).
edge(114, 220).
edge(36, 118).
edge(57, 134).
edge(130, 227).
edge(21, 201).
edge(19, 40).
edge(96, 115).
edge(65, 162).
edge(91, 193).
edge(141, 197).
edge(57, 165).
edge(20, 113).
edge(115, 186).
edge(133, 158).
edge(101, 187).
edge(206, 220).
edge(149, 167).
edge(66, 127).
edge(41, 66).
edge(125, 179).
edge(170, 196).
edge(48, 188).
edge(78, 90).
edge(25, 88).
edge(6, 193).
edge(123, 241).
edge(156, 218).
edge(106, 192).
edge(123, 238).
edge(60, 185).
edge(70, 138).
edge(123, 220).
edge(11, 206).
edge(127, 210).
edge(165, 232).
edge(76, 236).
edge(125, 240).
edge(89, 159).
edge(82, 84).
edge(139, 204).
edge(32, 142).
edge(105, 151).
edge(49, 186).
edge(181, 200).
edge(41, 188).
edge(145, 218).
edge(61, 165).
edge(137, 155).
edge(20, 185).
edge(71, 230).
edge(223, 242).
edge(86, 211).
edge(5, 59).
edge(98, 124).
edge(14, 76).
edge(61, 223).
edge(7, 105).
edge(161, 202).
edge(25, 230).
edge(5, 111).
edge(132, 218).
edge(121, 238).
edge(122, 215).
edge(16, 107).
edge(1, 193).
edge(23, 28).
edge(49, 141).
edge(211, 214).
edge(44, 133).
edge(10, 26).
edge(120, 185).
edge(130, 159).
edge(124, 181).
edge(60, 94).
edge(26, 116).
edge(87, 217).
edge(124, 206).
edge(59, 209).
edge(159, 237).
edge(10, 85).
edge(109, 209).
edge(209, 231).
edge(46, 200).
edge(65, 154).
edge(38, 64).
edge(167, 215).
edge(116, 182).
edge(13, 80).
edge(132, 156).
edge(70, 242).
edge(26, 203).
edge(3, 4).
edge(38, 160).
edge(174, 241).
edge(3, 167).
edge(10, 68).
edge(1, 93).
edge(67, 158).
edge(17, 190).
edge(22, 47).
edge(104, 168).
edge(146, 162).
edge(191, 219).
edge(76, 102).
edge(79, 111).
edge(19, 84).
edge(185, 227).
edge(63, 232).
edge(146, 172).
edge(0, 149).
edge(59, 61).
edge(14, 207).
edge(13, 73).
edge(59, 171).
edge(159, 217).
edge(173, 223).
edge(119, 240).
edge(140, 203).
edge(100, 208).
edge(79, 201).
edge(200, 231).
edge(39, 133).
edge(71, 165).
edge(166, 196).
edge(5, 41).
edge(68, 238).
edge(202, 234).
edge(110, 166).
edge(75, 184).
edge(209, 229).
edge(75, 201).
edge(24, 117).
edge(88, 180).
edge(87, 241).
edge(77, 217).
edge(88, 144).
edge(189, 207).
edge(209, 210).
edge(142, 232).
edge(11, 19).
edge(55, 218).
edge(128, 235).
edge(9, 137).
edge(15, 77).
edge(16, 126).
edge(225, 229).
edge(74, 80).
edge(8, 97).
edge(46, 64).
edge(151, 158).
edge(108, 217).
edge(47, 145).
edge(83, 167).
edge(41, 214).
edge(157, 228).
edge(81, 128).
edge(19, 52).
edge(121, 128).
edge(45, 123).
edge(135, 224).
edge(178, 198).
edge(28, 135).
edge(86, 92).
edge(23, 218).
edge(28, 236).
edge(6, 106).
edge(49, 135).
edge(117, 180).
edge(83, 107).
edge(144, 145).
edge(169, 199).
edge(141, 210).
edge(6, 107).
edge(189, 205).
edge(85, 177).
edge(138, 161).
edge(146, 236).
edge(146, 230).
edge(50, 148).
edge(146, 240).
edge(0, 14).
edge(39, 233).
edge(82, 155).
edge(29, 59).
edge(3, 79).
edge(4, 180).
edge(111, 219).
edge(144, 219).
edge(34, 224).
edge(170, 233).
edge(42, 66).
edge(166, 167).
edge(55, 242).
edge(113, 231).
edge(38, 223).
edge(105, 238).
edge(84, 164).
edge(7, 39).
edge(59, 204).
edge(223, 228).
edge(6, 210).
edge(47, 122).
edge(81, 241).
edge(6, 143).
edge(32, 149).
edge(21, 25).
edge(153, 182).
edge(128, 162).
edge(169, 176).
edge(4, 223).
edge(151, 205).
edge(196, 239).
edge(57, 131).
edge(104, 217).
edge(0, 237).
edge(13, 178).
edge(29, 207).
edge(10, 49).
edge(8, 209).
edge(116, 143).
edge(220, 238).
edge(39, 44).
edge(83, 105).
edge(77, 168).
edge(71, 173).
edge(53, 156).
edge(81, 179).
edge(56, 106).
edge(85, 113).
edge(8, 129).
edge(68, 82).
edge(148, 211).
edge(174, 212).
edge(6, 144).
edge(43, 87).
edge(70, 109).
edge(80, 97).
edge(90, 205).
edge(86, 121).
edge(56, 216).
edge(174, 188).
edge(20, 87).
edge(13, 169).
edge(91, 163).
edge(59, 182).
edge(93, 107).
edge(10, 73).
edge(12, 135).
edge(38, 60).
edge(67, 197).
edge(53, 174).
edge(52, 176).
edge(22, 195).
edge(53, 95).
edge(81, 152).
edge(210, 224).
edge(21, 33).
edge(8, 202).
edge(131, 137).
edge(109, 228).
edge(18, 214).
edge(111, 216).
edge(175, 220).
edge(83, 214).
edge(26, 161).
edge(185, 240).
edge(7, 155).
edge(152, 189).
edge(42, 240).
edge(32, 75).
edge(59, 118).
edge(33, 148).
edge(157, 224).
edge(106, 184).
edge(140, 214).
edge(134, 157).
edge(12, 37).
edge(139, 169).
edge(23, 167).
edge(67, 240).
edge(63, 213).
edge(158, 234).
edge(178, 213).
edge(27, 69).
edge(32, 214).
edge(34, 216).
edge(105, 136).
edge(10, 187).
edge(30, 151).
edge(52, 236).
edge(61, 239).
edge(15, 124).
edge(14, 120).
edge(4, 183).
edge(87, 214).
edge(42, 176).
edge(23, 216).
edge(62, 203).
edge(98, 236).
edge(11, 210).
edge(67, 216).
edge(10, 170).
edge(8, 27).
edge(76, 207).
edge(116, 217).
edge(37, 100).
edge(192, 205).
edge(53, 171).
edge(91, 109).
edge(48, 199).
edge(184, 225).
edge(53, 230).
edge(25, 37).
edge(83, 210).
edge(130, 175).
edge(7, 77).
edge(168, 200).
edge(177, 203).
edge(4, 109).
edge(67, 137).
edge(129, 222).
edge(149, 202).
edge(29, 140).
edge(137, 233).
edge(49, 99).
edge(140, 152).
edge(170, 172).
edge(117, 120).
edge(9, 211).
edge(108, 130).
edge(108, 159).
edge(22, 49).
edge(43, 206).
edge(113, 192).
edge(133, 181).
edge(63, 83).
edge(110, 150).
edge(180, 196).
edge(12, 40).
edge(72, 206).
edge(130, 219).
edge(65, 224).
edge(169, 238).
edge(61, 200).
edge(164, 241).
edge(117, 147).
edge(66, 239).
edge(12, 100).
edge(164, 178).
edge(40, 218).
edge(124, 180).
edge(60, 93).
edge(139, 143).
edge(10, 157).
edge(57, 65).
edge(131, 217).
edge(118, 211).
edge(64, 238).
edge(12, 147).
edge(133, 161).
edge(37, 63).
edge(10, 154).
edge(46, 218).
edge(113, 241).
edge(9, 48).
edge(85, 218).
edge(41, 72).
edge(13, 105).
edge(136, 213).
edge(7, 108).
edge(30, 130).
edge(103, 213).
edge(40, 159).
edge(47, 81).
edge(142, 160).
edge(87, 108).
edge(39, 69).
edge(52, 126).
edge(33, 242).
edge(199, 225).
edge(1, 132).
edge(20, 133).
edge(20, 119).
edge(132, 211).
edge(157, 181).
edge(13, 238).
edge(58, 84).
edge(81, 205).
edge(151, 209).
edge(13, 26).
edge(101, 184).
edge(112, 200).
edge(56, 102).
edge(118, 156).
edge(132, 155).
edge(42, 75).
edge(50, 158).
edge(2, 199).
edge(117, 225).
edge(76, 224).
edge(54, 115).
edge(22, 167).
edge(141, 203).
edge(107, 171).
edge(30, 78).
edge(12, 158).
edge(121, 239).
edge(89, 120).
edge(18, 108).
edge(177, 215).
edge(21, 144).
edge(120, 135).
edge(127, 219).
edge(39, 110).
edge(37, 95).
edge(104, 150).
edge(23, 225).
edge(95, 214).
edge(26, 114).
edge(21, 41).
edge(72, 92).
edge(116, 146).
edge(12, 193).
edge(195, 226).
edge(89, 174).
edge(187, 212).
edge(137, 228).
edge(51, 72).
edge(57, 115).
edge(172, 199).
edge(143, 217).
edge(103, 116).
edge(81, 147).
edge(174, 200).
edge(84, 133).
edge(94, 120).
edge(69, 108).
edge(174, 199).
edge(1, 30).
edge(28, 234).
edge(63, 211).
edge(64, 92).
edge(100, 169).
edge(116, 149).
edge(107, 117).
edge(2, 209).
edge(159, 194).
edge(61, 101).
edge(64, 94).
edge(189, 238).
edge(163, 229).
edge(31, 203).
edge(33, 98).
edge(73, 193).
edge(101, 160).
edge(162, 204).
edge(35, 173).
edge(2, 143).
edge(71, 176).
edge(106, 214).
edge(30, 164).
edge(20, 55).
edge(1, 220).
edge(21, 80).
edge(14, 194).
edge(62, 161).
edge(10, 145).
edge(17, 189).
edge(11, 79).
edge(127, 132).
edge(125, 197).
edge(0, 199).
edge(40, 100).
edge(68, 167).
edge(171, 241).
edge(43, 95).
edge(15, 36).
edge(19, 110).
edge(29, 63).
edge(11, 236).
edge(28, 45).
edge(75, 137).
edge(38, 227).
edge(179, 207).
edge(137, 164).
edge(36, 130).
edge(27, 32).
edge(45, 130).
edge(16, 68).
edge(35, 137).
edge(40, 241).
edge(165, 227).
edge(78, 83).
edge(11, 68).
edge(188, 238).
edge(46, 166).
edge(64, 81).
edge(177, 179).
edge(46, 240).
edge(76, 114).
edge(68, 85).
edge(44, 57).
edge(9, 238).
edge(45, 156).
edge(24, 168).
edge(10, 70).
edge(39, 152).
edge(92, 144).
edge(127, 161).
edge(51, 216).
edge(73, 167).
edge(15, 158).
edge(207, 217).
edge(18, 115).
edge(214, 216).
edge(85, 228).
edge(48, 92).
edge(202, 231).
edge(63, 177).
edge(19, 163).
edge(64, 211).
edge(39, 113).
edge(27, 60).
edge(71, 150).
edge(14, 193).
edge(31, 99).
edge(148, 213).
edge(5, 79).
edge(145, 184).
edge(29, 69).
edge(97, 208).
edge(193, 201).
edge(100, 241).
edge(126, 129).
edge(22, 113).
edge(97, 145).
edge(36, 98).
edge(36, 105).
edge(67, 207).
edge(24, 217).
edge(0, 178).
edge(98, 187).
edge(81, 158).
edge(21, 24).
edge(7, 54).
edge(21, 178).
edge(116, 232).
edge(18, 156).
edge(60, 121).
edge(14, 215).
edge(46, 211).
edge(70, 201).
edge(80, 116).
edge(135, 170).
edge(112, 125).
edge(15, 111).
edge(9, 55).
edge(31, 76).
edge(31, 70).
edge(169, 187).
edge(3, 41).
edge(14, 106).
edge(87, 174).
edge(9, 216).
edge(140, 241).
edge(98, 179).
edge(65, 227).
edge(43, 233).
edge(238, 239).
edge(2, 234).
edge(4, 7).
edge(10, 209).
edge(99, 218).
edge(60, 221).
edge(166, 197).
edge(23, 209).
edge(40, 177).
edge(130, 188).
edge(98, 212).
edge(111, 212).
edge(93, 108).
edge(174, 224).
edge(26, 176).
edge(14, 181).
edge(155, 233).
edge(126, 215).
edge(44, 209).
edge(90, 203).
edge(71, 124).
edge(1, 126).
edge(17, 208).
edge(30, 202).
edge(73, 100).
edge(37, 85).
edge(155, 203).
edge(25, 93).
edge(191, 235).
edge(110, 193).
edge(196, 240).
edge(93, 163).
edge(94, 218).
edge(147, 168).
edge(105, 125).
edge(32, 44).
edge(69, 197).
edge(54, 185).
edge(89, 212).
edge(184, 207).
edge(24, 158).
edge(21, 193).
edge(28, 85).
edge(52, 96).
edge(3, 113).
edge(31, 177).
edge(16, 115).
edge(33, 161).
edge(40, 221).
edge(146, 166).
edge(50, 121).
edge(30, 70).
edge(110, 139).
edge(131, 142).
edge(36, 38).
edge(45, 101).
edge(120, 235).
edge(53, 170).
edge(43, 225).
edge(120, 206).
edge(23, 67).
edge(187, 195).
edge(117, 217).
edge(33, 203).
edge(12, 51).
edge(16, 222).
edge(192, 235).
edge(158, 202).
edge(97, 147).
edge(66, 226).
edge(5, 199).
edge(11, 81).
edge(39, 122).
edge(10, 38).
edge(50, 227).
edge(91, 157).
edge(200, 230).
edge(76, 135).
edge(50, 77).
edge(6, 111).
edge(56, 196).
edge(74, 205).
edge(131, 186).
edge(29, 168).
edge(141, 217).
edge(88, 173).
edge(31, 131).
edge(38, 182).
edge(129, 133).
edge(42, 167).
edge(39, 98).
edge(26, 122).
edge(176, 182).
edge(174, 215).
edge(7, 214).
edge(47, 163).
edge(38, 86).
edge(0, 131).
edge(186, 241).
edge(35, 178).
edge(90, 239).
edge(45, 154).
edge(3, 210).
edge(11, 57).
edge(226, 232).
edge(59, 199).
edge(51, 190).
edge(19, 215).
edge(142, 223).
edge(128, 190).
edge(99, 128).
edge(184, 186).
edge(131, 195).
edge(50, 94).
edge(82, 177).
edge(69, 165).
edge(74, 91).
edge(26, 138).
edge(189, 212).
edge(58, 100).
edge(19, 127).
edge(169, 201).
edge(76, 84).
edge(37, 80).
edge(99, 162).
edge(26, 130).
edge(151, 165).
edge(71, 99).
edge(155, 214).
edge(76, 145).
edge(27, 137).
edge(194, 236).
edge(40, 58).
edge(61, 143).
edge(58, 119).
edge(94, 95).
edge(42, 139).
edge(54, 126).
edge(131, 132).
edge(70, 199).
edge(70, 218).
edge(136, 218).
edge(86, 195).
edge(123, 160).
edge(4, 161).
edge(21, 79).
edge(117, 155).
edge(38, 153).
edge(139, 175).
edge(181, 186).
edge(80, 111).
edge(122, 196).
edge(19, 218).
edge(86, 176).
edge(159, 190).
edge(216, 218).
edge(2, 45).
edge(108, 192).
edge(2, 78).
edge(35, 97).
edge(101, 209).
edge(7, 225).
edge(33, 45).
edge(63, 228).
edge(23, 175).
edge(0, 79).
edge(93, 168).
edge(36, 92).
edge(93, 201).
edge(83, 190).
edge(46, 119).
edge(68, 188).
edge(24, 88).
edge(103, 130).
edge(71, 131).
edge(133, 235).
edge(127, 215).
edge(109, 114).
edge(187, 208).
edge(17, 111).
edge(78, 208).
edge(25, 123).
edge(5, 212).
edge(36, 194).
edge(16, 176).
edge(81, 86).
edge(146, 213).
edge(173, 210).
edge(130, 193).
edge(9, 146).
edge(184, 203).
edge(70, 234).
edge(33, 131).
edge(70, 168).
edge(116, 174).
edge(201, 202).
edge(23, 84).
edge(146, 154).
edge(62, 150).
edge(116, 226).
edge(33, 238).
edge(155, 226).
edge(16, 197).
edge(126, 201).
edge(35, 107).
edge(83, 130).
edge(12, 227).
edge(37, 156).
edge(75, 140).
edge(230, 231).
edge(27, 172).
edge(58, 228).
edge(51, 229).
edge(119, 233).
edge(102, 186).
edge(82, 173).
edge(7, 160).
edge(162, 220).
edge(67, 168).
edge(19, 94).
edge(44, 188).
edge(44, 48).
edge(100, 214).
edge(29, 218).
edge(97, 137).
edge(1, 223).
edge(46, 91).
edge(45, 56).
edge(4, 115).
edge(34, 217).
edge(34, 202).
edge(61, 179).
edge(97, 133).
edge(40, 148).
edge(24, 66).
edge(74, 141).
edge(76, 89).
edge(85, 140).
edge(15, 57).
edge(4, 23).
edge(77, 108).
edge(130, 131).
edge(104, 235).
edge(118, 142).
edge(128, 213).
edge(6, 204).
edge(96, 220).
edge(198, 208).
edge(149, 164).
edge(212, 215).
edge(101, 174).
edge(191, 228).
edge(56, 140).
edge(63, 149).
edge(73, 89).
edge(121, 195).
edge(159, 174).
edge(147, 183).
edge(8, 48).
edge(0, 52).
edge(78, 229).
edge(67, 236).
edge(104, 225).
edge(65, 217).
edge(71, 86).
edge(92, 168).
edge(127, 139).
edge(86, 133).
edge(118, 205).
edge(81, 156).
edge(153, 178).
edge(201, 238).
edge(104, 124).
edge(2, 237).
edge(14, 227).
edge(40, 212).
edge(149, 187).
edge(36, 188).
edge(0, 89).
edge(108, 195).
edge(9, 236).
edge(28, 54).
edge(12, 85).
edge(124, 198).
edge(63, 86).
edge(3, 120).
edge(10, 125).
edge(149, 174).
edge(53, 204).
edge(22, 149).
edge(1, 95).
edge(53, 158).
edge(2, 69).
edge(189, 210).
edge(156, 230).
edge(75, 227).
edge(89, 191).
edge(0, 33).
edge(59, 190).
edge(52, 110).
edge(61, 137).
edge(179, 200).
edge(48, 51).
edge(38, 45).
edge(38, 74).
edge(26, 172).
edge(23, 76).
edge(41, 232).
edge(29, 105).
edge(0, 15).
edge(183, 209).
edge(181, 241).
edge(45, 198).
edge(100, 104).
edge(0, 10).
edge(48, 113).
edge(87, 119).
edge(75, 144).
edge(145, 188).
edge(18, 232).
edge(79, 206).
edge(18, 143).
edge(124, 163).
edge(209, 232).
edge(63, 95).
edge(181, 208).
edge(150, 230).
edge(38, 123).
edge(130, 209).
edge(212, 221).
edge(65, 150).
edge(139, 234).
edge(27, 58).
edge(12, 185).
edge(73, 194).
edge(149, 188).
edge(94, 151).
edge(30, 187).
edge(58, 60).
edge(19, 200).
edge(35, 101).
edge(23, 219).
edge(132, 178).
edge(49, 87).
edge(38, 94).
edge(47, 68).
edge(20, 215).
edge(51, 123).
edge(128, 184).
edge(27, 196).
edge(14, 94).
edge(154, 215).
edge(45, 228).
edge(191, 211).
edge(67, 181).
edge(9, 176).
edge(58, 72).
edge(162, 218).
edge(191, 234).
edge(128, 208).
edge(97, 115).
edge(108, 163).
edge(190, 219).
edge(73, 136).
edge(116, 128).
edge(49, 197).
edge(26, 202).
edge(85, 101).
edge(136, 141).
edge(11, 194).
edge(5, 81).
edge(32, 60).
edge(180, 181).
edge(44, 195).
edge(17, 84).
edge(4, 215).
edge(31, 48).
edge(32, 48).
edge(45, 184).
edge(118, 149).
edge(48, 129).
edge(27, 166).
edge(37, 144).
edge(167, 239).
edge(52, 187).
edge(86, 107).
edge(146, 169).
edge(146, 200).
edge(167, 199).
edge(227, 241).
edge(115, 164).
edge(93, 158).
edge(87, 183).
edge(57, 96).
edge(91, 201).
edge(79, 205).
edge(67, 145).
edge(179, 212).
edge(118, 182).
edge(58, 67).
edge(50, 113).
edge(86, 235).
edge(110, 172).
edge(163, 172).
edge(10, 40).
edge(26, 109).
edge(48, 146).
edge(13, 133).
edge(128, 160).
edge(90, 176).
edge(26, 101).
edge(106, 216).
edge(3, 112).
edge(117, 146).
edge(143, 146).
edge(200, 213).
edge(26, 52).
edge(46, 61).
edge(40, 135).
edge(48, 94).
edge(48, 235).
edge(0, 141).
edge(40, 104).
edge(30, 57).
edge(88, 156).
edge(101, 105).
edge(50, 58).
edge(63, 103).
edge(31, 195).
edge(156, 207).
edge(52, 132).
edge(28, 215).
edge(120, 232).
edge(124, 171).
edge(16, 236).
edge(195, 205).
edge(21, 103).
edge(46, 54).
edge(9, 91).
edge(177, 228).
edge(70, 142).
edge(40, 185).
edge(199, 221).
edge(77, 188).
edge(26, 38).
edge(30, 191).
edge(65, 94).
edge(41, 193).
edge(122, 234).
edge(107, 186).
edge(42, 203).
edge(172, 220).
edge(78, 109).
edge(2, 183).
edge(0, 128).
edge(208, 213).
edge(117, 178).
edge(74, 116).
edge(152, 183).
edge(93, 206).
edge(117, 235).
edge(19, 98).
edge(82, 189).
edge(137, 168).
edge(36, 87).
edge(80, 151).
edge(21, 51).
edge(186, 200).
edge(127, 221).
edge(2, 185).
edge(89, 165).
edge(57, 175).
edge(16, 51).
edge(55, 146).
edge(32, 116).
edge(52, 159).
edge(148, 219).
edge(223, 234).
edge(24, 104).
edge(83, 172).
edge(14, 231).
edge(27, 46).
edge(42, 141).
edge(72, 161).
edge(5, 47).
edge(63, 110).
edge(196, 211).
edge(101, 204).
edge(28, 129).
edge(41, 86).
edge(34, 149).
edge(10, 178).
edge(27, 142).
edge(134, 191).
edge(20, 95).
edge(63, 225).
edge(11, 158).
edge(27, 235).
edge(113, 237).
edge(84, 192).
edge(97, 202).
edge(97, 125).
edge(225, 231).
edge(121, 234).
edge(26, 145).
edge(55, 57).
edge(12, 127).
edge(32, 232).
edge(15, 44).
edge(17, 132).
edge(197, 230).
edge(62, 101).
edge(26, 215).
edge(14, 176).
edge(48, 136).
edge(11, 104).
edge(32, 194).
edge(81, 208).
edge(210, 223).
edge(115, 226).
edge(29, 54).
edge(28, 71).
edge(19, 130).
edge(211, 219).
edge(121, 220).
edge(29, 195).
edge(119, 211).
edge(88, 169).
edge(162, 224).
edge(46, 78).
edge(147, 221).
edge(57, 207).
edge(137, 139).
edge(59, 132).
edge(19, 43).
edge(10, 116).
edge(105, 111).
edge(109, 162).
edge(98, 151).
edge(141, 191).
edge(8, 167).
edge(9, 94).
edge(89, 225).
edge(17, 100).
edge(107, 196).
edge(91, 113).
edge(39, 68).
edge(9, 130).
edge(9, 209).
edge(23, 87).
edge(107, 194).
edge(82, 159).
edge(2, 141).
edge(110, 160).
edge(44, 84).
edge(86, 164).
edge(57, 222).
edge(160, 216).
edge(142, 181).
edge(27, 185).
edge(185, 239).
edge(98, 167).
edge(144, 203).
edge(26, 102).
edge(62, 72).
edge(219, 231).
edge(11, 152).
edge(92, 210).
edge(167, 185).
edge(217, 226).
edge(114, 133).
edge(22, 56).
edge(11, 39).
edge(129, 181).
edge(116, 209).
edge(171, 182).
edge(26, 150).
edge(97, 103).
edge(24, 30).
edge(97, 219).
edge(53, 102).
edge(80, 176).
edge(15, 128).
edge(192, 233).
edge(36, 185).
edge(93, 130).
edge(42, 149).
edge(208, 235).
edge(186, 226).
edge(106, 131).
edge(182, 186).
edge(35, 182).
edge(108, 110).
edge(27, 144).
edge(102, 135).
edge(15, 172).
edge(124, 126).
edge(49, 235).
edge(30, 184).
edge(58, 231).
edge(107, 116).
edge(15, 220).
edge(164, 179).
edge(162, 180).
edge(94, 161).
edge(95, 207).
edge(218, 222).
edge(16, 186).
edge(13, 179).
edge(126, 239).
edge(33, 163).
edge(188, 200).
edge(3, 176).
edge(15, 91).
edge(115, 154).
edge(15, 125).
edge(47, 208).
edge(197, 225).
edge(61, 150).
edge(51, 52).
edge(93, 176).
edge(16, 205).
edge(88, 206).
edge(53, 86).
edge(161, 184).
edge(99, 140).
edge(127, 187).
edge(146, 212).
edge(27, 170).
edge(125, 149).
edge(77, 159).
edge(108, 194).
edge(114, 189).
edge(155, 169).
edge(146, 158).
edge(25, 202).
edge(218, 223).
edge(154, 158).
edge(49, 82).
edge(1, 147).
edge(102, 201).
edge(72, 176).
edge(74, 162).
edge(76, 206).
edge(7, 45).
edge(112, 161).
edge(72, 133).
edge(39, 94).
edge(125, 127).
edge(130, 207).
edge(19, 102).
edge(18, 93).
edge(229, 237).
edge(95, 135).
edge(152, 192).
edge(54, 87).
edge(8, 69).
edge(65, 234).
edge(10, 182).
edge(46, 174).
edge(108, 161).
edge(71, 113).
edge(167, 201).
edge(56, 72).
edge(88, 188).
edge(4, 16).
edge(25, 63).
edge(83, 208).
edge(7, 16).
edge(75, 80).
edge(54, 69).
edge(43, 127).
edge(69, 109).
edge(175, 198).
edge(5, 151).
edge(147, 207).
edge(117, 231).
edge(63, 217).
edge(5, 217).
edge(62, 64).
edge(47, 123).
edge(200, 202).
edge(13, 226).
edge(152, 242).
edge(100, 147).
edge(60, 226).
edge(125, 134).
edge(54, 195).
edge(125, 147).
edge(4, 173).
edge(70, 147).
edge(3, 24).
edge(181, 201).
edge(81, 232).
edge(93, 106).
edge(33, 83).
edge(83, 121).
edge(10, 237).
edge(7, 64).
edge(22, 42).
edge(131, 204).
edge(55, 130).
edge(81, 99).
edge(51, 200).
edge(205, 206).
edge(51, 64).
edge(99, 201).
edge(8, 178).
edge(65, 209).
edge(173, 185).
edge(169, 233).
edge(27, 213).
edge(188, 237).
edge(17, 187).
edge(125, 175).
edge(33, 205).
edge(31, 68).
edge(191, 216).
edge(25, 152).
edge(82, 191).
edge(131, 134).
edge(117, 173).
edge(75, 85).
edge(172, 193).
edge(214, 237).
edge(46, 241).
edge(78, 86).
edge(77, 209).
edge(107, 152).
edge(53, 153).
edge(61, 148).
edge(42, 54).
edge(87, 193).
edge(95, 220).
edge(62, 135).
edge(155, 177).
edge(31, 240).
edge(126, 186).
edge(114, 187).
edge(5, 169).
edge(50, 153).
edge(40, 149).
edge(52, 89).
edge(3, 180).
edge(191, 242).
edge(35, 154).
edge(8, 193).
edge(4, 93).
edge(171, 221).
edge(29, 159).
edge(64, 175).
edge(7, 184).
edge(24, 181).
edge(104, 221).
edge(2, 152).
edge(60, 214).
edge(117, 227).
edge(119, 152).
edge(33, 116).
edge(73, 151).
edge(11, 31).
edge(31, 224).
edge(36, 214).
edge(14, 91).
edge(101, 219).
edge(46, 229).
edge(80, 121).
edge(55, 234).
edge(230, 237).
edge(18, 120).
edge(133, 150).
edge(25, 213).
edge(115, 205).
edge(90, 217).
edge(63, 104).
edge(32, 70).
edge(81, 215).
edge(37, 117).
edge(155, 167).
edge(37, 220).
edge(28, 211).
edge(102, 184).
edge(141, 162).
edge(7, 142).
edge(141, 208).
edge(72, 124).
edge(125, 135).
edge(47, 154).
edge(55, 68).
edge(132, 161).
edge(28, 69).
edge(27, 220).
edge(59, 228).
edge(35, 64).
edge(98, 191).
edge(36, 205).
edge(5, 184).
edge(32, 61).
edge(39, 201).
edge(109, 120).
edge(221, 235).
edge(128, 211).
edge(130, 203).
edge(109, 210).
edge(17, 20).
edge(58, 227).
edge(61, 226).
edge(65, 99).
edge(4, 186).
edge(10, 62).
edge(185, 198).
edge(109, 157).
edge(125, 213).
edge(25, 90).
edge(2, 180).
edge(7, 101).
edge(129, 151).
edge(146, 188).
edge(127, 148).
edge(123, 214).
edge(218, 229).
edge(13, 27).
edge(145, 175).
edge(92, 107).
edge(213, 237).
edge(28, 161).
edge(23, 41).
edge(155, 192).
edge(33, 119).
edge(122, 153).
edge(127, 231).
edge(163, 230).
edge(106, 132).
edge(132, 150).
edge(91, 240).
edge(30, 234).
edge(143, 215).
edge(109, 225).
edge(13, 144).
edge(116, 204).
edge(24, 232).
edge(142, 171).
edge(16, 87).
edge(91, 155).
edge(27, 174).
edge(94, 123).
edge(115, 153).
edge(0, 154).
edge(91, 175).
edge(180, 191).
edge(118, 143).
edge(2, 23).
edge(53, 192).
edge(131, 144).
edge(6, 7).
edge(137, 230).
edge(92, 106).
edge(109, 197).
edge(54, 198).
edge(35, 144).
edge(118, 161).
edge(52, 109).
edge(71, 174).
edge(105, 176).
edge(27, 67).
edge(104, 132).
edge(10, 168).
edge(187, 220).
edge(2, 170).
edge(106, 204).
edge(103, 177).
edge(74, 109).
edge(135, 149).
edge(148, 210).
edge(3, 242).
edge(84, 134).
edge(101, 180).
edge(96, 125).
edge(125, 205).
edge(8, 161).
edge(234, 236).
edge(24, 204).
edge(52, 66).
edge(85, 92).
edge(55, 60).
edge(52, 202).
edge(86, 234).
edge(138, 195).
edge(14, 200).
edge(86, 218).
edge(89, 161).
edge(159, 240).
edge(58, 120).
edge(8, 116).
edge(205, 218).
edge(68, 197).
edge(120, 214).
edge(131, 166).
edge(90, 197).
edge(27, 232).
edge(16, 21).
edge(99, 138).
edge(107, 134).
edge(186, 201).
edge(69, 157).
edge(85, 239).
edge(8, 96).
edge(57, 66).
edge(72, 157).
edge(49, 73).
edge(21, 206).
edge(20, 169).
edge(47, 55).
edge(70, 72).
edge(19, 154).
edge(151, 179).
edge(71, 172).
edge(71, 140).
edge(158, 160).
edge(129, 156).
edge(10, 171).
edge(71, 194).
edge(45, 50).
edge(24, 203).
edge(142, 217).
edge(68, 155).
edge(73, 175).
edge(58, 61).
edge(193, 242).
edge(165, 213).
edge(105, 232).
edge(57, 85).
edge(132, 190).
edge(44, 110).
edge(22, 102).
edge(169, 185).
edge(21, 27).
edge(121, 140).
edge(12, 144).
edge(198, 221).
edge(18, 200).
edge(28, 229).
edge(173, 196).
edge(64, 82).
edge(170, 193).
edge(113, 190).
edge(101, 166).
edge(53, 143).
edge(105, 138).
edge(67, 81).
edge(188, 191).
edge(21, 84).
edge(34, 159).
edge(69, 226).
edge(87, 203).
edge(22, 119).
edge(0, 158).
edge(127, 209).
edge(27, 82).
edge(76, 209).
edge(175, 237).
edge(104, 239).
edge(26, 232).
edge(119, 242).
edge(68, 109).
edge(5, 84).
edge(55, 175).
edge(173, 207).
edge(56, 222).
edge(53, 138).
edge(31, 172).
edge(27, 199).
edge(22, 43).
edge(129, 202).
edge(8, 166).
edge(115, 140).
edge(38, 50).
edge(136, 202).
edge(124, 217).
edge(39, 242).
edge(70, 232).
edge(56, 82).
edge(38, 139).
edge(139, 168).
edge(43, 104).
edge(14, 125).
edge(162, 210).
edge(97, 111).
edge(177, 234).
edge(153, 200).
edge(132, 221).
edge(3, 29).
edge(19, 153).
edge(98, 227).
edge(72, 149).
edge(43, 138).
edge(142, 168).
edge(107, 141).
edge(137, 166).
edge(35, 39).
edge(83, 142).
edge(7, 222).
edge(63, 92).
edge(143, 187).
edge(0, 195).
edge(96, 181).
edge(164, 194).
edge(32, 193).
edge(114, 120).
edge(166, 219).
edge(119, 188).
edge(135, 202).
edge(20, 64).
edge(40, 137).
edge(42, 114).
edge(48, 233).
edge(57, 93).
edge(29, 79).
edge(72, 81).
edge(8, 225).
edge(25, 212).
edge(172, 187).
edge(211, 220).
edge(68, 131).
edge(68, 88).
edge(65, 140).
edge(87, 230).
edge(77, 127).
edge(79, 116).
edge(30, 111).
edge(110, 154).
edge(116, 233).
edge(89, 240).
edge(96, 106).
edge(114, 147).
edge(195, 202).
edge(138, 176).
edge(70, 182).
edge(29, 34).
edge(32, 239).
edge(175, 227).
edge(167, 222).
edge(88, 100).
edge(78, 165).
edge(5, 114).
edge(4, 190).
edge(1, 167).
edge(14, 58).
edge(118, 139).
edge(200, 242).
edge(28, 173).
edge(88, 241).
edge(215, 227).
edge(40, 133).
edge(15, 238).
edge(59, 146).
edge(101, 128).
edge(72, 119).
edge(66, 183).
edge(75, 147).
edge(18, 44).
edge(21, 235).
edge(108, 117).
edge(12, 236).
edge(28, 117).
edge(231, 239).
edge(118, 187).
edge(30, 40).
edge(53, 125).
edge(13, 228).
edge(116, 166).
edge(25, 129).
edge(191, 227).
edge(82, 124).
edge(35, 55).
edge(62, 223).
edge(66, 199).
edge(17, 170).
edge(13, 180).
edge(101, 215).
edge(79, 146).
edge(100, 187).
edge(24, 145).
edge(72, 231).
edge(56, 139).
edge(123, 200).
edge(96, 101).
edge(45, 105).
edge(105, 167).
edge(52, 174).
edge(135, 179).
edge(36, 147).
edge(147, 165).
edge(23, 89).
edge(100, 201).
edge(56, 107).
edge(99, 151).
edge(92, 186).
edge(183, 213).
edge(91, 154).
edge(216, 227).
edge(80, 143).
edge(155, 201).
edge(25, 86).
edge(6, 217).
edge(59, 165).
edge(91, 219).
edge(26, 44).
edge(63, 184).
edge(46, 179).
edge(131, 180).
edge(2, 31).
edge(184, 241).
edge(24, 82).
edge(122, 184).
edge(175, 233).
edge(129, 136).
edge(111, 223).
edge(186, 194).
edge(18, 183).
edge(61, 83).
edge(109, 180).
edge(163, 207).
edge(91, 128).
edge(32, 159).
edge(71, 117).
edge(182, 205).
edge(122, 225).
edge(144, 217).
edge(19, 97).
edge(63, 85).
edge(71, 223).
edge(65, 130).
edge(35, 123).
edge(34, 93).
edge(59, 74).
edge(0, 51).
edge(61, 91).
edge(35, 53).
edge(134, 171).
edge(51, 178).
edge(144, 159).
edge(16, 118).
edge(57, 190).
edge(52, 60).
edge(190, 201).
edge(37, 76).
edge(188, 202).
edge(11, 224).
edge(9, 157).
edge(62, 95).
edge(105, 141).
edge(95, 190).
edge(17, 45).
edge(173, 209).
edge(70, 71).
edge(92, 219).
edge(127, 172).
edge(70, 114).
edge(83, 216).
edge(122, 159).
edge(91, 149).
edge(23, 181).
edge(3, 188).
edge(5, 69).
edge(71, 239).
edge(77, 124).
edge(156, 193).
edge(75, 90).
edge(169, 181).
edge(41, 135).
edge(10, 200).
edge(58, 241).
edge(34, 193).
edge(21, 241).
edge(85, 91).
edge(60, 92).
edge(111, 147).
edge(53, 151).
edge(92, 96).
edge(100, 189).
edge(19, 169).
edge(14, 54).
edge(120, 189).
edge(31, 235).
edge(172, 174).
edge(72, 76).
edge(41, 110).
edge(19, 146).
edge(70, 141).
edge(125, 201).
edge(60, 237).
edge(60, 82).
edge(144, 237).
edge(106, 241).
edge(148, 216).
edge(141, 160).
edge(25, 94).
edge(116, 222).
edge(80, 144).
edge(13, 79).
edge(78, 154).
edge(24, 44).
edge(112, 199).
edge(39, 47).
edge(127, 135).
edge(164, 199).
edge(116, 167).
edge(65, 106).
edge(1, 146).
edge(40, 53).
edge(58, 225).
edge(58, 114).
edge(153, 228).
edge(0, 191).
edge(14, 238).
edge(78, 205).
edge(20, 57).
edge(18, 32).
edge(61, 205).
edge(41, 212).
edge(37, 241).
edge(97, 242).
edge(65, 219).
edge(130, 210).
edge(57, 129).
edge(115, 215).
edge(153, 208).
edge(60, 201).
edge(113, 145).
edge(91, 231).
edge(19, 234).
edge(83, 200).
edge(5, 185).
edge(143, 172).
edge(62, 222).
edge(171, 202).
edge(126, 195).
edge(115, 118).
edge(89, 179).
edge(110, 222).
edge(151, 224).
edge(93, 136).
edge(78, 221).
edge(49, 103).
edge(71, 178).
edge(148, 154).
edge(9, 58).
edge(87, 224).
edge(132, 180).
edge(163, 226).
edge(15, 178).
edge(55, 181).
edge(4, 130).
edge(63, 106).
edge(107, 199).
edge(5, 218).
edge(161, 225).
edge(106, 127).
edge(212, 225).
edge(101, 233).
edge(64, 171).
edge(73, 79).
edge(194, 220).
edge(151, 219).
edge(0, 99).
edge(110, 155).
edge(17, 238).
edge(13, 66).
edge(117, 224).
edge(82, 220).
edge(116, 171).
edge(169, 220).
edge(88, 97).
edge(48, 175).
edge(163, 240).
edge(23, 148).
edge(203, 237).
edge(67, 227).
edge(89, 140).
edge(78, 232).
edge(176, 217).
edge(169, 194).
edge(14, 130).
edge(57, 141).
edge(132, 173).
edge(37, 163).
edge(61, 75).
edge(23, 129).
edge(82, 200).
edge(88, 233).
edge(48, 173).
edge(75, 225).
edge(78, 122).
edge(165, 224).
edge(4, 177).
edge(6, 38).
edge(94, 210).
edge(121, 156).
edge(141, 238).
edge(217, 240).
edge(51, 162).
edge(39, 78).
edge(203, 230).
edge(98, 231).
edge(67, 219).
edge(0, 162).
edge(185, 233).
edge(64, 131).
edge(43, 216).
edge(29, 192).
edge(96, 104).
edge(116, 224).
edge(215, 217).
edge(133, 216).
edge(15, 62).
edge(76, 134).
edge(70, 208).
edge(172, 224).
edge(141, 192).
edge(158, 194).
edge(142, 202).
edge(123, 202).
edge(34, 77).
edge(20, 210).
edge(64, 164).
edge(2, 4).
edge(137, 186).
edge(53, 182).
edge(61, 71).
edge(84, 173).
edge(132, 151).
edge(197, 242).
edge(77, 233).
edge(113, 174).
edge(147, 220).
edge(80, 152).
edge(27, 163).
edge(111, 221).
edge(32, 198).
edge(185, 235).
edge(50, 237).
edge(98, 192).
edge(19, 193).
edge(9, 136).
edge(38, 242).
edge(16, 188).
edge(42, 210).
edge(168, 215).
edge(39, 169).
edge(0, 192).
edge(33, 202).
edge(79, 91).
edge(50, 217).
edge(69, 120).
edge(133, 195).
edge(4, 149).
edge(156, 187).
edge(58, 69).
edge(8, 90).
edge(180, 195).
edge(81, 219).
edge(37, 211).
edge(8, 47).
edge(54, 178).
edge(154, 214).
edge(163, 242).
edge(80, 119).
edge(177, 212).
edge(158, 211).
edge(144, 168).
edge(55, 125).
edge(126, 167).
edge(111, 157).
edge(192, 222).
edge(55, 61).
edge(186, 232).
edge(39, 144).
edge(223, 240).
edge(31, 199).
edge(151, 215).
edge(135, 180).
edge(58, 88).
edge(66, 115).
edge(8, 152).
edge(53, 118).
edge(21, 30).
edge(63, 139).
edge(32, 81).
edge(10, 158).
edge(202, 223).
edge(57, 125).
edge(43, 145).
edge(158, 219).
edge(113, 123).
edge(60, 203).
edge(111, 143).
edge(26, 46).
edge(155, 228).
edge(63, 109).
edge(8, 62).
edge(3, 204).
edge(109, 230).
edge(6, 185).
edge(33, 103).
edge(212, 233).
edge(139, 176).
edge(79, 173).
edge(2, 75).
edge(154, 196).
edge(65, 184).
edge(27, 200).
edge(103, 142).
edge(5, 238).
edge(42, 81).
edge(38, 225).
edge(129, 150).
edge(80, 102).
edge(75, 81).
edge(46, 62).
edge(187, 190).
edge(62, 184).
edge(88, 201).
edge(179, 220).
edge(133, 165).
edge(107, 140).
edge(45, 55).
edge(14, 123).
edge(64, 124).
edge(2, 135).
edge(20, 203).
edge(71, 102).
edge(24, 193).
edge(64, 184).
edge(74, 226).
edge(74, 120).
edge(66, 191).
edge(18, 172).
edge(43, 241).
edge(186, 221).
edge(96, 164).
edge(154, 187).
edge(126, 132).
edge(26, 146).
edge(113, 124).
edge(67, 166).
edge(71, 166).
edge(61, 173).
edge(38, 226).
edge(55, 116).
edge(77, 156).
edge(88, 132).
edge(227, 242).
edge(5, 53).
edge(103, 113).
edge(114, 141).
edge(18, 48).
edge(37, 115).
edge(22, 238).
edge(187, 204).
edge(42, 206).
edge(95, 223).
edge(36, 114).
edge(23, 80).
edge(175, 224).
edge(155, 218).
edge(143, 163).
edge(130, 134).
edge(30, 207).
edge(1, 26).
edge(92, 153).
edge(108, 227).
edge(105, 108).
edge(31, 207).
edge(68, 212).
edge(177, 207).
edge(65, 120).
edge(146, 165).
edge(75, 77).
edge(64, 135).
edge(23, 178).
edge(199, 209).
edge(58, 124).
edge(73, 171).
edge(61, 209).
edge(28, 142).
edge(31, 77).
edge(157, 160).
edge(51, 62).
edge(142, 175).
edge(105, 218).
edge(12, 122).
edge(104, 127).
edge(158, 235).
edge(67, 234).
edge(115, 198).
edge(92, 118).
edge(16, 32).
edge(45, 100).
edge(156, 224).
edge(116, 230).
edge(104, 174).
edge(53, 239).
edge(46, 163).
edge(42, 144).
edge(26, 111).
edge(70, 74).
edge(166, 209).
edge(6, 166).
edge(165, 198).
edge(157, 177).
edge(161, 208).
edge(6, 240).
edge(96, 132).
edge(67, 85).
edge(0, 113).
edge(72, 97).
edge(91, 106).
edge(47, 141).
edge(133, 211).
edge(73, 231).
edge(76, 195).
edge(38, 124).
edge(140, 233).
edge(21, 98).
edge(17, 80).
edge(64, 69).
edge(62, 66).
edge(107, 213).
edge(40, 74).
edge(70, 205).
edge(116, 184).
edge(131, 165).
edge(111, 119).
edge(112, 210).
edge(143, 176).
edge(36, 145).
edge(17, 106).
edge(84, 230).
edge(63, 148).
edge(128, 196).
edge(68, 202).
edge(39, 226).
edge(137, 190).
edge(160, 183).
edge(163, 169).
edge(201, 227).
edge(137, 192).
edge(25, 35).
edge(45, 169).
edge(16, 191).
edge(92, 222).
edge(52, 165).
edge(35, 201).
edge(54, 57).
edge(44, 142).
edge(28, 147).
edge(46, 176).
edge(63, 195).
edge(6, 216).
edge(87, 166).
edge(32, 101).
edge(147, 154).
edge(7, 103).
edge(10, 175).
edge(124, 190).
edge(0, 117).
edge(81, 240).
edge(8, 93).
edge(108, 153).
edge(56, 95).
edge(11, 195).
edge(18, 88).
edge(48, 103).
edge(103, 175).
edge(104, 146).
edge(208, 234).
edge(21, 230).
edge(38, 165).
edge(49, 149).
edge(90, 108).
edge(71, 72).
edge(20, 21).
edge(21, 115).
edge(1, 159).
edge(10, 23).
edge(138, 194).
edge(118, 171).
edge(193, 239).
edge(3, 170).
edge(180, 238).
edge(95, 170).
edge(144, 241).
edge(42, 138).
edge(13, 75).
edge(86, 94).
edge(1, 123).
edge(3, 161).
edge(6, 77).
edge(113, 218).
edge(46, 67).
edge(25, 215).
edge(69, 136).
edge(5, 137).
edge(44, 170).
edge(68, 192).
edge(8, 34).
edge(52, 196).
edge(187, 238).
edge(15, 186).
edge(46, 242).
edge(76, 173).
edge(106, 206).
edge(96, 209).
edge(32, 107).
edge(56, 59).
edge(54, 235).
edge(68, 170).
edge(170, 207).
edge(20, 43).
edge(95, 203).
edge(39, 218).
edge(5, 45).
edge(65, 68).
edge(48, 137).
edge(6, 154).
edge(128, 147).
edge(27, 34).
edge(64, 157).
edge(13, 127).
edge(65, 98).
edge(169, 171).
edge(47, 188).
edge(218, 221).
edge(9, 50).
edge(135, 172).
edge(78, 151).
edge(141, 228).
edge(24, 40).
edge(183, 194).
edge(70, 113).
edge(25, 135).
edge(132, 234).
edge(99, 212).
edge(172, 209).
edge(68, 203).
edge(151, 239).
edge(106, 143).
edge(14, 187).
edge(192, 237).
edge(4, 44).
edge(186, 189).
edge(9, 199).
edge(30, 157).
edge(46, 205).
edge(131, 174).
edge(85, 199).
edge(20, 94).
edge(141, 239).
edge(37, 157).
edge(35, 175).
edge(46, 212).
edge(123, 199).
edge(124, 225).
edge(26, 228).
edge(139, 212).
edge(87, 190).
edge(77, 226).
edge(64, 98).
edge(88, 116).
edge(14, 40).
edge(13, 241).
edge(5, 147).
edge(115, 225).
edge(175, 187).
edge(210, 219).
edge(115, 213).
edge(128, 176).
edge(216, 240).
edge(50, 147).
edge(115, 152).
edge(63, 235).
edge(120, 149).
edge(100, 105).
edge(52, 141).
edge(106, 235).
edge(172, 188).
edge(129, 132).
edge(54, 64).
edge(17, 173).
edge(145, 236).
edge(31, 56).
edge(30, 83).
edge(31, 92).
edge(4, 70).
edge(27, 193).
edge(108, 224).
edge(12, 22).
edge(111, 230).
edge(0, 217).
edge(200, 234).
edge(86, 219).
edge(95, 107).
edge(60, 120).
edge(16, 204).
edge(195, 230).
edge(5, 177).
edge(82, 187).
edge(43, 205).
edge(114, 151).
edge(9, 224).
edge(238, 242).
edge(137, 183).
edge(171, 230).
edge(11, 14).
edge(14, 212).
edge(127, 130).
edge(37, 228).
edge(119, 228).
edge(79, 213).
edge(70, 178).
edge(7, 12).
edge(37, 106).
edge(172, 202).
edge(86, 132).
edge(173, 174).
edge(48, 215).
edge(1, 31).
edge(60, 234).
edge(69, 237).
edge(82, 183).
edge(65, 161).
edge(157, 190).
edge(54, 205).
edge(41, 97).
edge(11, 77).
edge(81, 149).
edge(200, 216).
edge(95, 140).
edge(105, 198).
edge(120, 226).
edge(111, 148).
edge(114, 194).
edge(60, 158).
edge(109, 117).
edge(69, 170).
edge(21, 211).
edge(53, 146).
edge(70, 206).
edge(54, 227).
edge(109, 124).
edge(158, 163).
edge(15, 156).
edge(41, 144).
edge(177, 202).
edge(54, 233).
edge(168, 176).
edge(201, 215).
edge(17, 212).
edge(46, 126).
edge(210, 220).
edge(9, 103).
edge(15, 115).
edge(120, 224).
edge(154, 236).
edge(166, 242).
edge(225, 232).
edge(40, 82).
edge(131, 206).
edge(102, 198).
edge(45, 146).
edge(220, 234).
edge(121, 171).
edge(147, 200).
edge(89, 93).
edge(53, 175).
edge(50, 236).
edge(92, 201).
edge(13, 191).
edge(94, 184).
edge(39, 232).
edge(84, 236).
edge(34, 38).
edge(36, 171).
edge(6, 123).
edge(91, 167).
edge(16, 195).
edge(163, 189).
edge(36, 142).
edge(119, 189).
edge(98, 203).
edge(60, 167).
edge(105, 123).
edge(55, 219).
edge(107, 202).
edge(46, 110).
edge(77, 195).
edge(79, 225).
edge(42, 213).
edge(92, 221).
edge(18, 203).
edge(50, 220).
edge(35, 38).
edge(99, 240).
edge(26, 214).
edge(98, 172).
edge(146, 155).
edge(106, 150).
edge(90, 151).
edge(170, 178).
edge(22, 130).
edge(74, 179).
edge(21, 67).
edge(72, 106).
edge(120, 138).
edge(213, 227).
edge(6, 137).
edge(130, 142).
edge(81, 124).
edge(196, 226).
edge(174, 207).
edge(91, 135).
edge(23, 103).
edge(130, 171).
edge(146, 222).
edge(32, 162).
edge(58, 96).
edge(37, 38).
edge(145, 197).
edge(18, 71).
edge(17, 192).
edge(122, 178).
edge(13, 116).
edge(67, 186).
edge(133, 154).
edge(54, 81).
edge(28, 160).
edge(211, 225).
edge(74, 173).
edge(146, 160).
edge(77, 225).
edge(87, 200).
edge(34, 176).
edge(27, 104).
edge(3, 39).
edge(14, 101).
edge(33, 180).
edge(147, 160).
edge(105, 165).
edge(50, 62).
edge(76, 142).
edge(147, 178).
edge(33, 115).
edge(134, 164).
edge(131, 231).
edge(32, 67).
edge(38, 77).
edge(135, 221).
edge(67, 130).
edge(191, 210).
edge(236, 241).
edge(102, 181).
edge(42, 52).
edge(194, 201).
edge(36, 47).
edge(52, 227).
edge(111, 201).
edge(6, 94).
edge(15, 30).
edge(158, 170).
edge(23, 162).
edge(102, 141).
edge(119, 149).
edge(54, 166).
edge(67, 143).
edge(48, 110).
edge(21, 61).
edge(31, 160).
edge(2, 205).
edge(95, 118).
edge(6, 10).
edge(119, 220).
edge(13, 113).
edge(77, 140).
edge(181, 209).
edge(113, 140).
edge(164, 223).
edge(58, 136).
edge(4, 82).
edge(54, 120).
edge(61, 198).
edge(83, 181).
edge(216, 232).
edge(166, 211).
edge(71, 238).
edge(44, 191).
edge(6, 208).
edge(54, 181).
edge(74, 102).
edge(40, 190).
edge(131, 198).
edge(85, 135).
edge(1, 205).
edge(51, 147).
edge(6, 46).
edge(1, 174).
edge(101, 155).
edge(49, 173).
edge(82, 115).
edge(197, 221).
edge(111, 198).
edge(48, 116).
edge(66, 205).
edge(57, 206).
edge(65, 235).
edge(9, 193).
edge(12, 49).
edge(89, 195).
edge(9, 225).
edge(25, 159).
edge(74, 140).
edge(76, 197).
edge(0, 62).
edge(27, 135).
edge(124, 143).
edge(19, 198).
edge(59, 169).
edge(49, 88).
edge(108, 174).
edge(163, 164).
edge(196, 201).
edge(56, 186).
edge(1, 173).
edge(8, 130).
edge(44, 117).
edge(155, 195).
edge(78, 175).
edge(50, 206).
edge(65, 142).
edge(48, 238).
edge(39, 132).
edge(179, 191).
edge(31, 237).
edge(14, 182).
edge(135, 177).
edge(169, 235).
edge(35, 51).
edge(94, 173).
edge(11, 110).
edge(27, 81).
edge(123, 151).
edge(206, 219).
edge(19, 142).
edge(6, 200).
edge(121, 201).
edge(51, 91).
edge(176, 230).
edge(59, 195).
edge(150, 170).
edge(49, 137).
edge(15, 72).
edge(67, 96).
edge(83, 206).
edge(65, 225).
edge(112, 150).
edge(92, 115).
edge(7, 79).
edge(217, 232).
edge(100, 127).
edge(102, 147).
edge(19, 134).
edge(1, 15).
edge(3, 136).
edge(28, 59).
edge(29, 163).
edge(48, 227).
edge(24, 102).
edge(25, 128).
edge(59, 88).
edge(57, 68).
edge(199, 213).
edge(82, 90).
edge(127, 195).
edge(12, 71).
edge(1, 184).
edge(181, 223).
edge(150, 206).
edge(21, 196).
edge(111, 175).
edge(62, 200).
edge(118, 158).
edge(21, 46).
edge(99, 202).
edge(17, 206).
edge(23, 78).
edge(5, 61).
edge(121, 129).
edge(22, 205).
edge(65, 221).
edge(22, 63).
edge(14, 93).
edge(30, 35).
edge(150, 209).
edge(131, 167).
edge(169, 218).
edge(155, 175).
edge(77, 114).
edge(48, 225).
edge(87, 182).
edge(46, 71).
edge(5, 235).
edge(5, 139).
edge(19, 180).
edge(14, 133).
edge(14, 174).
edge(17, 159).
edge(99, 234).
edge(77, 147).
edge(22, 58).
edge(17, 202).
edge(144, 234).
edge(62, 156).
edge(46, 125).
edge(65, 85).
edge(146, 208).
edge(64, 85).
edge(26, 64).
edge(99, 232).
edge(207, 220).
edge(144, 227).
edge(39, 83).
edge(66, 89).
edge(71, 94).
edge(90, 113).
edge(1, 127).
edge(12, 57).
edge(112, 137).
edge(15, 239).
edge(153, 173).
edge(6, 171).
edge(40, 238).
edge(4, 50).
edge(206, 209).
edge(68, 207).
edge(113, 226).
edge(98, 238).
edge(105, 180).
edge(100, 199).
edge(85, 200).
edge(47, 99).
edge(102, 233).
edge(59, 217).
edge(62, 117).
edge(6, 153).
edge(143, 222).
edge(3, 237).
edge(97, 228).
edge(17, 175).
edge(7, 138).
edge(65, 229).
edge(169, 221).
edge(75, 202).
edge(177, 185).
edge(103, 225).
edge(219, 238).
edge(169, 227).
edge(41, 128).
edge(35, 145).
edge(56, 84).
edge(78, 115).
edge(148, 183).
edge(122, 200).
edge(139, 224).
edge(82, 111).
edge(46, 138).
edge(112, 164).
edge(17, 61).
edge(63, 163).
edge(37, 181).
edge(119, 217).
edge(135, 198).
edge(6, 141).
edge(33, 154).
edge(98, 197).
edge(147, 187).
edge(22, 93).
edge(31, 186).
edge(68, 130).
edge(181, 242).
edge(43, 201).
edge(133, 151).
edge(15, 148).
edge(0, 69).
edge(70, 148).
edge(49, 195).
edge(57, 91).
edge(191, 203).
edge(9, 70).
edge(33, 159).
edge(99, 103).
edge(117, 183).
edge(32, 213).
edge(28, 78).
edge(33, 156).
edge(51, 122).
edge(76, 95).
edge(21, 124).
edge(197, 228).
edge(119, 180).
edge(14, 99).
edge(75, 94).
edge(63, 142).
edge(105, 158).
edge(188, 204).
edge(85, 204).
edge(64, 182).
edge(58, 134).
edge(20, 125).
edge(87, 130).
edge(52, 103).
edge(25, 206).
edge(114, 239).
edge(7, 110).
edge(27, 129).
edge(28, 193).
edge(142, 203).
edge(26, 96).
edge(58, 91).
edge(14, 19).
edge(153, 231).
edge(77, 236).
edge(93, 219).
edge(108, 171).
edge(90, 91).
edge(19, 96).
edge(127, 182).
edge(43, 125).
edge(56, 174).
edge(74, 170).
edge(121, 240).
edge(45, 222).
edge(6, 211).
edge(54, 160).
edge(61, 169).
edge(7, 205).
edge(59, 113).
edge(43, 99).
edge(17, 125).
edge(157, 180).
edge(159, 235).
edge(36, 48).
edge(60, 72).
edge(177, 201).
edge(98, 162).
edge(24, 51).
edge(93, 205).
edge(31, 136).
edge(49, 208).
edge(121, 210).
edge(76, 112).
edge(174, 235).
edge(198, 229).
edge(7, 192).
edge(114, 198).
edge(78, 159).
edge(140, 234).
edge(17, 176).
edge(41, 88).
edge(142, 188).
edge(193, 230).
edge(114, 167).
edge(3, 158).
edge(61, 65).
edge(193, 229).
edge(119, 127).
edge(153, 199).
edge(6, 80).
edge(217, 218).
edge(194, 205).
edge(7, 207).
edge(97, 171).
edge(214, 226).
edge(13, 163).
edge(152, 181).
edge(24, 207).
edge(93, 188).
edge(105, 197).
edge(202, 215).
edge(58, 105).
edge(40, 140).
edge(46, 238).
edge(188, 195).
edge(12, 65).
edge(142, 218).
edge(76, 170).
edge(82, 182).
edge(118, 223).
edge(179, 232).
edge(157, 223).
edge(82, 188).
edge(17, 133).
edge(72, 75).
edge(31, 206).
edge(95, 122).
edge(131, 170).
edge(151, 237).
edge(98, 205).
edge(144, 216).
edge(130, 139).
edge(199, 222).
edge(43, 83).
edge(25, 32).
edge(71, 91).
edge(69, 194).
edge(31, 229).
edge(70, 155).
edge(5, 43).
edge(77, 100).
edge(83, 93).
edge(120, 129).
edge(144, 179).
edge(25, 225).
edge(74, 129).
edge(79, 80).
edge(16, 57).
edge(13, 233).
edge(82, 97).
edge(176, 180).
edge(20, 35).
edge(57, 64).
edge(180, 190).
edge(186, 190).
edge(42, 46).
edge(65, 78).
edge(169, 183).
edge(39, 64).
edge(16, 141).
edge(174, 211).
edge(8, 15).
edge(67, 139).
edge(108, 151).
edge(5, 60).
edge(41, 204).
edge(150, 158).
edge(44, 201).
edge(33, 84).
edge(110, 146).
edge(41, 111).
edge(20, 145).
edge(80, 192).
edge(84, 219).
edge(26, 70).
edge(110, 127).
edge(60, 191).
edge(50, 177).
edge(43, 118).
edge(4, 41).
edge(192, 201).
edge(41, 233).
edge(13, 156).
edge(40, 73).
edge(54, 171).
edge(6, 140).
edge(1, 61).
edge(85, 229).
edge(9, 219).
edge(136, 207).
edge(54, 122).
edge(64, 202).
edge(161, 177).
edge(59, 92).
edge(1, 209).
edge(215, 225).
edge(103, 189).
edge(25, 133).
edge(12, 98).
edge(48, 196).
edge(39, 92).
edge(69, 115).
edge(49, 234).
edge(97, 174).
edge(24, 64).
edge(37, 48).
edge(20, 56).
edge(167, 197).
edge(78, 118).
edge(106, 211).
edge(145, 210).
edge(183, 199).
edge(50, 197).
edge(33, 167).
edge(85, 147).
edge(21, 213).
edge(121, 152).
edge(112, 162).
edge(6, 178).
edge(66, 240).
edge(108, 200).
edge(21, 234).
edge(60, 131).
edge(146, 220).
edge(174, 222).
edge(12, 54).
edge(20, 112).
edge(122, 147).
edge(97, 156).
edge(12, 102).
edge(83, 116).
edge(114, 186).
edge(71, 193).
edge(116, 159).
edge(119, 137).
edge(7, 180).
edge(138, 157).
edge(14, 90).
edge(109, 198).
edge(64, 206).
edge(4, 63).
edge(82, 222).
edge(3, 235).
edge(189, 211).
edge(169, 174).
edge(128, 237).
edge(38, 211).
edge(13, 171).
edge(21, 236).
edge(84, 161).
edge(54, 214).
edge(118, 241).
edge(35, 214).
edge(46, 133).
edge(171, 190).
edge(20, 228).
edge(43, 50).
edge(51, 66).
edge(96, 238).
edge(7, 163).
edge(32, 144).
edge(226, 231).
edge(88, 170).
edge(80, 172).
edge(24, 202).
edge(75, 135).
edge(10, 167).
edge(108, 118).
edge(17, 46).
edge(169, 226).
edge(7, 216).
edge(53, 169).
edge(28, 206).
edge(190, 207).
edge(6, 48).
edge(5, 71).
edge(12, 234).
edge(90, 114).
edge(27, 204).
edge(169, 193).
edge(128, 242).
edge(58, 230).
edge(107, 137).
edge(125, 186).
edge(57, 195).
edge(64, 198).
edge(212, 219).
edge(81, 127).
edge(123, 150).
edge(8, 80).
edge(46, 53).
edge(87, 159).
edge(53, 83).
edge(148, 242).
edge(128, 150).
edge(99, 132).
edge(158, 228).
edge(63, 125).
edge(133, 208).
edge(48, 161).
edge(84, 217).
edge(69, 215).
edge(83, 123).
edge(4, 200).
edge(180, 222).
edge(44, 124).
edge(76, 211).
edge(189, 204).
edge(9, 16).
edge(12, 132).
edge(112, 188).
edge(82, 225).
edge(163, 225).
edge(145, 225).
edge(12, 161).
edge(163, 192).
edge(4, 12).
edge(100, 118).
edge(119, 238).
edge(9, 97).
edge(5, 242).
edge(0, 156).
edge(6, 203).
edge(88, 202).
edge(2, 56).
edge(206, 208).
edge(135, 137).
edge(47, 233).
edge(185, 206).
edge(39, 198).
edge(13, 95).
edge(178, 181).
edge(7, 63).
edge(175, 208).
edge(104, 198).
edge(170, 191).
edge(164, 169).
edge(65, 196).
edge(12, 52).
edge(40, 205).
edge(89, 157).
edge(35, 210).
edge(49, 161).
edge(55, 229).
edge(133, 233).
edge(169, 178).
edge(69, 74).
edge(37, 142).
edge(72, 146).
edge(83, 97).
edge(9, 30).
edge(7, 106).
edge(100, 106).
edge(128, 216).
edge(190, 217).
edge(111, 115).
edge(151, 175).
edge(1, 77).
edge(188, 211).
edge(189, 192).
edge(17, 228).
edge(114, 222).
edge(122, 169).
edge(172, 236).
edge(4, 45).
edge(99, 167).
edge(133, 241).
edge(142, 191).
edge(82, 139).
edge(42, 235).
edge(63, 87).
edge(153, 225).
edge(172, 206).
edge(181, 203).
edge(136, 161).
edge(54, 71).
edge(96, 99).
edge(45, 66).
edge(44, 154).
edge(153, 232).
edge(29, 130).
edge(46, 232).
edge(48, 219).
edge(48, 123).
edge(87, 140).
edge(42, 146).
edge(132, 169).
edge(60, 138).
edge(31, 121).
edge(74, 197).
edge(101, 117).
edge(185, 210).
edge(56, 74).
edge(96, 156).
edge(49, 162).
edge(12, 104).
edge(98, 117).
edge(69, 81).
edge(201, 203).
edge(44, 135).
edge(1, 11).
edge(22, 166).
edge(114, 182).
edge(16, 92).
edge(109, 184).
edge(118, 228).
edge(32, 182).
edge(157, 211).
edge(47, 132).
edge(120, 237).
edge(8, 17).
edge(28, 83).
edge(80, 228).
edge(28, 126).
edge(120, 144).
edge(50, 242).
edge(65, 151).
edge(102, 149).
edge(24, 62).
edge(79, 89).
edge(211, 222).
edge(200, 236).
edge(32, 197).
edge(114, 163).
edge(142, 192).
edge(4, 151).
edge(20, 225).
edge(79, 145).
edge(6, 17).
edge(178, 234).
edge(109, 236).
edge(7, 224).
edge(105, 187).
edge(114, 142).
edge(187, 214).
edge(140, 171).
edge(97, 235).
edge(110, 140).
edge(64, 142).
edge(148, 221).
edge(1, 39).
edge(113, 115).
edge(23, 140).
edge(16, 198).
edge(94, 130).
edge(25, 95).
edge(57, 114).
edge(142, 233).
edge(75, 150).
edge(32, 106).
edge(7, 179).
edge(27, 115).
edge(147, 185).
edge(100, 186).
edge(68, 189).
edge(10, 11).
edge(93, 235).
edge(109, 159).
edge(44, 92).
edge(136, 238).
edge(21, 141).
edge(150, 179).
edge(51, 57).
edge(60, 164).
edge(56, 239).
edge(5, 107).
edge(73, 91).
edge(10, 121).
edge(79, 97).
edge(120, 122).
edge(95, 205).
edge(99, 143).
edge(8, 141).
edge(88, 91).
edge(57, 147).
edge(152, 226).
edge(27, 83).
edge(125, 129).
edge(2, 5).
edge(14, 151).
edge(223, 241).
edge(51, 71).
edge(22, 161).
edge(160, 230).
edge(24, 91).
edge(150, 193).
edge(50, 106).
edge(136, 168).
edge(37, 56).
edge(76, 130).
edge(27, 173).
edge(138, 212).
edge(30, 180).
edge(30, 81).
edge(59, 64).
edge(48, 120).
edge(216, 230).
edge(178, 228).
edge(100, 157).
edge(21, 139).
edge(56, 134).
edge(115, 138).
edge(111, 170).
edge(57, 140).
edge(90, 171).
edge(171, 226).
edge(98, 114).
edge(25, 142).
edge(14, 142).
edge(99, 208).
edge(26, 220).
edge(81, 166).
edge(72, 223).
edge(99, 147).
edge(44, 137).
edge(107, 161).
edge(179, 231).
edge(220, 229).
edge(31, 128).
edge(137, 238).
edge(126, 180).
edge(2, 27).
edge(160, 232).
edge(175, 213).
edge(72, 184).
edge(95, 131).
edge(68, 115).
edge(72, 89).
edge(57, 218).
edge(217, 227).
edge(46, 152).
edge(77, 238).
edge(9, 124).
edge(92, 122).
edge(33, 56).
edge(76, 199).
edge(119, 187).
edge(39, 197).
edge(30, 158).
edge(8, 155).
edge(28, 225).
edge(99, 172).
edge(108, 152).
edge(49, 69).
edge(158, 168).
edge(41, 90).
edge(89, 228).
edge(159, 164).
edge(88, 117).
edge(156, 173).
edge(144, 146).
edge(147, 173).
edge(26, 224).
edge(7, 122).
edge(60, 232).
edge(167, 195).
edge(80, 185).
edge(47, 97).
edge(72, 142).
edge(91, 192).
edge(142, 241).
edge(8, 59).
edge(14, 239).
edge(146, 185).
edge(77, 235).
edge(24, 37).
edge(79, 108).
edge(53, 165).
edge(2, 101).
edge(182, 188).
edge(120, 234).
edge(114, 158).
edge(41, 130).
edge(23, 117).
edge(22, 189).
edge(59, 201).
edge(9, 109).
edge(101, 176).
edge(210, 242).
edge(81, 176).
edge(47, 96).
edge(38, 178).
edge(156, 199).
edge(48, 159).
edge(35, 172).
edge(10, 134).
edge(203, 217).
edge(15, 159).
edge(26, 55).
edge(113, 120).
edge(156, 217).
edge(2, 129).
edge(95, 164).
edge(126, 199).
edge(128, 223).
edge(58, 187).
edge(170, 202).
edge(154, 213).
edge(139, 239).
edge(52, 222).
edge(135, 185).
edge(172, 216).
edge(53, 58).
edge(163, 175).
edge(84, 211).
edge(100, 192).
edge(159, 197).
edge(94, 177).
edge(189, 215).
edge(115, 137).
edge(109, 126).
edge(24, 123).
edge(86, 128).
edge(30, 223).
edge(5, 48).
edge(13, 44).
edge(161, 199).
edge(51, 78).
edge(77, 97).
edge(121, 175).
edge(18, 43).
edge(103, 145).
edge(151, 231).
edge(41, 98).
edge(191, 241).
edge(117, 197).
edge(47, 162).
edge(124, 182).
edge(106, 195).
edge(122, 177).
edge(43, 109).
edge(92, 150).
edge(10, 102).
edge(62, 145).
edge(234, 240).
edge(36, 224).
edge(92, 239).
edge(6, 27).
edge(28, 107).
edge(141, 163).
edge(23, 196).
edge(88, 90).
edge(159, 236).
edge(52, 203).
edge(36, 90).
edge(6, 124).
edge(17, 90).
edge(52, 104).
edge(69, 222).
edge(132, 191).
edge(79, 222).
edge(53, 63).
edge(0, 130).
edge(154, 200).
edge(55, 112).
edge(91, 168).
edge(73, 215).
edge(105, 142).
edge(175, 179).
edge(10, 14).
edge(126, 183).
edge(10, 236).
edge(26, 133).
edge(69, 70).
edge(117, 156).
edge(136, 231).
edge(108, 219).
edge(84, 179).
edge(108, 145).
edge(164, 186).
edge(77, 93).
edge(82, 163).
edge(2, 70).
edge(4, 120).
edge(58, 148).
edge(156, 211).
edge(173, 199).
edge(59, 145).
edge(112, 143).
edge(22, 198).
edge(14, 15).
edge(98, 213).
edge(97, 226).
edge(54, 73).
edge(89, 164).
edge(14, 128).
edge(5, 85).
edge(190, 232).
edge(0, 66).
edge(127, 140).
edge(117, 209).
edge(55, 58).
edge(103, 184).
edge(104, 222).
edge(149, 194).
edge(130, 183).
edge(91, 158).
edge(88, 99).
edge(107, 177).
edge(11, 242).
edge(76, 234).
edge(37, 153).
edge(121, 134).
edge(20, 151).
edge(15, 229).
edge(109, 239).
edge(51, 241).
edge(123, 225).
edge(63, 100).
edge(214, 229).
edge(56, 60).
edge(143, 152).
edge(2, 113).
edge(115, 231).
edge(7, 153).
edge(8, 77).
edge(91, 181).
edge(29, 43).
edge(19, 63).
edge(159, 182).
edge(43, 229).
edge(149, 161).
edge(146, 226).
edge(74, 143).
edge(44, 168).
edge(100, 122).
edge(142, 230).
edge(1, 22).
edge(98, 99).
edge(21, 69).
edge(14, 112).
edge(118, 133).
edge(46, 100).
edge(66, 210).
edge(64, 101).
edge(49, 202).
edge(39, 199).
edge(52, 70).
edge(192, 217).
edge(22, 226).
edge(59, 189).
edge(191, 229).
edge(10, 19).
edge(33, 142).
edge(177, 195).
edge(101, 199).
edge(42, 186).
edge(126, 173).
edge(58, 181).
edge(125, 159).
edge(141, 182).
edge(79, 203).
edge(179, 229).
edge(40, 147).
edge(50, 162).
edge(26, 100).
edge(81, 94).
edge(34, 166).
edge(87, 178).
edge(6, 120).
edge(51, 53).
edge(72, 179).
edge(94, 182).
edge(23, 184).
edge(45, 88).
edge(56, 143).
edge(18, 36).
edge(96, 216).
edge(22, 28).
edge(175, 225).
edge(150, 184).
edge(155, 238).
edge(21, 57).
edge(22, 135).
edge(153, 212).
edge(70, 188).
edge(99, 161).
edge(181, 193).
edge(64, 148).
edge(60, 76).
edge(145, 192).
edge(52, 169).
edge(103, 182).
edge(183, 212).
edge(5, 54).
edge(4, 72).
edge(77, 150).
edge(124, 172).
edge(219, 235).
edge(38, 217).
edge(158, 214).
edge(43, 113).
edge(114, 140).
edge(97, 153).
edge(36, 202).
edge(88, 108).
edge(57, 119).
edge(50, 191).
edge(35, 223).
edge(89, 112).
edge(14, 144).
edge(162, 195).
edge(5, 22).
edge(146, 205).
edge(114, 119).
edge(13, 211).
edge(15, 137).
edge(40, 209).
edge(139, 164).
edge(63, 117).
edge(41, 159).
edge(99, 107).
edge(9, 18).
edge(49, 134).
edge(87, 202).
edge(17, 56).
edge(158, 159).
edge(121, 199).
edge(139, 173).
edge(56, 120).
edge(166, 208).
edge(105, 192).
edge(66, 77).
edge(17, 129).
edge(153, 198).
edge(88, 237).
edge(79, 150).
edge(1, 58).
edge(5, 226).
edge(11, 29).
edge(40, 210).
edge(157, 225).
edge(124, 177).
edge(186, 195).
edge(82, 136).
edge(144, 185).
edge(17, 199).
edge(68, 156).
edge(102, 169).
edge(94, 227).
edge(33, 92).
edge(194, 214).
edge(31, 132).
edge(12, 178).
edge(118, 134).
edge(31, 192).
edge(145, 170).
edge(120, 241).
edge(170, 200).
edge(112, 123).
edge(35, 60).
edge(19, 199).
edge(185, 216).
edge(46, 82).
edge(35, 194).
edge(118, 130).
edge(69, 200).
edge(97, 167).
edge(156, 174).
edge(75, 181).
edge(56, 154).
edge(130, 173).
edge(82, 109).
edge(73, 199).
edge(113, 234).
edge(78, 194).
edge(22, 219).
edge(197, 211).
edge(94, 219).
edge(22, 117).
edge(142, 145).
edge(63, 172).
edge(9, 10).
edge(139, 231).
edge(70, 239).
edge(52, 233).
edge(8, 137).
edge(161, 187).
edge(159, 215).
edge(39, 171).
edge(81, 134).
edge(136, 173).
edge(108, 167).
edge(82, 137).
edge(122, 161).
edge(59, 149).
edge(120, 174).
edge(159, 171).
edge(111, 122).
edge(170, 204).
edge(11, 125).
edge(144, 198).
edge(56, 133).
edge(65, 105).
edge(7, 181).
edge(23, 39).
edge(144, 209).
edge(117, 205).
edge(80, 226).
edge(19, 91).
edge(137, 156).
edge(112, 121).
edge(35, 44).
edge(11, 131).
edge(215, 239).
edge(58, 212).
edge(147, 202).
edge(93, 200).
edge(188, 215).
edge(42, 151).
edge(21, 185).
edge(138, 153).
edge(22, 162).
edge(16, 20).
edge(44, 107).
edge(40, 157).
edge(115, 241).
edge(116, 198).
edge(62, 212).
edge(78, 242).
edge(76, 144).
edge(124, 230).
edge(10, 241).
edge(46, 190).
edge(82, 179).
edge(207, 211).
edge(47, 159).
edge(102, 219).
edge(70, 186).
edge(196, 199).
edge(177, 209).
edge(153, 160).
edge(141, 152).
edge(172, 201).
edge(114, 161).
edge(62, 181).
edge(55, 164).
edge(64, 223).
edge(43, 63).
edge(212, 234).
edge(73, 125).
edge(126, 146).
edge(42, 140).
edge(183, 225).
edge(225, 236).
edge(73, 205).
edge(148, 207).
edge(38, 95).
edge(38, 197).
edge(170, 239).
edge(4, 217).
edge(110, 196).
edge(8, 66).
edge(30, 210).
edge(118, 140).
edge(191, 224).
edge(229, 234).
edge(106, 208).
edge(159, 230).
edge(61, 170).
edge(78, 80).
edge(58, 64).
edge(123, 155).
edge(71, 181).
edge(151, 201).
edge(30, 67).
edge(13, 172).
edge(30, 54).
edge(190, 196).
edge(126, 242).
edge(30, 61).
edge(147, 204).
edge(83, 186).
edge(99, 124).
edge(45, 176).
edge(6, 90).
edge(36, 203).
edge(79, 133).
edge(40, 155).
edge(6, 199).
edge(131, 235).
edge(1, 18).
edge(40, 63).
edge(30, 76).
edge(5, 67).
edge(160, 209).
edge(163, 210).
edge(105, 242).
edge(44, 125).
edge(55, 149).
edge(200, 222).
edge(205, 212).
edge(37, 107).
edge(50, 161).
edge(130, 220).
edge(119, 231).
edge(95, 208).
edge(4, 216).
edge(162, 184).
edge(34, 223).
edge(111, 130).
edge(94, 145).
edge(105, 215).
edge(116, 175).
edge(33, 73).
edge(6, 67).
edge(33, 172).
edge(17, 180).
edge(132, 133).
edge(17, 57).
edge(34, 50).
edge(0, 173).
edge(93, 141).
edge(1, 14).
edge(54, 236).
edge(106, 136).
edge(14, 118).
edge(113, 122).
edge(9, 144).
edge(160, 213).
edge(78, 160).
edge(70, 75).
edge(227, 236).
edge(30, 46).
edge(94, 168).
edge(122, 130).
edge(18, 239).
edge(129, 203).
edge(17, 52).
edge(51, 84).
edge(130, 236).
edge(96, 229).
edge(57, 178).
edge(126, 194).
edge(4, 148).
edge(66, 187).
edge(138, 155).
edge(57, 181).
edge(33, 134).
edge(54, 169).
edge(35, 191).
edge(137, 153).
edge(37, 110).
edge(61, 128).
edge(36, 195).
edge(8, 39).
edge(150, 167).
edge(5, 207).
edge(176, 207).
edge(170, 190).
edge(112, 178).
edge(7, 11).
edge(51, 92).
edge(119, 173).
edge(71, 164).
edge(104, 196).
edge(122, 141).
edge(175, 240).
edge(11, 201).
edge(42, 100).
edge(17, 205).
edge(63, 157).
edge(122, 187).
edge(190, 226).
edge(75, 190).
edge(25, 122).
edge(98, 237).
edge(45, 147).
edge(115, 208).
edge(77, 122).
edge(37, 90).
edge(90, 185).
edge(148, 240).
edge(66, 95).
edge(126, 166).
edge(63, 65).
edge(33, 162).
edge(76, 196).
edge(18, 212).
edge(187, 216).
edge(51, 242).
edge(57, 152).
edge(102, 179).
edge(21, 111).
edge(146, 221).
edge(38, 110).
edge(92, 111).
edge(195, 242).
edge(41, 223).
edge(96, 239).
edge(134, 182).
edge(31, 185).
edge(234, 241).
edge(122, 211).
edge(67, 71).
edge(47, 205).
edge(76, 218).
edge(4, 20).
edge(13, 229).
edge(10, 47).
edge(97, 121).
edge(65, 81).
edge(125, 221).
edge(134, 188).
edge(184, 214).
edge(207, 208).
edge(25, 179).
edge(88, 164).
edge(31, 33).
edge(6, 122).
edge(37, 148).
edge(133, 185).
edge(100, 166).
edge(46, 108).
edge(12, 210).
edge(119, 202).
edge(122, 180).
edge(14, 22).
edge(66, 171).
edge(150, 169).
edge(44, 123).
edge(125, 194).
edge(54, 220).
edge(7, 47).
edge(129, 188).
edge(68, 91).
edge(138, 209).
edge(20, 72).
edge(161, 163).
edge(117, 151).
edge(14, 43).
edge(56, 114).
edge(46, 118).
edge(107, 146).
edge(222, 227).
edge(89, 204).
edge(20, 77).
edge(68, 129).
edge(26, 231).
edge(143, 185).
edge(51, 206).
edge(112, 166).
edge(52, 136).
edge(36, 111).
edge(1, 69).
edge(9, 107).
edge(7, 164).
edge(173, 225).
edge(44, 109).
edge(112, 141).
edge(200, 203).
edge(36, 102).
edge(59, 187).
edge(50, 133).
edge(62, 119).
edge(2, 10).
edge(35, 148).
edge(83, 92).
edge(103, 201).
edge(49, 133).
edge(23, 27).
edge(11, 98).
edge(89, 116).
edge(8, 133).
edge(8, 114).
edge(68, 181).
edge(38, 150).
edge(82, 170).
edge(144, 214).
edge(3, 12).
edge(66, 97).
edge(15, 133).
edge(18, 142).
edge(96, 170).
edge(67, 140).
edge(114, 134).
edge(111, 220).
edge(35, 230).
edge(99, 176).
edge(119, 156).
edge(141, 236).
edge(97, 196).
edge(72, 95).
edge(10, 216).
edge(59, 148).
edge(9, 112).
edge(11, 137).
edge(34, 107).
edge(18, 193).
edge(60, 197).
edge(51, 73).
edge(44, 165).
edge(95, 157).
edge(84, 125).
edge(20, 158).
edge(51, 85).
edge(55, 171).
edge(93, 196).
edge(131, 229).
edge(10, 224).
edge(115, 162).
edge(96, 242).
edge(78, 206).
edge(137, 161).
edge(125, 237).
edge(82, 204).
edge(106, 153).
edge(69, 126).
edge(20, 118).
edge(24, 153).
edge(18, 229).
edge(17, 207).
edge(187, 235).
edge(99, 186).
edge(75, 124).
edge(76, 192).
edge(97, 223).
edge(124, 147).
edge(81, 223).
edge(39, 216).
edge(59, 100).
edge(127, 217).
edge(113, 213).
edge(18, 186).
edge(149, 210).
edge(77, 111).
edge(29, 148).
edge(75, 95).
edge(116, 127).
edge(64, 173).
edge(33, 55).
edge(68, 165).
edge(44, 208).
edge(63, 141).
edge(37, 195).
edge(57, 124).
edge(71, 143).
edge(1, 155).
edge(25, 223).
edge(130, 214).
edge(85, 227).
edge(108, 212).
edge(93, 187).
edge(38, 144).
edge(32, 218).
edge(64, 87).
edge(69, 94).
edge(17, 136).
edge(66, 163).
edge(97, 210).
edge(119, 216).
edge(70, 102).
edge(2, 191).
edge(103, 185).
edge(57, 74).
edge(107, 123).
edge(29, 158).
edge(31, 40).
edge(2, 120).
edge(59, 233).
edge(64, 68).
edge(4, 153).
edge(92, 215).
edge(18, 170).
edge(118, 200).
edge(38, 62).
edge(148, 232).
edge(27, 125).
edge(145, 147).
edge(12, 14).
edge(96, 147).
edge(55, 180).
edge(7, 152).
edge(25, 56).
edge(20, 98).
edge(178, 193).
edge(0, 65).
edge(16, 85).
edge(145, 167).
edge(147, 195).
edge(135, 194).
edge(61, 115).
edge(41, 151).
edge(141, 233).
edge(229, 241).
edge(4, 187).
edge(95, 115).
edge(17, 209).
edge(90, 96).
edge(173, 197).
edge(79, 220).
edge(123, 195).
edge(0, 63).
edge(146, 149).
edge(46, 132).
edge(106, 138).
edge(180, 202).
edge(69, 175).
edge(152, 223).
edge(21, 149).
edge(209, 215).
edge(158, 230).
edge(31, 228).
edge(104, 230).
edge(22, 192).
edge(36, 179).
edge(12, 58).
edge(63, 93).
edge(36, 236).
edge(111, 158).
edge(20, 150).
edge(54, 242).
edge(211, 230).
edge(34, 68).
edge(77, 208).
edge(146, 173).
edge(7, 166).
edge(34, 49).
edge(71, 196).
edge(90, 207).
edge(66, 74).
edge(5, 103).
edge(29, 199).
edge(27, 114).
edge(29, 50).
edge(34, 231).
edge(184, 227).
edge(114, 236).
edge(96, 176).
edge(4, 84).
edge(65, 165).
edge(40, 199).
edge(169, 195).
edge(149, 226).
edge(18, 205).
edge(126, 151).
edge(106, 205).
edge(60, 177).
edge(70, 153).
edge(57, 182).
edge(30, 188).
edge(60, 241).
edge(40, 80).
edge(143, 189).
edge(89, 98).
edge(46, 223).
edge(180, 236).
edge(37, 223).
edge(46, 226).
edge(134, 139).
edge(50, 65).
edge(44, 53).
edge(101, 225).
edge(146, 231).
edge(228, 241).
edge(153, 163).
edge(5, 191).
edge(9, 156).
edge(11, 225).
edge(86, 229).
edge(49, 132).
edge(16, 181).
edge(12, 24).
edge(75, 91).
edge(83, 237).
edge(109, 151).
edge(79, 134).
edge(11, 181).
edge(199, 236).
edge(89, 221).
edge(34, 134).
edge(7, 99).
edge(138, 207).
edge(168, 179).
edge(70, 104).
edge(99, 223).
edge(123, 144).
edge(104, 134).
edge(60, 83).
edge(43, 115).
edge(52, 157).
edge(69, 146).
edge(6, 219).
edge(153, 235).
edge(54, 94).
edge(175, 189).
edge(17, 215).
edge(57, 81).
edge(39, 91).
edge(31, 102).
edge(79, 227).
edge(184, 212).
edge(45, 89).
edge(155, 234).
edge(63, 200).
edge(26, 94).
edge(112, 218).
edge(202, 226).
edge(28, 227).
edge(34, 63).
edge(182, 209).
edge(107, 130).
edge(28, 172).
edge(60, 147).
edge(3, 77).
edge(51, 69).
edge(58, 149).
edge(15, 18).
edge(98, 118).
edge(227, 240).
edge(149, 232).
edge(23, 198).
edge(14, 121).
edge(117, 189).
edge(67, 154).
edge(80, 110).
edge(7, 123).
edge(86, 155).
edge(8, 60).
edge(55, 231).
edge(176, 192).
edge(191, 220).
edge(104, 120).
edge(161, 175).
edge(2, 48).
edge(145, 179).
edge(3, 140).
edge(142, 185).
edge(159, 203).
edge(81, 191).
edge(122, 199).
edge(88, 109).
edge(65, 192).
edge(90, 142).
edge(20, 92).
edge(34, 152).
edge(108, 211).
edge(50, 117).
edge(20, 29).
edge(118, 174).
edge(184, 238).
edge(22, 71).
edge(11, 108).
edge(74, 232).
edge(173, 219).
edge(25, 217).
edge(6, 86).
edge(129, 144).
edge(68, 138).
edge(89, 105).
edge(20, 172).
edge(4, 88).
edge(3, 127).
edge(110, 237).
edge(44, 229).
edge(182, 215).
edge(131, 226).
edge(40, 235).
edge(166, 227).
edge(64, 194).
edge(181, 197).
edge(53, 199).
edge(98, 112).
edge(59, 224).
edge(115, 163).
edge(146, 175).
edge(50, 186).
edge(63, 113).
edge(77, 178).
edge(21, 191).
edge(96, 235).
edge(23, 36).
edge(0, 171).
edge(158, 188).
edge(120, 187).
edge(111, 204).
edge(14, 34).
edge(37, 126).
edge(45, 213).
edge(127, 218).
edge(134, 190).
edge(22, 31).
edge(140, 240).
edge(109, 240).
edge(214, 215).
edge(117, 131).
edge(148, 226).
edge(18, 223).
edge(29, 180).
edge(4, 237).
edge(21, 161).
edge(52, 84).
edge(96, 187).
edge(46, 161).
edge(57, 238).
edge(81, 194).
edge(140, 218).
edge(106, 238).
edge(59, 157).
edge(17, 167).
edge(58, 86).
edge(130, 138).
edge(112, 133).
edge(64, 150).
edge(58, 233).
edge(64, 146).
edge(181, 189).
edge(115, 150).
edge(63, 196).
edge(99, 136).
edge(178, 232).
edge(158, 237).
edge(79, 212).
edge(31, 188).
edge(182, 185).
edge(35, 46).
edge(119, 162).
edge(107, 198).
edge(15, 79).
edge(28, 238).
edge(129, 176).
edge(12, 19).
edge(84, 174).
edge(33, 132).
edge(128, 144).
edge(32, 49).
edge(72, 128).
edge(155, 200).
edge(42, 88).
edge(30, 49).
edge(138, 198).
edge(24, 221).
edge(63, 127).
edge(67, 79).
edge(112, 240).
edge(87, 92).
edge(30, 156).
edge(89, 198).
edge(100, 126).
edge(43, 239).
edge(61, 190).
edge(59, 186).
edge(8, 70).
edge(144, 204).
edge(129, 234).
edge(82, 108).
edge(29, 222).
edge(147, 241).
edge(103, 161).
edge(171, 233).
edge(94, 231).
edge(13, 39).
edge(92, 123).
edge(22, 62).
edge(95, 155).
edge(4, 181).
edge(44, 55).
edge(96, 139).
edge(4, 146).
edge(105, 126).
edge(40, 124).
edge(66, 225).
edge(132, 225).
edge(95, 167).
edge(128, 197).
edge(1, 25).
edge(170, 185).
edge(47, 75).
edge(76, 140).
edge(39, 190).
edge(39, 208).
edge(41, 241).
edge(60, 187).
edge(4, 212).
edge(33, 96).
edge(26, 48).
edge(142, 169).
edge(75, 216).
edge(45, 237).
edge(13, 217).
edge(2, 43).
edge(114, 148).
edge(11, 75).
edge(42, 170).
edge(66, 166).
edge(138, 177).
edge(51, 188).
edge(92, 134).
edge(6, 167).
edge(41, 206).
edge(48, 197).
edge(107, 195).
edge(123, 208).
edge(96, 228).
edge(103, 124).
edge(10, 230).
edge(95, 110).
edge(0, 172).
edge(28, 108).
edge(13, 21).
edge(40, 112).
edge(206, 238).
edge(26, 29).
edge(19, 106).
edge(25, 49).
edge(79, 187).
edge(61, 135).
edge(26, 135).
edge(58, 201).
edge(86, 193).
edge(20, 242).
edge(139, 186).
edge(75, 200).
edge(13, 166).
edge(16, 42).
edge(42, 101).
edge(30, 77).
edge(182, 235).
edge(19, 171).
edge(10, 95).
edge(180, 211).
edge(83, 143).
edge(38, 80).
edge(115, 169).
edge(141, 173).
edge(108, 184).
edge(149, 200).
edge(56, 171).
edge(56, 231).
edge(134, 167).
edge(74, 104).
edge(41, 46).
edge(45, 236).
edge(203, 226).
edge(215, 231).
edge(129, 147).
edge(38, 103).
edge(202, 238).
edge(60, 71).
edge(72, 143).
edge(5, 92).
edge(16, 228).
edge(39, 193).
edge(4, 34).
edge(63, 222).
edge(5, 125).
edge(107, 129).
edge(64, 231).
edge(134, 198).
edge(46, 182).
edge(43, 185).
edge(73, 180).
edge(176, 200).
edge(22, 38).
edge(23, 75).
edge(101, 189).
edge(125, 157).
edge(91, 190).
edge(32, 210).
edge(165, 194).
edge(128, 218).
edge(149, 216).
edge(43, 80).
edge(117, 163).
edge(31, 78).
edge(137, 193).
edge(42, 105).
edge(8, 154).
edge(58, 115).
edge(2, 53).
edge(123, 149).
edge(115, 126).
edge(97, 205).
edge(16, 18).
edge(22, 44).
edge(20, 53).
edge(27, 239).
edge(108, 241).
edge(116, 196).
edge(100, 197).
edge(45, 135).
edge(120, 178).
edge(50, 156).
edge(101, 129).
edge(207, 234).
edge(126, 170).
edge(111, 210).
edge(177, 178).
edge(34, 234).
edge(52, 240).
edge(61, 215).
edge(130, 163).
edge(9, 223).
edge(32, 200).
edge(154, 198).
edge(93, 110).
edge(90, 157).
edge(54, 150).
edge(97, 155).
edge(93, 220).
edge(3, 218).
edge(45, 170).
edge(62, 230).
edge(2, 226).
edge(112, 156).
edge(83, 156).
edge(12, 141).
edge(102, 224).
edge(207, 242).
edge(180, 215).
edge(104, 200).
edge(85, 241).
edge(48, 62).
edge(131, 236).
edge(125, 181).
edge(110, 224).
edge(9, 197).
edge(26, 87).
edge(132, 145).
edge(51, 187).
edge(1, 91).
edge(26, 112).
edge(14, 237).
edge(75, 235).
edge(20, 38).
edge(205, 238).
edge(11, 80).
edge(56, 128).
edge(113, 117).
edge(151, 196).
edge(192, 197).
edge(120, 209).
edge(32, 35).
edge(24, 116).
edge(89, 175).
edge(61, 213).
edge(31, 191).
edge(75, 149).
edge(12, 125).
edge(43, 179).
edge(18, 25).
edge(103, 208).
edge(96, 150).
edge(99, 155).
edge(184, 204).
edge(14, 61).
edge(69, 202).
edge(43, 82).
edge(62, 125).
edge(54, 203).
edge(84, 85).
edge(45, 140).
edge(127, 154).
edge(121, 169).
edge(64, 95).
edge(88, 215).
edge(202, 206).
edge(117, 207).
edge(11, 46).
edge(145, 162).
edge(36, 219).
edge(31, 47).
edge(207, 210).
edge(37, 135).
edge(93, 233).
edge(51, 86).
edge(109, 194).
edge(117, 220).
edge(58, 76).
edge(118, 123).
edge(128, 212).
edge(113, 204).
edge(147, 223).
edge(44, 223).
edge(20, 50).
edge(152, 212).
edge(60, 96).
edge(103, 236).
edge(17, 140).
edge(76, 113).
edge(109, 179).
edge(26, 240).
edge(155, 168).
edge(73, 185).
edge(42, 55).
edge(79, 129).
edge(86, 168).
edge(128, 186).
edge(177, 211).
edge(96, 153).
edge(123, 166).
edge(124, 212).
edge(100, 109).
edge(64, 106).
edge(34, 168).
edge(52, 129).
edge(66, 220).
edge(98, 241).
edge(87, 231).
edge(151, 152).
edge(16, 34).
edge(120, 180).
edge(87, 137).
edge(100, 113).
edge(37, 165).
edge(86, 157).
edge(93, 236).
edge(32, 104).
edge(55, 140).
edge(112, 206).
edge(30, 117).
edge(115, 235).
edge(113, 185).
edge(121, 130).
edge(228, 234).
edge(129, 154).
edge(130, 176).
edge(37, 182).
edge(100, 190).
edge(26, 212).
edge(78, 233).
edge(7, 41).
edge(80, 235).
edge(17, 196).
edge(38, 92).
edge(142, 179).
edge(179, 227).
edge(160, 221).
edge(122, 174).
edge(38, 78).
edge(60, 179).
edge(8, 227).
edge(51, 98).
edge(87, 173).
edge(156, 238).
edge(156, 240).
edge(4, 132).
edge(67, 220).
edge(128, 158).
edge(212, 239).
edge(21, 76).
edge(221, 242).
edge(23, 127).
edge(47, 206).
edge(178, 192).
edge(115, 157).
edge(215, 236).
edge(90, 115).
edge(15, 130).
edge(83, 225).
edge(92, 137).
edge(32, 56).
edge(149, 183).
edge(69, 198).
edge(16, 105).
edge(178, 216).
edge(64, 203).
edge(99, 134).
edge(17, 34).
edge(207, 221).
edge(138, 213).
edge(75, 128).
edge(231, 240).
edge(60, 80).
edge(170, 181).
edge(83, 133).
edge(184, 236).
edge(15, 22).
edge(6, 114).
edge(129, 241).
edge(192, 220).
edge(44, 134).
edge(19, 209).
edge(96, 241).
edge(11, 62).
edge(45, 121).
edge(31, 196).
edge(101, 185).
edge(38, 116).
edge(100, 210).
edge(78, 216).
edge(71, 159).
edge(139, 191).
edge(162, 228).
edge(170, 234).
edge(155, 184).
edge(188, 233).
edge(43, 195).
edge(20, 236).
edge(121, 208).
edge(29, 46).
edge(56, 65).
edge(69, 229).
edge(63, 126).
edge(159, 209).
edge(31, 54).
edge(27, 159).
edge(174, 202).
edge(152, 209).
edge(9, 66).
edge(41, 205).
edge(105, 241).
edge(97, 141).
edge(111, 121).
edge(22, 201).
edge(97, 185).
edge(35, 102).
edge(21, 109).
edge(6, 212).
edge(77, 141).
edge(20, 40).
edge(102, 183).
edge(135, 210).
edge(29, 229).
edge(40, 123).
edge(86, 115).
edge(118, 185).
edge(128, 226).
edge(19, 121).
edge(36, 155).
edge(142, 235).
edge(50, 66).
edge(34, 124).
edge(2, 50).
edge(103, 207).
edge(76, 152).
edge(0, 120).
edge(9, 42).
edge(23, 70).
edge(10, 42).
edge(24, 97).
edge(55, 206).
edge(90, 198).
edge(87, 145).
edge(189, 241).
edge(95, 226).
edge(86, 99).
edge(56, 215).
edge(31, 52).
edge(50, 98).
edge(66, 114).
edge(34, 200).
edge(73, 156).
edge(95, 106).
edge(37, 201).
edge(167, 183).
edge(26, 141).
edge(90, 123).
edge(75, 172).
edge(57, 61).
edge(46, 107).
edge(22, 221).
edge(175, 192).
edge(161, 232).
edge(182, 201).
edge(81, 108).
edge(95, 195).
edge(112, 221).
edge(113, 236).
edge(44, 122).
edge(102, 123).
edge(118, 224).
edge(50, 81).
edge(22, 88).
edge(64, 154).
edge(100, 111).
edge(30, 204).
edge(127, 137).
edge(46, 111).
edge(6, 147).
edge(69, 114).
edge(38, 222).
edge(36, 86).
edge(1, 195).
edge(123, 143).
edge(186, 225).
edge(7, 169).
edge(125, 222).
edge(24, 112).
edge(5, 70).
edge(49, 214).
edge(93, 100).
edge(92, 216).
edge(40, 81).
edge(25, 227).
edge(171, 194).
edge(90, 120).
edge(47, 100).
edge(32, 223).
edge(128, 174).
edge(0, 175).
edge(91, 111).
edge(191, 217).
edge(141, 153).
edge(1, 75).
edge(149, 221).
edge(80, 156).
edge(68, 219).
edge(62, 157).
edge(51, 233).
edge(28, 241).
edge(70, 88).
edge(92, 241).
edge(80, 181).
edge(85, 103).
edge(52, 215).
edge(92, 238).
edge(87, 146).
edge(108, 135).
edge(215, 222).
edge(8, 119).
edge(63, 159).
edge(78, 238).
edge(5, 149).
edge(156, 177).
edge(121, 214).
edge(54, 63).
edge(91, 125).
edge(110, 211).
edge(188, 223).
edge(31, 212).
edge(45, 166).
edge(33, 44).
edge(3, 21).
edge(94, 114).
edge(44, 63).
edge(47, 227).
edge(78, 214).
edge(19, 90).
edge(5, 63).
edge(104, 113).
edge(94, 138).
edge(35, 151).
edge(47, 117).
edge(41, 59).
edge(3, 119).
edge(38, 181).
edge(72, 177).
edge(74, 136).
edge(61, 195).
edge(198, 227).
edge(14, 189).
edge(200, 238).
edge(23, 236).
edge(168, 192).
edge(154, 224).
edge(60, 89).
edge(110, 141).
edge(175, 215).
edge(177, 223).
edge(57, 227).
edge(49, 240).
edge(161, 204).
edge(28, 110).
edge(98, 136).
edge(39, 189).
edge(109, 146).
edge(167, 198).
edge(79, 165).
edge(77, 187).
edge(41, 167).
edge(163, 187).
edge(89, 172).
edge(157, 205).
edge(46, 164).
edge(172, 173).
edge(35, 74).
edge(158, 224).
edge(65, 138).
edge(5, 167).
edge(173, 215).
edge(7, 28).
edge(10, 122).
edge(196, 209).
edge(77, 81).
edge(93, 192).
edge(108, 115).
edge(15, 74).
edge(166, 221).
edge(66, 112).
edge(80, 215).
edge(20, 42).
edge(114, 178).
edge(60, 84).
edge(29, 216).
edge(157, 214).
edge(23, 118).
edge(49, 125).
edge(94, 125).
edge(48, 65).
edge(54, 186).
edge(7, 183).
edge(20, 198).
edge(36, 131).
edge(52, 116).
edge(59, 216).
edge(108, 242).
edge(37, 179).
edge(65, 232).
edge(0, 123).
edge(59, 130).
edge(75, 192).
edge(65, 128).
edge(155, 188).
edge(12, 107).
edge(78, 173).
edge(14, 36).
edge(132, 177).
edge(39, 81).
edge(68, 173).
edge(120, 126).
edge(154, 174).
edge(183, 187).
edge(64, 178).
edge(114, 221).
edge(126, 142).
edge(177, 206).
edge(24, 48).
edge(3, 25).
edge(47, 211).
edge(99, 113).
edge(67, 131).
edge(125, 162).
edge(115, 230).
edge(41, 44).
edge(24, 79).
edge(76, 160).
edge(37, 172).
edge(53, 79).
edge(68, 169).
edge(0, 142).
edge(0, 74).
edge(110, 184).
edge(71, 133).
edge(11, 162).
edge(47, 49).
edge(78, 225).
edge(47, 134).
edge(132, 232).
edge(29, 80).
edge(23, 154).
edge(0, 159).
edge(20, 163).
edge(22, 199).
edge(86, 126).
edge(72, 138).
edge(71, 222).
edge(52, 138).
edge(78, 171).
edge(53, 219).
edge(76, 110).
edge(40, 46).
edge(92, 139).
edge(75, 142).
edge(71, 145).
edge(1, 56).
edge(172, 194).
edge(178, 238).
edge(110, 209).
edge(5, 28).
edge(37, 236).
edge(25, 218).
edge(3, 83).
edge(17, 63).
edge(35, 50).
edge(100, 180).
edge(155, 236).
edge(97, 159).
edge(5, 44).
edge(18, 41).
edge(98, 173).
edge(95, 234).
edge(39, 231).
edge(145, 235).
edge(118, 163).
edge(123, 152).
edge(74, 160).
edge(187, 242).
edge(182, 203).
edge(184, 231).
edge(90, 240).
edge(50, 130).
edge(81, 234).
edge(103, 129).
edge(56, 64).
edge(97, 204).
edge(29, 51).
edge(93, 202).
edge(132, 182).
edge(95, 228).
edge(51, 180).
edge(66, 125).
edge(81, 221).
edge(21, 120).
edge(11, 50).
edge(2, 207).
edge(15, 188).
edge(61, 106).
edge(43, 215).
edge(13, 230).
edge(55, 230).
edge(39, 239).
edge(120, 196).
edge(55, 184).
edge(96, 127).
edge(17, 96).
edge(118, 216).
edge(192, 203).
edge(116, 180).
edge(185, 209).
edge(74, 97).
edge(109, 220).
edge(166, 199).
edge(90, 175).
edge(14, 183).
edge(122, 133).
edge(89, 207).
edge(81, 224).
edge(119, 181).
edge(14, 98).
edge(208, 236).
edge(0, 198).
edge(76, 139).
edge(73, 84).
edge(216, 241).
edge(29, 115).
edge(73, 235).
edge(50, 160).
edge(136, 180).
edge(154, 186).
edge(21, 147).
edge(17, 22).
edge(49, 226).
edge(19, 164).
edge(41, 230).
edge(100, 191).
edge(50, 68).
edge(88, 151).
edge(151, 233).
edge(18, 112).
edge(4, 27).
edge(132, 209).
edge(149, 196).
edge(112, 120).
edge(142, 242).
edge(133, 135).
edge(103, 121).
edge(89, 126).
edge(46, 239).
edge(25, 232).
edge(11, 61).
edge(117, 191).
edge(30, 228).
edge(161, 167).
edge(97, 163).
edge(101, 208).
edge(89, 233).
edge(102, 197).
edge(22, 32).
edge(90, 178).
edge(24, 173).
edge(103, 191).
edge(106, 234).
edge(176, 239).
edge(128, 177).
edge(44, 69).
edge(27, 84).
edge(86, 189).
edge(0, 88).
edge(77, 223).
edge(154, 192).
edge(57, 171).
edge(96, 108).
edge(30, 50).
edge(0, 196).
edge(99, 146).
edge(5, 200).
edge(17, 218).
edge(28, 158).
edge(10, 20).
edge(83, 122).
edge(68, 126).
edge(2, 67).
edge(60, 183).
edge(92, 102).
edge(83, 147).
edge(26, 183).
edge(30, 118).
edge(85, 89).
edge(101, 118).
edge(106, 133).
edge(89, 160).
edge(2, 227).
edge(16, 103).
edge(66, 151).
edge(5, 73).
edge(68, 158).
edge(83, 163).
edge(93, 142).
edge(99, 214).
edge(47, 65).
edge(82, 240).
edge(80, 165).
edge(9, 138).
edge(79, 239).
edge(32, 65).
edge(169, 186).
edge(122, 186).
edge(89, 107).
edge(155, 156).
edge(182, 226).
edge(133, 220).
edge(180, 184).
edge(25, 185).
edge(142, 187).
edge(67, 102).
edge(107, 240).
edge(36, 52).
edge(39, 221).
edge(51, 81).
edge(22, 240).
edge(40, 136).
edge(91, 153).
edge(10, 215).
edge(128, 222).
edge(148, 215).
edge(18, 182).
edge(120, 202).
edge(111, 214).
edge(24, 171).
edge(94, 139).
edge(68, 133).
edge(157, 175).
edge(111, 227).
edge(8, 115).
edge(121, 167).
edge(165, 182).
edge(106, 174).
edge(239, 241).
edge(227, 233).
edge(40, 222).
edge(9, 26).
edge(10, 44).
edge(171, 201).
edge(165, 178).
edge(74, 126).
edge(52, 160).
edge(85, 205).
edge(103, 155).
edge(40, 191).
edge(65, 67).
edge(110, 158).
edge(99, 163).
edge(20, 84).
edge(52, 184).
edge(140, 213).
edge(14, 108).
edge(3, 134).
edge(48, 54).
edge(188, 196).
edge(114, 188).
edge(14, 18).
edge(204, 226).
edge(38, 149).
edge(140, 190).
edge(94, 179).
edge(15, 173).
edge(172, 239).
edge(142, 207).
edge(38, 219).
edge(150, 164).
edge(136, 215).
edge(71, 161).
edge(113, 184).
edge(3, 126).
edge(56, 217).
edge(202, 227).
edge(11, 230).
edge(123, 219).
edge(9, 142).
edge(76, 169).
edge(101, 200).
edge(17, 186).
edge(69, 92).
edge(176, 221).
edge(18, 192).
edge(1, 107).
edge(98, 110).
edge(84, 113).
edge(41, 220).
edge(152, 199).
edge(55, 185).
edge(164, 225).
edge(10, 206).
edge(17, 37).
edge(44, 158).
edge(137, 188).
edge(36, 43).
edge(19, 136).
edge(88, 155).
edge(154, 208).
edge(129, 213).
edge(48, 60).
edge(150, 157).
edge(8, 95).
edge(70, 115).
edge(117, 210).
edge(90, 116).
edge(112, 204).
edge(94, 124).
edge(18, 76).
edge(25, 203).
edge(95, 139).
edge(200, 240).
edge(122, 238).
edge(71, 122).
edge(47, 177).
edge(34, 118).
edge(112, 226).
edge(6, 24).
edge(32, 113).
edge(60, 192).
edge(150, 160).
edge(68, 104).
edge(33, 42).
edge(14, 173).
edge(142, 177).
edge(85, 233).
edge(151, 216).
edge(173, 180).
edge(10, 63).
edge(4, 25).
edge(14, 143).
edge(110, 234).
edge(36, 223).
edge(29, 90).
edge(209, 237).
edge(181, 192).
edge(12, 110).
edge(115, 160).
edge(111, 161).
edge(75, 205).
edge(110, 163).
edge(19, 224).
edge(121, 122).
edge(9, 150).
edge(145, 178).
edge(14, 70).
edge(40, 216).
edge(103, 227).
edge(10, 75).
edge(101, 224).
edge(52, 113).
edge(157, 221).
edge(12, 77).
edge(164, 198).
edge(82, 98).
edge(112, 212).
edge(34, 102).
edge(26, 91).
edge(65, 222).
edge(109, 186).
edge(40, 230).
edge(23, 68).
edge(47, 89).
edge(206, 237).
edge(46, 50).
edge(69, 225).
edge(13, 188).
edge(145, 164).
edge(18, 206).
edge(41, 164).
edge(25, 99).
edge(108, 141).
edge(57, 149).
edge(60, 209).
edge(32, 45).
edge(101, 110).
edge(45, 61).
edge(25, 149).
edge(160, 222).
edge(184, 242).
edge(137, 209).
edge(145, 213).
edge(34, 40).
edge(46, 73).
edge(4, 54).
edge(25, 136).
edge(78, 108).
edge(163, 213).
edge(128, 159).
edge(72, 203).
edge(115, 147).
edge(170, 227).
edge(84, 122).
edge(94, 212).
edge(49, 54).
edge(150, 182).
edge(48, 117).
edge(43, 108).
edge(101, 135).
edge(65, 92).
edge(43, 132).
edge(214, 220).
edge(192, 240).
edge(104, 129).
edge(174, 197).
edge(152, 214).
edge(57, 95).
edge(144, 153).
edge(26, 213).
edge(11, 67).
edge(13, 54).
edge(1, 201).
edge(45, 98).
edge(121, 155).
edge(12, 78).
edge(35, 142).
edge(219, 229).
edge(156, 178).
edge(79, 98).
edge(38, 71).
edge(21, 32).
edge(22, 96).
edge(159, 199).
edge(97, 116).
edge(225, 240).
edge(54, 179).
edge(122, 188).
edge(55, 207).
edge(8, 103).
edge(57, 236).
edge(197, 203).
edge(42, 71).
edge(80, 175).
edge(181, 214).
edge(51, 212).
edge(151, 222).
edge(6, 226).
edge(23, 237).
edge(79, 185).
edge(62, 205).
edge(72, 239).
edge(0, 60).
edge(77, 241).
edge(124, 141).
edge(7, 172).
edge(164, 188).
edge(140, 189).
edge(68, 145).
edge(24, 124).
edge(17, 29).
edge(162, 178).
edge(140, 217).
edge(6, 9).
edge(12, 97).
edge(42, 225).
edge(58, 144).
edge(87, 236).
edge(73, 129).
edge(32, 90).
edge(56, 99).
edge(92, 217).
edge(57, 198).
edge(80, 81).
edge(84, 99).
edge(8, 153).
edge(1, 172).
edge(52, 178).
edge(50, 189).
edge(92, 128).
edge(26, 155).
edge(63, 208).
edge(13, 132).
edge(189, 190).
edge(163, 198).
edge(194, 215).
edge(96, 183).
edge(200, 225).
edge(19, 38).
edge(55, 84).
edge(59, 139).
edge(98, 230).
edge(209, 225).
edge(41, 118).
edge(195, 207).
edge(15, 134).
edge(4, 208).
edge(61, 235).
edge(106, 124).
edge(116, 152).
edge(70, 149).
edge(21, 183).
edge(178, 196).
edge(26, 90).
edge(16, 114).
edge(154, 180).
edge(180, 208).
edge(35, 238).
edge(39, 43).
edge(73, 168).
edge(20, 93).
edge(37, 89).
edge(43, 89).
edge(28, 127).
edge(166, 203).
edge(23, 114).
edge(114, 219).
edge(29, 37).
edge(143, 236).
edge(14, 85).
edge(103, 105).
edge(201, 220).
edge(46, 180).
edge(94, 140).
edge(195, 234).
edge(92, 183).
edge(180, 198).
edge(130, 223).
edge(77, 144).
edge(27, 120).
edge(125, 235).
edge(123, 205).
edge(10, 72).
edge(127, 141).
edge(202, 212).
edge(41, 231).
edge(183, 217).
edge(31, 181).
edge(123, 176).
edge(135, 213).
edge(145, 158).
edge(91, 197).
edge(107, 234).
edge(81, 198).
edge(97, 129).
edge(117, 121).
edge(45, 129).
edge(15, 235).
edge(65, 172).
edge(36, 235).
edge(107, 173).
edge(115, 180).
edge(37, 112).
edge(96, 144).
edge(10, 96).
edge(72, 153).
edge(117, 218).
edge(68, 190).
edge(1, 99).
edge(186, 192).
edge(138, 205).
edge(82, 145).
edge(17, 156).
edge(4, 97).
edge(2, 177).
edge(58, 113).
edge(127, 240).
edge(141, 190).
edge(101, 172).
edge(16, 80).
edge(186, 242).
edge(50, 164).
edge(140, 160).
edge(114, 210).
edge(84, 227).
edge(28, 116).
edge(189, 196).
edge(51, 182).
edge(160, 202).
edge(39, 148).
edge(123, 192).
edge(133, 202).
edge(75, 194).
edge(161, 191).
edge(26, 235).
edge(74, 171).
edge(216, 234).
edge(123, 159).
edge(8, 219).
edge(68, 147).
edge(147, 194).
edge(97, 173).
edge(16, 131).
edge(151, 226).
edge(11, 221).
edge(30, 107).
edge(89, 181).
edge(176, 233).
edge(171, 186).
edge(75, 153).
edge(60, 137).
edge(153, 219).
edge(22, 60).
edge(35, 57).
edge(21, 85).
edge(83, 161).
edge(139, 209).
edge(80, 189).
edge(190, 212).
edge(37, 96).
edge(52, 149).
edge(98, 190).
edge(59, 83).
edge(171, 175).
edge(39, 51).
edge(166, 229).
edge(54, 161).
edge(7, 25).
edge(3, 114).
edge(29, 60).
edge(96, 221).
edge(59, 207).
edge(105, 169).
edge(198, 210).
edge(67, 106).
edge(101, 170).
edge(3, 223).
edge(8, 72).
edge(10, 196).
edge(83, 176).
edge(83, 118).
edge(181, 226).
edge(123, 138).
edge(17, 95).
edge(182, 220).
edge(201, 209).
edge(221, 238).
edge(170, 225).
edge(187, 205).
edge(54, 234).
edge(44, 146).
edge(4, 118).
edge(65, 233).
edge(154, 164).
edge(108, 234).
edge(147, 164).
edge(121, 133).
edge(68, 141).
edge(54, 174).
edge(131, 139).
edge(64, 168).
edge(77, 142).
edge(63, 238).
edge(107, 182).
edge(95, 165).
edge(61, 69).
edge(27, 147).
edge(180, 201).
edge(51, 96).
edge(26, 129).
edge(46, 173).
edge(39, 99).
edge(110, 133).
edge(72, 77).
edge(80, 203).
edge(19, 82).
edge(162, 174).
edge(0, 115).
edge(54, 226).
edge(64, 115).
edge(16, 142).
edge(126, 234).
edge(97, 135).
edge(38, 142).
edge(15, 112).
edge(50, 142).
edge(201, 223).
edge(6, 152).
edge(49, 89).
edge(192, 230).
edge(100, 115).
edge(186, 223).
edge(142, 220).
edge(56, 214).
edge(108, 236).
edge(164, 209).
edge(99, 174).
edge(140, 238).
edge(154, 181).
edge(77, 213).
edge(19, 133).
edge(187, 225).
edge(21, 202).
edge(73, 122).
edge(113, 195).
edge(14, 138).
edge(218, 230).
edge(74, 204).
edge(176, 222).
edge(45, 182).
edge(96, 203).
edge(108, 225).
edge(105, 219).
edge(12, 75).
edge(125, 231).
edge(19, 80).
edge(80, 236).
edge(49, 79).
edge(108, 235).
edge(60, 188).
edge(110, 205).
edge(123, 229).
edge(97, 126).
edge(173, 211).
edge(11, 155).
edge(77, 181).
edge(114, 223).
edge(46, 75).
edge(98, 214).
edge(31, 123).
edge(226, 236).
edge(5, 118).
edge(74, 156).
edge(67, 116).
edge(84, 86).
edge(147, 222).
edge(84, 150).
edge(101, 169).
edge(50, 138).
edge(128, 149).
edge(9, 88).
edge(33, 143).
edge(34, 61).
edge(111, 186).
edge(82, 158).
edge(11, 38).
edge(37, 164).
edge(37, 219).
edge(30, 192).
edge(24, 119).
edge(13, 126).
edge(170, 224).
edge(44, 67).
edge(121, 148).
edge(171, 214).
edge(95, 151).
edge(48, 49).
edge(26, 80).
edge(131, 242).
edge(102, 166).
edge(165, 215).
edge(26, 49).
edge(40, 197).
edge(138, 239).
edge(5, 120).
edge(83, 192).
edge(19, 140).
edge(2, 114).
edge(40, 144).
edge(82, 214).
edge(55, 204).
edge(88, 96).
edge(130, 148).
edge(134, 241).
edge(99, 148).
edge(23, 207).
edge(13, 46).
edge(57, 133).
edge(63, 151).
edge(26, 170).
edge(22, 181).
edge(66, 193).
edge(19, 27).
edge(61, 162).
edge(147, 162).
edge(187, 232).
edge(6, 50).
edge(120, 130).
edge(73, 184).
edge(141, 218).
edge(17, 33).
edge(12, 203).
edge(19, 61).
edge(194, 203).
edge(58, 183).
edge(101, 156).
edge(38, 100).
edge(120, 211).
edge(23, 189).
edge(75, 157).
edge(35, 68).
edge(112, 148).
edge(21, 173).
edge(102, 192).
edge(98, 216).
edge(51, 191).
edge(143, 211).
edge(79, 242).
edge(102, 199).
edge(37, 69).
edge(115, 146).
edge(14, 104).
edge(31, 222).
edge(79, 107).
edge(94, 144).
edge(1, 128).
edge(7, 50).
edge(69, 204).
edge(0, 190).
edge(122, 123).
edge(61, 89).
edge(183, 240).
edge(40, 94).
edge(96, 120).
edge(184, 211).
edge(77, 197).
edge(107, 183).
edge(5, 142).
edge(155, 240).
edge(89, 111).
edge(160, 240).
edge(207, 218).
edge(93, 99).
edge(111, 155).
edge(3, 107).
edge(41, 207).
edge(159, 234).
edge(62, 108).
edge(145, 150).
edge(48, 66).
edge(114, 170).
edge(0, 216).
edge(151, 221).
edge(62, 164).
edge(0, 4).
edge(1, 235).
edge(8, 51).
edge(221, 240).
edge(225, 228).
edge(32, 69).
edge(18, 230).
edge(12, 114).
edge(151, 154).
edge(125, 242).
edge(204, 216).
edge(0, 139).
edge(85, 155).
edge(80, 177).
edge(32, 179).
edge(170, 203).
edge(17, 219).
edge(91, 159).
edge(39, 181).
edge(14, 83).
edge(42, 220).
edge(11, 130).
edge(158, 217).
edge(13, 30).
edge(143, 157).
edge(110, 182).
edge(6, 125).
edge(131, 148).
edge(20, 22).
edge(79, 186).
edge(72, 182).
edge(145, 202).
edge(9, 170).
edge(105, 119).
edge(134, 151).
edge(46, 165).
edge(123, 175).
edge(107, 136).
edge(177, 189).
edge(67, 153).
edge(91, 126).
edge(161, 235).
edge(27, 30).
edge(82, 206).
edge(50, 225).
edge(162, 194).
edge(58, 145).
edge(39, 234).
edge(191, 201).
edge(97, 99).
edge(164, 181).
edge(203, 213).
edge(34, 74).
edge(3, 196).
edge(77, 206).
edge(44, 157).
edge(139, 166).
edge(50, 73).
edge(66, 128).
edge(15, 146).
edge(169, 239).
edge(133, 227).
edge(61, 127).
edge(19, 211).
edge(173, 220).
edge(96, 98).
edge(184, 228).
edge(139, 214).
edge(14, 167).
edge(4, 171).
edge(53, 96).
edge(79, 109).
edge(60, 109).
edge(72, 126).
edge(22, 69).
edge(42, 234).
edge(187, 218).
edge(19, 89).
edge(187, 200).
edge(206, 229).
edge(34, 142).
edge(0, 227).
edge(192, 198).
edge(15, 142).
edge(1, 100).
edge(98, 126).
edge(98, 171).
edge(8, 32).
edge(53, 168).
edge(98, 141).
edge(171, 206).
edge(9, 62).
edge(15, 82).
edge(28, 205).
edge(32, 140).
edge(171, 205).
edge(18, 104).
edge(52, 101).
edge(147, 167).
edge(105, 216).
edge(156, 160).
edge(26, 53).
edge(90, 159).
edge(60, 119).
edge(157, 207).
edge(173, 194).
edge(125, 152).
edge(11, 142).
edge(140, 147).
edge(142, 148).
edge(137, 160).
edge(128, 168).
edge(18, 53).
edge(11, 111).
edge(92, 109).
edge(40, 187).
edge(35, 126).
edge(186, 219).
edge(41, 48).
edge(167, 174).
edge(8, 83).
edge(96, 167).
edge(10, 64).
edge(18, 135).
edge(24, 220).
edge(57, 72).
edge(70, 229).
edge(52, 53).
edge(57, 158).
edge(33, 232).
edge(82, 174).
edge(7, 156).
edge(34, 106).
edge(92, 203).
edge(106, 163).
edge(5, 121).
edge(169, 205).
edge(0, 241).
edge(55, 99).
edge(129, 216).
edge(142, 225).
edge(15, 27).
edge(132, 227).
edge(166, 194).
edge(63, 207).
edge(177, 225).
edge(31, 208).
edge(28, 218).
edge(0, 151).
edge(36, 127).
edge(114, 207).
edge(81, 230).
edge(8, 215).
edge(117, 175).
edge(70, 230).
edge(6, 78).
edge(117, 153).
edge(4, 119).
edge(97, 239).
edge(89, 211).
edge(140, 192).
edge(71, 233).
edge(26, 159).
edge(218, 234).
edge(45, 67).
edge(17, 69).
edge(37, 71).
edge(51, 218).
edge(103, 151).
edge(192, 212).
edge(58, 216).
edge(77, 136).
edge(27, 44).
edge(29, 232).
edge(159, 198).
edge(12, 156).
edge(41, 169).
edge(91, 207).
edge(219, 224).
edge(46, 159).
edge(93, 118).
edge(131, 172).
edge(39, 173).
edge(10, 222).
edge(44, 119).
edge(118, 128).
edge(104, 236).
edge(58, 89).
edge(146, 210).
edge(17, 240).
edge(67, 169).
edge(42, 223).
edge(185, 199).
edge(48, 151).
edge(115, 229).
edge(73, 128).
edge(4, 112).
edge(17, 89).
edge(6, 222).
edge(32, 163).
edge(2, 158).
edge(36, 40).
edge(86, 186).
edge(14, 109).
edge(145, 216).
edge(104, 130).
edge(65, 177).
edge(143, 171).
edge(1, 199).
edge(38, 206).
edge(96, 161).
edge(78, 188).
edge(39, 111).
edge(148, 192).
edge(135, 192).
edge(94, 96).
edge(73, 240).
edge(13, 164).
edge(12, 139).
edge(60, 225).
edge(159, 227).
edge(149, 190).
edge(135, 144).
edge(12, 67).
edge(146, 195).
edge(120, 205).
edge(80, 224).
edge(137, 146).
edge(82, 186).
edge(182, 196).
edge(151, 177).
edge(153, 194).
edge(123, 226).
edge(1, 88).
edge(100, 156).
edge(30, 238).
edge(180, 192).
edge(75, 109).
edge(69, 112).
edge(27, 146).
edge(47, 155).
edge(26, 201).
edge(46, 169).
edge(148, 173).
edge(63, 138).
edge(134, 213).
edge(104, 163).
edge(92, 108).
edge(68, 71).
edge(35, 220).
edge(15, 94).
edge(58, 218).
edge(17, 126).
edge(69, 164).
edge(52, 57).
edge(125, 165).
edge(6, 44).
edge(110, 176).
edge(26, 128).
edge(123, 153).
edge(7, 158).
edge(93, 227).
edge(67, 134).
edge(90, 195).
edge(178, 225).
edge(95, 125).
edge(87, 98).
edge(59, 122).
edge(92, 231).
edge(33, 168).
edge(21, 210).
edge(118, 203).
edge(37, 154).
edge(63, 155).
edge(23, 77).
edge(185, 203).
edge(90, 143).
edge(134, 153).
edge(21, 34).
edge(52, 137).
edge(54, 108).
edge(86, 104).
edge(206, 236).
edge(15, 149).
edge(18, 146).
edge(179, 202).
edge(45, 186).
edge(195, 240).
edge(61, 219).
edge(56, 190).
edge(168, 207).
edge(95, 169).
edge(52, 242).
edge(79, 163).
edge(47, 106).
edge(54, 167).
edge(135, 143).
edge(122, 168).
edge(56, 117).
edge(26, 168).
edge(18, 87).
edge(55, 152).
edge(68, 134).
edge(60, 135).
edge(9, 71).
edge(161, 213).
edge(96, 172).
edge(195, 228).
edge(49, 102).
edge(91, 101).
edge(67, 132).
edge(45, 139).
edge(88, 235).
edge(54, 148).
edge(27, 42).
edge(19, 226).
edge(142, 174).
edge(24, 129).
edge(31, 73).
edge(135, 165).
edge(17, 181).
edge(9, 45).
edge(21, 131).
edge(82, 176).
edge(134, 136).
edge(34, 47).
edge(210, 241).
edge(128, 238).
edge(17, 93).
edge(51, 193).
edge(53, 238).
edge(39, 160).
edge(46, 68).
edge(45, 70).
edge(115, 185).
edge(191, 199).
edge(3, 62).
edge(57, 242).
edge(13, 136).
edge(103, 242).
edge(73, 155).
edge(130, 164).
edge(34, 186).
edge(33, 182).
edge(35, 168).
edge(77, 160).
edge(18, 224).
edge(4, 13).
edge(14, 47).
edge(20, 166).
edge(7, 44).
edge(63, 99).
edge(69, 71).
edge(147, 149).
edge(19, 81).
edge(123, 188).
edge(131, 175).
edge(60, 222).
edge(27, 74).
edge(12, 26).
edge(4, 131).
edge(133, 213).
edge(37, 52).
edge(175, 186).
edge(32, 80).
edge(58, 97).
edge(57, 196).
edge(8, 220).
edge(138, 167).
edge(49, 203).
edge(43, 242).
edge(131, 230).
edge(56, 151).
edge(79, 223).
edge(82, 85).
edge(193, 217).
edge(122, 142).
edge(91, 182).
edge(109, 131).
edge(124, 185).
edge(137, 224).
edge(36, 152).
edge(117, 190).
edge(3, 88).
edge(18, 197).
edge(224, 229).
edge(52, 179).
edge(72, 191).
edge(19, 58).
edge(50, 82).
edge(125, 195).
edge(16, 39).
edge(134, 169).
edge(25, 141).
edge(147, 172).
edge(61, 157).
edge(66, 86).
edge(58, 65).
edge(21, 150).
edge(45, 206).
edge(12, 38).
edge(102, 191).
edge(130, 232).
edge(18, 109).
edge(13, 125).
edge(51, 83).
edge(43, 78).
edge(2, 192).
edge(54, 77).
edge(133, 142).
edge(95, 113).
edge(129, 206).
edge(79, 114).
edge(9, 227).
edge(28, 186).
edge(12, 81).
edge(149, 195).
edge(68, 121).
edge(97, 146).
edge(69, 93).
edge(155, 189).
edge(20, 81).
edge(23, 29).
edge(136, 194).
edge(34, 75).
edge(144, 242).
edge(9, 49).
edge(33, 121).
edge(42, 67).
edge(118, 164).
edge(7, 84).
edge(65, 103).
edge(97, 215).
edge(187, 219).
edge(89, 227).
edge(17, 123).
edge(4, 49).
edge(195, 211).
edge(118, 175).
edge(48, 72).
edge(123, 148).
edge(163, 217).
edge(70, 214).
edge(104, 159).
edge(138, 175).
edge(93, 152).
edge(164, 232).
edge(40, 106).
edge(51, 238).
edge(168, 223).
edge(88, 218).
edge(79, 151).
edge(105, 229).
edge(68, 127).
edge(172, 230).
edge(141, 240).
edge(75, 165).
edge(19, 70).
edge(37, 227).
edge(1, 186).
edge(105, 206).
edge(97, 216).
edge(26, 118).
edge(99, 219).
edge(37, 129).
edge(138, 208).
edge(58, 80).
edge(50, 79).
edge(128, 229).
edge(57, 201).
edge(156, 181).
edge(22, 75).
edge(91, 222).
edge(182, 240).
edge(27, 85).
edge(64, 209).
edge(87, 158).
edge(20, 79).
edge(60, 66).
edge(30, 140).
edge(14, 186).
edge(126, 187).
edge(27, 238).
edge(122, 143).
edge(67, 229).
edge(62, 87).
edge(56, 164).
edge(69, 187).
edge(35, 190).
edge(0, 161).
edge(100, 183).
edge(216, 221).
edge(88, 159).
edge(26, 239).
edge(122, 227).
edge(28, 192).
edge(199, 205).
edge(113, 136).
edge(19, 66).
edge(67, 99).
edge(46, 237).
edge(70, 176).
edge(37, 121).
edge(12, 23).
edge(88, 133).
edge(125, 220).
edge(114, 149).
edge(2, 38).
edge(43, 167).
edge(118, 137).
edge(74, 147).
edge(6, 169).
edge(85, 145).
edge(26, 164).
edge(1, 153).
edge(174, 225).
edge(77, 79).
edge(109, 168).
edge(56, 199).
edge(27, 148).
edge(83, 226).
edge(117, 186).
edge(148, 194).
edge(56, 201).
edge(47, 147).
edge(155, 225).
edge(42, 122).
edge(108, 229).
edge(30, 98).
edge(131, 155).
edge(59, 240).
edge(193, 223).
edge(95, 221).
edge(52, 130).
edge(40, 201).
edge(40, 68).
edge(86, 110).
edge(36, 204).
edge(136, 222).
edge(176, 210).
edge(80, 161).
edge(13, 153).
edge(166, 186).
edge(125, 137).
edge(137, 147).
edge(59, 99).
edge(56, 71).
edge(32, 205).
edge(33, 233).
edge(111, 225).
edge(185, 213).
edge(81, 181).
edge(9, 166).
edge(188, 199).
edge(181, 194).
edge(51, 222).
edge(20, 181).
edge(182, 233).
edge(11, 102).
edge(35, 63).
edge(114, 216).
edge(230, 238).
edge(23, 202).
edge(170, 182).
edge(50, 152).
edge(50, 208).
edge(119, 170).
edge(41, 180).
edge(206, 213).
edge(60, 173).
edge(142, 144).
edge(3, 185).
edge(64, 224).
edge(142, 189).
edge(33, 39).
edge(110, 190).
edge(3, 63).
edge(185, 211).
edge(50, 137).
edge(96, 121).
edge(117, 213).
edge(82, 241).
edge(35, 49).
edge(58, 229).
edge(50, 211).
edge(68, 118).
edge(19, 37).
edge(48, 211).
edge(8, 63).
edge(134, 183).
edge(22, 99).
edge(221, 241).
edge(44, 218).
edge(108, 186).
edge(158, 223).
edge(58, 176).
edge(30, 90).
edge(54, 83).
edge(62, 109).
edge(158, 229).
edge(35, 234).
edge(54, 74).
edge(171, 189).
edge(0, 5).
edge(144, 190).
edge(129, 212).
edge(31, 155).
edge(161, 164).
edge(44, 199).
edge(151, 238).
edge(97, 144).
edge(90, 179).
edge(128, 241).
edge(137, 217).
edge(47, 198).
edge(13, 29).
edge(144, 148).
edge(64, 138).
edge(74, 159).
edge(167, 226).
edge(45, 158).
edge(61, 187).
edge(31, 91).
edge(5, 46).
edge(93, 159).
edge(168, 174).
edge(94, 170).
edge(65, 110).
edge(105, 117).
edge(36, 196).
edge(93, 221).
edge(74, 235).
edge(156, 229).
edge(35, 119).
edge(2, 155).
edge(92, 154).
edge(151, 160).
edge(7, 69).
edge(59, 131).
edge(19, 181).
edge(180, 227).
edge(130, 205).
edge(149, 154).
edge(73, 213).
edge(118, 132).
edge(143, 241).
edge(164, 236).
edge(29, 116).
edge(42, 230).
edge(12, 25).
edge(44, 192).
edge(146, 198).
edge(33, 188).
edge(148, 212).
edge(0, 165).
edge(25, 175).
edge(81, 190).
edge(119, 235).
edge(99, 180).
edge(28, 170).
edge(5, 6).
edge(163, 220).
edge(80, 148).
edge(129, 172).
edge(122, 242).
edge(51, 113).
edge(130, 233).
edge(67, 133).
edge(21, 217).
edge(10, 204).
edge(123, 227).
edge(22, 143).
edge(49, 98).
edge(23, 165).
edge(77, 87).
edge(165, 172).
edge(143, 173).
edge(107, 156).
edge(23, 201).
edge(24, 26).
edge(105, 230).
edge(41, 106).
edge(104, 234).
edge(143, 175).
edge(76, 180).
edge(62, 69).
edge(27, 127).
edge(22, 100).
edge(102, 230).
edge(29, 45).
edge(32, 212).
edge(1, 232).
edge(120, 238).
edge(51, 183).
edge(159, 205).
edge(137, 170).
edge(17, 230).
edge(125, 151).
edge(72, 209).
edge(117, 154).
edge(12, 192).
edge(70, 203).
edge(203, 221).
edge(131, 221).
edge(163, 209).
edge(23, 120).
edge(88, 203).
edge(30, 99).
edge(29, 230).
edge(14, 220).
edge(25, 92).
edge(41, 73).
edge(186, 203).
edge(165, 184).
edge(56, 230).
edge(1, 122).
edge(84, 205).
edge(55, 196).
edge(152, 241).
edge(130, 242).
edge(45, 114).
edge(67, 148).
edge(11, 240).
edge(22, 197).
edge(226, 242).
edge(129, 232).
edge(9, 177).
edge(91, 138).
edge(34, 227).
edge(115, 174).
edge(83, 139).
edge(84, 190).
edge(46, 89).
edge(25, 167).
edge(39, 220).
edge(59, 123).
edge(169, 229).
edge(34, 236).
edge(74, 181).
edge(35, 78).
edge(46, 131).
edge(93, 102).
edge(222, 234).
edge(99, 235).
edge(55, 134).
edge(101, 207).
edge(34, 120).
edge(35, 200).
edge(138, 151).
edge(73, 124).
edge(76, 128).
edge(166, 228).
edge(139, 196).
edge(66, 76).
edge(3, 225).
edge(156, 163).
edge(33, 88).
edge(153, 172).
edge(124, 232).
edge(60, 118).
edge(102, 111).
edge(76, 147).
edge(25, 126).
edge(101, 142).
edge(185, 220).
edge(84, 193).
edge(96, 173).
edge(128, 240).
edge(100, 114).
edge(150, 203).
edge(82, 185).
edge(3, 212).
edge(121, 227).
edge(95, 192).
edge(235, 239).
edge(0, 152).
edge(88, 95).
edge(205, 223).
edge(26, 209).
edge(126, 154).
edge(76, 131).
edge(128, 195).
edge(29, 152).
edge(5, 105).
edge(24, 191).
edge(27, 224).
edge(93, 137).
edge(58, 139).
edge(188, 207).
edge(83, 103).
edge(76, 106).
edge(28, 82).
edge(33, 240).
edge(66, 102).
edge(30, 55).
edge(139, 190).
edge(114, 129).
edge(51, 221).
edge(26, 73).
edge(190, 233).
edge(19, 71).
edge(82, 221).
edge(114, 209).
edge(59, 178).
edge(59, 223).
edge(108, 137).
edge(26, 51).
edge(133, 228).
edge(204, 212).
edge(57, 189).
edge(57, 100).
edge(64, 162).
edge(95, 222).
edge(65, 69).
edge(176, 178).
edge(39, 141).
edge(87, 106).
edge(12, 152).
edge(84, 121).
edge(118, 197).
edge(120, 197).
edge(111, 135).
edge(53, 145).
edge(31, 130).
edge(112, 180).
edge(82, 223).
edge(31, 62).
edge(166, 202).
edge(130, 149).
edge(108, 182).
edge(8, 58).
edge(119, 197).
edge(188, 232).
edge(135, 187).
edge(49, 142).
edge(63, 179).
edge(55, 161).
edge(17, 220).
edge(62, 211).
edge(86, 96).
edge(12, 163).
edge(13, 65).
edge(89, 168).
edge(90, 184).
edge(47, 220).
edge(59, 227).
edge(177, 197).
edge(19, 75).
edge(57, 204).
edge(111, 222).
edge(119, 184).
edge(171, 242).
edge(85, 158).
edge(148, 164).
edge(44, 155).
edge(88, 175).
edge(203, 204).
edge(12, 154).
edge(108, 188).
edge(64, 79).
edge(78, 204).
edge(88, 161).
edge(153, 192).
edge(94, 237).
edge(96, 117).
edge(158, 231).
edge(162, 169).
edge(62, 216).
edge(53, 108).
edge(38, 61).
edge(9, 47).
edge(109, 129).
edge(29, 71).
edge(80, 182).
edge(18, 59).
edge(30, 143).
edge(22, 175).
edge(53, 236).
edge(3, 61).
edge(41, 79).
edge(158, 240).
edge(91, 186).
edge(13, 181).
edge(131, 223).
edge(61, 100).
edge(79, 207).
edge(31, 178).
edge(62, 148).
edge(15, 136).
edge(51, 155).
edge(118, 240).
edge(53, 218).
edge(75, 197).
edge(181, 182).
edge(9, 148).
edge(195, 204).
edge(26, 226).
edge(59, 96).
edge(51, 198).
edge(7, 195).
edge(157, 189).
edge(121, 144).
edge(31, 148).
edge(1, 106).
edge(213, 222).
edge(77, 219).
edge(89, 131).
edge(134, 155).
edge(4, 39).
edge(51, 139).
edge(194, 241).
edge(175, 203).
edge(49, 241).
edge(182, 212).
edge(24, 75).
edge(59, 82).
edge(16, 22).
edge(122, 156).
edge(14, 26).
edge(24, 74).
edge(93, 144).
edge(19, 68).
edge(194, 202).
edge(25, 80).
edge(10, 123).
edge(15, 23).
edge(162, 236).
edge(4, 207).
edge(119, 154).
edge(13, 51).
edge(20, 188).
edge(168, 211).
edge(48, 150).
edge(110, 152).
edge(3, 178).
edge(15, 166).
edge(19, 99).
edge(141, 179).
edge(70, 146).
edge(42, 153).
edge(113, 158).
edge(66, 130).
edge(161, 197).
edge(52, 85).
edge(18, 187).
edge(36, 72).
edge(27, 223).
edge(124, 220).
edge(7, 60).
edge(33, 225).
edge(20, 189).
edge(50, 229).
edge(16, 79).
edge(118, 184).
edge(161, 239).
edge(86, 139).
edge(24, 46).
edge(20, 101).
edge(15, 113).
edge(85, 188).
edge(62, 141).
edge(56, 225).
edge(16, 24).
edge(45, 178).
edge(110, 168).
edge(202, 219).
edge(21, 94).
edge(155, 222).
edge(61, 94).
edge(25, 103).
edge(119, 142).
edge(66, 196).
edge(65, 89).
edge(73, 138).
edge(26, 229).
edge(71, 115).
edge(37, 214).
edge(137, 163).
edge(138, 186).
edge(86, 198).
edge(116, 162).
edge(51, 223).
edge(76, 90).
edge(176, 201).
edge(28, 35).
edge(167, 181).
edge(45, 183).
edge(151, 220).
edge(19, 124).
edge(106, 223).
edge(29, 104).
edge(29, 118).
edge(190, 209).
edge(170, 220).
edge(82, 114).
edge(55, 200).
edge(10, 53).
edge(211, 227).
edge(90, 218).
edge(110, 179).
edge(4, 42).
edge(145, 231).
edge(56, 73).
edge(101, 114).
edge(11, 190).
edge(51, 194).
edge(131, 216).
edge(145, 174).
edge(60, 67).
edge(80, 124).
edge(64, 89).
edge(56, 184).
edge(136, 240).
edge(30, 82).
edge(35, 183).
edge(167, 173).
edge(55, 195).
edge(38, 117).
edge(104, 218).
edge(0, 46).
edge(11, 124).
edge(38, 106).
edge(39, 143).
edge(14, 87).
edge(15, 87).
edge(16, 212).
edge(140, 216).
edge(158, 186).
edge(5, 20).
edge(41, 211).
edge(102, 216).
edge(40, 227).
edge(50, 187).
edge(99, 117).
edge(26, 35).
edge(29, 235).
edge(63, 91).
edge(151, 206).
edge(48, 76).
edge(58, 161).
edge(193, 205).
edge(141, 166).
edge(150, 233).
edge(70, 87).
edge(165, 219).
edge(37, 240).
edge(27, 101).
edge(110, 135).
edge(94, 112).
edge(189, 220).
edge(12, 101).
edge(63, 197).
edge(102, 206).
edge(46, 129).
edge(37, 235).
edge(82, 162).
edge(110, 180).
edge(93, 140).
edge(100, 135).
edge(207, 241).
edge(119, 126).
edge(54, 75).
edge(55, 220).
edge(153, 227).
edge(136, 177).
edge(212, 237).
edge(70, 117).
edge(98, 164).
edge(121, 182).
edge(40, 160).
edge(44, 129).
edge(36, 115).
edge(208, 240).
edge(91, 112).
edge(32, 105).
edge(35, 69).
edge(122, 212).
edge(11, 20).
edge(4, 29).
edge(14, 150).
edge(110, 206).
edge(18, 194).
edge(18, 161).
edge(21, 133).
edge(9, 24).
edge(111, 236).
edge(130, 212).
edge(2, 151).
edge(42, 112).
edge(29, 179).
edge(146, 225).
edge(69, 91).
edge(207, 240).
edge(195, 223).
edge(40, 48).
edge(100, 200).
edge(70, 236).
edge(84, 153).
edge(30, 93).
edge(133, 194).
edge(66, 140).
edge(30, 31).
edge(110, 194).
edge(18, 189).
edge(27, 188).
edge(55, 102).
edge(77, 166).
edge(15, 132).
edge(182, 213).
edge(132, 149).
edge(24, 89).
edge(143, 212).
edge(33, 49).
edge(53, 147).
edge(37, 104).
edge(9, 231).
edge(70, 183).
edge(119, 198).
edge(12, 211).
edge(63, 201).
edge(140, 229).
edge(133, 171).
edge(61, 122).
edge(1, 84).
edge(195, 241).
edge(3, 205).
edge(128, 171).
edge(48, 109).
edge(65, 236).
edge(99, 144).
edge(163, 223).
edge(66, 118).
edge(22, 85).
edge(3, 192).
edge(41, 70).
edge(106, 228).
edge(146, 232).
edge(69, 168).
edge(60, 224).
edge(108, 187).
edge(64, 237).
edge(165, 234).
edge(151, 214).
edge(69, 82).
edge(15, 195).
edge(94, 171).
edge(233, 236).
edge(92, 218).
edge(134, 209).
edge(209, 220).
edge(62, 85).
edge(135, 229).
edge(217, 236).
edge(15, 184).
edge(56, 219).
edge(215, 220).
edge(134, 206).
edge(84, 128).
edge(105, 183).
edge(210, 212).
edge(34, 86).
edge(179, 240).
edge(87, 134).
edge(2, 46).
edge(94, 172).
edge(74, 133).
edge(118, 242).
edge(44, 145).
edge(37, 191).
edge(66, 208).
edge(137, 216).
edge(10, 225).
edge(49, 199).
edge(109, 166).
edge(149, 166).
edge(148, 150).
edge(35, 237).
edge(43, 98).
edge(100, 125).
edge(152, 188).
edge(74, 78).
edge(38, 65).
edge(224, 233).
edge(172, 221).
edge(9, 93).
edge(88, 221).
edge(119, 169).
edge(0, 96).
edge(30, 165).
edge(92, 214).
edge(91, 121).
edge(24, 179).
edge(48, 147).
edge(109, 221).
edge(63, 215).
edge(16, 72).
edge(170, 179).
edge(145, 233).
edge(55, 72).
edge(4, 195).
edge(100, 237).
edge(2, 90).
edge(2, 61).
edge(25, 87).
edge(33, 146).
edge(68, 176).
edge(57, 228).
edge(47, 116).
edge(99, 153).
edge(26, 204).
edge(37, 130).
edge(68, 79).
edge(158, 191).
edge(139, 205).
edge(55, 77).
edge(144, 202).
edge(177, 183).
edge(64, 127).
edge(29, 88).
edge(1, 72).
edge(31, 39).
edge(166, 171).
edge(100, 130).
edge(16, 217).
edge(12, 179).
edge(13, 41).
edge(81, 116).
edge(109, 234).
edge(126, 231).
edge(34, 185).
edge(127, 131).
edge(189, 197).
edge(90, 229).
edge(223, 230).
edge(188, 227).
edge(126, 127).
edge(93, 105).
edge(92, 174).
edge(57, 210).
edge(156, 202).
edge(171, 224).
edge(20, 202).
edge(14, 149).
edge(59, 144).
edge(105, 121).
edge(78, 126).
edge(29, 30).
edge(91, 189).
edge(59, 134).
edge(61, 130).
edge(31, 64).
edge(177, 242).
edge(83, 94).
edge(70, 224).
edge(146, 163).
edge(9, 53).
edge(125, 184).
edge(18, 122).
edge(203, 231).
edge(98, 201).
edge(38, 131).
edge(0, 233).
edge(179, 242).
edge(200, 212).
edge(69, 179).
edge(205, 239).
edge(139, 155).
edge(88, 227).
edge(1, 181).
edge(86, 209).
edge(1, 29).
edge(115, 224).
edge(19, 229).
edge(205, 241).
edge(162, 188).
edge(22, 232).
edge(66, 141).
edge(51, 236).
edge(8, 186).
edge(30, 48).
edge(90, 102).
edge(7, 88).
edge(49, 211).
edge(134, 207).
edge(110, 111).
edge(122, 223).
edge(146, 180).
edge(84, 204).
edge(156, 237).
edge(36, 186).
edge(37, 187).
edge(7, 217).
edge(14, 33).
edge(92, 187).
edge(111, 113).
edge(35, 162).
edge(93, 97).
edge(56, 69).
edge(17, 103).
edge(180, 185).
edge(88, 223).
edge(98, 168).
edge(191, 209).
edge(74, 184).
edge(36, 65).
edge(66, 101).
edge(0, 210).
edge(47, 229).
edge(176, 242).
edge(44, 96).
edge(161, 205).
edge(9, 116).
edge(83, 173).
edge(10, 57).
edge(183, 241).
edge(34, 62).
edge(163, 171).
edge(20, 186).
edge(161, 211).
edge(61, 142).
edge(71, 89).
edge(117, 237).
edge(45, 115).
edge(134, 159).
edge(44, 76).
edge(85, 111).
edge(27, 219).
edge(77, 177).
edge(217, 241).
edge(77, 82).
edge(54, 199).
edge(72, 96).
edge(1, 161).
edge(51, 75).
edge(20, 132).
edge(158, 232).
edge(66, 241).
edge(127, 153).
edge(2, 210).
edge(95, 152).
edge(73, 217).
edge(63, 96).
edge(37, 209).
edge(40, 43).
edge(88, 174).
edge(49, 154).
edge(61, 185).
edge(57, 235).
edge(10, 61).
edge(100, 195).
edge(162, 239).
edge(79, 95).
edge(91, 210).
edge(69, 166).
edge(27, 65).
edge(188, 241).
edge(77, 119).
edge(2, 219).
edge(119, 176).
edge(1, 98).
edge(65, 186).
edge(32, 114).
edge(86, 151).
edge(115, 181).
edge(33, 109).
edge(9, 183).
edge(6, 11).
edge(156, 212).
edge(40, 56).
edge(162, 201).
edge(67, 150).
edge(59, 121).
edge(224, 235).
edge(127, 146).
edge(102, 203).
edge(37, 204).
edge(129, 201).
edge(194, 242).
edge(88, 92).
edge(37, 44).
edge(186, 206).
edge(47, 178).
edge(116, 194).
edge(90, 166).
edge(45, 122).
edge(9, 180).
edge(119, 132).
edge(30, 227).
edge(57, 137).
edge(172, 177).
edge(14, 24).
edge(138, 154).
edge(52, 122).
edge(194, 212).
edge(179, 182).
edge(81, 102).
edge(88, 153).
edge(24, 143).
edge(102, 180).
edge(81, 155).
edge(75, 207).
edge(15, 78).
edge(79, 194).
edge(141, 219).
edge(36, 190).
edge(29, 110).
edge(62, 242).
edge(129, 235).
edge(20, 46).
edge(118, 155).
edge(60, 218).
edge(53, 101).
edge(15, 75).
edge(5, 239).
edge(15, 108).
edge(18, 68).
edge(166, 205).
edge(111, 185).
edge(119, 133).
edge(110, 195).
edge(3, 87).
edge(25, 98).
edge(183, 228).
edge(68, 211).
edge(4, 96).
edge(106, 140).
edge(92, 116).
edge(118, 208).
edge(142, 165).
edge(76, 237).
edge(15, 26).
edge(127, 212).
edge(65, 198).
edge(107, 122).
edge(23, 43).
edge(34, 133).
edge(3, 200).
edge(119, 120).
edge(162, 202).
edge(108, 172).
edge(72, 202).
edge(55, 168).
edge(86, 233).
edge(25, 58).
edge(16, 37).
edge(103, 125).
edge(183, 204).
edge(59, 81).
edge(129, 217).
edge(78, 119).
edge(157, 231).
edge(32, 189).
edge(222, 238).
edge(65, 185).
edge(27, 155).
edge(188, 208).
edge(7, 19).
edge(94, 99).
edge(71, 217).
edge(46, 193).
edge(51, 119).
edge(194, 216).
edge(28, 196).
edge(68, 218).
edge(7, 21).
edge(78, 139).
edge(194, 237).
edge(67, 104).
edge(109, 147).
edge(121, 123).
edge(84, 142).
edge(90, 125).
edge(119, 140).
edge(169, 191).
edge(169, 224).
edge(87, 212).
edge(60, 205).
edge(92, 143).
edge(119, 139).
edge(171, 232).
edge(157, 184).
edge(74, 79).
edge(5, 27).
edge(5, 219).
edge(41, 198).
edge(83, 194).
edge(26, 40).
edge(4, 91).
edge(193, 228).
edge(59, 150).
edge(21, 132).
edge(71, 226).
edge(9, 145).
edge(193, 240).
edge(35, 193).
edge(78, 105).
edge(137, 173).
edge(190, 192).
edge(144, 193).
edge(50, 102).
edge(3, 86).
edge(64, 151).
edge(45, 160).
edge(37, 226).
edge(5, 87).
edge(20, 107).
edge(130, 222).
edge(42, 196).
edge(37, 159).
edge(197, 237).
edge(223, 233).
edge(111, 167).
edge(48, 162).
edge(91, 211).
edge(38, 79).
edge(178, 201).
edge(32, 235).
edge(7, 23).
edge(54, 79).
edge(5, 220).
edge(120, 157).
edge(184, 229).
edge(127, 233).
edge(101, 191).
edge(23, 215).
edge(56, 80).
edge(5, 13).
edge(172, 183).
edge(158, 239).
edge(15, 177).
edge(138, 182).
edge(81, 85).
edge(89, 193).
edge(72, 140).
edge(47, 234).
edge(125, 209).
edge(1, 211).
edge(49, 189).
edge(32, 134).
edge(7, 133).
edge(150, 155).
edge(41, 174).
edge(134, 222).
edge(202, 216).
edge(58, 125).
edge(58, 85).
edge(56, 185).
edge(98, 188).
edge(92, 205).
edge(6, 81).
edge(128, 206).
edge(72, 168).
edge(69, 205).
edge(99, 127).
edge(135, 190).
edge(88, 229).
edge(27, 183).
edge(55, 91).
edge(36, 61).
edge(12, 99).
edge(109, 224).
edge(63, 94).
edge(66, 126).
edge(53, 97).
edge(94, 183).
edge(87, 162).
edge(25, 238).
edge(10, 84).
edge(110, 226).
edge(81, 238).
edge(12, 223).
edge(177, 235).
edge(70, 94).
edge(56, 177).
edge(126, 179).
edge(34, 121).
edge(152, 171).
edge(98, 185).
edge(6, 218).
edge(1, 83).
edge(31, 44).
edge(38, 52).
edge(76, 87).
edge(125, 226).
edge(161, 212).
edge(16, 184).
edge(208, 226).
edge(73, 170).
edge(41, 237).
edge(33, 229).
edge(58, 111).
edge(110, 156).
edge(13, 183).
edge(23, 179).
edge(82, 138).
edge(171, 198).
edge(21, 117).
edge(80, 104).
edge(193, 203).
edge(24, 210).
edge(44, 163).
edge(73, 74).
edge(49, 222).
edge(90, 199).
edge(20, 211).
edge(125, 187).
edge(130, 202).
edge(111, 217).
edge(137, 145).
edge(0, 157).
edge(73, 204).
edge(205, 230).
edge(15, 187).
edge(89, 92).
edge(132, 157).
edge(82, 180).
edge(16, 88).
edge(51, 68).
edge(121, 157).
edge(36, 113).
edge(67, 199).
edge(27, 119).
edge(8, 104).
edge(116, 129).
edge(97, 130).
edge(3, 145).
edge(18, 235).
edge(50, 167).
edge(66, 116).
edge(83, 127).
edge(10, 199).
edge(6, 181).
edge(76, 200).
edge(25, 160).
edge(131, 200).
edge(167, 187).
edge(78, 201).
edge(8, 19).
edge(51, 196).
edge(113, 225).
edge(181, 217).
edge(84, 139).
edge(214, 235).
edge(19, 55).
edge(21, 222).
edge(61, 241).
edge(120, 124).
edge(70, 213).
edge(51, 136).
edge(155, 231).
edge(127, 241).
edge(36, 234).
edge(0, 135).
edge(44, 206).
edge(138, 217).
edge(86, 226).
edge(64, 114).
edge(9, 174).
edge(60, 68).
edge(137, 152).
edge(80, 113).
edge(24, 194).
edge(110, 171).
edge(161, 201).
edge(19, 165).
edge(121, 163).
edge(190, 234).
edge(157, 176).
edge(13, 145).
edge(79, 113).
edge(162, 219).
edge(46, 113).
edge(97, 203).
edge(89, 235).
edge(125, 198).
edge(111, 132).
edge(137, 176).
edge(17, 137).
edge(218, 224).
edge(170, 201).
edge(51, 140).
edge(50, 136).
edge(54, 238).
edge(98, 144).
edge(46, 51).
edge(80, 131).
edge(62, 104).
edge(0, 204).
edge(130, 144).
edge(211, 233).
edge(10, 138).
edge(189, 213).
edge(30, 71).
edge(146, 233).
edge(79, 130).
edge(67, 179).
edge(107, 229).
edge(109, 231).
edge(52, 207).
edge(94, 135).
edge(68, 74).
edge(214, 230).
edge(44, 50).
edge(180, 233).
edge(159, 193).
edge(132, 222).
edge(121, 135).
edge(20, 122).
edge(143, 178).
edge(85, 94).
edge(54, 159).
edge(59, 125).
edge(70, 127).
edge(131, 168).
edge(14, 59).
edge(87, 132).
edge(13, 231).
edge(119, 221).
edge(168, 193).
edge(40, 79).
edge(131, 146).
edge(47, 128).
edge(12, 235).
edge(115, 220).
edge(134, 217).
edge(38, 210).
edge(139, 208).
edge(60, 141).
edge(30, 163).
edge(16, 132).
edge(0, 222).
edge(41, 69).
edge(146, 203).
edge(57, 205).
edge(51, 234).
edge(131, 227).
edge(95, 116).
edge(195, 199).
edge(139, 142).
edge(170, 230).
edge(32, 201).
edge(8, 109).
edge(71, 207).
edge(99, 139).
edge(141, 234).
edge(159, 186).
edge(135, 207).
edge(15, 54).
edge(172, 190).
edge(1, 5).
edge(158, 215).
edge(153, 170).
edge(23, 143).
edge(160, 200).
edge(59, 156).
edge(44, 144).
edge(41, 227).
edge(89, 97).
edge(126, 221).
edge(67, 237).
edge(40, 236).
edge(13, 154).
edge(50, 226).
edge(70, 119).
edge(39, 168).
edge(52, 154).
edge(110, 116).
edge(21, 129).
edge(96, 165).
edge(25, 205).
edge(185, 237).
edge(54, 68).
edge(112, 168).
edge(181, 221).
edge(134, 149).
edge(73, 104).
edge(31, 213).
edge(152, 153).
edge(18, 238).
edge(125, 189).
edge(68, 89).
edge(87, 124).
edge(72, 145).
edge(46, 115).
edge(0, 150).
edge(113, 182).
edge(72, 192).
edge(22, 116).
edge(180, 223).
edge(2, 33).
edge(80, 146).
edge(17, 44).
edge(53, 60).
edge(33, 175).
edge(10, 101).
edge(24, 205).
edge(47, 189).
edge(114, 203).
edge(17, 168).
edge(135, 166).
edge(64, 84).
edge(35, 212).
edge(14, 39).
edge(3, 181).
edge(111, 184).
edge(52, 221).
edge(74, 139).
edge(173, 204).
edge(86, 143).
edge(25, 220).
edge(86, 182).
edge(92, 105).
edge(100, 227).
edge(7, 35).
edge(75, 89).
edge(3, 91).
edge(43, 148).
edge(126, 158).
edge(144, 155).
edge(80, 240).
edge(6, 237).
edge(34, 206).
edge(18, 123).
edge(36, 138).
edge(18, 226).
edge(101, 158).
edge(18, 33).
edge(220, 235).
edge(54, 137).
edge(10, 77).
edge(193, 220).
edge(40, 131).
edge(52, 193).
edge(8, 230).
edge(122, 137).
edge(33, 235).
edge(71, 75).
edge(78, 184).
edge(186, 230).
edge(19, 74).
edge(1, 224).
edge(47, 139).
edge(115, 128).
edge(47, 160).
edge(167, 209).
edge(47, 193).
edge(176, 190).
edge(123, 167).
edge(29, 205).
edge(203, 224).
edge(52, 145).
edge(17, 151).
edge(119, 191).
edge(73, 198).
edge(81, 144).
edge(29, 170).
edge(165, 222).
edge(101, 153).
edge(13, 98).
edge(145, 190).
edge(13, 118).
edge(136, 159).
edge(10, 188).
edge(32, 242).
edge(149, 201).
edge(84, 158).
edge(38, 188).
edge(23, 222).
edge(204, 235).
edge(69, 214).
edge(28, 132).
edge(119, 232).
edge(70, 89).
edge(14, 52).
edge(9, 73).
edge(19, 120).
edge(79, 218).
edge(169, 237).
edge(120, 242).
edge(25, 51).
edge(155, 173).
edge(101, 173).
edge(149, 178).
edge(56, 172).
edge(152, 174).
edge(188, 230).
edge(98, 111).
edge(90, 141).
edge(36, 96).
edge(5, 163).
edge(1, 204).
edge(188, 210).
edge(173, 205).
edge(221, 230).
edge(78, 176).
edge(135, 227).
edge(110, 149).
edge(70, 240).
edge(84, 209).
edge(9, 114).
edge(163, 191).
edge(23, 135).
edge(5, 140).
edge(47, 194).
edge(208, 216).
edge(55, 205).
edge(91, 173).
edge(143, 198).
edge(141, 187).
edge(71, 144).
edge(40, 97).
edge(60, 117).
edge(53, 81).
edge(34, 229).
edge(119, 199).
edge(62, 138).
edge(208, 220).
edge(6, 108).
edge(146, 241).
edge(140, 230).
edge(81, 159).
edge(21, 56).
edge(8, 189).
edge(154, 170).
edge(171, 236).
edge(87, 109).
edge(124, 148).
edge(6, 47).
edge(51, 93).
edge(0, 214).
edge(80, 158).
edge(126, 136).
edge(41, 113).
edge(27, 31).
edge(82, 233).
edge(194, 204).
edge(61, 233).
edge(205, 221).
edge(58, 188).
edge(43, 129).
edge(138, 142).
edge(18, 198).
edge(120, 143).
edge(185, 223).
edge(29, 201).
edge(48, 115).
edge(6, 99).
edge(114, 118).
edge(149, 211).
edge(8, 204).
edge(68, 180).
edge(47, 112).
edge(23, 176).
edge(20, 131).
edge(204, 242).
edge(132, 201).
edge(2, 225).
edge(39, 56).
edge(109, 216).
edge(51, 177).
edge(7, 87).
edge(81, 97).
edge(171, 199).
edge(122, 233).
edge(26, 117).
edge(117, 232).
edge(137, 167).
edge(28, 140).
edge(193, 237).
edge(10, 165).
edge(117, 159).
edge(61, 146).
edge(181, 206).
edge(73, 230).
edge(79, 182).
edge(163, 173).
edge(35, 157).
edge(18, 151).
edge(85, 203).
edge(18, 219).
edge(33, 125).
edge(19, 214).
edge(154, 161).
edge(135, 200).
edge(67, 218).
edge(49, 77).
edge(63, 120).
edge(0, 73).
edge(171, 204).
edge(208, 211).
edge(144, 233).
edge(101, 202).
edge(75, 133).
edge(2, 62).
edge(7, 66).
edge(173, 198).
edge(41, 81).
edge(19, 156).
edge(60, 215).
edge(172, 228).
edge(108, 164).
edge(125, 234).
edge(186, 188).
edge(27, 132).
edge(87, 120).
edge(21, 100).
edge(174, 238).
edge(42, 74).
edge(78, 179).
edge(161, 219).
edge(25, 195).
edge(102, 174).
edge(69, 231).
edge(23, 156).
edge(171, 212).
edge(98, 181).
edge(0, 29).
edge(115, 131).
edge(41, 163).
edge(24, 115).
edge(32, 207).
edge(28, 43).
edge(141, 209).
edge(158, 174).
edge(131, 193).
edge(106, 177).
edge(81, 192).
edge(4, 192).
edge(89, 219).
edge(80, 103).
edge(23, 172).
edge(165, 206).
edge(18, 236).
edge(35, 131).
edge(77, 211).
edge(21, 184).
edge(117, 199).
edge(34, 48).
edge(50, 54).
edge(42, 92).
edge(69, 210).
edge(49, 115).
edge(68, 172).
edge(0, 215).
edge(75, 234).
edge(36, 106).
edge(67, 217).
edge(0, 124).
edge(21, 126).
edge(103, 164).
edge(78, 167).
edge(6, 133).
edge(51, 189).
edge(1, 70).
edge(9, 117).
edge(17, 119).
edge(12, 177).
edge(53, 121).
edge(160, 238).
edge(29, 138).
edge(13, 224).
edge(29, 39).
edge(40, 188).
edge(7, 96).
edge(199, 219).
edge(73, 165).
edge(33, 54).
edge(25, 38).
edge(37, 119).
edge(53, 93).
edge(165, 193).
edge(3, 174).
edge(92, 131).
edge(53, 106).
edge(11, 196).
edge(69, 189).
edge(89, 170).
edge(158, 193).
edge(95, 166).
edge(3, 101).
edge(102, 129).
edge(52, 62).
edge(72, 185).
edge(172, 196).
edge(21, 240).
edge(20, 231).
edge(23, 132).
edge(58, 159).
edge(93, 216).
edge(17, 91).
edge(108, 157).
edge(52, 166).
edge(69, 218).
edge(211, 224).
edge(39, 217).
edge(153, 164).
edge(51, 103).
edge(28, 29).
edge(42, 56).
edge(103, 238).
edge(96, 136).
edge(145, 173).
edge(62, 132).
edge(134, 215).
edge(156, 195).
edge(61, 147).
edge(0, 213).
edge(60, 112).
edge(43, 141).
edge(77, 101).
edge(117, 119).
edge(25, 106).
edge(2, 88).
edge(111, 142).
edge(8, 110).
edge(24, 224).
edge(30, 162).
edge(10, 22).
edge(47, 90).
edge(21, 91).
edge(165, 208).
edge(62, 178).
edge(203, 235).
edge(87, 213).
edge(59, 155).
edge(5, 225).
edge(137, 178).
edge(120, 150).
edge(11, 151).
edge(27, 160).
edge(102, 234).
edge(13, 97).
edge(102, 194).
edge(111, 134).
edge(92, 179).
edge(54, 70).
edge(103, 159).
edge(142, 163).
edge(43, 173).
edge(169, 179).
edge(5, 123).
edge(109, 161).
edge(117, 139).
edge(80, 183).
edge(19, 88).
edge(56, 178).
edge(106, 183).
edge(41, 60).
edge(188, 235).
edge(44, 233).
edge(51, 170).
edge(64, 66).
edge(72, 94).
edge(66, 211).
edge(19, 135).
edge(93, 116).
edge(203, 214).
edge(30, 115).
edge(86, 134).
edge(18, 127).
edge(37, 234).
edge(84, 144).
edge(46, 47).
edge(0, 145).
edge(47, 156).
edge(61, 242).
edge(170, 199).
edge(19, 241).
edge(3, 97).
edge(19, 202).
edge(70, 80).
edge(124, 229).
edge(77, 99).
edge(144, 192).
edge(213, 226).
edge(11, 241).
edge(11, 92).
edge(34, 226).
edge(12, 151).
edge(1, 82).
edge(97, 150).
edge(74, 123).
edge(91, 188).
edge(4, 67).
edge(119, 134).
edge(65, 125).
edge(73, 101).
edge(97, 124).
edge(45, 190).
edge(152, 169).
edge(183, 218).
edge(38, 209).
edge(13, 162).
edge(178, 220).
edge(182, 210).
edge(117, 143).
edge(56, 147).
edge(35, 41).
edge(28, 177).
edge(174, 175).
edge(8, 121).
edge(72, 171).
edge(16, 35).
edge(68, 102).
edge(72, 188).
edge(190, 197).
edge(102, 150).
edge(102, 171).
edge(50, 51).
edge(8, 174).
edge(21, 86).
edge(26, 181).
edge(54, 172).
edge(5, 187).
edge(74, 152).
edge(66, 212).
edge(29, 128).
edge(93, 165).
edge(88, 242).
edge(91, 202).
edge(84, 130).
edge(140, 242).
edge(105, 127).
edge(71, 101).
edge(171, 188).
edge(107, 220).
edge(31, 145).
edge(61, 87).
edge(87, 118).
edge(64, 140).
edge(140, 185).
edge(38, 69).
edge(17, 62).
edge(93, 230).
edge(91, 223).
edge(25, 110).
edge(70, 77).
edge(124, 197).
edge(42, 119).
edge(102, 220).
edge(54, 163).
edge(90, 232).
edge(133, 166).
edge(79, 121).
edge(168, 221).
edge(72, 196).
edge(125, 160).
edge(161, 237).
edge(1, 76).
edge(66, 168).
edge(20, 90).
edge(157, 203).
edge(24, 100).
edge(57, 167).
edge(14, 117).
edge(36, 88).
edge(138, 230).
edge(112, 128).
edge(70, 82).
edge(14, 146).
edge(63, 105).
edge(224, 238).
edge(177, 233).
edge(2, 16).
edge(72, 215).
edge(110, 148).
edge(61, 85).
edge(64, 134).
edge(66, 80).
edge(86, 203).
edge(175, 209).
edge(41, 228).
edge(184, 221).
edge(109, 177).
edge(117, 208).
edge(40, 126).
edge(92, 113).
edge(129, 160).
edge(79, 190).
edge(115, 133).
edge(9, 226).
edge(129, 146).
edge(44, 87).
edge(23, 100).
edge(31, 151).
edge(205, 224).
edge(45, 136).
edge(52, 88).
edge(15, 138).
edge(9, 239).
edge(72, 169).
edge(13, 195).
edge(91, 116).
edge(15, 105).
edge(9, 218).
edge(2, 20).
edge(22, 26).
edge(160, 194).
edge(100, 232).
edge(111, 209).
edge(110, 122).
edge(115, 179).
edge(39, 227).
edge(52, 182).
edge(15, 53).
edge(27, 66).
edge(122, 149).
edge(43, 204).
edge(46, 214).
edge(47, 161).
edge(127, 201).
edge(100, 152).
edge(24, 192).
edge(24, 234).
edge(71, 236).
edge(38, 97).
edge(3, 71).
edge(30, 74).
edge(149, 224).
edge(100, 117).
edge(79, 184).
edge(118, 236).
edge(15, 66).
edge(65, 231).
edge(1, 241).
edge(2, 131).
edge(86, 228).
edge(136, 172).
edge(125, 126).
edge(161, 179).
edge(82, 195).
edge(145, 146).
edge(104, 232).
edge(81, 217).
edge(84, 238).
edge(27, 218).
edge(64, 116).
edge(65, 96).
edge(198, 201).
edge(42, 183).
edge(5, 19).
edge(24, 148).
edge(121, 143).
edge(170, 171).
edge(195, 222).
edge(130, 196).
edge(10, 117).
edge(88, 112).
edge(105, 209).
edge(14, 116).
edge(36, 233).
edge(18, 81).
edge(165, 175).
edge(20, 124).
edge(76, 78).
edge(105, 188).
edge(153, 159).
edge(19, 103).
edge(5, 150).
edge(48, 156).
edge(65, 135).
edge(42, 79).
edge(45, 199).
edge(56, 101).
edge(18, 132).
edge(21, 204).
edge(173, 190).
edge(82, 209).
edge(166, 214).
edge(36, 148).
edge(74, 236).
edge(17, 64).
edge(67, 80).
edge(48, 143).
edge(192, 225).
edge(111, 224).
edge(33, 85).
edge(52, 97).
edge(89, 145).
edge(114, 168).
edge(1, 34).
edge(40, 168).
edge(26, 113).
edge(7, 143).
edge(73, 117).
edge(82, 126).
edge(26, 180).
edge(132, 140).
edge(139, 148).
edge(118, 212).
edge(28, 232).
edge(231, 238).
edge(6, 134).
edge(114, 132).
edge(84, 241).
edge(85, 100).
edge(27, 217).
edge(2, 64).
edge(72, 159).
edge(102, 193).
edge(91, 183).
edge(130, 186).
edge(20, 178).
edge(128, 219).
edge(20, 144).
edge(34, 213).
edge(3, 15).
edge(28, 52).
edge(26, 126).
edge(106, 134).
edge(74, 216).
edge(14, 158).
edge(53, 88).
edge(32, 185).
edge(19, 225).
edge(27, 97).
edge(65, 226).
edge(148, 236).
edge(155, 239).
edge(91, 110).
edge(4, 185).
edge(141, 157).
edge(37, 91).
edge(24, 84).
edge(103, 187).
edge(14, 209).
edge(133, 177).
edge(97, 217).
edge(28, 38).
edge(233, 234).
edge(106, 237).
edge(107, 153).
edge(138, 222).
edge(80, 92).
edge(137, 196).
edge(59, 239).
edge(68, 143).
edge(30, 139).
edge(117, 240).
edge(155, 241).
edge(91, 94).
edge(51, 133).
edge(146, 214).
edge(77, 171).
edge(50, 240).
edge(56, 91).
edge(42, 148).
edge(20, 174).
edge(65, 156).
edge(198, 220).
edge(4, 108).
edge(138, 172).
edge(12, 112).
edge(23, 73).
edge(96, 128).
edge(19, 231).
edge(148, 224).
edge(180, 237).
edge(190, 191).
edge(113, 214).
edge(63, 90).
edge(166, 178).
edge(58, 160).
edge(104, 194).
edge(68, 100).
edge(41, 217).
edge(49, 160).
edge(47, 82).
edge(172, 229).
edge(181, 184).
edge(22, 185).
edge(18, 114).
edge(63, 133).
edge(105, 221).
edge(121, 242).
edge(57, 174).
edge(15, 150).
edge(3, 175).
edge(20, 153).
edge(37, 118).
edge(32, 58).
edge(74, 209).
edge(95, 137).
edge(3, 54).
edge(35, 91).
edge(55, 96).
edge(52, 119).
edge(29, 62).
edge(6, 229).
edge(47, 207).
edge(173, 187).
edge(122, 217).
edge(18, 169).
edge(91, 213).
edge(58, 135).
edge(67, 129).
edge(37, 173).
edge(53, 84).
edge(117, 160).
edge(105, 239).
edge(164, 183).
edge(73, 113).
edge(176, 204).
edge(11, 139).
edge(99, 168).
edge(51, 131).
edge(106, 157).
edge(97, 172).
edge(5, 190).
edge(112, 157).
edge(177, 205).
edge(20, 47).
edge(47, 101).
edge(51, 127).
edge(7, 238).
edge(54, 202).
edge(3, 184).
edge(4, 60).
edge(36, 67).
edge(73, 141).
edge(54, 197).
edge(48, 176).
edge(104, 158).
edge(106, 215).
edge(81, 133).
edge(119, 183).
edge(156, 158).
edge(147, 153).
edge(32, 84).
edge(72, 230).
edge(150, 232).
edge(11, 147).
edge(60, 133).
edge(12, 59).
edge(174, 220).
edge(209, 234).
edge(143, 153).
edge(33, 82).
edge(213, 232).
edge(87, 99).
edge(21, 72).
edge(75, 183).
edge(136, 200).
edge(105, 195).
edge(19, 157).
edge(34, 103).
edge(57, 122).
edge(207, 225).
edge(44, 184).
edge(150, 165).
edge(115, 177).
edge(144, 199).
edge(15, 175).
edge(22, 186).
edge(8, 67).
edge(36, 199).
edge(98, 196).
edge(19, 105).
edge(101, 115).
edge(184, 217).
edge(37, 158).
edge(7, 32).
edge(76, 210).
edge(20, 241).
edge(21, 107).
edge(74, 177).
edge(9, 87).
edge(6, 56).
edge(25, 200).
edge(193, 204).
edge(101, 108).
edge(157, 216).
edge(5, 179).
edge(56, 78).
edge(89, 163).
edge(213, 224).
edge(162, 234).
edge(20, 140).
edge(99, 206).
edge(3, 65).
edge(60, 162).
edge(50, 144).
edge(13, 31).
edge(55, 121).
edge(95, 231).
edge(45, 150).
edge(20, 23).
edge(57, 155).
edge(38, 90).
edge(88, 101).
edge(34, 131).
edge(33, 239).
edge(51, 231).
edge(5, 233).
edge(42, 189).
edge(88, 89).
edge(90, 191).
edge(112, 195).
edge(63, 81).
edge(34, 132).
edge(31, 163).
edge(98, 183).
edge(85, 201).
edge(64, 163).
edge(131, 187).
edge(63, 191).
edge(106, 169).
edge(72, 222).
edge(110, 130).
edge(106, 236).
edge(58, 106).
edge(92, 97).
edge(42, 221).
edge(164, 211).
edge(116, 137).
edge(76, 77).
edge(5, 214).
edge(25, 74).
edge(30, 142).
edge(21, 127).
edge(38, 172).
edge(30, 236).
edge(110, 132).
edge(11, 220).
edge(30, 100).
edge(127, 164).
edge(50, 88).
edge(87, 204).
edge(169, 211).
edge(56, 207).
edge(57, 177).
edge(1, 151).
edge(88, 138).
edge(5, 236).
edge(77, 143).
edge(61, 188).
edge(6, 119).
edge(29, 112).
edge(27, 41).
edge(25, 188).
edge(41, 54).
edge(64, 213).
edge(152, 213).
edge(45, 195).
edge(107, 224).
edge(145, 241).
edge(54, 209).
edge(6, 172).
edge(182, 238).
edge(142, 172).
edge(70, 175).
edge(27, 134).
edge(148, 176).
edge(27, 51).
edge(66, 145).
edge(200, 224).
edge(78, 180).
edge(10, 180).
edge(101, 171).
edge(45, 208).
edge(95, 133).
edge(7, 121).
edge(39, 65).
edge(192, 219).
edge(57, 231).
edge(27, 139).
edge(93, 139).
edge(53, 73).
edge(176, 214).
edge(14, 62).
edge(179, 238).
edge(66, 134).
edge(68, 94).
edge(144, 173).
edge(122, 128).
edge(172, 198).
edge(41, 129).
edge(106, 233).
edge(59, 218).
edge(70, 164).
edge(222, 242).
edge(31, 169).
edge(26, 185).
edge(27, 208).
edge(9, 32).
edge(32, 220).
edge(28, 188).
edge(38, 183).
edge(87, 196).
edge(67, 92).
edge(33, 221).
edge(82, 107).
edge(99, 164).
edge(131, 233).
edge(98, 219).
edge(81, 101).
edge(56, 194).
edge(183, 193).
edge(22, 110).
edge(220, 225).
edge(44, 132).
edge(84, 156).
edge(119, 225).
edge(223, 229).
edge(105, 146).
edge(207, 224).
edge(104, 153).
edge(223, 239).
edge(162, 182).
edge(178, 218).
edge(16, 62).
edge(65, 139).
edge(139, 150).
edge(26, 30).
edge(14, 38).
edge(152, 194).
edge(30, 64).
edge(105, 211).
edge(130, 211).
edge(130, 170).
edge(176, 197).
edge(132, 229).
edge(166, 170).
edge(56, 97).
edge(35, 228).
edge(123, 145).
edge(1, 27).
edge(44, 66).
edge(131, 163).
edge(33, 62).
edge(94, 239).
edge(185, 214).
edge(10, 181).
edge(237, 239).
edge(196, 235).
edge(142, 157).
edge(104, 226).
edge(75, 125).
edge(98, 108).
edge(0, 140).
edge(39, 157).
edge(87, 150).
edge(40, 175).
edge(148, 172).
edge(132, 184).
edge(63, 89).
edge(82, 132).
edge(143, 237).
edge(175, 183).
edge(86, 106).
edge(127, 208).
edge(111, 173).
edge(25, 241).
edge(130, 133).
edge(8, 159).
edge(207, 215).
edge(111, 231).
edge(136, 205).
edge(9, 67).
edge(116, 187).
edge(27, 62).
edge(100, 124).
edge(55, 224).
edge(21, 153).
edge(56, 176).
edge(19, 177).
edge(19, 185).
edge(28, 203).
edge(82, 192).
edge(66, 152).
edge(117, 226).
edge(48, 96).
edge(80, 191).
edge(9, 162).
edge(24, 197).
edge(32, 78).
edge(34, 64).
edge(15, 169).
edge(149, 157).
edge(180, 200).
edge(63, 174).
edge(202, 241).
edge(48, 163).
edge(10, 186).
edge(20, 182).
edge(65, 188).
edge(72, 216).
edge(7, 91).
edge(72, 102).
edge(70, 99).
edge(4, 18).
edge(44, 178).
edge(93, 120).
edge(24, 200).
edge(99, 123).
edge(1, 104).
edge(71, 232).
edge(120, 182).
edge(14, 192).
edge(11, 85).
edge(22, 65).
edge(97, 118).
edge(23, 102).
edge(7, 104).
edge(12, 72).
edge(1, 67).
edge(120, 164).
edge(5, 154).
edge(74, 93).
edge(199, 238).
edge(129, 192).
edge(17, 87).
edge(166, 220).
edge(37, 192).
edge(121, 150).
edge(53, 122).
edge(152, 158).
edge(80, 85).
edge(48, 74).
edge(152, 222).
edge(28, 66).
edge(90, 111).
edge(86, 196).
edge(57, 107).
edge(56, 76).
edge(31, 158).
edge(29, 183).
edge(178, 242).
edge(144, 201).
edge(1, 38).
edge(2, 11).
edge(174, 177).
edge(30, 136).
edge(75, 119).
edge(102, 161).
edge(53, 78).
edge(114, 135).
edge(31, 162).
edge(18, 225).
edge(32, 86).
edge(88, 125).
edge(40, 83).
edge(36, 44).
edge(214, 221).
edge(196, 225).
edge(13, 50).
edge(91, 96).
edge(109, 212).
edge(33, 90).
edge(121, 216).
edge(39, 153).
edge(64, 67).
edge(124, 186).
edge(36, 175).
edge(104, 115).
edge(1, 180).
edge(42, 174).
edge(156, 219).
edge(63, 234).
edge(44, 49).
edge(105, 175).
edge(27, 212).
edge(198, 237).
edge(36, 110).
edge(119, 148).
edge(16, 157).
edge(133, 172).
edge(7, 80).
edge(32, 233).
edge(124, 127).
edge(87, 194).
edge(130, 137).
edge(149, 230).
edge(66, 242).
edge(119, 136).
edge(139, 179).
edge(48, 208).
edge(126, 227).
edge(151, 195).
edge(105, 196).
edge(53, 115).
edge(106, 159).
edge(109, 188).
edge(43, 224).
edge(89, 134).
edge(42, 76).
edge(163, 215).
edge(116, 190).
edge(146, 177).
edge(12, 205).
edge(18, 154).
edge(111, 131).
edge(176, 235).
edge(85, 209).
edge(175, 234).
edge(97, 140).
edge(45, 238).
edge(112, 223).
edge(28, 128).
edge(25, 208).
edge(88, 210).
edge(62, 237).
edge(35, 242).
edge(3, 232).
edge(130, 168).
edge(31, 215).
edge(172, 242).
edge(57, 203).
edge(123, 141).
edge(104, 170).
edge(6, 29).
edge(36, 125).
edge(111, 176).
edge(123, 184).
edge(132, 233).
edge(35, 176).
edge(25, 168).
edge(22, 212).
edge(54, 177).
edge(10, 160).
edge(5, 42).
edge(20, 194).
edge(120, 198).
edge(39, 93).
edge(35, 54).
edge(29, 176).
edge(130, 155).
edge(98, 210).
edge(174, 176).
edge(44, 100).
edge(197, 214).
edge(1, 131).
edge(46, 206).
edge(46, 194).
edge(31, 75).
edge(226, 234).
edge(28, 93).
edge(116, 241).
edge(96, 194).
edge(156, 175).
edge(120, 158).
edge(9, 37).
edge(82, 193).
edge(175, 221).
edge(13, 234).
edge(146, 167).
edge(13, 158).
edge(28, 119).
edge(149, 214).
edge(54, 237).
edge(25, 234).
edge(158, 210).
edge(27, 157).
edge(49, 120).
edge(29, 189).
edge(14, 27).
edge(104, 228).
edge(9, 233).
edge(168, 218).
edge(3, 224).
edge(189, 219).
edge(77, 123).
edge(161, 189).
edge(21, 26).
edge(23, 227).
edge(20, 183).
edge(209, 223).
edge(172, 218).
edge(18, 141).
edge(124, 178).
edge(95, 119).
edge(83, 135).
edge(70, 73).
edge(76, 141).
edge(94, 202).
edge(37, 66).
edge(116, 179).
edge(44, 126).
edge(111, 126).
edge(13, 160).
edge(96, 190).
edge(137, 181).
edge(186, 202).
edge(209, 230).
edge(157, 167).
edge(71, 125).
edge(2, 182).
edge(58, 166).
edge(22, 115).
edge(104, 138).
edge(211, 239).
edge(0, 146).
edge(8, 20).
edge(64, 239).
edge(106, 122).
edge(162, 242).
edge(34, 55).
edge(74, 112).
edge(19, 219).
edge(21, 110).
edge(93, 111).
edge(128, 153).
edge(142, 196).
edge(44, 75).
edge(60, 181).
edge(48, 126).
edge(11, 186).
edge(11, 45).
edge(198, 242).
edge(0, 19).
edge(13, 117).
edge(46, 143).
edge(22, 230).
edge(200, 201).
edge(198, 238).
edge(128, 181).
edge(34, 57).
edge(107, 118).
edge(1, 97).
edge(155, 172).
edge(130, 218).
edge(106, 180).
edge(42, 72).
edge(51, 58).
edge(175, 200).
edge(36, 119).
edge(1, 214).
edge(6, 192).
edge(118, 226).
edge(122, 155).
edge(22, 132).
edge(32, 167).
edge(5, 94).
edge(81, 239).
edge(51, 111).
edge(43, 47).
edge(179, 181).
edge(16, 201).
edge(26, 169).
edge(37, 190).
edge(117, 221).
edge(30, 32).
edge(174, 195).
edge(27, 93).
edge(103, 168).
edge(72, 147).
edge(166, 188).
edge(39, 212).
edge(25, 226).
edge(137, 204).
edge(30, 72).
edge(110, 228).
edge(59, 89).
edge(105, 199).
edge(142, 154).
edge(2, 166).
edge(172, 211).
edge(126, 156).
edge(11, 70).
edge(63, 236).
edge(98, 129).
edge(81, 135).
edge(80, 94).
edge(116, 145).
edge(51, 95).
edge(49, 192).
edge(232, 238).
edge(17, 41).
edge(151, 181).
edge(7, 228).
edge(30, 175).
edge(158, 200).
edge(157, 172).
edge(5, 32).
edge(40, 182).
edge(73, 152).
edge(157, 229).
edge(16, 45).
edge(14, 201).
edge(77, 193).
edge(109, 134).
edge(66, 99).
edge(60, 160).
edge(32, 82).
edge(141, 185).
edge(83, 189).
edge(112, 147).
edge(184, 208).
edge(18, 117).
edge(28, 213).
edge(127, 193).
edge(66, 179).
edge(40, 162).
edge(95, 96).
edge(4, 209).
edge(134, 147).
edge(65, 107).
edge(38, 234).
edge(94, 230).
edge(37, 215).
edge(47, 85).
edge(14, 126).
edge(55, 162).
edge(21, 55).
edge(68, 114).
edge(26, 68).
edge(62, 89).
edge(208, 231).
edge(5, 202).
edge(5, 112).
edge(208, 209).
edge(5, 83).
edge(77, 183).
edge(175, 212).
edge(21, 238).
edge(17, 217).
edge(1, 182).
edge(91, 220).
edge(72, 73).
edge(8, 30).
edge(27, 234).
edge(12, 120).
weight(0, 3).
weight(1, 1).
weight(2, 10).
weight(3, 6).
weight(4, 6).
weight(5, 9).
weight(6, 8).
weight(7, 4).
weight(8, 4).
weight(9, 6).
weight(10, 7).
weight(11, 7).
weight(12, 11).
weight(13, 4).
weight(14, 5).
weight(15, 2).
weight(16, 4).
weight(17, 2).
weight(18, 3).
weight(19, 6).
weight(20, 10).
weight(21, 2).
weight(22, 8).
weight(23, 7).
weight(24, 10).
weight(25, 1).
weight(26, 1).
weight(27, 4).
weight(28, 1).
weight(29, 11).
weight(30, 6).
weight(31, 3).
weight(32, 1).
weight(33, 9).
weight(34, 6).
weight(35, 4).
weight(36, 9).
weight(37, 5).
weight(38, 1).
weight(39, 1).
weight(40, 3).
weight(41, 1).
weight(42, 7).
weight(43, 5).
weight(44, 2).
weight(45, 2).
weight(46, 4).
weight(47, 10).
weight(48, 4).
weight(49, 7).
weight(50, 3).
weight(51, 11).
weight(52, 2).
weight(53, 7).
weight(54, 4).
weight(55, 6).
weight(56, 6).
weight(57, 3).
weight(58, 8).
weight(59, 10).
weight(60, 3).
weight(61, 11).
weight(62, 1).
weight(63, 4).
weight(64, 9).
weight(65, 9).
weight(66, 7).
weight(67, 7).
weight(68, 10).
weight(69, 8).
weight(70, 6).
weight(71, 5).
weight(72, 2).
weight(73, 4).
weight(74, 10).
weight(75, 3).
weight(76, 8).
weight(77, 9).
weight(78, 7).
weight(79, 8).
weight(80, 9).
weight(81, 6).
weight(82, 1).
weight(83, 10).
weight(84, 9).
weight(85, 10).
weight(86, 2).
weight(87, 3).
weight(88, 4).
weight(89, 7).
weight(90, 4).
weight(91, 5).
weight(92, 3).
weight(93, 5).
weight(94, 7).
weight(95, 9).
weight(96, 3).
weight(97, 8).
weight(98, 3).
weight(99, 8).
weight(100, 11).
weight(101, 10).
weight(102, 6).
weight(103, 11).
weight(104, 10).
weight(105, 9).
weight(106, 9).
weight(107, 9).
weight(108, 4).
weight(109, 4).
weight(110, 3).
weight(111, 9).
weight(112, 10).
weight(113, 8).
weight(114, 9).
weight(115, 7).
weight(116, 10).
weight(117, 2).
weight(118, 3).
weight(119, 2).
weight(120, 7).
weight(121, 8).
weight(122, 11).
weight(123, 1).
weight(124, 4).
weight(125, 2).
weight(126, 4).
weight(127, 10).
weight(128, 8).
weight(129, 1).
weight(130, 5).
weight(131, 3).
weight(132, 9).
weight(133, 3).
weight(134, 8).
weight(135, 5).
weight(136, 1).
weight(137, 1).
weight(138, 4).
weight(139, 7).
weight(140, 11).
weight(141, 10).
weight(142, 1).
weight(143, 7).
weight(144, 1).
weight(145, 7).
weight(146, 9).
weight(147, 6).
weight(148, 3).
weight(149, 9).
weight(150, 6).
weight(151, 7).
weight(152, 1).
weight(153, 10).
weight(154, 4).
weight(155, 7).
weight(156, 4).
weight(157, 9).
weight(158, 10).
weight(159, 4).
weight(160, 2).
weight(161, 1).
weight(162, 9).
weight(163, 8).
weight(164, 7).
weight(165, 2).
weight(166, 10).
weight(167, 7).
weight(168, 11).
weight(169, 9).
weight(170, 7).
weight(171, 3).
weight(172, 8).
weight(173, 6).
weight(174, 6).
weight(175, 8).
weight(176, 8).
weight(177, 3).
weight(178, 8).
weight(179, 9).
weight(180, 1).
weight(181, 1).
weight(182, 5).
weight(183, 3).
weight(184, 9).
weight(185, 3).
weight(186, 4).
weight(187, 2).
weight(188, 7).
weight(189, 3).
weight(190, 4).
weight(191, 8).
weight(192, 5).
weight(193, 4).
weight(194, 9).
weight(195, 4).
weight(196, 9).
weight(197, 6).
weight(198, 4).
weight(199, 1).
weight(200, 1).
weight(201, 9).
weight(202, 6).
weight(203, 7).
weight(204, 2).
weight(205, 3).
weight(206, 2).
weight(207, 1).
weight(208, 4).
weight(209, 8).
weight(210, 11).
weight(211, 8).
weight(212, 5).
weight(213, 11).
weight(214, 10).
weight(215, 4).
weight(216, 4).
weight(217, 3).
weight(218, 6).
weight(219, 5).
weight(220, 4).
weight(221, 11).
weight(222, 11).
weight(223, 8).
weight(224, 3).
weight(225, 5).
weight(226, 8).
weight(227, 5).
weight(228, 10).
weight(229, 5).
weight(230, 6).
weight(231, 8).
weight(232, 8).
weight(233, 7).
weight(234, 4).
weight(235, 8).
weight(236, 8).
weight(237, 9).
weight(238, 6).
weight(239, 2).
weight(240, 10).
weight(241, 8).
weight(242, 7).
bound(160).

adj(U,V) :- edge(U,V).
adj(U,V) :- edge(V,U).
{in(V)} :- node(V).
dominated(V) :- in(V).
dominated(V) :- in(U), adj(U,V).
:- node(V), not dominated(V).
:- bound(B), #sum{W,V : in(V), weight(V,W)} > B.
:~ in(V), weight(V,W). [W@1,V]
