node(0..144).
edge(11, 43).
edge(84, 98).
edge(3, 6).
edge(30, 123).
edge(1, 62).
edge(27, 121).
edge(5, 77).
edge(95, 102).
edge(23, 41).
edge(3, 39).
edge(36, 72).
edge(3, 138).
edge(7, 112).
edge(35, 120).
edge(59, 111).
edge(6, 41).
edge(26, 104).
edge(136, 141).
edge(9, 48).
edge(15, 22).
edge(100, 130).
edge(122, 131).
edge(31, 102).
edge(61, 136).
edge(54, 100).
edge(12, 107).
edge(50, 66).
edge(52, 116).
edge(84, 112).
edge(68, 122).
edge(5, 135).
edge(48, 139).
edge(52, 123).
edge(20, 118).
edge(0, 65).
edge(101, 114).
edge(67, 91).
edge(28, 94).
edge(111, 122).
edge(5, 31).
edge(84, 137).
edge(3, 123).
edge(52, 122).
edge(8, 118).
edge(29, 38).
edge(12, 27).
edge(61, 77).
edge(82, 95).
edge(96, 136).
edge(11, 42).
edge(71, 123).
edge(19, 28).
edge(79, 115).
edge(79, 113).
edge(52, 60).
edge(2, 129).
edge(133, 138).
edge(69, 111).
edge(54, 109).
edge(15, 45).
edge(50, 64).
edge(31, 117).
edge(72, 125).
edge(31, 67).
edge(48, 75).
edge(26, 29).
edge(60, 104).
edge(26, 42).
edge(9, 59).
edge(44, 72).
edge(18, 83).
edge(15, 124).
edge(121, 125).
edge(39, 96).
edge(12, 89).
edge(27, 84).
edge(99, 105).
edge(6, 81).
edge(40, 128).
edge(38, 125).
edge(22, 98).
edge(68, 98).
edge(107, 135).
edge(35, 124).
edge(19, 81).
edge(37, 54).
edge(25, 30).
edge(122, 133).
edge(24, 40).
edge(26, 143).
edge(72, 121).
edge(24, 66).
edge(2, 119).
edge(30, 73).
edge(35, 97).
edge(109, 142).
edge(28, 64).
edge(13, 30).
edge(46, 102).
edge(38, 72).
edge(28, 36).
edge(34, 126).
edge(28, 59).
edge(112, 136).
edge(25, 86).
edge(86, 88).
edge(25, 46).
edge(48, 96).
edge(93, 124).
edge(62, 87).
edge(80, 96).
edge(7, 125).
edge(11, 123).
edge(56, 79).
edge(34, 54).
edge(13, 51).
edge(76, 115).
edge(75, 129).
edge(95, 135).
edge(57, 128).
edge(59, 144).
edge(77, 83).
edge(12, 49).
edge(88, 132).
edge(69, 113).
edge(76, 112).
edge(3, 43).
edge(48, 50).
edge(32, 43).
edge(14, 33).
edge(57, 105).
edge(20, 26).
edge(105, 113).
edge(9, 14).
edge(3, 50).
edge(108, 126).
edge(28, 47).
edge(64, 96).
edge(41, 83).
edge(53, 95).
edge(3, 66).
edge(17, 115).
edge(118, 126).
edge(2, 21).
edge(32, 34).
edge(4, 12).
edge(25, 97).
edge(5, 89).
edge(9, 73).
edge(52, 112).
edge(2, 74).
edge(31, 118).
edge(6, 72).
edge(54, 124).
edge(18, 26).
edge(40, 43).
edge(120, 143).
edge(72, 115).
edge(23, 113).
edge(31, 65).
edge(61, 100).
edge(13, 16).
edge(11, 12).
edge(51, 73).
edge(32, 86).
edge(46, 49).
edge(16, 28).
edge(88, 111).
edge(111, 138).
edge(54, 129).
edge(86, 142).
edge(80, 91).
edge(66, 104).
edge(1, 44).
edge(23, 70).
edge(123, 125).
edge(56, 98).
edge(16, 37).
edge(18, 132).
edge(22, 55).
edge(9, 51).
edge(20, 82).
edge(4, 15).
edge(6, 10).
edge(61, 73).
edge(24, 123).
edge(13, 137).
edge(21, 43).
edge(52, 124).
edge(3, 139).
edge(22, 72).
edge(85, 134).
edge(25, 42).
edge(76, 104).
edge(54, 128).
edge(63, 133).
edge(47, 101).
edge(28, 118).
edge(18, 119).
edge(41, 128).
edge(0, 93).
edge(19, 20).
edge(33, 76).
edge(24, 141).
edge(39, 103).
edge(21, 37).
edge(108, 121).
edge(14, 68).
edge(77, 138).
edge(55, 121).
edge(80, 126).
edge(37, 144).
edge(102, 141).
edge(32, 112).
edge(41, 65).
edge(20, 50).
edge(84, 144).
edge(58, 143).
edge(21, 86).
edge(31, 64).
edge(66, 108).
edge(52, 55).
edge(56, 141).
edge(67, 116).
edge(100, 114).
edge(92, 93).
edge(61, 66).
edge(66, 128).
edge(140, 144).
edge(7, 127).
edge(54, 81).
edge(89, 143).
edge(38, 82).
edge(33, 112).
edge(48, 52).
edge(11, 48).
edge(40, 104).
edge(59, 107).
edge(23, 66).
edge(32, 116).
edge(59, 141).
edge(29, 73).
edge(57, 106).
edge(71, 79).
edge(96, 138).
edge(35, 139).
edge(52, 105).
edge(14, 39).
edge(5, 58).
edge(131, 141).
edge(52, 115).
edge(8, 92).
edge(102, 144).
edge(27, 54).
edge(60, 100).
edge(117, 120).
edge(9, 99).
edge(46, 94).
edge(7, 38).
edge(32, 84).
edge(80, 118).
edge(3, 86).
edge(63, 68).
edge(68, 77).
edge(109, 131).
edge(70, 134).
edge(42, 81).
edge(28, 136).
edge(12, 36).
edge(38, 97).
edge(92, 119).
edge(47, 119).
edge(91, 105).
edge(63, 65).
edge(13, 134).
edge(69, 108).
edge(77, 95).
edge(17, 78).
edge(65, 83).
edge(21, 128).
edge(26, 78).
edge(24, 70).
edge(47, 129).
edge(8, 109).
edge(61, 80).
edge(67, 104).
edge(18, 98).
edge(17, 122).
edge(106, 142).
edge(8, 45).
edge(30, 55).
edge(3, 24).
edge(45, 52).
edge(37, 111).
edge(33, 75).
edge(6, 139).
edge(48, 53).
edge(40, 61).
edge(2, 95).
edge(94, 136).
edge(63, 120).
edge(9, 103).
edge(10, 100).
edge(56, 65).
edge(96, 112).
edge(22, 75).
edge(0, 106).
edge(3, 141).
edge(5, 80).
edge(46, 89).
edge(43, 66).
edge(27, 102).
edge(36, 50).
edge(89, 122).
edge(76, 137).
edge(12, 78).
edge(41, 126).
edge(107, 124).
edge(27, 90).
edge(30, 66).
edge(53, 68).
edge(13, 140).
edge(59, 60).
edge(33, 92).
edge(4, 127).
edge(31, 63).
edge(2, 106).
edge(40, 48).
edge(91, 132).
edge(82, 113).
edge(69, 112).
edge(101, 131).
edge(44, 82).
edge(9, 117).
edge(116, 120).
edge(102, 122).
edge(11, 52).
edge(83, 126).
edge(31, 112).
edge(51, 90).
edge(16, 96).
edge(74, 118).
edge(54, 90).
edge(85, 137).
edge(137, 143).
edge(9, 76).
edge(20, 33).
edge(63, 117).
edge(34, 73).
edge(11, 130).
edge(5, 136).
edge(6, 69).
edge(35, 83).
edge(13, 106).
edge(58, 67).
edge(64, 107).
edge(53, 143).
edge(33, 82).
edge(12, 130).
edge(32, 79).
edge(117, 135).
edge(51, 137).
edge(102, 111).
edge(111, 141).
edge(37, 98).
edge(13, 139).
edge(74, 112).
edge(15, 40).
edge(69, 143).
edge(86, 128).
edge(110, 128).
edge(73, 139).
edge(103, 118).
edge(45, 72).
edge(16, 101).
edge(7, 69).
edge(87, 117).
edge(20, 101).
edge(22, 89).
edge(24, 110).
edge(10, 12).
edge(28, 97).
edge(26, 116).
edge(74, 129).
edge(42, 60).
edge(53, 116).
edge(0, 100).
edge(20, 24).
edge(8, 137).
edge(50, 136).
edge(13, 44).
edge(35, 40).
edge(35, 118).
edge(35, 77).
edge(97, 126).
edge(47, 137).
edge(43, 103).
edge(49, 52).
edge(8, 72).
edge(53, 77).
edge(100, 116).
edge(8, 70).
edge(105, 123).
edge(62, 98).
edge(38, 99).
edge(26, 40).
edge(32, 124).
edge(36, 100).
edge(66, 140).
edge(6, 64).
edge(71, 133).
edge(111, 127).
edge(92, 120).
edge(43, 53).
edge(34, 48).
edge(35, 58).
edge(52, 127).
edge(52, 111).
edge(84, 117).
edge(49, 60).
edge(43, 144).
edge(8, 62).
edge(27, 49).
edge(71, 77).
edge(7, 28).
edge(77, 136).
edge(9, 94).
edge(1, 110).
edge(3, 28).
edge(41, 72).
edge(39, 140).
edge(0, 88).
edge(34, 113).
edge(80, 114).
edge(21, 141).
edge(81, 123).
edge(66, 84).
edge(45, 74).
edge(69, 132).
edge(25, 67).
edge(13, 67).
edge(3, 36).
edge(81, 139).
edge(34, 100).
edge(48, 128).
edge(27, 129).
edge(122, 125).
edge(37, 105).
edge(10, 59).
edge(57, 99).
edge(38, 110).
edge(56, 94).
edge(21, 52).
edge(50, 128).
edge(43, 140).
edge(21, 127).
edge(67, 77).
edge(58, 134).
edge(9, 123).
edge(51, 120).
edge(2, 38).
edge(6, 90).
edge(95, 131).
edge(5, 59).
edge(26, 137).
edge(40, 124).
edge(0, 15).
edge(35, 41).
edge(32, 129).
edge(13, 24).
edge(65, 97).
edge(27, 113).
edge(13, 93).
edge(65, 80).
edge(12, 92).
edge(29, 138).
edge(23, 114).
edge(40, 89).
edge(61, 76).
edge(18, 33).
edge(4, 46).
edge(74, 135).
edge(32, 101).
edge(113, 141).
edge(55, 136).
edge(69, 99).
edge(55, 141).
edge(39, 117).
edge(10, 76).
edge(78, 131).
edge(97, 117).
edge(81, 125).
edge(94, 112).
edge(21, 87).
edge(23, 44).
edge(22, 79).
edge(30, 117).
edge(63, 130).
edge(45, 66).
edge(63, 122).
edge(29, 141).
edge(46, 87).
edge(59, 138).
edge(45, 67).
edge(29, 107).
edge(37, 119).
edge(98, 108).
edge(66, 134).
edge(56, 111).
edge(112, 124).
edge(86, 100).
edge(30, 65).
edge(11, 77).
edge(11, 54).
edge(39, 113).
edge(29, 31).
edge(51, 144).
edge(21, 117).
edge(47, 110).
edge(117, 131).
edge(39, 65).
edge(14, 73).
edge(10, 73).
edge(5, 90).
edge(38, 61).
edge(30, 63).
edge(39, 122).
edge(12, 57).
edge(47, 53).
edge(54, 119).
edge(30, 102).
edge(94, 143).
edge(8, 116).
edge(11, 50).
edge(47, 111).
edge(136, 143).
edge(92, 133).
edge(41, 90).
edge(42, 120).
edge(78, 125).
edge(14, 45).
edge(31, 73).
edge(64, 136).
edge(34, 67).
edge(47, 72).
edge(33, 59).
edge(47, 61).
edge(73, 123).
edge(10, 55).
edge(8, 142).
edge(20, 66).
edge(16, 39).
edge(68, 128).
edge(65, 75).
edge(77, 102).
edge(61, 79).
edge(138, 142).
edge(40, 92).
edge(41, 125).
edge(35, 44).
edge(25, 59).
edge(7, 109).
edge(12, 69).
edge(50, 61).
edge(39, 45).
edge(53, 123).
edge(12, 14).
edge(79, 90).
edge(18, 93).
edge(14, 53).
edge(125, 132).
edge(20, 43).
edge(53, 124).
edge(61, 85).
edge(40, 130).
edge(66, 120).
edge(69, 100).
edge(28, 82).
edge(48, 94).
edge(2, 22).
edge(96, 111).
edge(40, 113).
edge(93, 98).
edge(50, 59).
edge(1, 89).
edge(62, 75).
edge(2, 65).
edge(56, 123).
edge(8, 21).
edge(11, 29).
edge(58, 117).
edge(60, 140).
edge(25, 87).
edge(50, 92).
edge(111, 144).
edge(86, 93).
edge(9, 31).
edge(0, 45).
edge(124, 134).
edge(99, 143).
edge(26, 36).
edge(4, 17).
edge(49, 69).
edge(105, 121).
edge(30, 131).
edge(67, 87).
edge(73, 94).
edge(60, 138).
edge(5, 123).
edge(20, 55).
edge(17, 66).
edge(21, 144).
edge(128, 137).
edge(47, 144).
edge(43, 85).
edge(59, 110).
edge(18, 115).
edge(56, 63).
edge(50, 103).
edge(51, 69).
edge(24, 58).
edge(96, 123).
edge(34, 53).
edge(62, 95).
edge(10, 46).
edge(68, 115).
edge(131, 144).
edge(94, 108).
edge(50, 116).
edge(96, 110).
edge(1, 5).
edge(45, 139).
edge(10, 82).
edge(21, 131).
edge(32, 143).
edge(36, 136).
edge(42, 97).
edge(70, 90).
edge(2, 61).
edge(89, 107).
edge(109, 122).
edge(78, 81).
edge(2, 122).
edge(26, 105).
edge(17, 93).
edge(21, 22).
edge(31, 45).
edge(17, 81).
edge(7, 50).
edge(18, 68).
edge(9, 77).
edge(22, 35).
edge(79, 80).
edge(88, 141).
edge(22, 67).
edge(33, 143).
edge(15, 68).
edge(104, 120).
edge(34, 131).
edge(86, 105).
edge(70, 127).
edge(67, 118).
edge(32, 40).
edge(0, 22).
edge(80, 112).
edge(104, 112).
edge(30, 44).
edge(2, 92).
edge(52, 137).
edge(25, 49).
edge(27, 105).
edge(31, 59).
edge(96, 132).
edge(20, 110).
edge(10, 78).
edge(52, 135).
edge(88, 136).
edge(96, 140).
edge(87, 125).
edge(9, 104).
edge(50, 69).
edge(43, 88).
edge(74, 131).
edge(7, 19).
edge(21, 109).
edge(11, 115).
edge(80, 97).
edge(35, 75).
edge(72, 112).
edge(14, 30).
edge(13, 33).
edge(11, 97).
edge(32, 99).
edge(35, 61).
edge(9, 47).
edge(45, 100).
edge(56, 103).
edge(77, 133).
edge(87, 113).
edge(12, 102).
edge(1, 47).
edge(69, 134).
edge(58, 63).
edge(122, 130).
edge(81, 138).
edge(4, 91).
edge(19, 108).
edge(53, 100).
edge(7, 108).
edge(87, 141).
edge(60, 107).
edge(79, 127).
edge(104, 137).
edge(54, 67).
edge(50, 118).
edge(10, 135).
edge(71, 88).
edge(67, 92).
edge(21, 88).
edge(33, 37).
edge(8, 9).
edge(47, 100).
edge(57, 123).
edge(20, 99).
edge(89, 127).
edge(42, 71).
edge(29, 81).
edge(42, 127).
edge(33, 53).
edge(135, 141).
edge(90, 112).
edge(69, 85).
edge(42, 115).
edge(17, 101).
edge(44, 58).
edge(31, 77).
edge(0, 73).
edge(9, 63).
edge(91, 128).
edge(50, 74).
edge(44, 116).
edge(70, 144).
edge(13, 77).
edge(61, 125).
edge(11, 79).
edge(82, 94).
edge(30, 101).
edge(0, 111).
edge(80, 139).
edge(126, 129).
edge(31, 131).
edge(95, 134).
edge(7, 49).
edge(35, 82).
edge(7, 118).
edge(2, 108).
edge(40, 109).
edge(86, 131).
edge(12, 67).
edge(27, 32).
edge(15, 94).
edge(18, 91).
edge(4, 35).
edge(69, 127).
edge(73, 142).
edge(62, 77).
edge(18, 89).
edge(68, 112).
edge(90, 103).
edge(19, 43).
edge(30, 121).
edge(117, 142).
edge(56, 104).
edge(35, 84).
edge(97, 110).
edge(33, 142).
edge(80, 94).
edge(9, 55).
edge(60, 66).
edge(76, 82).
edge(29, 45).
edge(7, 74).
edge(57, 59).
edge(25, 140).
edge(35, 144).
edge(1, 2).
edge(12, 24).
edge(4, 41).
edge(31, 81).
edge(10, 32).
edge(83, 140).
edge(70, 116).
edge(36, 80).
edge(43, 118).
edge(17, 68).
edge(122, 138).
edge(60, 90).
edge(70, 136).
edge(36, 69).
edge(2, 54).
edge(8, 63).
edge(7, 126).
edge(40, 131).
edge(51, 80).
edge(13, 142).
edge(37, 75).
edge(55, 131).
edge(18, 77).
edge(25, 69).
edge(80, 111).
edge(47, 140).
edge(58, 135).
edge(16, 31).
edge(12, 63).
edge(36, 77).
edge(123, 127).
edge(29, 47).
edge(50, 52).
edge(26, 125).
edge(101, 141).
edge(10, 51).
edge(83, 122).
edge(25, 98).
edge(5, 86).
edge(72, 123).
edge(13, 128).
edge(18, 36).
edge(82, 123).
edge(46, 82).
edge(15, 52).
edge(66, 144).
edge(36, 116).
edge(65, 137).
edge(18, 40).
edge(57, 65).
edge(42, 117).
edge(91, 119).
edge(6, 49).
edge(71, 104).
edge(53, 59).
edge(47, 138).
edge(103, 109).
edge(29, 41).
edge(84, 85).
edge(34, 78).
edge(31, 80).
edge(85, 122).
edge(5, 44).
edge(9, 122).
edge(103, 116).
edge(7, 51).
edge(22, 134).
edge(100, 139).
edge(6, 58).
edge(93, 104).
edge(121, 127).
edge(49, 68).
edge(31, 127).
edge(79, 96).
edge(47, 85).
edge(1, 93).
edge(6, 105).
edge(22, 143).
edge(4, 142).
edge(33, 56).
edge(49, 135).
edge(40, 112).
edge(17, 21).
edge(12, 48).
edge(93, 131).
edge(0, 30).
edge(78, 128).
edge(71, 78).
edge(3, 105).
edge(22, 116).
edge(27, 141).
edge(14, 17).
edge(25, 57).
edge(76, 98).
edge(35, 130).
edge(82, 104).
edge(60, 93).
edge(107, 143).
edge(0, 61).
edge(24, 32).
edge(38, 128).
edge(126, 141).
edge(118, 120).
edge(103, 107).
edge(14, 41).
edge(43, 125).
edge(9, 42).
edge(55, 132).
edge(32, 96).
edge(2, 52).
edge(64, 97).
edge(63, 74).
edge(89, 139).
edge(75, 104).
edge(64, 132).
edge(51, 119).
edge(12, 73).
edge(27, 79).
edge(51, 124).
edge(84, 95).
edge(50, 124).
edge(72, 105).
edge(14, 29).
edge(5, 42).
edge(2, 41).
edge(106, 112).
edge(88, 135).
edge(52, 96).
edge(88, 90).
edge(6, 144).
edge(26, 132).
edge(2, 36).
edge(83, 136).
edge(72, 132).
edge(119, 139).
edge(10, 114).
edge(52, 62).
edge(65, 116).
edge(13, 117).
edge(19, 143).
edge(77, 99).
edge(39, 128).
edge(28, 61).
edge(13, 50).
edge(17, 55).
edge(35, 107).
edge(8, 50).
edge(13, 144).
edge(1, 59).
edge(24, 124).
edge(2, 16).
edge(71, 92).
edge(21, 110).
edge(16, 115).
edge(99, 100).
edge(31, 56).
edge(3, 37).
edge(66, 129).
edge(68, 91).
edge(23, 110).
edge(99, 122).
edge(55, 89).
edge(93, 94).
edge(20, 89).
edge(88, 89).
edge(37, 126).
edge(84, 108).
edge(30, 59).
edge(41, 121).
edge(4, 37).
edge(34, 59).
edge(3, 109).
edge(99, 129).
edge(102, 112).
edge(13, 110).
edge(28, 98).
edge(11, 92).
edge(83, 117).
edge(20, 65).
edge(0, 97).
edge(44, 143).
edge(98, 122).
edge(35, 136).
edge(29, 109).
edge(15, 122).
edge(31, 93).
edge(57, 63).
edge(52, 89).
edge(24, 42).
edge(50, 90).
edge(72, 99).
edge(135, 136).
edge(91, 123).
edge(22, 45).
edge(53, 141).
edge(39, 126).
edge(22, 39).
edge(49, 111).
edge(6, 13).
edge(2, 13).
edge(115, 122).
edge(0, 25).
edge(98, 124).
edge(37, 135).
edge(11, 136).
edge(9, 93).
edge(33, 136).
edge(82, 103).
edge(1, 8).
edge(11, 133).
edge(68, 97).
edge(75, 139).
edge(20, 90).
edge(42, 111).
edge(17, 63).
edge(139, 142).
edge(124, 127).
edge(119, 141).
edge(20, 144).
edge(1, 45).
edge(84, 126).
edge(87, 142).
edge(129, 141).
edge(3, 19).
edge(39, 76).
edge(97, 124).
edge(3, 41).
edge(86, 123).
edge(37, 73).
edge(83, 85).
edge(12, 128).
edge(5, 60).
edge(19, 55).
edge(111, 118).
edge(6, 54).
edge(6, 60).
edge(103, 117).
edge(48, 99).
edge(89, 103).
edge(43, 48).
edge(59, 75).
edge(76, 142).
edge(43, 65).
edge(9, 26).
edge(0, 112).
edge(35, 87).
edge(40, 76).
edge(43, 83).
edge(22, 95).
edge(17, 40).
edge(70, 91).
edge(112, 134).
edge(30, 76).
edge(79, 95).
edge(16, 34).
edge(3, 119).
edge(2, 124).
edge(113, 135).
edge(65, 133).
edge(98, 101).
edge(29, 106).
edge(62, 80).
edge(63, 103).
edge(27, 55).
edge(28, 80).
edge(39, 132).
edge(18, 35).
edge(56, 89).
edge(107, 123).
edge(34, 56).
edge(116, 131).
edge(57, 138).
edge(106, 107).
edge(47, 102).
edge(20, 48).
edge(44, 89).
edge(28, 106).
edge(34, 118).
edge(6, 28).
edge(77, 128).
edge(14, 40).
edge(68, 144).
edge(40, 65).
edge(44, 142).
edge(4, 89).
edge(134, 135).
edge(3, 40).
edge(86, 139).
edge(8, 133).
edge(75, 90).
edge(24, 63).
edge(90, 131).
edge(42, 58).
edge(90, 125).
edge(97, 137).
edge(4, 118).
edge(12, 40).
edge(2, 98).
edge(77, 139).
edge(25, 54).
edge(100, 129).
edge(37, 65).
edge(0, 80).
edge(22, 136).
edge(46, 119).
edge(125, 131).
edge(48, 65).
edge(37, 95).
edge(27, 76).
edge(21, 135).
edge(49, 120).
edge(40, 85).
edge(48, 106).
edge(67, 144).
edge(15, 38).
edge(31, 94).
edge(38, 51).
edge(36, 57).
edge(109, 125).
edge(36, 137).
edge(61, 120).
edge(2, 44).
edge(109, 143).
edge(80, 99).
edge(17, 67).
edge(34, 89).
edge(52, 63).
edge(27, 78).
edge(38, 144).
edge(16, 114).
edge(105, 142).
edge(94, 125).
edge(38, 93).
edge(46, 116).
edge(114, 118).
edge(44, 118).
edge(9, 89).
edge(53, 114).
edge(4, 103).
edge(56, 137).
edge(111, 132).
edge(123, 131).
edge(76, 123).
edge(7, 68).
edge(7, 84).
edge(18, 90).
edge(78, 141).
edge(54, 91).
edge(65, 98).
edge(38, 88).
edge(71, 109).
edge(5, 10).
edge(46, 73).
edge(118, 141).
edge(84, 109).
edge(46, 47).
edge(22, 97).
edge(105, 124).
edge(38, 48).
edge(51, 54).
edge(36, 144).
edge(75, 131).
edge(44, 81).
edge(0, 107).
edge(41, 71).
edge(50, 97).
edge(10, 111).
edge(59, 104).
edge(46, 129).
edge(45, 113).
edge(11, 139).
edge(47, 75).
edge(41, 76).
edge(28, 103).
edge(2, 97).
edge(92, 103).
edge(35, 108).
edge(84, 87).
edge(41, 101).
edge(33, 80).
edge(55, 95).
edge(86, 114).
edge(22, 139).
edge(11, 21).
edge(28, 50).
edge(57, 85).
edge(4, 16).
edge(70, 110).
edge(124, 142).
edge(12, 53).
edge(39, 130).
edge(99, 134).
edge(91, 136).
edge(59, 72).
edge(74, 143).
edge(57, 97).
edge(18, 94).
edge(26, 38).
edge(24, 29).
edge(12, 76).
edge(100, 113).
edge(20, 85).
edge(60, 64).
edge(91, 137).
edge(48, 51).
edge(109, 115).
edge(31, 115).
edge(39, 46).
edge(134, 137).
edge(28, 62).
edge(113, 132).
edge(25, 115).
edge(80, 89).
edge(76, 77).
edge(70, 111).
edge(51, 109).
edge(110, 119).
edge(23, 144).
edge(22, 101).
edge(30, 111).
edge(74, 128).
edge(54, 115).
edge(59, 123).
edge(59, 132).
edge(47, 50).
edge(113, 130).
edge(72, 141).
edge(12, 110).
edge(25, 52).
edge(14, 46).
edge(71, 75).
edge(55, 80).
edge(49, 76).
edge(54, 102).
edge(57, 136).
edge(15, 46).
edge(98, 135).
edge(93, 136).
edge(61, 124).
edge(87, 128).
edge(17, 102).
edge(99, 140).
edge(35, 110).
edge(100, 103).
edge(26, 55).
edge(80, 93).
edge(7, 82).
edge(2, 111).
edge(49, 104).
edge(32, 64).
edge(16, 122).
edge(32, 142).
edge(23, 81).
edge(24, 100).
edge(30, 87).
edge(7, 70).
edge(105, 133).
edge(99, 108).
edge(22, 111).
edge(10, 26).
edge(49, 119).
edge(53, 70).
edge(52, 139).
edge(12, 75).
edge(96, 135).
edge(4, 110).
edge(20, 40).
edge(31, 105).
edge(23, 125).
edge(90, 106).
edge(70, 140).
edge(119, 134).
edge(8, 84).
edge(79, 84).
edge(6, 98).
edge(32, 123).
edge(28, 56).
edge(114, 125).
edge(29, 64).
edge(31, 143).
edge(15, 126).
edge(13, 18).
edge(128, 139).
edge(83, 98).
edge(5, 126).
edge(46, 65).
edge(3, 88).
edge(126, 133).
edge(42, 99).
edge(16, 141).
edge(40, 136).
edge(27, 64).
edge(95, 103).
edge(30, 71).
edge(41, 47).
edge(0, 91).
edge(38, 55).
edge(71, 81).
edge(41, 84).
edge(3, 126).
edge(43, 86).
edge(91, 101).
edge(68, 126).
edge(35, 76).
edge(4, 5).
edge(68, 75).
edge(76, 121).
edge(2, 118).
edge(87, 137).
edge(6, 93).
edge(19, 138).
edge(93, 96).
edge(53, 109).
edge(96, 141).
edge(1, 94).
edge(18, 62).
edge(59, 93).
edge(68, 92).
edge(65, 84).
edge(0, 56).
edge(59, 120).
edge(61, 91).
edge(122, 142).
edge(103, 138).
edge(35, 129).
edge(2, 43).
edge(27, 46).
edge(40, 82).
edge(23, 43).
edge(43, 82).
edge(12, 137).
edge(27, 126).
edge(21, 32).
edge(19, 113).
edge(47, 87).
edge(6, 138).
edge(87, 133).
edge(49, 99).
edge(87, 130).
edge(53, 103).
edge(0, 24).
edge(49, 100).
edge(63, 64).
edge(12, 56).
edge(14, 71).
edge(66, 126).
edge(53, 54).
edge(114, 139).
edge(38, 87).
edge(28, 51).
edge(115, 144).
edge(107, 138).
edge(39, 129).
edge(38, 77).
edge(38, 71).
edge(18, 50).
edge(45, 96).
edge(3, 77).
edge(36, 51).
edge(11, 94).
edge(60, 109).
edge(103, 135).
edge(54, 141).
edge(114, 133).
edge(109, 129).
edge(58, 129).
edge(69, 119).
edge(11, 25).
edge(38, 133).
edge(57, 84).
edge(17, 24).
edge(50, 127).
edge(27, 80).
edge(34, 123).
edge(15, 141).
edge(66, 143).
edge(35, 132).
edge(114, 138).
edge(50, 79).
edge(105, 119).
edge(37, 113).
edge(37, 110).
edge(90, 98).
edge(114, 117).
edge(46, 118).
edge(40, 103).
edge(25, 29).
edge(94, 132).
edge(39, 47).
edge(80, 141).
edge(85, 125).
edge(91, 92).
edge(101, 103).
edge(39, 125).
edge(13, 43).
edge(29, 60).
edge(36, 59).
edge(71, 87).
edge(62, 115).
edge(84, 121).
edge(6, 7).
edge(63, 67).
edge(102, 125).
edge(15, 26).
edge(106, 123).
edge(63, 101).
edge(77, 78).
edge(27, 68).
edge(72, 111).
edge(71, 106).
edge(2, 69).
edge(2, 35).
edge(40, 44).
edge(48, 90).
edge(70, 132).
edge(5, 30).
edge(10, 134).
edge(15, 32).
edge(35, 121).
edge(16, 73).
edge(62, 108).
edge(36, 121).
edge(102, 131).
edge(21, 96).
edge(68, 129).
edge(93, 95).
edge(50, 120).
edge(79, 119).
edge(14, 16).
edge(23, 73).
edge(103, 112).
edge(3, 93).
edge(29, 67).
edge(7, 62).
edge(81, 113).
edge(5, 127).
edge(28, 130).
edge(51, 55).
edge(66, 85).
edge(76, 129).
edge(43, 59).
edge(73, 81).
edge(19, 127).
edge(41, 89).
edge(14, 74).
edge(44, 87).
edge(37, 109).
edge(13, 35).
edge(0, 121).
edge(115, 116).
edge(118, 122).
edge(107, 111).
edge(39, 57).
edge(37, 60).
edge(43, 117).
edge(16, 116).
edge(54, 74).
edge(59, 101).
edge(1, 135).
edge(41, 130).
edge(22, 34).
edge(18, 21).
edge(63, 111).
edge(133, 134).
edge(20, 98).
edge(6, 42).
edge(43, 91).
edge(10, 11).
edge(41, 118).
edge(35, 43).
edge(13, 22).
edge(46, 68).
edge(41, 58).
edge(29, 98).
edge(80, 115).
edge(44, 74).
edge(42, 129).
edge(70, 142).
edge(104, 115).
edge(70, 92).
edge(36, 67).
edge(5, 13).
edge(47, 74).
edge(10, 136).
edge(21, 57).
edge(57, 104).
edge(125, 143).
edge(7, 138).
edge(94, 123).
edge(14, 102).
edge(65, 94).
edge(34, 106).
edge(72, 124).
edge(31, 46).
edge(40, 59).
edge(28, 75).
edge(20, 103).
edge(44, 48).
edge(99, 103).
edge(48, 117).
edge(95, 107).
edge(66, 132).
edge(77, 100).
edge(77, 123).
edge(86, 144).
edge(16, 44).
edge(25, 114).
edge(11, 100).
edge(98, 111).
edge(26, 51).
edge(19, 104).
edge(52, 83).
edge(11, 56).
edge(30, 40).
edge(69, 106).
edge(67, 75).
edge(0, 110).
edge(15, 72).
edge(42, 136).
edge(56, 69).
edge(14, 50).
edge(98, 113).
edge(5, 70).
edge(107, 122).
edge(43, 62).
edge(21, 139).
edge(78, 98).
edge(10, 60).
edge(49, 64).
edge(57, 109).
edge(41, 132).
edge(14, 62).
edge(62, 114).
edge(32, 121).
edge(104, 138).
edge(81, 87).
edge(45, 140).
edge(5, 55).
edge(17, 72).
edge(4, 18).
edge(51, 89).
edge(11, 41).
edge(40, 99).
edge(67, 111).
edge(108, 118).
edge(14, 75).
edge(34, 137).
edge(27, 37).
edge(2, 9).
edge(71, 102).
edge(53, 99).
edge(41, 87).
edge(100, 105).
edge(63, 108).
edge(46, 135).
edge(71, 101).
edge(36, 63).
edge(16, 109).
edge(47, 123).
edge(62, 140).
edge(57, 91).
edge(21, 100).
edge(97, 125).
edge(3, 46).
edge(92, 111).
edge(16, 121).
edge(63, 134).
edge(43, 134).
edge(32, 49).
edge(35, 81).
edge(101, 118).
edge(74, 96).
edge(17, 104).
edge(61, 114).
edge(26, 60).
edge(115, 142).
edge(28, 54).
edge(46, 136).
edge(75, 91).
edge(71, 138).
edge(33, 130).
edge(26, 129).
edge(14, 115).
edge(95, 141).
edge(4, 20).
edge(110, 137).
edge(77, 98).
edge(91, 141).
edge(41, 135).
edge(73, 85).
edge(6, 89).
edge(12, 96).
edge(12, 28).
edge(102, 142).
edge(39, 108).
edge(44, 119).
edge(6, 76).
edge(18, 128).
edge(46, 51).
edge(35, 105).
edge(26, 118).
edge(79, 138).
edge(99, 133).
edge(124, 129).
edge(70, 75).
edge(10, 53).
edge(11, 124).
edge(90, 141).
edge(93, 120).
edge(18, 58).
edge(118, 137).
edge(62, 121).
edge(4, 128).
edge(64, 98).
edge(72, 126).
edge(29, 40).
edge(64, 127).
edge(106, 127).
edge(39, 73).
edge(26, 117).
edge(8, 42).
edge(57, 141).
edge(74, 139).
edge(95, 106).
edge(28, 135).
edge(61, 132).
edge(3, 129).
edge(130, 141).
edge(67, 86).
edge(61, 88).
edge(31, 104).
edge(34, 76).
edge(39, 88).
edge(17, 140).
edge(3, 48).
edge(104, 113).
edge(30, 99).
edge(132, 140).
edge(5, 143).
edge(44, 68).
edge(91, 140).
edge(113, 129).
edge(49, 143).
edge(27, 28).
edge(93, 103).
edge(7, 42).
edge(6, 101).
edge(52, 140).
edge(58, 77).
edge(90, 91).
edge(34, 135).
edge(21, 73).
edge(29, 52).
edge(33, 134).
edge(34, 40).
edge(0, 84).
edge(2, 89).
edge(74, 144).
edge(2, 128).
edge(45, 91).
edge(3, 20).
edge(45, 62).
edge(15, 135).
edge(14, 28).
edge(68, 82).
edge(2, 105).
edge(49, 114).
edge(28, 99).
edge(32, 66).
edge(37, 49).
edge(20, 23).
edge(21, 89).
edge(12, 72).
edge(52, 90).
edge(84, 92).
edge(58, 85).
edge(40, 56).
edge(14, 97).
edge(84, 106).
edge(2, 33).
edge(31, 78).
edge(13, 141).
edge(23, 49).
edge(84, 115).
edge(110, 115).
edge(14, 65).
edge(21, 67).
edge(60, 105).
edge(17, 136).
edge(111, 136).
edge(69, 97).
edge(72, 128).
edge(124, 130).
edge(33, 114).
edge(18, 86).
edge(10, 64).
edge(87, 131).
edge(62, 67).
edge(71, 132).
edge(45, 47).
edge(22, 25).
edge(98, 123).
edge(36, 53).
edge(65, 142).
edge(92, 121).
edge(105, 131).
edge(20, 129).
edge(24, 82).
edge(108, 125).
edge(12, 129).
edge(57, 95).
edge(59, 129).
edge(46, 86).
edge(126, 140).
edge(5, 8).
edge(0, 137).
edge(14, 22).
edge(40, 106).
edge(48, 125).
edge(65, 104).
edge(19, 33).
edge(47, 55).
edge(75, 112).
edge(63, 95).
edge(2, 14).
edge(109, 117).
edge(26, 96).
edge(9, 107).
edge(12, 42).
edge(10, 132).
edge(29, 80).
edge(6, 47).
edge(15, 142).
edge(73, 122).
edge(20, 75).
edge(87, 111).
edge(48, 54).
edge(25, 132).
edge(4, 38).
edge(2, 133).
edge(74, 109).
edge(84, 94).
edge(68, 120).
edge(22, 114).
edge(48, 62).
edge(78, 114).
edge(10, 115).
edge(41, 69).
edge(88, 124).
edge(12, 52).
edge(30, 103).
edge(29, 61).
edge(42, 49).
edge(118, 138).
edge(73, 128).
edge(43, 70).
edge(24, 67).
edge(16, 102).
edge(114, 142).
edge(61, 119).
edge(105, 130).
edge(10, 58).
edge(83, 97).
edge(1, 54).
edge(60, 106).
edge(22, 131).
edge(10, 65).
edge(78, 82).
edge(40, 47).
edge(1, 104).
edge(22, 38).
edge(35, 64).
edge(78, 104).
edge(111, 142).
edge(83, 124).
edge(12, 16).
edge(68, 127).
edge(51, 126).
edge(80, 83).
edge(12, 37).
edge(0, 123).
edge(115, 143).
edge(7, 105).
edge(16, 67).
edge(22, 29).
edge(26, 101).
edge(40, 83).
edge(16, 110).
edge(20, 69).
edge(70, 81).
edge(55, 81).
edge(39, 121).
edge(42, 44).
edge(76, 117).
edge(24, 139).
edge(9, 46).
edge(76, 124).
edge(137, 139).
edge(43, 129).
edge(2, 140).
edge(14, 77).
edge(3, 112).
edge(4, 132).
edge(63, 121).
edge(8, 110).
edge(54, 106).
edge(10, 94).
edge(24, 133).
edge(86, 89).
edge(61, 111).
edge(61, 103).
edge(46, 88).
edge(84, 131).
edge(23, 54).
edge(25, 139).
edge(24, 117).
edge(29, 94).
edge(46, 103).
edge(64, 109).
edge(52, 81).
edge(95, 118).
edge(10, 131).
edge(3, 72).
edge(46, 75).
edge(23, 72).
edge(45, 75).
edge(117, 121).
edge(0, 34).
edge(72, 94).
edge(25, 53).
edge(72, 107).
edge(32, 78).
edge(72, 79).
edge(74, 114).
edge(21, 28).
edge(11, 68).
edge(13, 109).
edge(2, 19).
edge(53, 122).
edge(8, 65).
edge(59, 143).
edge(54, 107).
edge(5, 131).
edge(9, 43).
edge(36, 108).
edge(74, 94).
edge(94, 104).
edge(63, 100).
edge(8, 94).
edge(45, 92).
edge(73, 97).
edge(95, 98).
edge(37, 68).
edge(67, 74).
edge(65, 69).
edge(51, 97).
edge(44, 97).
edge(39, 64).
edge(21, 137).
edge(43, 136).
edge(1, 36).
edge(127, 138).
edge(70, 101).
edge(18, 43).
edge(10, 130).
edge(7, 133).
edge(17, 89).
edge(9, 130).
edge(39, 97).
edge(22, 56).
edge(75, 97).
edge(47, 49).
edge(51, 141).
edge(36, 105).
edge(46, 71).
edge(29, 114).
edge(17, 118).
edge(15, 139).
edge(113, 139).
edge(29, 71).
edge(24, 30).
edge(54, 64).
edge(29, 57).
edge(24, 46).
edge(92, 105).
edge(55, 140).
edge(87, 122).
edge(22, 78).
edge(27, 83).
edge(34, 66).
edge(50, 143).
edge(100, 119).
edge(50, 75).
edge(91, 118).
edge(30, 52).
edge(133, 142).
edge(72, 117).
edge(42, 125).
edge(67, 68).
edge(28, 112).
edge(11, 61).
edge(11, 137).
edge(23, 111).
edge(59, 97).
edge(67, 78).
edge(48, 140).
edge(80, 127).
edge(14, 83).
edge(54, 111).
edge(68, 78).
edge(82, 143).
edge(24, 102).
edge(51, 127).
edge(14, 118).
edge(32, 51).
edge(16, 43).
edge(55, 113).
edge(30, 54).
edge(26, 90).
edge(51, 140).
edge(106, 124).
edge(24, 45).
edge(47, 82).
edge(76, 135).
edge(23, 84).
edge(105, 122).
edge(1, 85).
edge(48, 80).
edge(27, 43).
edge(39, 68).
edge(43, 100).
edge(3, 95).
edge(137, 141).
edge(36, 119).
edge(52, 68).
edge(9, 67).
edge(90, 133).
edge(22, 132).
edge(53, 85).
edge(13, 122).
edge(72, 97).
edge(16, 95).
edge(17, 121).
edge(15, 104).
edge(3, 113).
edge(101, 143).
edge(37, 53).
edge(79, 83).
edge(9, 75).
edge(22, 127).
edge(39, 80).
edge(7, 103).
edge(39, 115).
edge(58, 108).
edge(64, 131).
edge(32, 103).
edge(54, 92).
edge(30, 116).
edge(36, 96).
edge(25, 125).
edge(61, 108).
edge(70, 106).
edge(86, 120).
edge(48, 89).
edge(28, 78).
edge(51, 136).
edge(85, 88).
edge(89, 137).
edge(86, 143).
edge(47, 67).
edge(27, 98).
edge(46, 77).
edge(28, 132).
edge(15, 136).
edge(95, 113).
edge(72, 80).
edge(24, 121).
edge(62, 105).
edge(24, 137).
edge(1, 123).
edge(3, 73).
edge(26, 135).
edge(4, 94).
edge(25, 96).
edge(64, 82).
edge(82, 119).
edge(64, 103).
edge(78, 129).
edge(29, 42).
edge(18, 85).
edge(63, 84).
edge(11, 19).
edge(75, 98).
edge(17, 77).
edge(7, 75).
edge(135, 140).
edge(5, 83).
edge(28, 49).
edge(79, 85).
edge(6, 26).
edge(20, 108).
edge(30, 47).
edge(85, 140).
edge(6, 134).
edge(12, 43).
edge(83, 107).
edge(48, 95).
edge(132, 138).
edge(83, 95).
edge(111, 117).
edge(32, 39).
edge(10, 86).
edge(18, 30).
edge(105, 117).
edge(129, 135).
edge(39, 56).
edge(10, 28).
edge(22, 112).
edge(0, 16).
edge(117, 130).
edge(65, 129).
edge(93, 110).
edge(57, 75).
edge(15, 101).
edge(114, 131).
edge(38, 134).
edge(9, 98).
edge(53, 134).
edge(20, 57).
edge(30, 107).
edge(15, 110).
edge(54, 59).
edge(56, 127).
edge(116, 122).
edge(11, 83).
edge(101, 124).
edge(3, 35).
edge(17, 47).
edge(36, 106).
edge(79, 124).
edge(21, 81).
edge(13, 56).
edge(8, 66).
edge(17, 57).
edge(21, 26).
edge(19, 96).
edge(126, 134).
edge(50, 142).
edge(56, 73).
edge(45, 143).
edge(80, 98).
edge(70, 117).
edge(64, 93).
edge(39, 111).
edge(69, 123).
edge(10, 92).
edge(110, 111).
edge(21, 136).
edge(63, 70).
edge(82, 114).
edge(8, 36).
edge(33, 104).
edge(55, 101).
edge(97, 128).
edge(77, 82).
edge(35, 137).
edge(77, 84).
edge(116, 124).
edge(7, 123).
edge(72, 102).
edge(54, 84).
edge(102, 140).
edge(5, 98).
edge(70, 98).
edge(59, 61).
edge(65, 73).
edge(20, 124).
edge(38, 136).
edge(74, 89).
edge(23, 32).
edge(46, 60).
edge(103, 143).
edge(49, 139).
edge(103, 136).
edge(43, 137).
edge(19, 69).
edge(63, 128).
edge(37, 57).
edge(56, 139).
edge(98, 106).
edge(80, 124).
edge(25, 38).
edge(58, 97).
edge(38, 69).
edge(28, 57).
edge(90, 135).
edge(78, 107).
edge(51, 71).
edge(70, 108).
edge(26, 43).
edge(36, 75).
edge(99, 123).
edge(26, 57).
edge(66, 101).
edge(71, 112).
edge(39, 54).
edge(69, 114).
edge(16, 57).
edge(73, 140).
edge(52, 106).
edge(55, 71).
edge(0, 77).
edge(23, 68).
edge(14, 67).
edge(112, 137).
edge(41, 63).
edge(24, 111).
edge(78, 136).
edge(69, 140).
edge(95, 122).
edge(88, 117).
edge(38, 140).
edge(73, 138).
edge(5, 93).
edge(23, 141).
edge(10, 105).
edge(41, 75).
edge(66, 76).
edge(14, 59).
edge(29, 125).
edge(9, 100).
edge(95, 114).
edge(44, 125).
edge(7, 137).
edge(81, 90).
edge(58, 68).
edge(24, 60).
edge(7, 67).
edge(24, 50).
edge(10, 48).
edge(82, 142).
edge(92, 106).
edge(114, 140).
edge(68, 130).
edge(61, 121).
edge(100, 121).
edge(6, 44).
edge(10, 31).
edge(42, 109).
edge(11, 26).
edge(69, 110).
edge(77, 101).
edge(62, 131).
edge(18, 107).
edge(16, 113).
edge(117, 134).
edge(29, 128).
edge(72, 82).
edge(4, 139).
edge(32, 68).
edge(41, 120).
edge(125, 127).
edge(75, 100).
edge(23, 127).
edge(41, 79).
edge(5, 102).
edge(90, 111).
edge(61, 106).
edge(29, 121).
edge(24, 77).
edge(30, 69).
edge(82, 121).
edge(93, 113).
edge(70, 95).
edge(44, 95).
edge(2, 8).
edge(4, 106).
edge(38, 42).
edge(67, 72).
edge(55, 75).
edge(64, 77).
edge(113, 117).
edge(47, 73).
edge(47, 126).
edge(6, 17).
edge(45, 110).
edge(29, 51).
edge(20, 125).
edge(74, 102).
edge(34, 107).
edge(24, 129).
edge(2, 102).
edge(46, 98).
edge(25, 35).
edge(53, 73).
edge(28, 95).
edge(94, 138).
edge(34, 68).
edge(108, 132).
edge(17, 74).
edge(62, 119).
edge(3, 4).
edge(4, 137).
edge(60, 95).
edge(89, 120).
edge(28, 79).
edge(69, 122).
edge(18, 27).
edge(45, 101).
edge(34, 120).
edge(3, 53).
edge(37, 91).
edge(21, 46).
edge(53, 91).
edge(68, 139).
edge(59, 94).
edge(25, 119).
edge(119, 131).
edge(97, 121).
edge(6, 40).
edge(73, 132).
edge(34, 110).
edge(122, 128).
edge(3, 143).
edge(60, 77).
edge(19, 67).
edge(130, 132).
edge(105, 111).
edge(24, 122).
edge(68, 123).
edge(77, 91).
edge(86, 108).
edge(82, 109).
edge(30, 97).
edge(34, 38).
edge(57, 87).
edge(83, 100).
edge(1, 28).
edge(39, 61).
edge(106, 117).
edge(2, 45).
edge(100, 134).
edge(1, 132).
edge(44, 114).
edge(57, 83).
edge(124, 141).
edge(71, 128).
edge(30, 122).
edge(2, 58).
edge(33, 100).
edge(68, 94).
edge(18, 54).
edge(96, 137).
edge(90, 120).
edge(19, 107).
edge(93, 137).
edge(5, 109).
edge(46, 134).
edge(53, 101).
edge(42, 85).
edge(22, 73).
edge(95, 96).
edge(41, 42).
edge(55, 66).
edge(128, 140).
edge(35, 80).
edge(59, 128).
edge(26, 37).
edge(23, 143).
edge(115, 137).
edge(32, 33).
edge(25, 109).
edge(66, 90).
edge(13, 23).
edge(53, 111).
edge(82, 84).
edge(81, 127).
edge(53, 83).
edge(109, 112).
edge(50, 144).
edge(103, 140).
edge(27, 73).
edge(52, 73).
edge(51, 60).
edge(29, 32).
edge(34, 142).
edge(65, 70).
edge(77, 107).
edge(35, 39).
edge(60, 86).
edge(18, 97).
edge(70, 114).
edge(53, 115).
edge(40, 100).
edge(31, 142).
edge(101, 140).
edge(73, 98).
edge(68, 108).
edge(8, 47).
edge(7, 54).
edge(32, 93).
edge(82, 87).
edge(76, 131).
edge(53, 74).
edge(109, 114).
edge(21, 99).
edge(87, 96).
edge(9, 140).
edge(51, 94).
edge(6, 84).
edge(23, 115).
edge(33, 46).
edge(36, 55).
edge(89, 93).
edge(8, 58).
edge(104, 119).
edge(13, 42).
edge(100, 104).
edge(1, 35).
edge(83, 90).
edge(76, 127).
edge(20, 142).
edge(91, 117).
edge(56, 61).
edge(4, 123).
edge(119, 137).
edge(69, 133).
edge(20, 79).
edge(33, 74).
edge(20, 143).
edge(68, 121).
edge(68, 138).
edge(36, 47).
edge(3, 25).
edge(138, 140).
edge(40, 121).
edge(45, 46).
edge(51, 78).
edge(29, 46).
edge(17, 135).
edge(94, 99).
edge(37, 104).
edge(112, 138).
edge(25, 55).
edge(25, 108).
edge(56, 92).
edge(38, 54).
edge(13, 32).
edge(23, 34).
edge(76, 113).
edge(42, 142).
edge(45, 60).
edge(130, 133).
edge(118, 144).
edge(45, 76).
edge(69, 118).
edge(11, 60).
edge(2, 66).
edge(36, 110).
edge(36, 52).
edge(22, 46).
edge(0, 6).
edge(108, 115).
edge(90, 116).
edge(13, 55).
edge(84, 97).
edge(87, 106).
edge(122, 134).
edge(109, 120).
edge(128, 136).
edge(74, 92).
edge(39, 81).
edge(47, 57).
edge(70, 143).
edge(25, 84).
edge(75, 101).
edge(91, 97).
edge(34, 62).
edge(43, 55).
edge(1, 114).
edge(6, 78).
edge(51, 84).
edge(95, 97).
edge(13, 84).
edge(11, 31).
edge(0, 126).
edge(36, 138).
edge(0, 142).
edge(102, 136).
edge(43, 60).
edge(11, 76).
edge(23, 94).
edge(107, 134).
edge(77, 111).
edge(77, 108).
edge(25, 41).
edge(80, 134).
edge(87, 134).
edge(45, 93).
edge(79, 116).
edge(32, 131).
edge(1, 141).
edge(19, 114).
edge(85, 115).
edge(34, 121).
edge(14, 98).
edge(12, 19).
edge(118, 129).
edge(57, 117).
edge(123, 140).
edge(14, 78).
edge(57, 132).
edge(141, 143).
edge(1, 140).
edge(51, 129).
edge(55, 143).
edge(38, 86).
edge(87, 126).
edge(114, 119).
edge(43, 74).
edge(97, 135).
edge(39, 109).
edge(15, 121).
edge(19, 95).
edge(101, 112).
edge(58, 125).
edge(42, 77).
edge(16, 45).
edge(78, 134).
edge(45, 56).
edge(55, 64).
edge(59, 76).
edge(18, 130).
edge(72, 103).
edge(58, 96).
edge(56, 102).
edge(16, 84).
edge(5, 29).
edge(49, 93).
edge(14, 80).
edge(47, 90).
edge(73, 137).
edge(64, 141).
edge(60, 63).
edge(101, 122).
edge(21, 119).
edge(59, 140).
edge(77, 92).
edge(10, 61).
edge(53, 65).
edge(60, 132).
edge(29, 103).
edge(4, 117).
edge(18, 32).
edge(2, 85).
edge(113, 144).
edge(36, 86).
edge(54, 96).
edge(4, 79).
edge(69, 84).
edge(5, 97).
edge(78, 88).
edge(31, 113).
edge(29, 76).
edge(45, 97).
edge(19, 50).
edge(66, 97).
edge(89, 140).
edge(15, 50).
edge(51, 130).
edge(37, 123).
edge(20, 53).
edge(84, 140).
edge(48, 133).
edge(51, 66).
edge(3, 121).
edge(9, 95).
edge(79, 104).
edge(113, 119).
edge(54, 95).
edge(80, 105).
edge(17, 87).
edge(15, 120).
edge(0, 43).
edge(5, 12).
edge(54, 80).
edge(67, 124).
edge(31, 92).
edge(9, 57).
edge(29, 49).
edge(94, 137).
edge(9, 22).
edge(46, 132).
edge(44, 65).
edge(96, 120).
edge(76, 125).
edge(29, 102).
edge(92, 107).
edge(58, 104).
edge(56, 124).
edge(65, 79).
edge(62, 124).
edge(10, 57).
edge(95, 115).
edge(51, 81).
edge(15, 60).
edge(39, 53).
edge(82, 83).
edge(2, 48).
edge(7, 95).
edge(89, 129).
edge(9, 80).
edge(31, 76).
edge(56, 84).
edge(55, 117).
edge(37, 129).
edge(61, 112).
edge(18, 34).
edge(12, 135).
edge(85, 110).
edge(32, 75).
edge(9, 81).
edge(15, 119).
edge(103, 132).
edge(29, 62).
edge(9, 114).
edge(121, 137).
edge(29, 84).
edge(1, 42).
edge(24, 105).
edge(72, 136).
edge(14, 113).
edge(30, 115).
edge(3, 122).
edge(0, 133).
edge(80, 121).
edge(110, 124).
edge(33, 135).
edge(59, 118).
edge(52, 94).
edge(48, 118).
edge(28, 90).
edge(70, 128).
edge(78, 80).
edge(44, 134).
edge(16, 26).
edge(100, 110).
edge(9, 20).
edge(14, 57).
edge(36, 102).
edge(72, 144).
edge(79, 122).
edge(91, 95).
edge(69, 71).
edge(27, 82).
edge(44, 90).
edge(51, 93).
edge(62, 72).
edge(45, 73).
edge(59, 117).
edge(82, 93).
edge(2, 37).
edge(43, 106).
edge(127, 128).
edge(103, 137).
edge(68, 90).
edge(18, 28).
edge(1, 82).
edge(6, 120).
edge(28, 31).
edge(14, 128).
edge(37, 71).
edge(2, 110).
edge(80, 86).
edge(10, 18).
edge(61, 130).
edge(68, 114).
edge(34, 39).
edge(94, 134).
edge(80, 104).
edge(86, 111).
edge(82, 120).
edge(124, 144).
edge(2, 51).
edge(86, 107).
edge(71, 99).
edge(8, 77).
edge(101, 117).
edge(8, 85).
edge(64, 138).
edge(21, 82).
edge(91, 99).
edge(10, 33).
edge(0, 4).
edge(61, 69).
edge(119, 130).
edge(128, 134).
edge(135, 138).
edge(92, 135).
edge(17, 39).
edge(125, 126).
edge(90, 130).
edge(106, 130).
edge(89, 91).
edge(43, 61).
edge(59, 71).
edge(66, 80).
edge(94, 127).
edge(56, 59).
edge(42, 93).
edge(21, 124).
edge(39, 93).
edge(37, 92).
edge(41, 100).
edge(0, 105).
edge(71, 121).
edge(4, 43).
edge(48, 142).
edge(31, 124).
edge(20, 31).
edge(63, 88).
edge(43, 52).
edge(13, 94).
edge(106, 144).
edge(2, 55).
edge(106, 141).
edge(0, 113).
edge(47, 94).
edge(32, 127).
edge(76, 138).
edge(11, 128).
edge(41, 66).
edge(13, 80).
edge(62, 81).
edge(112, 116).
edge(19, 27).
edge(49, 94).
edge(2, 78).
edge(14, 70).
edge(13, 28).
edge(19, 105).
edge(19, 118).
edge(32, 110).
edge(42, 69).
edge(48, 101).
edge(49, 61).
edge(108, 110).
edge(34, 41).
edge(83, 106).
edge(53, 140).
edge(3, 83).
edge(81, 130).
edge(107, 114).
edge(15, 30).
edge(16, 105).
edge(78, 101).
edge(15, 59).
edge(76, 100).
edge(63, 99).
edge(56, 76).
edge(3, 26).
edge(132, 142).
edge(82, 134).
edge(88, 144).
edge(54, 118).
edge(69, 144).
edge(75, 93).
edge(29, 99).
edge(48, 135).
edge(60, 108).
edge(66, 139).
edge(17, 130).
edge(61, 63).
edge(15, 43).
edge(26, 88).
edge(87, 127).
edge(46, 91).
edge(27, 142).
edge(6, 38).
edge(77, 81).
edge(8, 122).
edge(4, 133).
edge(15, 27).
edge(83, 101).
edge(106, 115).
edge(1, 74).
edge(15, 74).
edge(47, 115).
edge(29, 37).
edge(123, 135).
edge(2, 28).
edge(62, 142).
edge(40, 46).
edge(44, 100).
edge(9, 58).
edge(102, 127).
edge(26, 141).
edge(51, 123).
edge(32, 117).
edge(38, 101).
edge(69, 104).
edge(49, 87).
edge(53, 125).
edge(35, 138).
edge(122, 144).
edge(0, 130).
edge(10, 27).
edge(29, 108).
edge(32, 76).
edge(5, 38).
edge(63, 139).
edge(38, 121).
edge(13, 133).
edge(47, 68).
edge(118, 135).
edge(45, 54).
edge(58, 113).
edge(42, 122).
edge(54, 99).
edge(32, 67).
edge(75, 85).
edge(21, 66).
edge(6, 16).
edge(66, 110).
edge(9, 131).
edge(110, 116).
edge(89, 104).
edge(127, 133).
edge(111, 129).
edge(48, 69).
edge(18, 103).
edge(64, 144).
edge(4, 124).
edge(24, 55).
edge(68, 105).
edge(39, 90).
edge(58, 71).
edge(1, 97).
edge(16, 90).
edge(79, 129).
edge(35, 133).
edge(32, 57).
edge(18, 59).
edge(16, 55).
edge(48, 92).
edge(50, 130).
edge(15, 20).
edge(44, 64).
edge(17, 99).
edge(67, 125).
edge(77, 124).
edge(94, 103).
edge(61, 133).
edge(30, 138).
edge(85, 102).
edge(60, 127).
edge(20, 68).
edge(17, 139).
edge(79, 94).
edge(24, 56).
edge(41, 54).
edge(82, 141).
edge(80, 92).
edge(73, 95).
edge(57, 72).
edge(54, 62).
edge(35, 99).
edge(53, 57).
edge(42, 48).
edge(75, 110).
edge(56, 80).
edge(92, 95).
edge(22, 124).
edge(86, 121).
edge(76, 139).
edge(67, 109).
edge(3, 120).
edge(32, 94).
edge(21, 24).
edge(74, 126).
edge(0, 144).
edge(7, 27).
edge(40, 141).
edge(82, 102).
edge(65, 130).
edge(48, 66).
edge(91, 135).
edge(84, 104).
edge(9, 79).
edge(83, 133).
edge(31, 88).
edge(31, 44).
edge(32, 81).
edge(25, 122).
edge(65, 135).
edge(36, 83).
edge(119, 125).
edge(6, 137).
edge(21, 63).
edge(88, 129).
edge(56, 78).
edge(20, 131).
edge(15, 17).
edge(36, 111).
edge(38, 123).
edge(12, 125).
edge(2, 30).
edge(89, 116).
edge(111, 140).
edge(5, 57).
edge(15, 91).
edge(5, 134).
edge(111, 119).
edge(38, 132).
edge(14, 110).
edge(123, 143).
edge(5, 68).
edge(0, 74).
edge(84, 136).
edge(100, 118).
edge(12, 39).
edge(92, 97).
edge(108, 135).
edge(65, 88).
edge(27, 88).
edge(34, 77).
edge(19, 137).
edge(54, 136).
edge(33, 105).
edge(44, 133).
edge(56, 112).
edge(6, 62).
edge(41, 44).
edge(11, 64).
edge(42, 82).
edge(3, 56).
edge(53, 76).
edge(120, 126).
edge(41, 52).
edge(15, 29).
edge(79, 117).
edge(1, 20).
edge(20, 81).
edge(106, 121).
edge(44, 131).
edge(11, 118).
edge(5, 111).
edge(114, 129).
edge(67, 98).
edge(72, 83).
edge(19, 46).
edge(30, 90).
edge(101, 125).
edge(18, 70).
edge(63, 97).
edge(18, 56).
edge(42, 123).
edge(52, 133).
edge(107, 125).
edge(20, 32).
edge(76, 80).
edge(18, 29).
edge(5, 35).
edge(68, 76).
edge(97, 142).
edge(14, 18).
edge(88, 92).
edge(15, 95).
edge(58, 101).
edge(67, 96).
edge(16, 92).
edge(17, 70).
edge(54, 108).
edge(77, 142).
edge(47, 139).
edge(127, 143).
edge(97, 144).
edge(22, 30).
edge(114, 127).
edge(2, 4).
edge(3, 61).
edge(31, 61).
edge(13, 66).
edge(23, 102).
edge(50, 76).
edge(28, 133).
edge(28, 105).
edge(112, 122).
edge(8, 121).
edge(14, 34).
edge(91, 93).
edge(24, 109).
edge(8, 16).
edge(115, 133).
edge(91, 143).
edge(7, 101).
edge(63, 135).
edge(70, 105).
edge(2, 93).
edge(50, 71).
edge(2, 83).
edge(69, 121).
edge(55, 122).
edge(55, 130).
edge(110, 114).
edge(17, 110).
edge(3, 60).
edge(31, 62).
edge(78, 100).
edge(49, 118).
edge(65, 134).
edge(21, 105).
edge(5, 132).
edge(25, 90).
edge(20, 56).
edge(15, 132).
edge(65, 96).
edge(6, 103).
edge(17, 49).
edge(48, 86).
edge(39, 86).
edge(110, 118).
edge(63, 82).
edge(20, 74).
edge(51, 57).
edge(41, 81).
edge(9, 12).
edge(55, 59).
edge(51, 70).
edge(13, 54).
edge(70, 115).
edge(84, 129).
edge(20, 105).
edge(57, 78).
edge(9, 50).
edge(77, 94).
edge(43, 44).
edge(70, 102).
edge(32, 42).
edge(57, 142).
edge(8, 59).
edge(134, 142).
edge(5, 81).
edge(33, 109).
edge(22, 37).
edge(6, 83).
edge(17, 123).
edge(56, 115).
edge(45, 128).
edge(94, 121).
edge(33, 99).
edge(5, 56).
edge(61, 64).
edge(26, 72).
edge(65, 112).
edge(96, 102).
edge(5, 82).
edge(27, 40).
edge(14, 131).
edge(40, 57).
edge(123, 124).
edge(17, 19).
edge(11, 116).
edge(16, 19).
edge(49, 73).
edge(7, 36).
edge(47, 96).
edge(10, 107).
edge(18, 69).
edge(60, 75).
edge(31, 70).
edge(98, 126).
edge(0, 124).
edge(53, 58).
edge(67, 89).
edge(2, 115).
edge(7, 39).
edge(34, 83).
edge(95, 110).
edge(56, 109).
edge(43, 64).
edge(134, 136).
edge(99, 111).
edge(38, 40).
edge(45, 68).
edge(5, 36).
edge(17, 26).
edge(67, 82).
edge(7, 45).
edge(50, 89).
edge(52, 71).
edge(41, 98).
edge(136, 138).
edge(17, 83).
edge(45, 111).
edge(62, 128).
edge(65, 68).
edge(19, 117).
edge(14, 93).
edge(105, 128).
edge(8, 35).
edge(94, 110).
edge(33, 61).
edge(44, 69).
edge(103, 108).
edge(2, 121).
edge(80, 131).
edge(9, 54).
edge(42, 75).
edge(18, 111).
edge(8, 31).
edge(48, 91).
edge(11, 27).
edge(111, 139).
edge(13, 97).
edge(80, 108).
edge(54, 138).
edge(67, 126).
edge(92, 128).
edge(55, 114).
edge(69, 73).
edge(40, 78).
edge(12, 142).
edge(38, 117).
edge(41, 104).
edge(8, 22).
edge(66, 89).
edge(78, 117).
edge(98, 100).
edge(55, 135).
edge(27, 29).
edge(47, 133).
edge(88, 142).
edge(99, 130).
edge(50, 138).
edge(6, 67).
edge(17, 41).
edge(3, 68).
edge(67, 141).
edge(5, 15).
edge(32, 63).
edge(35, 104).
edge(2, 73).
edge(52, 61).
edge(5, 119).
edge(8, 101).
edge(27, 35).
edge(54, 82).
edge(9, 92).
edge(67, 76).
edge(0, 134).
edge(11, 45).
edge(124, 128).
edge(8, 96).
edge(45, 87).
edge(41, 99).
edge(52, 128).
edge(88, 140).
edge(91, 104).
edge(95, 123).
edge(11, 38).
edge(15, 25).
edge(25, 79).
edge(66, 94).
edge(15, 71).
edge(44, 122).
edge(25, 95).
edge(49, 72).
edge(18, 109).
edge(96, 97).
edge(32, 102).
edge(100, 101).
edge(77, 114).
edge(9, 66).
edge(31, 91).
edge(39, 55).
edge(69, 77).
edge(63, 131).
edge(36, 101).
edge(76, 140).
edge(8, 52).
edge(71, 142).
edge(65, 77).
edge(97, 123).
edge(10, 118).
edge(80, 87).
edge(79, 140).
edge(27, 138).
edge(63, 87).
edge(31, 106).
edge(28, 127).
edge(8, 107).
edge(126, 127).
edge(67, 108).
edge(84, 133).
edge(50, 58).
edge(17, 59).
edge(74, 136).
edge(44, 137).
edge(41, 53).
edge(38, 135).
edge(66, 81).
edge(26, 70).
edge(85, 121).
edge(23, 82).
edge(12, 104).
edge(33, 101).
edge(53, 61).
edge(7, 81).
edge(7, 21).
edge(67, 99).
edge(21, 27).
edge(28, 70).
edge(8, 41).
edge(128, 133).
edge(62, 76).
edge(6, 52).
edge(20, 91).
edge(34, 116).
edge(131, 139).
edge(84, 119).
edge(134, 141).
edge(89, 95).
edge(58, 140).
edge(24, 136).
edge(125, 138).
edge(4, 84).
edge(113, 126).
edge(33, 140).
edge(29, 117).
edge(105, 107).
edge(79, 107).
edge(36, 126).
edge(40, 79).
edge(98, 144).
edge(65, 78).
edge(27, 99).
edge(64, 87).
edge(11, 22).
edge(111, 116).
edge(48, 60).
edge(18, 31).
edge(100, 128).
edge(66, 79).
edge(79, 105).
edge(56, 113).
edge(74, 81).
edge(59, 84).
edge(8, 86).
edge(48, 109).
edge(25, 121).
edge(10, 20).
edge(19, 21).
edge(76, 107).
edge(97, 107).
edge(85, 139).
edge(71, 73).
edge(44, 94).
edge(43, 131).
edge(5, 99).
edge(73, 82).
edge(59, 86).
edge(101, 142).
edge(22, 52).
edge(35, 96).
edge(64, 115).
edge(75, 78).
edge(66, 98).
edge(14, 87).
edge(39, 136).
edge(24, 96).
edge(92, 112).
edge(61, 98).
edge(39, 114).
edge(64, 120).
edge(69, 116).
edge(104, 143).
edge(5, 75).
edge(35, 51).
edge(24, 36).
edge(35, 122).
edge(38, 56).
edge(82, 90).
edge(24, 98).
edge(62, 101).
edge(0, 53).
edge(48, 73).
edge(29, 119).
edge(38, 46).
edge(80, 85).
edge(26, 102).
edge(31, 84).
edge(8, 28).
edge(55, 86).
edge(55, 60).
edge(83, 132).
edge(73, 135).
edge(68, 125).
edge(14, 55).
edge(73, 119).
edge(110, 139).
edge(55, 120).
edge(14, 32).
edge(2, 79).
edge(66, 72).
edge(23, 96).
edge(48, 138).
edge(69, 96).
edge(33, 107).
edge(6, 117).
edge(92, 122).
edge(72, 133).
edge(40, 91).
edge(34, 36).
edge(45, 78).
edge(90, 93).
edge(23, 140).
edge(81, 128).
edge(5, 133).
edge(5, 94).
edge(57, 119).
edge(28, 87).
edge(114, 120).
edge(81, 98).
edge(46, 55).
edge(69, 92).
edge(9, 39).
edge(4, 131).
edge(28, 143).
edge(63, 89).
edge(28, 123).
edge(15, 85).
edge(69, 131).
edge(2, 10).
edge(117, 126).
edge(45, 50).
edge(56, 67).
edge(85, 109).
edge(24, 93).
edge(1, 24).
edge(79, 99).
edge(60, 74).
edge(6, 94).
edge(25, 116).
edge(104, 124).
edge(54, 56).
edge(8, 73).
edge(12, 108).
edge(27, 94).
edge(20, 107).
edge(18, 110).
edge(21, 91).
edge(60, 118).
edge(8, 20).
edge(4, 129).
edge(65, 123).
edge(120, 134).
edge(58, 118).
edge(1, 72).
edge(83, 143).
edge(9, 141).
edge(15, 64).
edge(19, 86).
edge(83, 119).
edge(42, 126).
edge(25, 110).
edge(18, 53).
edge(29, 140).
edge(51, 117).
edge(57, 127).
edge(66, 133).
edge(35, 119).
edge(44, 107).
edge(10, 99).
edge(3, 133).
edge(55, 57).
edge(69, 95).
edge(17, 86).
edge(85, 113).
edge(92, 125).
edge(50, 80).
edge(24, 140).
edge(14, 66).
edge(126, 143).
edge(43, 114).
edge(6, 130).
edge(62, 139).
edge(26, 99).
edge(46, 124).
edge(5, 71).
edge(20, 120).
edge(92, 127).
edge(90, 94).
edge(0, 136).
edge(23, 118).
edge(106, 120).
edge(74, 78).
edge(0, 9).
edge(103, 123).
edge(75, 117).
edge(22, 126).
edge(31, 99).
edge(7, 60).
edge(19, 68).
edge(59, 74).
edge(14, 135).
edge(40, 42).
edge(22, 93).
edge(45, 59).
edge(24, 35).
edge(66, 105).
edge(46, 123).
edge(20, 30).
edge(69, 91).
edge(123, 139).
edge(20, 52).
edge(7, 57).
edge(59, 133).
edge(5, 21).
edge(46, 54).
edge(30, 118).
edge(50, 102).
edge(100, 127).
edge(26, 83).
edge(86, 119).
edge(53, 90).
edge(44, 76).
edge(103, 129).
edge(2, 139).
edge(38, 65).
edge(99, 117).
edge(19, 120).
edge(43, 98).
edge(104, 116).
edge(86, 141).
edge(11, 122).
edge(15, 105).
edge(49, 59).
edge(21, 98).
edge(57, 103).
edge(7, 111).
edge(94, 140).
edge(3, 79).
edge(19, 84).
edge(6, 21).
edge(20, 113).
edge(5, 144).
edge(10, 143).
edge(58, 64).
edge(24, 54).
edge(23, 136).
edge(3, 130).
edge(1, 31).
edge(10, 35).
edge(1, 142).
edge(3, 12).
edge(57, 135).
edge(71, 125).
edge(21, 70).
edge(31, 141).
edge(48, 141).
edge(7, 102).
edge(17, 108).
edge(9, 85).
edge(7, 59).
edge(40, 139).
edge(63, 91).
edge(71, 103).
edge(38, 127).
edge(56, 95).
edge(9, 44).
edge(88, 125).
edge(17, 126).
edge(70, 77).
edge(95, 104).
edge(106, 138).
edge(45, 94).
edge(33, 118).
edge(95, 137).
edge(12, 31).
edge(70, 71).
edge(16, 103).
edge(63, 115).
edge(98, 142).
edge(40, 120).
edge(85, 86).
edge(15, 66).
edge(63, 119).
edge(39, 84).
edge(55, 76).
edge(51, 132).
edge(18, 87).
edge(34, 93).
edge(53, 105).
edge(33, 115).
edge(1, 139).
edge(80, 142).
edge(57, 70).
edge(23, 26).
edge(13, 14).
edge(34, 105).
edge(57, 94).
edge(76, 95).
edge(56, 83).
edge(66, 109).
edge(38, 92).
edge(93, 99).
edge(108, 129).
edge(36, 62).
edge(32, 92).
edge(87, 121).
edge(32, 71).
edge(9, 127).
edge(28, 43).
edge(62, 91).
edge(49, 54).
edge(16, 76).
edge(13, 19).
edge(24, 74).
edge(104, 122).
edge(100, 106).
edge(33, 111).
edge(35, 134).
edge(16, 75).
edge(49, 126).
edge(37, 46).
edge(24, 61).
edge(51, 111).
edge(17, 131).
edge(35, 126).
edge(93, 123).
edge(30, 39).
edge(14, 20).
edge(26, 114).
edge(108, 127).
edge(24, 103).
edge(112, 118).
edge(87, 99).
edge(14, 51).
edge(0, 39).
edge(17, 125).
edge(38, 39).
edge(14, 99).
edge(30, 105).
edge(89, 115).
edge(32, 111).
edge(41, 93).
edge(68, 80).
edge(23, 108).
edge(125, 133).
edge(53, 137).
edge(103, 110).
edge(7, 107).
edge(21, 68).
edge(70, 83).
edge(95, 125).
edge(39, 137).
edge(44, 117).
edge(104, 110).
edge(117, 129).
edge(1, 48).
edge(88, 105).
edge(37, 52).
edge(53, 133).
edge(25, 138).
edge(15, 35).
edge(58, 83).
edge(13, 124).
edge(27, 60).
edge(18, 104).
edge(44, 135).
edge(6, 66).
edge(26, 127).
edge(61, 101).
edge(22, 142).
edge(20, 135).
edge(12, 109).
edge(24, 39).
edge(43, 81).
edge(7, 119).
edge(48, 143).
edge(7, 142).
edge(89, 100).
edge(26, 113).
edge(46, 139).
edge(21, 58).
edge(127, 140).
edge(46, 57).
edge(1, 21).
edge(7, 26).
edge(28, 68).
edge(71, 84).
edge(64, 85).
edge(104, 132).
edge(40, 60).
edge(1, 105).
edge(47, 69).
edge(93, 107).
edge(20, 96).
edge(76, 105).
edge(8, 18).
edge(16, 107).
edge(8, 68).
edge(56, 144).
edge(7, 43).
edge(16, 136).
edge(13, 59).
edge(5, 51).
edge(34, 72).
edge(74, 105).
edge(29, 96).
edge(4, 70).
edge(28, 92).
edge(53, 138).
edge(16, 38).
edge(8, 61).
edge(50, 86).
edge(21, 56).
edge(58, 139).
edge(51, 135).
edge(81, 114).
edge(15, 63).
edge(58, 69).
edge(74, 93).
edge(34, 109).
edge(16, 88).
edge(23, 129).
edge(32, 41).
edge(1, 18).
edge(57, 115).
edge(63, 143).
edge(66, 122).
edge(57, 107).
edge(100, 107).
edge(16, 20).
edge(81, 82).
edge(16, 144).
edge(40, 118).
edge(29, 127).
edge(27, 132).
edge(30, 119).
edge(60, 69).
edge(58, 62).
edge(3, 33).
edge(53, 128).
edge(87, 120).
edge(115, 139).
edge(11, 73).
edge(55, 70).
edge(15, 41).
edge(61, 142).
edge(58, 131).
edge(6, 96).
edge(98, 134).
edge(90, 118).
edge(23, 71).
edge(32, 83).
edge(23, 74).
edge(46, 53).
edge(73, 117).
edge(124, 139).
edge(29, 39).
edge(92, 123).
edge(63, 132).
edge(6, 116).
edge(50, 121).
edge(7, 41).
edge(28, 29).
edge(55, 137).
edge(14, 81).
edge(68, 111).
edge(13, 127).
edge(54, 65).
edge(44, 144).
edge(50, 122).
edge(44, 57).
edge(9, 112).
edge(31, 98).
edge(69, 125).
edge(115, 123).
edge(75, 140).
edge(64, 90).
edge(7, 29).
edge(52, 132).
edge(1, 109).
edge(12, 103).
edge(87, 105).
edge(3, 47).
edge(29, 34).
edge(4, 99).
edge(77, 89).
edge(85, 116).
edge(72, 139).
edge(5, 92).
edge(54, 76).
edge(53, 126).
edge(73, 109).
edge(6, 106).
edge(21, 29).
edge(39, 71).
edge(22, 27).
edge(82, 130).
edge(30, 78).
edge(85, 101).
edge(16, 54).
edge(49, 56).
edge(16, 138).
edge(39, 120).
edge(75, 127).
edge(101, 136).
edge(64, 86).
edge(61, 92).
edge(49, 79).
edge(16, 134).
edge(110, 123).
edge(17, 58).
edge(4, 29).
edge(87, 93).
edge(33, 93).
edge(5, 37).
edge(49, 67).
edge(17, 34).
edge(17, 95).
edge(56, 132).
edge(20, 59).
edge(9, 133).
edge(83, 129).
edge(60, 80).
edge(16, 100).
edge(29, 104).
edge(86, 92).
edge(14, 38).
edge(6, 128).
edge(35, 128).
edge(23, 133).
edge(32, 59).
edge(99, 131).
edge(5, 49).
edge(9, 13).
edge(16, 46).
edge(45, 53).
edge(24, 91).
edge(18, 124).
edge(38, 49).
edge(20, 63).
edge(35, 98).
edge(0, 44).
edge(1, 75).
edge(41, 105).
edge(42, 143).
edge(98, 132).
edge(45, 102).
edge(62, 99).
edge(41, 136).
edge(79, 103).
edge(116, 119).
edge(78, 124).
edge(131, 136).
edge(64, 111).
edge(95, 124).
edge(63, 110).
edge(71, 98).
edge(24, 27).
edge(19, 79).
edge(75, 88).
edge(1, 122).
edge(73, 111).
edge(17, 36).
edge(0, 70).
edge(50, 115).
edge(106, 126).
edge(18, 105).
edge(1, 66).
edge(113, 114).
edge(28, 139).
edge(105, 108).
edge(83, 125).
edge(103, 141).
edge(36, 49).
edge(9, 69).
edge(65, 67).
edge(42, 132).
edge(29, 111).
edge(18, 116).
edge(55, 129).
edge(93, 129).
edge(123, 128).
edge(31, 38).
edge(31, 130).
edge(42, 46).
edge(105, 115).
edge(43, 79).
edge(36, 48).
edge(7, 16).
edge(65, 121).
edge(10, 127).
edge(28, 124).
edge(0, 81).
edge(53, 112).
edge(52, 119).
edge(36, 89).
edge(61, 116).
edge(36, 140).
edge(41, 114).
edge(98, 112).
edge(30, 60).
edge(22, 137).
edge(51, 103).
edge(34, 45).
edge(27, 115).
edge(25, 141).
edge(93, 118).
edge(19, 119).
edge(68, 89).
edge(56, 120).
edge(78, 84).
edge(31, 123).
edge(53, 92).
edge(101, 108).
edge(56, 133).
edge(43, 54).
edge(42, 47).
edge(68, 142).
edge(0, 94).
edge(102, 123).
edge(80, 113).
edge(5, 62).
edge(15, 44).
edge(51, 125).
edge(9, 53).
edge(122, 129).
edge(137, 140).
edge(7, 134).
edge(30, 132).
edge(20, 136).
edge(63, 78).
edge(32, 135).
edge(9, 111).
edge(39, 69).
edge(33, 63).
edge(0, 95).
edge(35, 94).
edge(30, 98).
edge(56, 118).
edge(52, 142).
edge(60, 94).
edge(4, 59).
edge(37, 133).
edge(15, 109).
edge(11, 121).
edge(55, 142).
edge(32, 89).
edge(51, 106).
edge(81, 91).
edge(10, 34).
edge(2, 103).
edge(75, 79).
edge(82, 118).
edge(36, 91).
edge(10, 87).
edge(14, 31).
edge(62, 135).
edge(3, 76).
edge(33, 51).
edge(7, 56).
edge(49, 91).
edge(69, 102).
edge(30, 109).
edge(31, 85).
edge(16, 58).
edge(68, 104).
edge(46, 70).
edge(60, 143).
edge(37, 61).
edge(84, 118).
edge(18, 144).
edge(17, 92).
edge(28, 138).
edge(10, 17).
edge(25, 137).
edge(71, 97).
edge(36, 134).
edge(40, 101).
edge(29, 85).
edge(7, 65).
edge(78, 143).
edge(77, 112).
edge(130, 140).
edge(65, 82).
edge(14, 144).
edge(39, 62).
edge(93, 125).
edge(47, 48).
edge(105, 139).
edge(42, 61).
edge(53, 87).
edge(50, 119).
edge(68, 99).
edge(38, 103).
edge(25, 76).
edge(66, 77).
edge(109, 124).
edge(42, 70).
edge(42, 96).
edge(89, 94).
edge(77, 137).
edge(47, 86).
edge(29, 48).
edge(126, 144).
edge(19, 102).
edge(76, 94).
edge(30, 130).
edge(56, 71).
edge(7, 117).
edge(11, 110).
edge(17, 142).
edge(1, 115).
edge(105, 140).
edge(3, 85).
edge(40, 67).
edge(45, 105).
edge(21, 25).
edge(30, 94).
edge(36, 95).
edge(4, 76).
edge(56, 119).
edge(0, 69).
edge(47, 112).
edge(44, 46).
edge(1, 78).
edge(63, 75).
edge(2, 27).
edge(75, 118).
edge(29, 133).
edge(26, 61).
edge(47, 56).
edge(87, 112).
edge(14, 107).
edge(22, 84).
edge(66, 86).
edge(2, 31).
edge(61, 123).
edge(57, 69).
edge(55, 78).
edge(15, 24).
edge(33, 84).
edge(47, 52).
edge(54, 61).
edge(1, 68).
edge(100, 125).
edge(74, 97).
edge(9, 37).
edge(18, 113).
edge(125, 142).
edge(105, 137).
edge(42, 94).
edge(57, 64).
edge(101, 120).
edge(65, 114).
edge(62, 110).
edge(129, 144).
edge(83, 115).
edge(17, 132).
edge(23, 83).
edge(12, 122).
edge(21, 74).
edge(125, 134).
edge(48, 105).
edge(38, 104).
edge(9, 35).
edge(89, 134).
edge(93, 117).
edge(77, 122).
edge(13, 125).
edge(90, 92).
edge(27, 53).
edge(17, 141).
edge(46, 69).
edge(13, 70).
edge(29, 78).
edge(20, 111).
edge(7, 61).
edge(30, 143).
edge(25, 127).
edge(28, 111).
edge(81, 104).
edge(40, 138).
edge(101, 111).
edge(77, 134).
edge(21, 23).
edge(61, 99).
edge(22, 71).
edge(5, 54).
edge(100, 124).
edge(46, 80).
edge(42, 43).
edge(90, 126).
edge(84, 100).
edge(42, 73).
edge(99, 115).
edge(49, 142).
edge(3, 103).
edge(5, 52).
edge(40, 94).
edge(8, 60).
edge(40, 102).
edge(44, 126).
edge(1, 55).
edge(52, 82).
edge(48, 126).
edge(30, 96).
edge(84, 99).
edge(99, 116).
edge(107, 142).
edge(46, 130).
edge(55, 98).
edge(47, 127).
edge(97, 103).
edge(85, 96).
edge(44, 138).
edge(101, 127).
edge(26, 30).
edge(8, 143).
edge(103, 127).
edge(109, 123).
edge(30, 36).
edge(3, 14).
edge(73, 127).
edge(59, 73).
edge(30, 53).
edge(77, 130).
edge(63, 109).
edge(32, 130).
edge(81, 143).
edge(75, 108).
edge(35, 38).
edge(20, 106).
edge(38, 59).
edge(42, 95).
edge(32, 139).
edge(105, 109).
edge(35, 117).
edge(20, 37).
edge(47, 122).
edge(2, 76).
edge(45, 120).
edge(47, 89).
edge(21, 111).
edge(3, 100).
edge(63, 94).
edge(44, 77).
edge(14, 19).
edge(36, 103).
edge(56, 62).
edge(7, 136).
edge(74, 99).
edge(8, 55).
edge(16, 79).
edge(10, 29).
edge(72, 101).
edge(10, 75).
edge(98, 109).
edge(18, 78).
edge(31, 52).
edge(38, 89).
edge(68, 70).
edge(101, 132).
edge(68, 69).
edge(81, 106).
edge(8, 76).
edge(6, 23).
edge(78, 83).
edge(23, 65).
edge(116, 129).
edge(122, 132).
edge(14, 134).
edge(15, 55).
edge(73, 89).
edge(48, 100).
edge(40, 90).
edge(47, 143).
edge(7, 55).
edge(85, 108).
edge(76, 119).
edge(8, 123).
edge(46, 81).
edge(13, 88).
edge(38, 95).
edge(103, 133).
edge(28, 39).
edge(17, 107).
edge(93, 100).
edge(92, 139).
edge(73, 136).
edge(25, 68).
edge(111, 130).
edge(60, 81).
edge(71, 113).
edge(72, 130).
edge(132, 134).
edge(71, 117).
edge(5, 24).
edge(99, 107).
edge(9, 102).
edge(19, 92).
edge(18, 81).
edge(84, 139).
edge(40, 108).
edge(41, 123).
edge(9, 129).
edge(24, 94).
edge(59, 70).
edge(15, 92).
edge(10, 77).
edge(18, 64).
edge(37, 80).
edge(83, 86).
edge(33, 144).
edge(1, 41).
edge(34, 79).
edge(12, 90).
edge(77, 118).
edge(33, 97).
edge(62, 102).
edge(98, 133).
edge(32, 91).
edge(8, 130).
edge(85, 127).
edge(54, 69).
edge(26, 44).
edge(11, 16).
edge(91, 124).
edge(27, 124).
edge(16, 72).
edge(18, 140).
edge(18, 131).
edge(26, 138).
edge(104, 106).
edge(24, 130).
edge(46, 84).
edge(49, 110).
edge(78, 138).
edge(125, 136).
edge(56, 66).
edge(15, 133).
edge(23, 123).
edge(1, 60).
edge(7, 85).
edge(90, 115).
edge(61, 126).
edge(16, 119).
edge(26, 32).
edge(9, 115).
edge(64, 65).
edge(25, 126).
edge(3, 21).
edge(30, 68).
edge(16, 81).
edge(112, 127).
edge(36, 66).
edge(27, 135).
edge(9, 21).
edge(11, 117).
edge(45, 132).
edge(8, 97).
edge(5, 103).
edge(65, 120).
edge(55, 79).
edge(17, 60).
edge(25, 27).
edge(3, 118).
edge(42, 84).
edge(35, 56).
edge(81, 134).
edge(45, 122).
edge(94, 96).
edge(41, 56).
edge(27, 101).
edge(2, 57).
edge(48, 112).
edge(46, 79).
edge(63, 80).
edge(10, 138).
edge(30, 50).
edge(67, 119).
edge(98, 105).
edge(28, 116).
edge(17, 113).
edge(94, 129).
edge(30, 62).
edge(119, 133).
edge(10, 15).
edge(53, 118).
edge(55, 69).
edge(49, 81).
edge(22, 123).
edge(17, 144).
edge(38, 98).
edge(26, 39).
edge(14, 101).
edge(0, 117).
edge(73, 105).
edge(10, 97).
edge(28, 42).
edge(52, 92).
edge(109, 130).
edge(15, 75).
edge(30, 142).
edge(35, 140).
edge(124, 126).
edge(11, 75).
edge(83, 87).
edge(28, 45).
edge(9, 24).
edge(5, 6).
edge(39, 59).
edge(74, 108).
edge(40, 52).
edge(96, 105).
edge(34, 75).
edge(4, 50).
edge(77, 117).
edge(62, 129).
edge(49, 82).
edge(11, 32).
edge(49, 63).
edge(51, 107).
edge(26, 94).
edge(0, 51).
edge(18, 92).
edge(68, 93).
edge(85, 92).
edge(102, 126).
edge(8, 71).
edge(5, 45).
edge(90, 95).
edge(6, 33).
edge(37, 86).
edge(4, 85).
edge(16, 21).
edge(107, 139).
edge(1, 120).
edge(0, 86).
edge(23, 35).
edge(23, 60).
edge(52, 131).
edge(103, 144).
edge(12, 99).
edge(27, 130).
edge(66, 96).
edge(35, 92).
edge(82, 100).
edge(33, 122).
edge(77, 144).
edge(67, 130).
edge(33, 49).
edge(6, 102).
edge(60, 71).
edge(75, 103).
edge(24, 143).
edge(23, 29).
edge(74, 133).
edge(74, 86).
edge(74, 138).
edge(108, 119).
edge(116, 134).
edge(26, 112).
edge(71, 110).
edge(10, 122).
edge(28, 32).
edge(17, 28).
edge(5, 53).
edge(40, 51).
edge(25, 60).
edge(61, 96).
edge(45, 51).
edge(50, 132).
edge(63, 98).
edge(42, 140).
edge(59, 109).
edge(32, 113).
edge(15, 93).
edge(58, 120).
edge(60, 79).
edge(14, 136).
edge(46, 120).
edge(79, 114).
edge(0, 143).
edge(61, 104).
edge(113, 134).
edge(10, 142).
edge(74, 88).
edge(16, 70).
edge(72, 138).
edge(47, 107).
edge(73, 121).
edge(42, 101).
edge(25, 80).
edge(64, 112).
edge(84, 116).
edge(11, 120).
edge(7, 86).
edge(47, 141).
edge(19, 76).
edge(31, 60).
edge(39, 66).
edge(36, 131).
edge(104, 136).
edge(50, 108).
edge(85, 93).
edge(94, 113).
edge(53, 139).
edge(22, 41).
edge(52, 129).
edge(3, 10).
edge(22, 50).
edge(103, 124).
edge(42, 76).
edge(96, 143).
edge(94, 139).
edge(63, 126).
edge(11, 44).
edge(82, 106).
edge(80, 102).
edge(101, 106).
edge(1, 119).
edge(6, 74).
edge(46, 131).
edge(58, 130).
edge(37, 107).
edge(99, 139).
edge(11, 37).
edge(30, 84).
edge(106, 110).
edge(80, 133).
edge(38, 66).
edge(65, 85).
edge(100, 102).
edge(85, 117).
edge(0, 38).
edge(24, 113).
edge(42, 110).
edge(98, 121).
edge(100, 117).
edge(113, 121).
edge(51, 91).
edge(23, 109).
edge(48, 103).
edge(87, 144).
edge(62, 74).
edge(19, 128).
edge(81, 109).
edge(33, 45).
edge(42, 128).
edge(3, 9).
edge(0, 2).
edge(36, 85).
edge(47, 117).
edge(25, 100).
edge(14, 114).
edge(27, 144).
edge(0, 109).
edge(95, 105).
edge(36, 120).
edge(51, 58).
edge(11, 91).
edge(49, 133).
edge(42, 67).
edge(30, 74).
edge(24, 44).
edge(26, 53).
edge(42, 68).
edge(52, 143).
edge(51, 79).
edge(40, 73).
edge(65, 90).
edge(47, 135).
edge(21, 93).
edge(52, 59).
edge(1, 136).
edge(80, 107).
edge(15, 77).
edge(5, 106).
edge(20, 29).
edge(114, 136).
edge(39, 139).
edge(27, 97).
edge(50, 131).
edge(39, 110).
edge(27, 45).
edge(87, 118).
edge(61, 94).
edge(0, 31).
edge(116, 123).
edge(83, 84).
edge(74, 76).
edge(19, 101).
edge(10, 91).
edge(29, 54).
edge(0, 42).
edge(34, 122).
edge(49, 86).
edge(112, 144).
edge(80, 117).
edge(35, 55).
edge(30, 72).
edge(116, 125).
edge(25, 75).
edge(0, 52).
edge(6, 20).
edge(18, 84).
edge(30, 64).
edge(45, 104).
edge(66, 131).
edge(19, 26).
edge(31, 43).
edge(71, 85).
edge(30, 108).
edge(50, 94).
edge(30, 141).
edge(32, 118).
edge(119, 143).
edge(22, 80).
edge(40, 97).
edge(110, 140).
edge(23, 80).
edge(62, 83).
edge(48, 84).
edge(89, 111).
edge(30, 133).
edge(11, 23).
edge(48, 111).
edge(61, 137).
edge(68, 95).
edge(55, 115).
edge(31, 49).
edge(28, 108).
edge(31, 41).
edge(38, 67).
edge(40, 107).
edge(135, 139).
edge(16, 25).
edge(71, 111).
edge(17, 73).
edge(69, 81).
edge(131, 132).
edge(108, 143).
edge(57, 61).
edge(1, 22).
edge(14, 15).
edge(13, 34).
edge(12, 65).
edge(34, 60).
edge(88, 106).
edge(96, 119).
edge(15, 19).
edge(22, 51).
edge(106, 119).
edge(65, 124).
edge(43, 71).
edge(2, 80).
edge(0, 92).
edge(17, 79).
edge(107, 109).
edge(133, 143).
edge(63, 141).
edge(97, 99).
edge(4, 97).
edge(59, 83).
edge(4, 120).
edge(75, 106).
edge(50, 111).
edge(87, 109).
edge(89, 135).
edge(26, 65).
edge(114, 130).
edge(7, 93).
edge(44, 85).
edge(13, 126).
edge(15, 87).
edge(34, 101).
edge(45, 118).
edge(20, 62).
edge(90, 108).
edge(36, 132).
edge(11, 69).
edge(23, 134).
edge(21, 85).
edge(92, 126).
edge(98, 118).
edge(36, 37).
edge(33, 39).
edge(5, 125).
edge(15, 21).
edge(17, 85).
edge(48, 115).
edge(34, 71).
edge(27, 89).
edge(110, 144).
edge(113, 133).
edge(49, 131).
edge(6, 140).
edge(73, 129).
edge(48, 122).
edge(1, 101).
edge(14, 105).
edge(78, 108).
edge(65, 110).
edge(98, 114).
edge(59, 66).
edge(69, 78).
edge(54, 132).
edge(101, 110).
edge(23, 142).
edge(48, 74).
edge(60, 115).
edge(80, 106).
edge(92, 143).
edge(73, 133).
edge(65, 102).
edge(105, 129).
edge(142, 143).
edge(0, 128).
edge(56, 105).
edge(45, 95).
edge(85, 143).
edge(51, 74).
edge(106, 134).
edge(17, 44).
edge(112, 129).
edge(50, 88).
edge(31, 95).
edge(49, 137).
edge(104, 125).
edge(32, 47).
edge(32, 54).
edge(102, 128).
edge(22, 105).
edge(72, 109).
edge(79, 143).
edge(62, 116).
edge(96, 118).
edge(108, 133).
edge(55, 123).
edge(54, 134).
edge(74, 80).
edge(12, 106).
edge(48, 116).
edge(87, 90).
edge(7, 11).
edge(94, 122).
edge(112, 132).
edge(80, 125).
edge(5, 101).
edge(106, 113).
edge(10, 22).
edge(52, 138).
edge(118, 134).
edge(22, 53).
edge(62, 89).
edge(16, 22).
edge(15, 16).
edge(15, 31).
edge(79, 91).
edge(19, 44).
edge(49, 132).
edge(85, 112).
edge(72, 120).
edge(109, 140).
edge(38, 111).
edge(51, 116).
edge(12, 123).
edge(44, 130).
edge(6, 99).
edge(46, 72).
edge(4, 90).
edge(13, 96).
edge(75, 80).
edge(27, 75).
edge(104, 134).
edge(6, 57).
edge(10, 49).
edge(0, 58).
edge(73, 77).
edge(27, 111).
edge(95, 132).
edge(39, 82).
edge(48, 108).
edge(16, 132).
edge(48, 137).
edge(12, 62).
edge(42, 121).
edge(3, 144).
edge(86, 110).
edge(17, 61).
edge(83, 102).
edge(16, 48).
edge(90, 117).
edge(89, 105).
edge(12, 41).
edge(118, 124).
edge(72, 96).
edge(64, 91).
edge(74, 98).
edge(12, 98).
edge(2, 130).
edge(104, 109).
edge(82, 92).
edge(19, 25).
edge(117, 143).
edge(30, 33).
edge(42, 65).
edge(26, 82).
edge(5, 18).
edge(45, 138).
edge(91, 121).
edge(54, 122).
edge(71, 82).
edge(20, 132).
edge(64, 74).
edge(111, 137).
edge(96, 115).
edge(20, 119).
edge(17, 71).
edge(111, 128).
edge(77, 93).
edge(67, 105).
edge(103, 106).
edge(47, 64).
edge(25, 58).
edge(66, 71).
edge(38, 57).
edge(4, 57).
edge(92, 99).
edge(127, 139).
edge(58, 136).
edge(8, 136).
edge(57, 126).
edge(31, 109).
edge(15, 47).
edge(68, 117).
edge(33, 137).
edge(80, 100).
edge(95, 121).
edge(105, 127).
edge(89, 123).
edge(107, 113).
edge(11, 14).
edge(1, 50).
edge(35, 36).
edge(21, 34).
edge(12, 112).
edge(91, 126).
edge(98, 125).
edge(12, 15).
edge(40, 132).
edge(24, 107).
edge(47, 113).
edge(95, 108).
edge(35, 89).
edge(45, 65).
edge(82, 85).
edge(31, 125).
edge(30, 75).
edge(35, 101).
edge(41, 142).
edge(11, 106).
edge(59, 139).
edge(71, 126).
edge(12, 120).
edge(14, 43).
edge(67, 93).
edge(15, 140).
edge(15, 69).
edge(49, 98).
edge(39, 91).
edge(63, 118).
edge(52, 110).
edge(91, 107).
edge(4, 136).
edge(60, 139).
edge(26, 59).
edge(7, 98).
edge(22, 59).
edge(85, 100).
edge(28, 100).
edge(52, 78).
edge(67, 121).
edge(92, 137).
edge(10, 62).
edge(38, 129).
edge(48, 49).
edge(21, 45).
edge(18, 88).
edge(5, 33).
edge(38, 143).
edge(111, 124).
edge(100, 133).
edge(1, 130).
edge(101, 138).
edge(2, 49).
edge(60, 110).
edge(2, 20).
edge(3, 27).
edge(59, 106).
edge(60, 126).
edge(129, 139).
edge(53, 97).
edge(39, 51).
edge(123, 126).
edge(10, 21).
edge(2, 138).
edge(82, 127).
edge(18, 102).
edge(77, 120).
edge(25, 130).
edge(69, 88).
edge(4, 77).
edge(1, 125).
edge(51, 61).
edge(18, 74).
edge(34, 138).
edge(59, 96).
edge(37, 39).
edge(104, 130).
edge(56, 136).
edge(27, 125).
edge(94, 131).
edge(89, 113).
edge(61, 78).
edge(5, 25).
edge(24, 41).
edge(118, 139).
edge(8, 140).
edge(81, 137).
edge(28, 46).
edge(92, 124).
edge(3, 99).
edge(96, 139).
edge(138, 144).
edge(30, 100).
edge(76, 102).
edge(94, 117).
edge(3, 17).
edge(122, 137).
edge(23, 79).
edge(6, 61).
edge(66, 125).
edge(50, 72).
edge(25, 39).
edge(15, 23).
edge(31, 66).
edge(17, 120).
edge(17, 35).
edge(45, 133).
edge(7, 104).
edge(132, 137).
edge(48, 144).
edge(44, 79).
edge(68, 88).
edge(47, 93).
edge(103, 114).
edge(69, 107).
edge(88, 108).
edge(30, 31).
edge(33, 131).
edge(77, 135).
edge(3, 106).
edge(51, 102).
edge(78, 96).
edge(47, 65).
edge(32, 73).
edge(108, 144).
edge(69, 115).
edge(108, 139).
edge(30, 137).
edge(2, 143).
edge(31, 37).
edge(50, 53).
edge(120, 129).
edge(12, 124).
edge(26, 120).
edge(92, 108).
edge(134, 144).
edge(28, 63).
edge(6, 112).
edge(65, 86).
edge(31, 97).
edge(52, 58).
edge(62, 137).
edge(106, 128).
edge(2, 137).
edge(93, 140).
edge(42, 103).
edge(27, 92).
edge(52, 144).
edge(93, 142).
edge(101, 144).
edge(110, 127).
edge(78, 86).
edge(48, 82).
edge(109, 121).
edge(6, 29).
edge(87, 119).
edge(49, 92).
edge(40, 70).
edge(46, 63).
edge(28, 91).
edge(5, 130).
edge(94, 114).
edge(62, 70).
edge(53, 120).
edge(22, 70).
edge(35, 65).
edge(27, 42).
edge(28, 35).
edge(16, 60).
edge(35, 60).
edge(26, 123).
edge(9, 56).
edge(9, 30).
edge(7, 8).
edge(48, 119).
edge(128, 132).
edge(63, 69).
edge(6, 141).
edge(16, 77).
edge(119, 142).
edge(61, 138).
edge(40, 53).
edge(136, 144).
edge(91, 142).
edge(120, 133).
edge(73, 92).
edge(3, 44).
edge(0, 125).
edge(123, 129).
edge(42, 138).
edge(112, 119).
edge(22, 62).
edge(64, 143).
edge(62, 92).
edge(53, 117).
edge(43, 111).
edge(55, 94).
edge(42, 83).
edge(43, 108).
edge(28, 140).
edge(106, 116).
edge(56, 107).
edge(18, 46).
edge(0, 5).
edge(86, 133).
edge(13, 103).
edge(42, 62).
edge(68, 137).
edge(20, 128).
edge(105, 112).
edge(19, 62).
edge(3, 54).
edge(56, 138).
edge(121, 133).
edge(46, 115).
edge(119, 132).
edge(58, 112).
edge(62, 65).
edge(94, 144).
edge(56, 86).
edge(70, 120).
edge(29, 35).
edge(72, 122).
edge(19, 106).
edge(89, 97).
edge(34, 111).
edge(46, 108).
edge(11, 129).
edge(124, 135).
edge(26, 98).
edge(55, 65).
edge(117, 118).
edge(2, 46).
edge(36, 74).
edge(21, 104).
edge(50, 113).
edge(28, 76).
edge(50, 83).
edge(31, 57).
edge(54, 71).
edge(0, 127).
edge(74, 111).
edge(3, 81).
edge(3, 67).
edge(12, 45).
edge(105, 141).
edge(11, 103).
edge(135, 143).
edge(37, 42).
edge(31, 96).
edge(52, 65).
edge(57, 114).
edge(115, 132).
edge(3, 136).
edge(88, 122).
edge(82, 125).
edge(115, 121).
edge(12, 82).
edge(84, 86).
edge(21, 59).
edge(46, 105).
edge(27, 100).
edge(104, 129).
edge(111, 121).
edge(55, 56).
edge(35, 100).
edge(8, 19).
edge(24, 95).
edge(67, 102).
edge(59, 113).
edge(30, 136).
edge(108, 130).
edge(2, 17).
edge(88, 116).
edge(26, 100).
edge(6, 121).
edge(34, 98).
edge(109, 144).
edge(88, 98).
edge(29, 72).
edge(49, 66).
edge(124, 131).
edge(98, 120).
edge(62, 68).
edge(28, 85).
edge(47, 58).
edge(53, 72).
edge(97, 98).
edge(22, 54).
edge(131, 138).
edge(9, 96).
edge(6, 50).
edge(32, 35).
edge(31, 74).
edge(56, 135).
edge(69, 93).
edge(16, 86).
edge(1, 63).
edge(73, 120).
edge(43, 105).
edge(16, 93).
edge(64, 106).
edge(38, 68).
edge(30, 140).
edge(116, 136).
edge(23, 27).
edge(21, 132).
edge(129, 131).
edge(49, 121).
edge(12, 127).
edge(59, 126).
edge(52, 136).
edge(5, 95).
edge(23, 56).
edge(84, 122).
edge(17, 82).
edge(16, 112).
edge(49, 123).
edge(40, 77).
edge(130, 143).
edge(73, 114).
edge(28, 96).
edge(60, 92).
edge(19, 144).
edge(86, 138).
edge(39, 48).
edge(19, 59).
edge(83, 131).
edge(9, 27).
edge(51, 128).
edge(6, 131).
edge(25, 43).
edge(6, 27).
edge(19, 98).
edge(0, 67).
edge(93, 105).
edge(61, 110).
edge(9, 15).
edge(101, 116).
edge(7, 124).
edge(3, 80).
edge(46, 61).
edge(86, 115).
edge(42, 66).
edge(7, 99).
edge(64, 108).
edge(56, 131).
edge(19, 142).
edge(51, 95).
edge(97, 131).
edge(10, 93).
edge(71, 83).
edge(45, 64).
edge(17, 51).
edge(11, 108).
edge(19, 74).
edge(20, 84).
edge(28, 52).
edge(79, 125).
edge(3, 22).
weight(0, 9).
weight(1, 8).
weight(2, 19).
weight(3, 7).
weight(4, 20).
weight(5, 13).
weight(6, 13).
weight(7, 19).
weight(8, 14).
weight(9, 11).
weight(10, 7).
weight(11, 9).
weight(12, 4).
weight(13, 2).
weight(14, 19).
weight(15, 20).
weight(16, 4).
weight(17, 12).
weight(18, 20).
weight(19, 19).
weight(20, 20).
weight(21, 14).
weight(22, 14).
weight(23, 20).
weight(24, 8).
weight(25, 4).
weight(26, 10).
weight(27, 20).
weight(28, 5).
weight(29, 9).
weight(30, 7).
weight(31, 6).
weight(32, 9).
weight(33, 20).
weight(34, 2).
weight(35, 17).
weight(36, 2).
weight(37, 19).
weight(38, 17).
weight(39, 10).
weight(40, 8).
weight(41, 13).
weight(42, 4).
weight(43, 17).
weight(44, 14).
weight(45, 14).
weight(46, 18).
weight(47, 6).
weight(48, 6).
weight(49, 7).
weight(50, 17).
weight(51, 15).
weight(52, 17).
weight(53, 5).
weight(54, 9).
weight(55, 4).
weight(56, 8).
weight(57, 11).
weight(58, 7).
weight(59, 14).
weight(60, 2).
weight(61, 15).
weight(62, 8).
weight(63, 12).
weight(64, 11).
weight(65, 14).
weight(66, 1).
weight(67, 1).
weight(68, 19).
weight(69, 5).
weight(70, 14).
weight(71, 14).
weight(72, 9).
weight(73, 7).
weight(74, 1).
weight(75, 12).
weight(76, 12).
weight(77, 18).
weight(78, 9).
weight(79, 4).
weight(80, 19).
weight(81, 8).
weight(82, 15).
weight(83, 9).
weight(84, 4).
weight(85, 6).
weight(86, 18).
weight(87, 16).
weight(88, 12).
weight(89, 18).
weight(90, 6).
weight(91, 8).
weight(92, 4).
weight(93, 13).
weight(94, 14).
weight(95, 19).
weight(96, 11).
weight(97, 10).
weight(98, 6).
weight(99, 11).
weight(100, 5).
weight(101, 10).
weight(102, 15).
weight(103, 9).
weight(104, 9).
weight(105, 14).
weight(106, 12).
weight(107, 12).
weight(108, 4).
weight(109, 17).
weight(110, 4).
weight(111, 6).
weight(112, 6).
weight(113, 2).
weight(114, 16).
weight(115, 19).
weight(116, 20).
weight(117, 4).
weight(118, 16).
weight(119, 6).
weight(120, 4).
weight(121, 2).
weight(122, 16).
weight(123, 18).
weight(124, 10).
weight(125, 7).
weight(126, 17).
weight(127, 18).
weight(128, 10).
weight(129, 16).
weight(130, 6).
weight(131, 4).
weight(132, 6).
weight(133, 5).
weight(134, 1).
weight(135, 20).
weight(136, 10).
weight(137, 9).
weight(138, 13).
weight(139, 20).
weight(140, 4).
weight(141, 8).
weight(142, 8).
weight(143, 3).
weight(144, 18).

{in(V)} :- node(V).
:- in(U), in(V), U < V, not edge(U,V).
:~ not in(V), weight(V,W). [W@1,V]
