node(0..142).
edge(20, 109).
edge(48, 100).
edge(63, 88).
edge(116, 141).
edge(51, 67).
edge(12, 26).
edge(32, 62).
edge(73, 112).
edge(80, 142).
edge(24, 55).
edge(7, 73).
edge(6, 73).
edge(16, 66).
edge(83, 85).
edge(9, 51).
edge(1, 42).
edge(35, 49).
edge(53, 105).
edge(2, 98).
edge(12, 55).
edge(66, 128).
edge(82, 83).
edge(17, 140).
edge(48, 95).
edge(25, 135).
edge(30, 65).
edge(67, 133).
edge(68, 121).
edge(116, 142).
edge(39, 96).
edge(5, 60).
edge(36, 130).
edge(34, 48).
edge(37, 139).
edge(0, 101).
edge(52, 121).
edge(105, 118).
edge(121, 142).
edge(123, 139).
edge(2, 87).
edge(65, 98).
edge(45, 131).
edge(28, 123).
edge(10, 112).
edge(82, 121).
edge(73, 98).
edge(24, 85).
edge(88, 122).
edge(88, 99).
edge(64, 142).
edge(58, 116).
edge(101, 112).
edge(20, 43).
edge(6, 126).
edge(32, 92).
edge(38, 67).
edge(44, 101).
edge(40, 101).
edge(11, 106).
edge(3, 132).
edge(20, 93).
edge(47, 71).
edge(95, 101).
edge(16, 116).
edge(78, 137).
edge(73, 140).
edge(31, 40).
edge(21, 24).
edge(15, 122).
edge(39, 133).
edge(42, 84).
edge(10, 141).
edge(1, 78).
edge(127, 130).
edge(9, 81).
edge(0, 142).
edge(8, 32).
edge(47, 119).
edge(29, 57).
edge(55, 96).
edge(3, 115).
edge(15, 129).
edge(95, 119).
edge(52, 82).
edge(74, 105).
edge(103, 135).
edge(67, 118).
edge(6, 8).
edge(129, 130).
edge(30, 130).
edge(44, 78).
edge(102, 123).
edge(67, 96).
edge(99, 114).
edge(12, 43).
edge(51, 64).
edge(28, 48).
edge(68, 112).
edge(112, 121).
edge(28, 136).
edge(29, 83).
edge(85, 113).
edge(6, 111).
edge(31, 88).
edge(48, 137).
edge(101, 124).
edge(38, 87).
edge(67, 101).
edge(0, 108).
edge(17, 131).
edge(14, 21).
edge(7, 11).
edge(33, 64).
edge(98, 110).
edge(103, 114).
edge(39, 104).
edge(10, 105).
edge(18, 118).
edge(65, 105).
edge(10, 58).
edge(3, 94).
edge(20, 120).
edge(36, 62).
edge(46, 57).
edge(96, 126).
edge(8, 130).
edge(54, 135).
edge(104, 122).
edge(5, 123).
edge(86, 119).
edge(28, 126).
edge(6, 52).
edge(32, 138).
edge(51, 52).
edge(122, 140).
edge(94, 142).
edge(80, 98).
edge(28, 62).
edge(24, 37).
edge(55, 73).
edge(17, 70).
edge(48, 61).
edge(79, 129).
edge(27, 141).
edge(67, 102).
edge(83, 117).
edge(3, 75).
edge(104, 119).
edge(17, 105).
edge(35, 140).
edge(83, 111).
edge(79, 106).
edge(10, 93).
edge(5, 120).
edge(28, 117).
edge(69, 121).
edge(100, 141).
edge(40, 90).
edge(57, 61).
edge(15, 66).
edge(7, 46).
edge(37, 61).
edge(36, 107).
edge(13, 132).
edge(2, 21).
edge(24, 54).
edge(15, 110).
edge(13, 44).
edge(33, 44).
edge(70, 73).
edge(83, 129).
edge(65, 136).
edge(114, 118).
edge(43, 115).
edge(5, 55).
edge(26, 92).
edge(12, 74).
edge(2, 63).
edge(23, 56).
edge(29, 39).
edge(35, 84).
edge(2, 64).
edge(14, 127).
edge(117, 140).
edge(13, 33).
edge(27, 50).
edge(69, 140).
edge(32, 110).
edge(76, 126).
edge(46, 100).
edge(5, 116).
edge(33, 109).
edge(38, 99).
edge(102, 106).
edge(2, 67).
edge(23, 131).
edge(53, 137).
edge(37, 89).
edge(36, 38).
edge(4, 46).
edge(5, 77).
edge(20, 85).
edge(94, 123).
edge(65, 81).
edge(43, 122).
edge(42, 125).
edge(45, 117).
edge(117, 130).
edge(10, 51).
edge(11, 139).
edge(14, 93).
edge(104, 111).
edge(9, 27).
edge(5, 102).
edge(51, 139).
edge(18, 75).
edge(29, 36).
edge(85, 128).
edge(62, 100).
edge(31, 116).
edge(2, 80).
edge(34, 71).
edge(24, 29).
edge(80, 108).
edge(112, 118).
edge(68, 93).
edge(116, 122).
edge(51, 142).
edge(32, 94).
edge(36, 57).
edge(119, 136).
edge(11, 107).
edge(58, 70).
edge(5, 126).
edge(21, 38).
edge(39, 142).
edge(51, 75).
edge(100, 135).
edge(12, 100).
edge(9, 107).
edge(21, 77).
edge(35, 118).
edge(14, 102).
edge(17, 119).
edge(4, 102).
edge(3, 4).
edge(11, 16).
edge(10, 122).
edge(17, 117).
edge(92, 121).
edge(53, 89).
edge(28, 87).
edge(55, 103).
edge(49, 91).
edge(18, 116).
edge(11, 41).
edge(32, 142).
edge(34, 137).
edge(66, 85).
edge(53, 140).
edge(34, 116).
edge(27, 39).
edge(26, 65).
edge(106, 129).
edge(80, 116).
edge(1, 131).
edge(33, 134).
edge(56, 141).
edge(6, 115).
edge(5, 32).
edge(58, 96).
edge(110, 123).
edge(32, 60).
edge(70, 132).
edge(67, 68).
edge(29, 101).
edge(56, 138).
edge(2, 107).
edge(0, 135).
edge(59, 120).
edge(20, 72).
edge(14, 30).
edge(55, 115).
edge(44, 79).
edge(45, 55).
edge(102, 103).
edge(72, 121).
edge(10, 142).
edge(27, 121).
edge(95, 129).
edge(88, 135).
edge(41, 128).
edge(69, 96).
edge(17, 44).
edge(59, 98).
edge(43, 134).
edge(41, 43).
edge(27, 108).
edge(38, 119).
edge(8, 28).
edge(53, 85).
edge(49, 61).
edge(48, 65).
edge(48, 132).
edge(29, 128).
edge(49, 116).
edge(38, 81).
edge(57, 68).
edge(16, 76).
edge(72, 120).
edge(77, 126).
edge(55, 125).
edge(78, 121).
edge(82, 105).
edge(116, 129).
edge(1, 37).
edge(83, 115).
edge(80, 104).
edge(4, 60).
edge(122, 136).
edge(4, 138).
edge(89, 121).
edge(23, 38).
edge(59, 62).
edge(3, 63).
edge(3, 81).
edge(5, 82).
edge(15, 50).
edge(100, 140).
edge(12, 20).
edge(43, 54).
edge(30, 116).
edge(78, 87).
edge(57, 125).
edge(83, 120).
edge(59, 112).
edge(4, 76).
edge(45, 84).
edge(135, 141).
edge(86, 136).
edge(16, 142).
edge(58, 85).
edge(48, 124).
edge(68, 80).
edge(65, 123).
edge(39, 113).
edge(13, 34).
edge(11, 19).
edge(29, 106).
edge(38, 130).
edge(25, 37).
edge(21, 64).
edge(58, 111).
edge(49, 89).
edge(8, 24).
edge(3, 117).
edge(87, 120).
edge(4, 35).
edge(15, 33).
edge(45, 69).
edge(46, 54).
edge(43, 82).
edge(19, 34).
edge(80, 96).
edge(65, 122).
edge(14, 19).
edge(89, 92).
edge(12, 136).
edge(27, 72).
edge(5, 68).
edge(114, 121).
edge(74, 82).
edge(2, 103).
edge(39, 120).
edge(27, 69).
edge(18, 32).
edge(19, 112).
edge(11, 18).
edge(63, 67).
edge(65, 135).
edge(27, 107).
edge(4, 94).
edge(7, 60).
edge(93, 97).
edge(57, 101).
edge(22, 121).
edge(26, 82).
edge(20, 133).
edge(27, 51).
edge(65, 116).
edge(83, 90).
edge(5, 137).
edge(28, 139).
edge(24, 77).
edge(84, 110).
edge(66, 121).
edge(38, 82).
edge(16, 59).
edge(17, 79).
edge(16, 139).
edge(54, 128).
edge(84, 88).
edge(43, 52).
edge(10, 41).
edge(91, 95).
edge(1, 111).
edge(30, 112).
edge(21, 137).
edge(28, 129).
edge(75, 142).
edge(26, 103).
edge(39, 83).
edge(31, 109).
edge(47, 97).
edge(87, 122).
edge(16, 118).
edge(66, 124).
edge(19, 103).
edge(29, 30).
edge(59, 125).
edge(21, 102).
edge(32, 88).
edge(115, 117).
edge(59, 89).
edge(56, 65).
edge(88, 125).
edge(35, 72).
edge(50, 118).
edge(85, 118).
edge(81, 96).
edge(57, 78).
edge(68, 69).
edge(24, 113).
edge(118, 129).
edge(58, 84).
edge(10, 38).
edge(75, 133).
edge(39, 52).
edge(37, 137).
edge(81, 99).
edge(59, 76).
edge(32, 70).
edge(12, 64).
edge(49, 69).
edge(63, 115).
edge(79, 118).
edge(84, 114).
edge(85, 105).
edge(99, 132).
edge(73, 82).
edge(32, 67).
edge(79, 133).
edge(89, 112).
edge(6, 67).
edge(76, 79).
edge(14, 71).
edge(19, 32).
edge(34, 135).
edge(42, 91).
edge(20, 26).
edge(62, 121).
edge(12, 54).
edge(93, 106).
edge(67, 104).
edge(106, 124).
edge(100, 104).
edge(37, 113).
edge(79, 137).
edge(82, 129).
edge(18, 105).
edge(35, 46).
edge(57, 132).
edge(8, 62).
edge(84, 140).
edge(24, 71).
edge(27, 49).
edge(60, 131).
edge(37, 96).
edge(96, 112).
edge(33, 42).
edge(22, 58).
edge(41, 57).
edge(3, 141).
edge(67, 114).
edge(94, 105).
edge(51, 76).
edge(15, 61).
edge(52, 86).
edge(43, 96).
edge(20, 95).
edge(43, 86).
edge(74, 106).
edge(16, 51).
edge(1, 40).
edge(11, 67).
edge(49, 110).
edge(22, 81).
edge(22, 95).
edge(31, 84).
edge(98, 106).
edge(50, 114).
edge(65, 75).
edge(26, 46).
edge(50, 84).
edge(36, 47).
edge(30, 42).
edge(19, 93).
edge(94, 137).
edge(48, 68).
edge(64, 75).
edge(94, 103).
edge(27, 81).
edge(114, 136).
edge(84, 141).
edge(36, 61).
edge(57, 123).
edge(73, 95).
edge(3, 54).
edge(34, 57).
edge(126, 141).
edge(47, 66).
edge(20, 67).
edge(90, 100).
edge(56, 62).
edge(91, 116).
edge(25, 42).
edge(26, 40).
edge(63, 76).
edge(41, 113).
edge(38, 133).
edge(8, 23).
edge(5, 54).
edge(40, 45).
edge(10, 37).
edge(12, 67).
edge(37, 90).
edge(24, 58).
edge(6, 79).
edge(9, 12).
edge(58, 86).
edge(94, 108).
edge(72, 75).
edge(40, 60).
edge(25, 108).
edge(6, 33).
edge(12, 84).
edge(28, 90).
edge(30, 80).
edge(8, 86).
edge(4, 84).
edge(47, 76).
edge(45, 96).
edge(4, 118).
edge(95, 120).
edge(38, 109).
edge(93, 124).
edge(56, 94).
edge(53, 80).
edge(25, 111).
edge(94, 129).
edge(44, 105).
edge(28, 102).
edge(8, 139).
edge(54, 111).
edge(5, 39).
edge(2, 47).
edge(80, 135).
edge(48, 142).
edge(32, 76).
edge(9, 23).
edge(61, 120).
edge(26, 59).
edge(22, 33).
edge(103, 129).
edge(76, 106).
edge(74, 124).
edge(8, 123).
edge(66, 97).
edge(18, 124).
edge(50, 109).
edge(113, 141).
edge(24, 61).
edge(89, 131).
edge(17, 67).
edge(54, 137).
edge(39, 85).
edge(29, 67).
edge(77, 86).
edge(46, 63).
edge(57, 70).
edge(47, 129).
edge(78, 113).
edge(82, 137).
edge(75, 119).
edge(20, 58).
edge(63, 92).
edge(86, 124).
edge(39, 122).
edge(52, 92).
edge(19, 104).
edge(32, 131).
edge(18, 34).
edge(40, 121).
edge(45, 88).
edge(9, 22).
edge(0, 134).
edge(63, 101).
edge(20, 113).
edge(57, 69).
edge(33, 135).
edge(16, 108).
edge(74, 131).
edge(32, 134).
edge(98, 134).
edge(63, 75).
edge(35, 108).
edge(23, 72).
edge(17, 129).
edge(115, 140).
edge(57, 118).
edge(29, 98).
edge(26, 117).
edge(1, 103).
edge(37, 118).
edge(7, 110).
edge(3, 134).
edge(7, 45).
edge(25, 101).
edge(5, 20).
edge(78, 114).
edge(3, 68).
edge(1, 24).
edge(82, 125).
edge(31, 78).
edge(50, 121).
edge(52, 101).
edge(61, 130).
edge(86, 122).
edge(63, 65).
edge(25, 142).
edge(0, 132).
edge(31, 122).
edge(55, 123).
edge(12, 41).
edge(46, 76).
edge(72, 90).
edge(9, 41).
edge(49, 88).
edge(4, 63).
edge(15, 137).
edge(30, 91).
edge(42, 71).
edge(4, 140).
edge(81, 82).
edge(16, 113).
edge(13, 128).
edge(39, 64).
edge(49, 109).
edge(65, 99).
edge(90, 106).
edge(17, 74).
edge(11, 17).
edge(46, 117).
edge(1, 80).
edge(55, 68).
edge(24, 50).
edge(32, 97).
edge(30, 101).
edge(79, 83).
edge(8, 117).
edge(71, 131).
edge(50, 141).
edge(124, 141).
edge(90, 101).
edge(55, 128).
edge(92, 113).
edge(5, 48).
edge(31, 97).
edge(13, 53).
edge(9, 127).
edge(96, 124).
edge(70, 112).
edge(69, 100).
edge(99, 126).
edge(32, 69).
edge(94, 119).
edge(34, 58).
edge(2, 65).
edge(54, 103).
edge(40, 119).
edge(85, 126).
edge(71, 127).
edge(41, 119).
edge(22, 54).
edge(5, 117).
edge(82, 110).
edge(80, 97).
edge(7, 121).
edge(74, 134).
edge(33, 93).
edge(28, 141).
edge(105, 132).
edge(81, 119).
edge(46, 70).
edge(27, 130).
edge(35, 86).
edge(25, 82).
edge(70, 111).
edge(27, 129).
edge(15, 21).
edge(17, 135).
edge(14, 69).
edge(22, 45).
edge(0, 37).
edge(122, 130).
edge(14, 50).
edge(4, 33).
edge(26, 106).
edge(78, 81).
edge(111, 120).
edge(36, 67).
edge(30, 133).
edge(13, 78).
edge(1, 130).
edge(2, 94).
edge(26, 70).
edge(38, 68).
edge(120, 140).
edge(51, 102).
edge(1, 20).
edge(47, 137).
edge(34, 74).
edge(10, 45).
edge(48, 129).
edge(93, 103).
edge(4, 124).
edge(53, 138).
edge(35, 128).
edge(77, 115).
edge(24, 48).
edge(76, 90).
edge(24, 124).
edge(131, 135).
edge(52, 136).
edge(3, 19).
edge(26, 119).
edge(81, 104).
edge(37, 60).
edge(95, 96).
edge(22, 42).
edge(3, 15).
edge(57, 134).
edge(28, 69).
edge(99, 122).
edge(20, 50).
edge(7, 82).
edge(33, 58).
edge(58, 138).
edge(10, 64).
edge(81, 114).
edge(121, 133).
edge(21, 127).
edge(73, 127).
edge(14, 101).
edge(96, 128).
edge(5, 89).
edge(50, 139).
edge(0, 5).
edge(31, 55).
edge(18, 104).
edge(27, 118).
edge(13, 131).
edge(4, 66).
edge(64, 112).
edge(78, 106).
edge(46, 124).
edge(1, 68).
edge(81, 137).
edge(97, 130).
edge(90, 96).
edge(18, 109).
edge(48, 63).
edge(53, 62).
edge(57, 133).
edge(65, 93).
edge(18, 44).
edge(112, 116).
edge(50, 117).
edge(29, 142).
edge(35, 94).
edge(48, 73).
edge(18, 88).
edge(91, 110).
edge(117, 138).
edge(10, 113).
edge(120, 122).
edge(23, 44).
edge(10, 78).
edge(27, 106).
edge(95, 141).
edge(6, 49).
edge(17, 82).
edge(11, 50).
edge(10, 128).
edge(28, 80).
edge(39, 136).
edge(6, 34).
edge(23, 84).
edge(63, 78).
edge(2, 78).
edge(96, 122).
edge(33, 137).
edge(3, 40).
edge(27, 137).
edge(22, 131).
edge(26, 37).
edge(38, 97).
edge(58, 73).
edge(19, 63).
edge(93, 125).
edge(68, 74).
edge(33, 34).
edge(53, 99).
edge(46, 139).
edge(36, 117).
edge(110, 129).
edge(87, 126).
edge(54, 121).
edge(60, 65).
edge(19, 55).
edge(43, 142).
edge(2, 43).
edge(76, 119).
edge(91, 111).
edge(17, 93).
edge(10, 81).
edge(53, 75).
edge(33, 140).
edge(39, 87).
edge(33, 84).
edge(5, 17).
edge(23, 78).
edge(16, 24).
edge(100, 103).
edge(23, 110).
edge(20, 108).
edge(74, 92).
edge(57, 138).
edge(70, 120).
edge(44, 100).
edge(18, 69).
edge(60, 133).
edge(57, 64).
edge(123, 137).
edge(14, 141).
edge(33, 77).
edge(41, 107).
edge(66, 141).
edge(31, 43).
edge(26, 142).
edge(31, 117).
edge(12, 80).
edge(54, 116).
edge(94, 126).
edge(22, 126).
edge(63, 64).
edge(21, 115).
edge(8, 96).
edge(34, 45).
edge(30, 99).
edge(108, 109).
edge(5, 115).
edge(107, 141).
edge(25, 30).
edge(12, 69).
edge(8, 108).
edge(51, 70).
edge(36, 49).
edge(116, 128).
edge(74, 132).
edge(95, 117).
edge(85, 111).
edge(26, 60).
edge(38, 139).
edge(111, 141).
edge(87, 129).
edge(49, 140).
edge(8, 84).
edge(7, 139).
edge(46, 73).
edge(95, 115).
edge(56, 105).
edge(75, 111).
edge(33, 45).
edge(74, 136).
edge(4, 96).
edge(31, 74).
edge(69, 120).
edge(6, 38).
edge(12, 16).
edge(70, 113).
edge(55, 110).
edge(57, 95).
edge(0, 18).
edge(40, 91).
edge(73, 85).
edge(32, 91).
edge(29, 115).
edge(77, 103).
edge(41, 111).
edge(0, 10).
edge(64, 65).
edge(25, 61).
edge(28, 119).
edge(9, 71).
edge(35, 116).
edge(46, 116).
edge(14, 133).
edge(60, 109).
edge(70, 140).
edge(4, 64).
edge(50, 127).
edge(60, 70).
edge(89, 102).
edge(41, 49).
edge(39, 112).
edge(87, 116).
edge(37, 58).
edge(36, 48).
edge(45, 62).
edge(7, 100).
edge(24, 28).
edge(5, 119).
edge(49, 59).
edge(84, 130).
edge(11, 80).
edge(0, 123).
edge(42, 64).
edge(64, 113).
edge(102, 118).
edge(32, 107).
edge(5, 65).
edge(7, 48).
edge(42, 105).
edge(7, 37).
edge(118, 124).
edge(84, 102).
edge(100, 124).
edge(47, 132).
edge(49, 127).
edge(93, 133).
edge(93, 96).
edge(23, 54).
edge(24, 70).
edge(38, 111).
edge(48, 136).
edge(0, 50).
edge(11, 84).
edge(62, 84).
edge(8, 101).
edge(97, 121).
edge(68, 114).
edge(77, 120).
edge(33, 50).
edge(42, 82).
edge(18, 90).
edge(108, 111).
edge(44, 71).
edge(60, 89).
edge(22, 75).
edge(39, 94).
edge(36, 52).
edge(0, 55).
edge(31, 41).
edge(48, 106).
edge(42, 76).
edge(64, 116).
edge(13, 35).
edge(104, 106).
edge(17, 134).
edge(59, 84).
edge(109, 125).
edge(96, 99).
edge(63, 109).
edge(30, 33).
edge(12, 24).
edge(17, 21).
edge(81, 83).
edge(37, 117).
edge(13, 21).
edge(63, 69).
edge(85, 122).
edge(24, 95).
edge(96, 108).
edge(26, 79).
edge(22, 73).
edge(6, 44).
edge(87, 115).
edge(26, 97).
edge(69, 114).
edge(13, 18).
edge(35, 74).
edge(45, 68).
edge(22, 47).
edge(26, 93).
edge(43, 76).
edge(92, 98).
edge(4, 90).
edge(77, 131).
edge(21, 140).
edge(9, 65).
edge(120, 135).
edge(38, 91).
edge(13, 51).
edge(35, 119).
edge(41, 102).
edge(65, 72).
edge(7, 16).
edge(93, 136).
edge(0, 81).
edge(62, 136).
edge(37, 54).
edge(33, 73).
edge(86, 137).
edge(18, 78).
edge(28, 31).
edge(16, 114).
edge(51, 110).
edge(51, 129).
edge(115, 126).
edge(15, 77).
edge(90, 112).
edge(5, 124).
edge(65, 88).
edge(23, 130).
edge(25, 100).
edge(77, 107).
edge(62, 71).
edge(33, 71).
edge(20, 21).
edge(24, 142).
edge(113, 140).
edge(33, 62).
edge(12, 111).
edge(35, 105).
edge(22, 49).
edge(111, 140).
edge(94, 130).
edge(37, 115).
edge(39, 63).
edge(64, 107).
edge(37, 65).
edge(30, 44).
edge(114, 129).
edge(33, 88).
edge(68, 116).
edge(15, 134).
edge(16, 94).
edge(83, 107).
edge(5, 140).
edge(70, 75).
edge(34, 99).
edge(21, 23).
edge(48, 59).
edge(18, 119).
edge(99, 141).
edge(71, 108).
edge(61, 94).
edge(62, 78).
edge(15, 102).
edge(35, 39).
edge(23, 60).
edge(83, 108).
edge(45, 100).
edge(28, 65).
edge(91, 130).
edge(2, 90).
edge(53, 97).
edge(27, 60).
edge(5, 40).
edge(41, 64).
edge(87, 123).
edge(12, 61).
edge(78, 93).
edge(43, 130).
edge(118, 132).
edge(115, 133).
edge(31, 73).
edge(109, 141).
edge(1, 96).
edge(82, 115).
edge(9, 121).
edge(110, 116).
edge(5, 36).
edge(38, 123).
edge(27, 30).
edge(49, 136).
edge(52, 62).
edge(94, 102).
edge(10, 52).
edge(98, 129).
edge(75, 99).
edge(76, 134).
edge(63, 84).
edge(45, 99).
edge(24, 138).
edge(88, 129).
edge(64, 82).
edge(43, 63).
edge(51, 59).
edge(61, 83).
edge(15, 36).
edge(107, 120).
edge(84, 109).
edge(87, 125).
edge(10, 20).
edge(24, 68).
edge(48, 60).
edge(89, 133).
edge(11, 30).
edge(82, 120).
edge(137, 138).
edge(89, 93).
edge(79, 136).
edge(67, 125).
edge(59, 104).
edge(117, 131).
edge(110, 137).
edge(101, 110).
edge(0, 78).
edge(24, 123).
edge(31, 102).
edge(72, 111).
edge(28, 61).
edge(36, 75).
edge(39, 129).
edge(41, 121).
edge(72, 98).
edge(23, 58).
edge(124, 135).
edge(96, 142).
edge(13, 76).
edge(21, 63).
edge(55, 130).
edge(37, 66).
edge(24, 116).
edge(18, 40).
edge(62, 135).
edge(52, 117).
edge(23, 89).
edge(61, 102).
edge(35, 60).
edge(75, 123).
edge(75, 138).
edge(114, 137).
edge(1, 82).
edge(11, 57).
edge(104, 135).
edge(40, 53).
edge(11, 83).
edge(119, 123).
edge(130, 133).
edge(74, 107).
edge(29, 140).
edge(72, 118).
edge(15, 18).
edge(32, 81).
edge(97, 135).
edge(64, 114).
edge(19, 105).
edge(15, 120).
edge(14, 116).
edge(21, 61).
edge(38, 137).
edge(49, 134).
edge(70, 100).
edge(5, 79).
edge(62, 99).
edge(54, 76).
edge(41, 75).
edge(25, 29).
edge(60, 116).
edge(78, 131).
edge(7, 78).
edge(51, 136).
edge(99, 104).
edge(55, 57).
edge(34, 92).
edge(119, 133).
edge(24, 49).
edge(116, 126).
edge(71, 76).
edge(67, 74).
edge(79, 113).
edge(112, 135).
edge(66, 103).
edge(98, 115).
edge(20, 27).
edge(83, 113).
edge(58, 76).
edge(15, 103).
edge(70, 90).
edge(18, 21).
edge(24, 133).
edge(75, 126).
edge(42, 47).
edge(7, 128).
edge(15, 115).
edge(12, 30).
edge(72, 93).
edge(33, 99).
edge(87, 114).
edge(51, 65).
edge(44, 109).
edge(68, 138).
edge(112, 125).
edge(18, 66).
edge(106, 131).
edge(56, 59).
edge(25, 76).
edge(29, 110).
edge(18, 99).
edge(15, 31).
edge(67, 106).
edge(0, 126).
edge(91, 121).
edge(99, 113).
edge(28, 100).
edge(35, 113).
edge(128, 138).
edge(2, 123).
edge(16, 71).
edge(30, 79).
edge(75, 136).
edge(10, 132).
edge(91, 131).
edge(86, 133).
edge(43, 92).
edge(126, 139).
edge(98, 105).
edge(11, 77).
edge(103, 106).
edge(84, 136).
edge(67, 75).
edge(62, 122).
edge(2, 6).
edge(42, 102).
edge(1, 128).
edge(28, 32).
edge(121, 140).
edge(1, 134).
edge(98, 139).
edge(61, 129).
edge(123, 138).
edge(18, 122).
edge(8, 18).
edge(19, 79).
edge(17, 60).
edge(8, 132).
edge(42, 142).
edge(12, 101).
edge(10, 49).
edge(59, 124).
edge(56, 107).
edge(27, 32).
edge(34, 125).
edge(4, 135).
edge(71, 90).
edge(66, 127).
edge(19, 130).
edge(102, 135).
edge(35, 62).
edge(118, 142).
edge(2, 99).
edge(57, 65).
edge(11, 23).
edge(134, 137).
edge(2, 66).
edge(11, 24).
edge(14, 31).
edge(111, 139).
edge(9, 20).
edge(24, 118).
edge(6, 116).
edge(42, 113).
edge(25, 116).
edge(55, 126).
edge(27, 113).
edge(43, 83).
edge(21, 123).
edge(60, 69).
edge(100, 142).
edge(82, 91).
edge(31, 136).
edge(25, 107).
edge(46, 99).
edge(93, 107).
edge(33, 69).
edge(121, 132).
edge(50, 64).
edge(45, 49).
edge(14, 61).
edge(20, 24).
edge(52, 104).
edge(8, 29).
edge(20, 135).
edge(28, 86).
edge(54, 109).
edge(89, 134).
edge(8, 67).
edge(48, 117).
edge(22, 85).
edge(30, 53).
edge(43, 74).
edge(74, 97).
edge(53, 116).
edge(51, 96).
edge(36, 42).
edge(0, 25).
edge(14, 64).
edge(0, 19).
edge(3, 137).
edge(65, 80).
edge(9, 10).
edge(7, 101).
edge(72, 85).
edge(101, 140).
edge(75, 81).
edge(103, 142).
edge(62, 96).
edge(59, 92).
edge(60, 139).
edge(58, 125).
edge(12, 85).
edge(47, 77).
edge(47, 89).
edge(64, 135).
edge(16, 97).
edge(82, 134).
edge(125, 134).
edge(84, 113).
edge(101, 120).
edge(103, 122).
edge(36, 136).
edge(9, 70).
edge(42, 111).
edge(112, 140).
edge(11, 121).
edge(65, 67).
edge(23, 62).
edge(29, 79).
edge(19, 140).
edge(27, 94).
edge(55, 122).
edge(26, 47).
edge(65, 83).
edge(81, 121).
edge(31, 112).
edge(26, 91).
edge(42, 70).
edge(46, 101).
edge(9, 130).
edge(5, 85).
edge(42, 128).
edge(1, 67).
edge(60, 93).
edge(39, 67).
edge(30, 96).
edge(19, 126).
edge(131, 138).
edge(5, 86).
edge(2, 46).
edge(21, 110).
edge(95, 108).
edge(44, 59).
edge(21, 35).
edge(5, 108).
edge(55, 137).
edge(66, 135).
edge(78, 86).
edge(44, 104).
edge(52, 103).
edge(46, 95).
edge(29, 108).
edge(68, 126).
edge(24, 76).
edge(119, 131).
edge(132, 135).
edge(19, 52).
edge(2, 105).
edge(7, 135).
edge(27, 98).
edge(124, 131).
edge(43, 116).
edge(98, 140).
edge(109, 115).
edge(28, 128).
edge(1, 65).
edge(73, 113).
edge(56, 125).
edge(106, 107).
edge(24, 73).
edge(10, 133).
edge(37, 70).
edge(3, 5).
edge(13, 111).
edge(30, 119).
edge(53, 135).
edge(41, 126).
edge(23, 59).
edge(30, 34).
edge(95, 97).
edge(13, 27).
edge(12, 107).
edge(24, 75).
edge(68, 142).
edge(32, 121).
edge(63, 113).
edge(77, 111).
edge(91, 123).
edge(91, 122).
edge(1, 110).
edge(57, 96).
edge(41, 61).
edge(69, 131).
edge(60, 84).
edge(48, 55).
edge(0, 137).
edge(17, 118).
edge(6, 87).
edge(45, 116).
edge(51, 120).
edge(86, 109).
edge(88, 121).
edge(75, 98).
edge(37, 59).
edge(117, 132).
edge(14, 41).
edge(81, 117).
edge(28, 51).
edge(4, 122).
edge(55, 87).
edge(45, 127).
edge(42, 100).
edge(13, 86).
edge(43, 93).
edge(64, 86).
edge(12, 78).
edge(81, 100).
edge(36, 84).
edge(46, 87).
edge(55, 109).
edge(118, 134).
edge(59, 73).
edge(43, 111).
edge(21, 25).
edge(2, 7).
edge(14, 110).
edge(3, 25).
edge(10, 27).
edge(55, 88).
edge(51, 117).
edge(78, 125).
edge(55, 63).
edge(38, 86).
edge(29, 94).
edge(26, 100).
edge(50, 51).
edge(38, 75).
edge(6, 89).
edge(31, 47).
edge(0, 88).
edge(2, 18).
edge(53, 54).
edge(86, 92).
edge(115, 120).
edge(47, 74).
edge(21, 26).
edge(72, 131).
edge(115, 134).
edge(66, 99).
edge(96, 123).
edge(97, 128).
edge(60, 134).
edge(27, 57).
edge(17, 136).
edge(33, 113).
edge(4, 104).
edge(45, 63).
edge(59, 64).
edge(14, 20).
edge(29, 60).
edge(78, 129).
edge(101, 117).
edge(71, 102).
edge(63, 102).
edge(17, 116).
edge(87, 142).
edge(26, 129).
edge(105, 134).
edge(111, 131).
edge(43, 124).
edge(34, 37).
edge(8, 39).
edge(37, 91).
edge(28, 38).
edge(80, 117).
edge(34, 46).
edge(69, 139).
edge(9, 29).
edge(81, 103).
edge(48, 86).
edge(11, 95).
edge(18, 130).
edge(9, 36).
edge(49, 79).
edge(50, 56).
edge(32, 48).
edge(51, 58).
edge(26, 62).
edge(71, 87).
edge(59, 69).
edge(29, 35).
edge(41, 134).
edge(102, 112).
edge(31, 64).
edge(10, 82).
edge(85, 120).
edge(40, 122).
edge(105, 142).
edge(1, 9).
edge(45, 98).
edge(69, 79).
edge(85, 133).
edge(32, 116).
edge(4, 130).
edge(13, 16).
edge(41, 135).
edge(54, 118).
edge(120, 127).
edge(26, 71).
edge(52, 118).
edge(0, 9).
edge(51, 137).
edge(1, 63).
edge(14, 87).
edge(72, 128).
edge(0, 52).
edge(19, 125).
edge(6, 100).
edge(39, 43).
edge(76, 85).
edge(91, 99).
edge(11, 115).
edge(47, 96).
edge(75, 100).
edge(32, 118).
edge(61, 93).
edge(47, 70).
edge(98, 127).
edge(64, 94).
edge(27, 116).
edge(29, 58).
edge(26, 111).
edge(4, 80).
edge(39, 131).
edge(43, 57).
edge(9, 60).
edge(6, 141).
edge(3, 33).
edge(18, 134).
edge(55, 111).
edge(39, 140).
edge(81, 92).
edge(60, 104).
edge(96, 132).
edge(24, 109).
edge(13, 55).
edge(83, 124).
edge(4, 88).
edge(82, 141).
edge(52, 91).
edge(6, 137).
edge(77, 114).
edge(43, 81).
edge(26, 51).
edge(3, 16).
edge(108, 129).
edge(36, 76).
edge(32, 125).
edge(0, 115).
edge(68, 72).
edge(71, 106).
edge(10, 129).
edge(29, 92).
edge(15, 142).
edge(105, 115).
edge(54, 105).
edge(25, 89).
edge(90, 93).
edge(26, 118).
edge(17, 49).
edge(26, 137).
edge(41, 82).
edge(127, 133).
edge(61, 140).
edge(118, 128).
edge(79, 127).
edge(15, 24).
edge(74, 109).
edge(46, 108).
edge(61, 99).
edge(63, 81).
edge(3, 48).
edge(39, 117).
edge(22, 61).
edge(44, 114).
edge(47, 84).
edge(67, 69).
edge(2, 75).
edge(22, 38).
edge(54, 67).
edge(32, 96).
edge(115, 132).
edge(97, 119).
edge(32, 99).
edge(67, 95).
edge(97, 126).
edge(47, 114).
edge(31, 61).
edge(96, 105).
edge(53, 142).
edge(12, 141).
edge(9, 122).
edge(75, 101).
edge(14, 137).
edge(49, 75).
edge(109, 117).
edge(88, 123).
edge(56, 95).
edge(72, 99).
edge(25, 138).
edge(64, 137).
edge(78, 83).
edge(83, 106).
edge(91, 92).
edge(33, 105).
edge(10, 66).
edge(100, 116).
edge(43, 108).
edge(24, 94).
edge(101, 128).
edge(17, 50).
edge(72, 77).
edge(56, 75).
edge(67, 132).
edge(55, 138).
edge(124, 129).
edge(90, 111).
edge(6, 26).
edge(79, 90).
edge(74, 104).
edge(78, 140).
edge(54, 112).
edge(12, 92).
edge(106, 109).
edge(55, 117).
edge(38, 52).
edge(2, 50).
edge(29, 100).
edge(37, 69).
edge(80, 101).
edge(37, 40).
edge(3, 99).
edge(8, 37).
edge(71, 129).
edge(40, 118).
edge(80, 113).
edge(88, 108).
edge(27, 36).
edge(43, 44).
edge(102, 108).
edge(14, 79).
edge(35, 131).
edge(14, 18).
edge(9, 57).
edge(74, 81).
edge(19, 122).
edge(101, 127).
edge(79, 130).
edge(59, 88).
edge(47, 112).
edge(5, 28).
edge(16, 74).
edge(32, 47).
edge(79, 98).
edge(45, 86).
edge(74, 115).
edge(114, 130).
edge(36, 56).
edge(110, 142).
edge(108, 118).
edge(89, 103).
edge(59, 142).
edge(39, 66).
edge(9, 114).
edge(27, 74).
edge(86, 127).
edge(81, 93).
edge(34, 56).
edge(28, 110).
edge(51, 82).
edge(8, 104).
edge(20, 89).
edge(108, 117).
edge(39, 44).
edge(73, 142).
edge(54, 91).
edge(139, 140).
edge(6, 13).
edge(123, 136).
edge(6, 81).
edge(30, 117).
edge(47, 93).
edge(94, 113).
edge(17, 137).
edge(12, 52).
edge(106, 137).
edge(66, 117).
edge(52, 81).
edge(37, 78).
edge(79, 82).
edge(10, 74).
edge(2, 124).
edge(20, 130).
edge(118, 137).
edge(49, 138).
edge(44, 129).
edge(31, 44).
edge(90, 119).
edge(27, 45).
edge(47, 141).
edge(44, 61).
edge(98, 131).
edge(68, 127).
edge(0, 73).
edge(20, 131).
edge(56, 142).
edge(35, 58).
edge(13, 36).
edge(42, 135).
edge(89, 111).
edge(105, 136).
edge(82, 128).
edge(50, 94).
edge(78, 118).
edge(36, 141).
edge(120, 128).
edge(41, 72).
edge(47, 140).
edge(9, 108).
edge(24, 107).
edge(56, 131).
edge(6, 77).
edge(12, 72).
edge(99, 107).
edge(110, 122).
edge(5, 61).
edge(40, 83).
edge(48, 138).
edge(5, 19).
edge(13, 32).
edge(92, 125).
edge(15, 39).
edge(50, 119).
edge(8, 38).
edge(101, 111).
edge(98, 101).
edge(22, 94).
edge(18, 138).
edge(124, 139).
edge(48, 96).
edge(29, 75).
edge(26, 28).
edge(43, 58).
edge(51, 94).
edge(120, 136).
edge(73, 106).
edge(42, 98).
edge(39, 80).
edge(25, 113).
edge(40, 81).
edge(18, 98).
edge(8, 78).
edge(108, 131).
edge(59, 85).
edge(9, 31).
edge(7, 132).
edge(18, 135).
edge(91, 96).
edge(4, 42).
edge(51, 89).
edge(10, 77).
edge(75, 86).
edge(132, 134).
edge(108, 135).
edge(111, 126).
edge(23, 47).
edge(99, 131).
edge(35, 125).
edge(45, 137).
edge(20, 38).
edge(40, 77).
edge(21, 71).
edge(19, 108).
edge(41, 48).
edge(33, 116).
edge(26, 95).
edge(60, 132).
edge(30, 64).
edge(8, 65).
edge(115, 131).
edge(11, 14).
edge(1, 86).
edge(49, 82).
edge(93, 111).
edge(23, 42).
edge(26, 29).
edge(65, 87).
edge(64, 109).
edge(95, 134).
edge(0, 17).
edge(39, 65).
edge(16, 92).
edge(5, 135).
edge(14, 48).
edge(66, 71).
edge(63, 87).
edge(17, 86).
edge(36, 66).
edge(52, 57).
edge(72, 114).
edge(43, 133).
edge(10, 79).
edge(44, 82).
edge(31, 68).
edge(25, 140).
edge(8, 76).
edge(62, 117).
edge(103, 108).
edge(62, 112).
edge(47, 130).
edge(4, 9).
edge(58, 136).
edge(91, 103).
edge(25, 119).
edge(31, 137).
edge(100, 113).
edge(13, 50).
edge(65, 124).
edge(26, 75).
edge(34, 98).
edge(43, 102).
edge(30, 59).
edge(81, 133).
edge(57, 74).
edge(6, 28).
edge(111, 134).
edge(57, 100).
edge(79, 124).
edge(69, 70).
edge(89, 107).
edge(93, 128).
edge(36, 100).
edge(108, 138).
edge(43, 62).
edge(113, 117).
edge(35, 59).
edge(37, 122).
edge(42, 132).
edge(39, 123).
edge(34, 44).
edge(6, 122).
edge(104, 116).
edge(51, 107).
edge(81, 95).
edge(27, 104).
edge(74, 139).
edge(74, 99).
edge(66, 136).
edge(24, 91).
edge(19, 90).
edge(55, 95).
edge(27, 78).
edge(97, 139).
edge(14, 131).
edge(102, 134).
edge(82, 142).
edge(86, 108).
edge(33, 118).
edge(16, 41).
edge(41, 122).
edge(36, 121).
edge(37, 57).
edge(8, 69).
edge(115, 119).
edge(3, 121).
edge(85, 139).
edge(88, 128).
edge(18, 53).
edge(81, 112).
edge(68, 94).
edge(37, 108).
edge(103, 137).
edge(71, 81).
edge(112, 132).
edge(7, 90).
edge(58, 114).
edge(67, 92).
edge(50, 70).
edge(68, 130).
edge(17, 51).
edge(23, 92).
edge(58, 88).
edge(29, 133).
edge(76, 104).
edge(128, 134).
edge(55, 80).
edge(80, 85).
edge(3, 142).
edge(61, 82).
edge(9, 79).
edge(105, 131).
edge(14, 29).
edge(102, 139).
edge(132, 133).
edge(93, 117).
edge(20, 22).
edge(16, 75).
edge(63, 110).
edge(34, 79).
edge(10, 87).
edge(86, 129).
edge(15, 17).
edge(52, 89).
edge(4, 93).
edge(0, 127).
edge(43, 113).
edge(48, 80).
edge(101, 106).
edge(49, 119).
edge(22, 82).
edge(16, 82).
edge(100, 131).
edge(11, 39).
edge(127, 134).
edge(21, 66).
edge(12, 115).
edge(57, 76).
edge(65, 91).
edge(48, 126).
edge(12, 83).
edge(72, 134).
edge(39, 77).
edge(5, 75).
edge(48, 99).
edge(111, 128).
edge(20, 102).
edge(0, 107).
edge(73, 139).
edge(3, 109).
edge(52, 139).
edge(16, 105).
edge(1, 71).
edge(108, 127).
edge(30, 68).
edge(24, 128).
edge(52, 64).
edge(67, 87).
edge(34, 109).
edge(50, 137).
edge(107, 142).
edge(78, 130).
edge(31, 120).
edge(39, 84).
edge(23, 26).
edge(75, 95).
edge(20, 92).
edge(50, 100).
edge(1, 91).
edge(61, 65).
edge(4, 111).
edge(12, 51).
edge(51, 122).
edge(26, 85).
edge(65, 108).
edge(59, 139).
edge(8, 82).
edge(48, 77).
edge(20, 91).
edge(108, 114).
edge(78, 116).
edge(27, 101).
edge(91, 128).
edge(15, 73).
edge(23, 66).
edge(91, 139).
edge(3, 105).
edge(36, 69).
edge(3, 91).
edge(1, 92).
edge(75, 127).
edge(16, 30).
edge(71, 139).
edge(44, 99).
edge(122, 125).
edge(63, 105).
edge(23, 94).
edge(25, 86).
edge(23, 102).
edge(3, 106).
edge(73, 100).
edge(32, 36).
edge(9, 75).
edge(49, 135).
edge(22, 128).
edge(24, 88).
edge(24, 53).
edge(14, 126).
edge(73, 133).
edge(64, 93).
edge(4, 75).
edge(56, 91).
edge(47, 86).
edge(50, 124).
edge(84, 97).
edge(9, 85).
edge(44, 51).
edge(52, 94).
edge(80, 95).
edge(77, 95).
edge(74, 120).
edge(8, 52).
edge(89, 100).
edge(70, 78).
edge(52, 93).
edge(7, 105).
edge(129, 136).
edge(102, 110).
edge(48, 125).
edge(62, 131).
edge(112, 130).
edge(45, 105).
edge(26, 50).
edge(51, 98).
edge(11, 104).
edge(45, 46).
edge(111, 129).
edge(7, 113).
edge(122, 139).
edge(34, 64).
edge(88, 117).
edge(111, 124).
edge(29, 61).
edge(27, 134).
edge(24, 130).
edge(109, 130).
edge(21, 84).
edge(37, 39).
edge(23, 113).
edge(9, 63).
edge(41, 55).
edge(41, 131).
edge(94, 125).
edge(76, 112).
edge(13, 125).
edge(56, 66).
edge(20, 39).
edge(22, 88).
edge(110, 118).
edge(4, 69).
edge(124, 142).
edge(33, 55).
edge(52, 127).
edge(77, 96).
edge(56, 98).
edge(38, 80).
edge(32, 120).
edge(63, 77).
edge(10, 96).
edge(2, 17).
edge(30, 61).
edge(41, 109).
edge(27, 75).
edge(23, 64).
edge(64, 99).
edge(82, 140).
edge(18, 112).
edge(44, 103).
edge(22, 136).
edge(34, 103).
edge(102, 133).
edge(25, 106).
edge(60, 113).
edge(19, 41).
edge(99, 138).
edge(112, 136).
edge(98, 125).
edge(19, 85).
edge(50, 138).
edge(26, 120).
edge(53, 109).
edge(110, 114).
edge(26, 140).
edge(85, 90).
edge(2, 140).
edge(6, 71).
edge(25, 133).
edge(47, 75).
edge(10, 88).
edge(39, 134).
edge(12, 38).
edge(69, 108).
edge(73, 94).
edge(101, 104).
edge(1, 141).
edge(23, 30).
edge(32, 123).
edge(62, 130).
edge(62, 128).
edge(25, 49).
edge(62, 86).
edge(10, 56).
edge(32, 119).
edge(18, 141).
edge(11, 62).
edge(77, 137).
edge(51, 95).
edge(19, 123).
edge(20, 78).
edge(18, 45).
edge(84, 104).
edge(18, 20).
edge(85, 89).
edge(73, 128).
edge(46, 88).
edge(26, 63).
edge(78, 99).
edge(69, 141).
edge(24, 100).
edge(48, 118).
edge(56, 140).
edge(60, 108).
edge(55, 71).
edge(73, 102).
edge(42, 61).
edge(41, 123).
edge(8, 9).
edge(102, 109).
edge(8, 140).
edge(13, 23).
edge(48, 141).
edge(93, 121).
edge(28, 45).
edge(108, 122).
edge(25, 97).
edge(7, 35).
edge(59, 96).
edge(41, 132).
edge(25, 72).
edge(50, 98).
edge(37, 133).
edge(29, 70).
edge(14, 53).
edge(63, 140).
edge(125, 130).
edge(64, 85).
edge(11, 102).
edge(26, 98).
edge(75, 121).
edge(70, 109).
edge(78, 133).
edge(49, 120).
edge(68, 137).
edge(104, 105).
edge(55, 121).
edge(78, 104).
edge(85, 116).
edge(28, 135).
edge(105, 129).
edge(24, 52).
edge(30, 60).
edge(51, 83).
edge(8, 80).
edge(0, 23).
edge(13, 39).
edge(48, 54).
edge(0, 4).
edge(68, 125).
edge(101, 138).
edge(52, 119).
edge(9, 25).
edge(7, 38).
edge(50, 77).
edge(36, 43).
edge(96, 111).
edge(13, 94).
edge(12, 135).
edge(74, 89).
edge(40, 72).
edge(64, 91).
edge(50, 112).
edge(57, 72).
edge(41, 133).
edge(18, 77).
edge(66, 75).
edge(22, 78).
edge(14, 123).
edge(49, 105).
edge(66, 93).
edge(65, 94).
edge(2, 115).
edge(86, 131).
edge(39, 141).
edge(2, 56).
edge(62, 140).
edge(19, 136).
edge(65, 113).
edge(0, 120).
edge(59, 72).
edge(66, 96).
edge(46, 49).
edge(82, 106).
edge(70, 142).
edge(22, 134).
edge(99, 135).
edge(38, 77).
edge(124, 127).
edge(55, 120).
edge(22, 127).
edge(13, 64).
edge(10, 138).
edge(15, 82).
edge(75, 97).
edge(100, 119).
edge(93, 115).
edge(14, 39).
edge(61, 73).
edge(12, 91).
edge(35, 138).
edge(91, 135).
edge(78, 109).
edge(52, 63).
edge(43, 123).
edge(35, 52).
edge(11, 63).
edge(47, 63).
edge(77, 130).
edge(103, 126).
edge(14, 52).
edge(55, 106).
edge(38, 47).
edge(105, 138).
edge(23, 36).
edge(29, 53).
edge(9, 84).
edge(17, 89).
edge(69, 84).
edge(31, 105).
edge(18, 106).
edge(114, 119).
edge(122, 138).
edge(16, 91).
edge(70, 121).
edge(76, 95).
edge(100, 118).
edge(11, 43).
edge(86, 128).
edge(81, 107).
edge(99, 142).
edge(97, 116).
edge(42, 74).
edge(10, 69).
edge(64, 74).
edge(68, 129).
edge(36, 79).
edge(72, 135).
edge(19, 115).
edge(81, 109).
edge(120, 137).
edge(108, 128).
edge(92, 95).
edge(16, 110).
edge(49, 65).
edge(92, 126).
edge(21, 39).
edge(38, 93).
edge(3, 82).
edge(16, 131).
edge(78, 98).
edge(83, 142).
edge(67, 89).
edge(70, 126).
edge(18, 55).
edge(41, 53).
edge(19, 37).
edge(56, 134).
edge(65, 92).
edge(15, 87).
edge(12, 86).
edge(46, 121).
edge(66, 120).
edge(85, 136).
edge(7, 129).
edge(125, 126).
edge(105, 110).
edge(86, 99).
edge(8, 95).
edge(92, 138).
edge(11, 32).
edge(64, 122).
edge(40, 107).
edge(2, 128).
edge(18, 95).
edge(56, 116).
edge(67, 77).
edge(3, 45).
edge(26, 102).
edge(0, 69).
edge(101, 122).
edge(135, 136).
edge(24, 66).
edge(36, 106).
edge(14, 104).
edge(10, 123).
edge(119, 141).
edge(2, 126).
edge(37, 92).
edge(23, 83).
edge(21, 28).
edge(130, 135).
edge(5, 93).
edge(79, 123).
edge(70, 88).
edge(82, 126).
edge(82, 89).
edge(46, 107).
edge(7, 47).
edge(137, 142).
edge(82, 85).
edge(28, 73).
edge(25, 130).
edge(26, 94).
edge(36, 138).
edge(4, 116).
edge(105, 109).
edge(10, 35).
edge(0, 16).
edge(10, 55).
edge(22, 98).
edge(26, 132).
edge(63, 117).
edge(76, 83).
edge(85, 104).
edge(116, 119).
edge(46, 128).
edge(6, 59).
edge(44, 92).
edge(112, 113).
edge(73, 108).
edge(24, 110).
edge(69, 76).
edge(66, 126).
edge(38, 41).
edge(69, 116).
edge(55, 59).
edge(89, 136).
edge(10, 72).
edge(37, 124).
edge(35, 115).
edge(5, 72).
edge(10, 44).
edge(7, 141).
edge(29, 71).
edge(67, 86).
edge(63, 124).
edge(64, 138).
edge(9, 129).
edge(0, 65).
edge(34, 141).
edge(122, 123).
edge(11, 97).
edge(33, 141).
edge(39, 107).
edge(45, 103).
edge(33, 133).
edge(79, 102).
edge(79, 80).
edge(17, 53).
edge(40, 102).
edge(72, 74).
edge(8, 31).
edge(6, 103).
edge(141, 142).
edge(54, 138).
edge(30, 121).
edge(53, 74).
edge(92, 96).
edge(23, 95).
edge(82, 97).
edge(98, 120).
edge(27, 42).
edge(115, 141).
edge(11, 48).
edge(15, 84).
edge(1, 58).
edge(84, 121).
edge(6, 48).
edge(85, 106).
edge(19, 72).
edge(54, 113).
edge(58, 87).
edge(53, 58).
edge(33, 75).
edge(27, 29).
edge(11, 64).
edge(70, 124).
edge(44, 128).
edge(108, 119).
edge(10, 124).
edge(3, 125).
edge(36, 134).
edge(50, 99).
edge(17, 57).
edge(69, 78).
edge(38, 90).
edge(54, 66).
edge(54, 73).
edge(61, 63).
edge(11, 122).
edge(24, 114).
edge(30, 45).
edge(72, 129).
edge(102, 104).
edge(25, 47).
edge(1, 55).
edge(47, 98).
edge(13, 20).
edge(11, 116).
edge(84, 135).
edge(57, 59).
edge(42, 133).
edge(78, 101).
edge(88, 118).
edge(64, 98).
edge(39, 42).
edge(8, 119).
edge(86, 94).
edge(16, 98).
edge(69, 142).
edge(65, 112).
edge(20, 96).
edge(64, 128).
edge(61, 68).
edge(1, 72).
edge(23, 81).
edge(8, 60).
edge(90, 139).
edge(7, 109).
edge(40, 61).
edge(117, 137).
edge(43, 53).
edge(63, 112).
edge(7, 117).
edge(13, 136).
edge(59, 115).
edge(40, 55).
edge(68, 103).
edge(29, 64).
edge(103, 107).
edge(70, 125).
edge(20, 86).
edge(8, 141).
edge(72, 132).
edge(8, 111).
edge(63, 137).
edge(72, 116).
edge(38, 115).
edge(11, 40).
edge(80, 121).
edge(46, 51).
edge(42, 73).
edge(3, 88).
edge(24, 30).
edge(55, 85).
edge(69, 133).
edge(63, 82).
edge(9, 100).
edge(59, 134).
edge(50, 67).
edge(25, 46).
edge(61, 95).
edge(67, 121).
edge(62, 69).
edge(19, 67).
edge(3, 96).
edge(11, 72).
edge(25, 56).
edge(84, 129).
edge(71, 80).
edge(13, 74).
edge(50, 108).
edge(34, 117).
edge(59, 67).
edge(25, 124).
edge(81, 90).
edge(81, 136).
edge(114, 117).
edge(131, 139).
edge(87, 110).
edge(37, 76).
edge(80, 137).
edge(50, 79).
edge(32, 133).
edge(95, 121).
edge(111, 117).
edge(8, 120).
edge(119, 142).
edge(94, 99).
edge(45, 93).
edge(56, 68).
edge(27, 34).
edge(71, 94).
edge(56, 119).
edge(26, 123).
edge(6, 69).
edge(21, 30).
edge(43, 50).
edge(15, 88).
edge(52, 115).
edge(31, 134).
edge(37, 67).
edge(16, 43).
edge(58, 92).
edge(69, 93).
edge(56, 84).
edge(85, 91).
edge(39, 101).
edge(25, 114).
edge(60, 137).
edge(47, 60).
edge(114, 125).
edge(0, 21).
edge(25, 28).
edge(0, 31).
edge(64, 66).
edge(0, 91).
edge(23, 37).
edge(40, 88).
edge(59, 119).
edge(10, 118).
edge(66, 114).
edge(12, 70).
edge(102, 137).
edge(75, 130).
edge(7, 66).
edge(58, 63).
edge(0, 7).
edge(45, 87).
edge(3, 128).
edge(89, 94).
edge(1, 54).
edge(11, 111).
edge(23, 119).
edge(69, 115).
edge(13, 99).
edge(60, 126).
edge(10, 90).
edge(67, 84).
edge(90, 134).
edge(13, 124).
edge(6, 128).
edge(2, 111).
edge(57, 131).
edge(47, 117).
edge(82, 87).
edge(91, 115).
edge(109, 140).
edge(9, 124).
edge(14, 45).
edge(74, 125).
edge(88, 90).
edge(40, 110).
edge(63, 97).
edge(17, 85).
edge(66, 104).
edge(46, 56).
edge(42, 131).
edge(94, 95).
edge(84, 87).
edge(12, 106).
edge(66, 73).
edge(22, 138).
edge(5, 92).
edge(64, 92).
edge(53, 88).
edge(138, 141).
edge(65, 125).
edge(11, 61).
edge(23, 57).
edge(124, 133).
edge(121, 130).
edge(5, 109).
edge(53, 120).
edge(23, 45).
edge(31, 127).
edge(32, 135).
edge(78, 91).
edge(19, 86).
edge(34, 104).
edge(91, 138).
edge(133, 134).
edge(21, 70).
edge(33, 39).
edge(60, 130).
edge(33, 72).
edge(82, 117).
edge(46, 133).
edge(101, 103).
edge(38, 54).
edge(5, 59).
edge(46, 113).
edge(77, 129).
edge(74, 78).
edge(30, 92).
edge(28, 94).
edge(22, 101).
edge(15, 16).
edge(48, 84).
edge(0, 66).
edge(80, 89).
edge(104, 113).
edge(119, 126).
edge(5, 87).
edge(74, 101).
edge(12, 58).
edge(41, 50).
edge(93, 142).
edge(34, 93).
edge(22, 71).
edge(79, 125).
edge(10, 80).
edge(86, 111).
edge(48, 78).
edge(47, 123).
edge(32, 49).
edge(20, 134).
edge(11, 112).
edge(95, 106).
edge(49, 66).
edge(19, 53).
edge(23, 140).
edge(3, 93).
edge(75, 137).
edge(71, 142).
edge(17, 22).
edge(56, 70).
edge(82, 127).
edge(27, 99).
edge(7, 67).
edge(79, 134).
edge(86, 125).
edge(43, 85).
edge(98, 117).
edge(42, 66).
edge(111, 130).
edge(13, 62).
edge(88, 92).
edge(15, 22).
edge(16, 120).
edge(29, 93).
edge(70, 107).
edge(19, 31).
edge(105, 137).
edge(6, 53).
edge(11, 99).
edge(88, 109).
edge(109, 128).
edge(24, 90).
edge(24, 120).
edge(21, 78).
edge(8, 105).
edge(105, 140).
edge(80, 84).
edge(66, 87).
edge(39, 55).
edge(9, 88).
edge(2, 142).
edge(18, 81).
edge(15, 119).
edge(23, 133).
edge(99, 124).
edge(34, 138).
edge(29, 84).
edge(28, 67).
edge(46, 141).
edge(18, 68).
edge(36, 87).
edge(30, 131).
edge(14, 49).
edge(70, 95).
edge(17, 77).
edge(18, 133).
edge(38, 116).
edge(31, 95).
edge(9, 113).
edge(118, 138).
edge(90, 123).
edge(21, 96).
edge(25, 69).
edge(103, 134).
edge(36, 99).
edge(127, 141).
edge(41, 83).
edge(7, 93).
edge(49, 85).
edge(83, 112).
edge(31, 132).
edge(49, 87).
edge(14, 57).
edge(35, 121).
edge(76, 94).
edge(56, 76).
edge(13, 104).
edge(52, 106).
edge(45, 59).
edge(73, 111).
edge(15, 37).
edge(8, 136).
edge(51, 92).
edge(12, 68).
edge(23, 77).
edge(68, 90).
edge(46, 92).
edge(17, 96).
edge(46, 83).
edge(62, 95).
edge(5, 24).
edge(102, 105).
edge(61, 86).
edge(28, 70).
edge(38, 40).
edge(66, 105).
edge(7, 142).
edge(2, 19).
edge(74, 88).
edge(16, 69).
edge(0, 100).
edge(59, 83).
edge(89, 124).
edge(69, 92).
edge(56, 112).
edge(31, 48).
edge(54, 97).
edge(20, 124).
edge(88, 95).
edge(43, 98).
edge(59, 129).
edge(8, 15).
edge(70, 131).
edge(37, 99).
edge(49, 98).
edge(88, 134).
edge(22, 105).
edge(86, 89).
edge(12, 63).
edge(138, 139).
edge(21, 124).
edge(39, 116).
edge(11, 109).
edge(48, 79).
edge(93, 119).
edge(21, 106).
edge(42, 93).
edge(15, 23).
edge(20, 37).
edge(110, 136).
edge(16, 107).
edge(27, 41).
edge(1, 46).
edge(19, 43).
edge(60, 122).
edge(106, 133).
edge(33, 85).
edge(87, 112).
edge(45, 130).
edge(54, 71).
edge(21, 107).
edge(58, 102).
edge(0, 34).
edge(1, 109).
edge(44, 110).
edge(50, 131).
edge(34, 49).
edge(16, 93).
edge(18, 36).
edge(18, 39).
edge(113, 124).
edge(121, 122).
edge(1, 31).
edge(49, 73).
edge(52, 80).
edge(73, 110).
edge(19, 133).
edge(73, 96).
edge(120, 131).
edge(8, 90).
edge(11, 138).
edge(41, 58).
edge(41, 96).
edge(18, 127).
edge(43, 89).
edge(26, 105).
edge(42, 58).
edge(32, 61).
edge(6, 21).
edge(58, 122).
edge(8, 41).
edge(30, 118).
edge(101, 113).
edge(28, 72).
edge(50, 65).
edge(4, 119).
edge(4, 21).
edge(36, 91).
edge(7, 28).
edge(38, 76).
edge(14, 77).
edge(17, 111).
edge(92, 106).
edge(6, 80).
edge(6, 35).
edge(14, 55).
edge(93, 99).
edge(106, 126).
edge(49, 93).
edge(8, 11).
edge(10, 63).
edge(14, 109).
edge(60, 105).
edge(109, 119).
edge(24, 84).
edge(130, 142).
edge(45, 47).
edge(35, 77).
edge(12, 94).
edge(110, 120).
edge(69, 87).
edge(37, 132).
edge(60, 129).
edge(13, 54).
edge(15, 44).
edge(54, 58).
edge(76, 136).
edge(52, 68).
edge(26, 107).
edge(8, 94).
edge(6, 68).
edge(96, 141).
edge(1, 106).
edge(69, 130).
edge(76, 142).
edge(65, 132).
edge(1, 15).
edge(111, 121).
edge(43, 138).
edge(32, 35).
edge(42, 90).
edge(10, 121).
edge(36, 80).
edge(74, 113).
edge(102, 125).
edge(42, 136).
edge(53, 93).
edge(4, 25).
edge(48, 114).
edge(49, 57).
edge(1, 135).
edge(113, 116).
edge(87, 134).
edge(31, 80).
edge(59, 95).
edge(51, 127).
edge(99, 118).
edge(20, 71).
edge(0, 54).
edge(107, 134).
edge(48, 98).
edge(37, 38).
edge(64, 141).
edge(11, 113).
edge(19, 50).
edge(4, 120).
edge(10, 34).
edge(30, 82).
edge(99, 112).
edge(67, 112).
edge(15, 125).
edge(52, 76).
edge(1, 139).
edge(70, 71).
edge(88, 105).
edge(96, 117).
edge(19, 22).
edge(59, 86).
edge(14, 108).
edge(5, 14).
edge(75, 87).
edge(32, 85).
edge(55, 105).
edge(8, 110).
edge(53, 67).
edge(26, 86).
edge(88, 100).
edge(14, 90).
edge(62, 91).
edge(2, 116).
edge(14, 47).
edge(8, 81).
edge(13, 134).
edge(37, 109).
edge(131, 140).
edge(37, 48).
edge(119, 138).
edge(30, 48).
edge(87, 108).
edge(49, 115).
edge(28, 93).
edge(46, 85).
edge(28, 44).
edge(49, 68).
edge(64, 73).
edge(45, 75).
edge(94, 107).
edge(24, 115).
edge(8, 53).
edge(54, 64).
edge(109, 114).
edge(75, 116).
edge(24, 140).
edge(30, 106).
edge(113, 126).
edge(3, 138).
edge(10, 109).
edge(39, 59).
edge(107, 128).
edge(31, 75).
edge(65, 90).
edge(53, 95).
edge(17, 69).
edge(48, 139).
edge(13, 101).
edge(1, 53).
edge(18, 92).
edge(18, 107).
edge(102, 122).
edge(108, 132).
edge(59, 103).
edge(20, 123).
edge(14, 42).
edge(19, 121).
edge(23, 122).
edge(61, 92).
edge(57, 124).
edge(71, 101).
edge(29, 139).
edge(11, 103).
edge(28, 105).
edge(8, 48).
edge(17, 20).
edge(63, 108).
edge(28, 55).
edge(9, 137).
edge(27, 95).
edge(86, 115).
edge(76, 122).
edge(53, 141).
edge(94, 112).
edge(93, 134).
edge(72, 142).
edge(34, 100).
edge(76, 82).
edge(51, 71).
edge(29, 69).
edge(13, 37).
edge(93, 123).
edge(41, 69).
edge(64, 88).
edge(32, 117).
edge(48, 105).
edge(10, 100).
edge(70, 117).
edge(6, 39).
edge(42, 95).
edge(9, 128).
edge(50, 53).
edge(67, 90).
edge(107, 132).
edge(21, 53).
edge(38, 124).
edge(21, 80).
edge(110, 113).
edge(11, 98).
edge(98, 102).
edge(128, 136).
edge(13, 30).
edge(27, 122).
edge(0, 47).
edge(51, 130).
edge(85, 87).
edge(17, 120).
edge(28, 140).
edge(10, 127).
edge(36, 97).
edge(10, 13).
edge(25, 77).
edge(44, 55).
edge(60, 77).
edge(51, 128).
edge(41, 142).
edge(92, 97).
edge(95, 136).
edge(9, 58).
edge(6, 75).
edge(17, 73).
edge(36, 88).
edge(5, 34).
edge(20, 28).
edge(25, 31).
edge(76, 132).
edge(51, 132).
edge(73, 80).
edge(123, 124).
edge(3, 10).
edge(98, 133).
edge(85, 132).
edge(49, 108).
edge(67, 91).
edge(1, 104).
edge(23, 67).
edge(62, 81).
edge(77, 92).
edge(30, 115).
edge(23, 138).
edge(11, 125).
edge(58, 100).
edge(52, 126).
edge(97, 106).
edge(90, 102).
edge(17, 59).
edge(34, 81).
edge(1, 137).
edge(110, 111).
edge(42, 54).
edge(35, 55).
edge(19, 30).
edge(34, 80).
edge(35, 71).
edge(35, 122).
edge(93, 131).
edge(73, 75).
edge(17, 84).
edge(28, 142).
edge(17, 37).
edge(1, 38).
edge(49, 51).
edge(89, 98).
edge(3, 51).
edge(73, 134).
edge(67, 135).
edge(26, 30).
edge(52, 53).
edge(41, 89).
edge(15, 51).
edge(3, 131).
edge(18, 140).
edge(56, 57).
edge(100, 128).
edge(28, 41).
edge(16, 111).
edge(5, 95).
edge(21, 92).
edge(54, 85).
edge(84, 124).
edge(47, 138).
edge(5, 57).
edge(42, 60).
edge(59, 81).
edge(11, 140).
edge(94, 141).
edge(40, 115).
edge(18, 132).
edge(28, 63).
edge(38, 105).
edge(3, 116).
edge(96, 104).
edge(29, 99).
edge(127, 139).
edge(17, 29).
edge(66, 68).
edge(38, 46).
edge(42, 55).
edge(49, 72).
edge(26, 74).
edge(69, 129).
edge(27, 46).
edge(60, 67).
edge(6, 132).
edge(59, 109).
edge(28, 46).
edge(16, 133).
edge(30, 66).
edge(38, 132).
edge(99, 128).
edge(2, 69).
edge(42, 85).
edge(28, 107).
edge(56, 108).
edge(75, 85).
edge(46, 90).
edge(82, 90).
edge(99, 140).
edge(9, 118).
edge(15, 96).
edge(117, 134).
edge(82, 123).
edge(99, 129).
edge(52, 88).
edge(10, 53).
edge(53, 115).
edge(79, 128).
edge(32, 124).
edge(3, 20).
edge(28, 76).
edge(41, 140).
edge(10, 33).
edge(61, 126).
edge(85, 109).
edge(125, 129).
edge(91, 109).
edge(8, 71).
edge(25, 112).
edge(33, 49).
edge(44, 86).
edge(108, 116).
edge(48, 131).
edge(17, 114).
edge(57, 111).
edge(46, 138).
edge(110, 112).
edge(26, 48).
edge(34, 115).
edge(14, 81).
edge(116, 123).
edge(2, 52).
edge(108, 133).
edge(84, 137).
edge(15, 89).
edge(57, 139).
edge(16, 115).
edge(68, 96).
edge(93, 137).
edge(35, 83).
edge(12, 50).
edge(7, 85).
edge(39, 128).
edge(85, 88).
edge(72, 101).
edge(67, 88).
edge(104, 127).
edge(38, 44).
edge(105, 112).
edge(1, 17).
edge(121, 129).
edge(50, 75).
edge(18, 97).
edge(18, 54).
edge(39, 70).
edge(66, 122).
edge(2, 23).
edge(47, 92).
edge(108, 115).
edge(58, 94).
edge(9, 32).
edge(74, 135).
edge(60, 68).
edge(27, 114).
edge(23, 117).
edge(83, 128).
edge(62, 83).
edge(4, 74).
edge(69, 83).
edge(57, 105).
edge(7, 23).
edge(48, 103).
edge(64, 118).
edge(45, 114).
edge(71, 103).
edge(80, 141).
edge(61, 108).
edge(61, 80).
edge(2, 109).
edge(92, 101).
edge(7, 89).
edge(82, 104).
edge(94, 140).
edge(44, 74).
edge(6, 102).
edge(5, 21).
edge(60, 111).
edge(50, 93).
edge(15, 97).
edge(80, 114).
edge(53, 56).
edge(75, 112).
edge(107, 108).
edge(45, 64).
edge(20, 69).
edge(68, 118).
edge(62, 105).
edge(66, 110).
edge(121, 128).
edge(22, 112).
edge(29, 76).
edge(20, 83).
edge(52, 124).
edge(3, 67).
edge(74, 100).
edge(11, 70).
edge(44, 72).
edge(14, 62).
edge(17, 35).
edge(0, 29).
edge(58, 66).
edge(3, 13).
edge(34, 133).
edge(1, 102).
edge(14, 70).
edge(33, 65).
edge(21, 88).
edge(77, 127).
edge(75, 139).
edge(19, 91).
edge(3, 57).
edge(27, 135).
edge(34, 54).
edge(14, 35).
edge(81, 126).
edge(1, 50).
edge(15, 64).
edge(38, 134).
edge(18, 35).
edge(97, 127).
edge(0, 74).
edge(51, 88).
edge(81, 130).
edge(64, 111).
edge(86, 104).
edge(89, 141).
edge(7, 68).
edge(59, 126).
edge(49, 122).
edge(12, 104).
edge(30, 55).
edge(11, 76).
edge(45, 78).
edge(20, 82).
edge(37, 56).
edge(133, 142).
edge(39, 106).
edge(44, 116).
edge(48, 116).
edge(14, 72).
edge(12, 35).
edge(118, 136).
edge(40, 67).
edge(41, 42).
edge(22, 36).
edge(38, 112).
edge(4, 141).
edge(21, 45).
edge(41, 47).
edge(4, 41).
edge(29, 132).
edge(86, 87).
edge(99, 119).
edge(55, 86).
edge(8, 131).
edge(103, 112).
edge(22, 110).
edge(39, 69).
edge(13, 117).
edge(50, 125).
edge(57, 91).
edge(6, 30).
edge(10, 26).
edge(105, 108).
edge(33, 117).
edge(87, 141).
edge(76, 115).
edge(48, 134).
edge(40, 106).
edge(27, 76).
edge(19, 77).
edge(31, 70).
edge(17, 92).
edge(34, 36).
edge(67, 134).
edge(68, 136).
edge(41, 136).
edge(65, 70).
edge(105, 119).
edge(46, 93).
edge(57, 80).
edge(126, 129).
edge(16, 99).
edge(95, 116).
edge(51, 55).
edge(88, 114).
edge(109, 135).
edge(46, 89).
edge(34, 43).
edge(115, 137).
edge(53, 114).
edge(131, 136).
edge(63, 120).
edge(47, 80).
edge(62, 70).
edge(49, 54).
edge(104, 120).
edge(41, 84).
edge(13, 15).
edge(87, 121).
edge(8, 20).
edge(31, 35).
edge(58, 97).
edge(7, 65).
edge(86, 105).
edge(28, 97).
edge(20, 55).
edge(35, 85).
edge(34, 69).
edge(21, 79).
edge(9, 96).
edge(10, 60).
edge(48, 50).
edge(31, 100).
edge(54, 123).
edge(80, 126).
edge(13, 141).
edge(44, 125).
edge(21, 81).
edge(19, 119).
edge(99, 106).
edge(33, 82).
edge(61, 101).
edge(70, 133).
edge(109, 110).
edge(35, 91).
edge(3, 78).
edge(59, 75).
edge(25, 54).
edge(64, 81).
edge(40, 123).
edge(33, 90).
edge(92, 140).
edge(3, 95).
edge(4, 38).
edge(18, 113).
edge(29, 77).
edge(57, 66).
edge(30, 50).
edge(53, 133).
edge(16, 81).
edge(30, 70).
edge(76, 118).
edge(75, 141).
edge(121, 123).
edge(99, 134).
edge(58, 82).
edge(136, 139).
edge(14, 67).
edge(8, 102).
edge(15, 138).
edge(18, 74).
edge(27, 124).
edge(32, 45).
edge(46, 91).
edge(21, 101).
edge(45, 138).
edge(94, 117).
edge(12, 99).
edge(114, 123).
edge(5, 46).
edge(28, 35).
edge(10, 57).
edge(73, 118).
edge(89, 113).
edge(66, 133).
edge(62, 98).
edge(38, 128).
edge(21, 125).
edge(66, 138).
edge(80, 122).
edge(1, 112).
edge(75, 90).
edge(9, 18).
edge(37, 46).
edge(68, 128).
edge(106, 141).
edge(100, 129).
edge(6, 41).
edge(2, 15).
edge(12, 46).
edge(21, 62).
edge(68, 115).
edge(35, 41).
edge(33, 97).
edge(41, 138).
edge(45, 142).
edge(22, 69).
edge(55, 66).
edge(14, 17).
edge(0, 63).
edge(113, 130).
edge(128, 139).
edge(31, 103).
edge(31, 90).
edge(69, 80).
edge(107, 138).
edge(10, 76).
edge(44, 87).
edge(57, 119).
edge(31, 114).
edge(51, 109).
edge(53, 136).
edge(7, 127).
edge(22, 111).
edge(113, 121).
edge(11, 89).
edge(18, 64).
edge(46, 140).
edge(54, 125).
edge(51, 69).
edge(32, 33).
edge(13, 116).
edge(15, 49).
edge(78, 94).
edge(19, 73).
edge(109, 120).
edge(56, 135).
edge(15, 105).
edge(134, 140).
edge(35, 36).
edge(17, 58).
edge(81, 85).
edge(96, 98).
edge(96, 138).
edge(9, 115).
edge(33, 47).
edge(20, 117).
edge(24, 42).
edge(37, 72).
edge(40, 93).
edge(36, 59).
edge(66, 106).
edge(29, 96).
edge(62, 118).
edge(61, 76).
edge(10, 111).
edge(29, 41).
edge(69, 136).
edge(72, 105).
edge(44, 139).
edge(76, 133).
edge(79, 116).
edge(31, 53).
edge(83, 84).
edge(77, 123).
edge(26, 133).
edge(40, 124).
edge(24, 33).
edge(116, 118).
edge(30, 111).
edge(8, 75).
edge(35, 57).
edge(16, 20).
edge(54, 88).
edge(21, 136).
edge(6, 54).
edge(47, 136).
edge(13, 119).
edge(86, 135).
edge(36, 45).
edge(117, 141).
edge(1, 52).
edge(32, 93).
edge(111, 122).
edge(16, 39).
edge(94, 109).
edge(4, 97).
edge(9, 59).
edge(80, 87).
edge(27, 140).
edge(9, 24).
edge(26, 134).
edge(14, 124).
edge(8, 46).
edge(3, 140).
edge(59, 131).
edge(15, 27).
edge(33, 43).
edge(23, 25).
edge(21, 133).
edge(106, 134).
edge(92, 112).
edge(17, 43).
edge(52, 108).
edge(15, 29).
edge(66, 67).
edge(84, 131).
edge(7, 83).
edge(38, 66).
edge(72, 104).
edge(22, 93).
edge(113, 129).
edge(49, 100).
edge(98, 141).
edge(20, 138).
edge(55, 90).
edge(82, 118).
edge(18, 31).
edge(5, 12).
edge(41, 51).
edge(11, 132).
edge(19, 127).
edge(85, 123).
edge(32, 89).
edge(6, 60).
edge(4, 48).
edge(50, 72).
edge(0, 42).
edge(63, 125).
edge(17, 126).
edge(13, 66).
edge(37, 141).
edge(3, 107).
edge(49, 86).
edge(25, 134).
edge(41, 68).
edge(96, 130).
edge(33, 121).
edge(9, 125).
edge(13, 47).
edge(29, 137).
edge(1, 44).
edge(50, 88).
edge(33, 112).
edge(93, 120).
edge(86, 98).
edge(0, 124).
edge(57, 97).
edge(14, 51).
edge(50, 73).
edge(50, 90).
edge(59, 79).
edge(54, 78).
edge(95, 138).
edge(67, 117).
edge(6, 90).
edge(10, 136).
edge(9, 13).
edge(2, 10).
edge(84, 134).
edge(50, 106).
edge(28, 54).
edge(95, 124).
edge(52, 54).
edge(101, 131).
edge(22, 43).
edge(17, 95).
edge(51, 111).
edge(56, 117).
edge(32, 137).
edge(3, 41).
edge(25, 122).
edge(36, 63).
edge(22, 87).
edge(31, 91).
edge(92, 117).
edge(60, 99).
edge(91, 113).
edge(51, 78).
edge(56, 129).
edge(16, 50).
edge(75, 140).
edge(23, 93).
edge(82, 114).
edge(56, 81).
edge(25, 73).
edge(45, 94).
edge(96, 120).
edge(5, 133).
edge(20, 66).
edge(101, 135).
edge(27, 117).
edge(12, 109).
edge(3, 90).
edge(115, 125).
edge(15, 26).
edge(103, 116).
edge(20, 23).
edge(35, 107).
edge(107, 131).
edge(34, 131).
edge(22, 123).
edge(36, 39).
edge(76, 87).
edge(23, 126).
edge(31, 58).
edge(83, 94).
edge(46, 52).
edge(83, 96).
edge(60, 92).
edge(45, 139).
edge(78, 115).
edge(1, 11).
edge(16, 117).
edge(10, 83).
edge(21, 128).
edge(116, 139).
edge(3, 84).
edge(18, 23).
edge(73, 91).
edge(39, 61).
edge(12, 130).
edge(70, 127).
edge(98, 136).
edge(95, 107).
edge(86, 91).
edge(13, 73).
edge(17, 72).
edge(42, 107).
edge(24, 44).
edge(36, 60).
edge(17, 52).
edge(2, 4).
edge(25, 131).
edge(55, 82).
edge(74, 79).
edge(13, 120).
edge(94, 114).
edge(7, 107).
edge(23, 76).
edge(10, 135).
edge(76, 77).
edge(103, 109).
edge(117, 118).
edge(12, 133).
edge(16, 62).
edge(47, 72).
edge(70, 98).
edge(82, 139).
edge(36, 132).
edge(0, 70).
edge(30, 77).
edge(9, 101).
edge(9, 89).
edge(46, 136).
edge(23, 129).
edge(9, 139).
edge(71, 109).
edge(110, 121).
edge(37, 87).
edge(24, 117).
edge(20, 94).
edge(105, 133).
edge(51, 85).
edge(2, 86).
edge(94, 132).
edge(0, 116).
edge(66, 101).
edge(1, 51).
edge(47, 87).
edge(23, 86).
edge(6, 91).
edge(22, 107).
edge(71, 124).
edge(28, 59).
edge(61, 97).
edge(26, 53).
edge(22, 106).
edge(29, 49).
edge(0, 72).
edge(5, 47).
edge(10, 59).
edge(10, 97).
edge(36, 101).
edge(59, 68).
edge(2, 5).
edge(64, 119).
edge(4, 71).
edge(27, 84).
edge(114, 134).
edge(39, 53).
edge(76, 139).
edge(16, 90).
edge(43, 105).
edge(117, 142).
edge(65, 100).
edge(57, 88).
edge(46, 77).
edge(119, 139).
edge(33, 63).
edge(11, 69).
edge(72, 106).
edge(74, 112).
edge(114, 138).
edge(8, 83).
edge(97, 112).
edge(90, 142).
edge(85, 110).
edge(46, 134).
edge(36, 70).
edge(36, 90).
edge(50, 129).
edge(18, 126).
edge(88, 93).
edge(10, 29).
edge(48, 83).
edge(5, 44).
edge(62, 114).
edge(18, 117).
edge(61, 110).
edge(50, 120).
edge(116, 120).
edge(68, 75).
edge(91, 94).
edge(54, 140).
edge(64, 110).
edge(128, 137).
edge(87, 94).
edge(55, 69).
edge(87, 136).
edge(58, 120).
edge(1, 4).
edge(6, 93).
edge(10, 110).
edge(23, 123).
edge(58, 135).
edge(74, 118).
edge(3, 86).
edge(107, 133).
edge(19, 97).
edge(3, 123).
edge(3, 129).
edge(71, 121).
edge(89, 96).
edge(56, 61).
edge(32, 71).
edge(7, 106).
edge(22, 77).
edge(120, 125).
edge(91, 119).
edge(90, 131).
edge(16, 136).
edge(2, 40).
edge(76, 101).
edge(93, 132).
edge(29, 82).
edge(89, 123).
edge(43, 140).
edge(57, 107).
edge(84, 126).
edge(25, 62).
edge(89, 91).
edge(2, 108).
edge(9, 106).
edge(25, 58).
edge(70, 81).
edge(35, 124).
edge(74, 95).
edge(37, 73).
edge(36, 135).
edge(63, 89).
edge(92, 111).
edge(41, 110).
edge(44, 113).
edge(36, 50).
edge(26, 61).
edge(10, 18).
edge(3, 73).
edge(54, 99).
edge(102, 138).
edge(0, 130).
edge(25, 94).
edge(8, 107).
edge(58, 59).
edge(36, 94).
edge(40, 68).
edge(80, 127).
edge(8, 55).
edge(53, 59).
edge(40, 44).
edge(15, 59).
edge(63, 127).
edge(34, 47).
edge(89, 99).
edge(14, 88).
edge(52, 99).
edge(119, 125).
edge(17, 106).
edge(42, 43).
edge(73, 132).
edge(87, 90).
edge(47, 135).
edge(40, 54).
edge(6, 135).
edge(70, 141).
edge(81, 91).
edge(16, 68).
edge(38, 92).
edge(17, 55).
edge(99, 116).
edge(93, 102).
edge(27, 82).
edge(19, 33).
edge(113, 115).
edge(17, 62).
edge(2, 79).
edge(41, 94).
edge(25, 129).
edge(88, 142).
edge(140, 141).
edge(40, 84).
edge(5, 16).
edge(72, 137).
edge(3, 122).
edge(23, 75).
edge(39, 57).
edge(102, 130).
edge(10, 94).
edge(18, 41).
edge(12, 129).
edge(21, 69).
edge(62, 94).
edge(46, 64).
edge(6, 10).
edge(51, 113).
edge(5, 30).
edge(69, 81).
edge(130, 131).
edge(110, 128).
edge(56, 77).
edge(65, 129).
edge(78, 138).
edge(88, 133).
edge(108, 113).
edge(1, 3).
edge(33, 130).
edge(57, 67).
edge(11, 92).
edge(31, 72).
edge(3, 12).
edge(0, 140).
edge(16, 101).
edge(41, 98).
edge(48, 56).
edge(59, 70).
edge(7, 118).
edge(74, 85).
edge(92, 119).
edge(3, 126).
edge(47, 68).
edge(58, 68).
edge(38, 48).
edge(86, 126).
edge(83, 98).
edge(67, 115).
edge(46, 69).
edge(23, 34).
edge(35, 66).
edge(78, 95).
edge(46, 59).
edge(91, 98).
edge(14, 85).
edge(110, 127).
edge(0, 13).
edge(14, 112).
edge(14, 43).
edge(101, 133).
edge(4, 136).
edge(32, 101).
edge(52, 142).
edge(1, 28).
edge(18, 65).
edge(49, 114).
edge(29, 123).
edge(21, 60).
edge(69, 85).
edge(74, 93).
edge(20, 70).
edge(96, 101).
edge(69, 97).
edge(138, 140).
edge(12, 138).
edge(37, 64).
edge(36, 86).
edge(41, 93).
edge(35, 37).
edge(2, 88).
edge(129, 138).
edge(29, 130).
edge(32, 66).
edge(70, 110).
edge(82, 96).
edge(21, 36).
edge(108, 121).
edge(3, 77).
edge(47, 102).
edge(37, 62).
edge(71, 110).
edge(48, 69).
edge(86, 101).
edge(31, 39).
edge(1, 126).
edge(31, 82).
edge(41, 104).
edge(62, 67).
edge(71, 126).
edge(33, 100).
edge(26, 38).
edge(15, 131).
edge(21, 118).
edge(95, 128).
edge(66, 79).
edge(49, 58).
edge(13, 108).
edge(2, 101).
edge(71, 136).
edge(94, 134).
edge(55, 94).
edge(16, 100).
edge(119, 122).
edge(59, 127).
edge(98, 100).
edge(30, 62).
edge(21, 76).
edge(45, 110).
edge(49, 130).
edge(9, 43).
edge(129, 140).
edge(18, 120).
edge(76, 96).
edge(73, 101).
edge(84, 93).
edge(17, 98).
edge(68, 70).
edge(73, 131).
edge(12, 37).
edge(17, 128).
edge(92, 134).
edge(25, 52).
edge(41, 79).
edge(30, 76).
edge(48, 120).
edge(5, 50).
edge(11, 73).
edge(102, 141).
edge(45, 119).
edge(107, 110).
edge(40, 63).
edge(59, 61).
edge(61, 70).
edge(59, 137).
edge(42, 51).
edge(46, 103).
edge(31, 113).
edge(31, 60).
edge(43, 59).
edge(8, 106).
edge(27, 105).
edge(52, 70).
edge(24, 119).
edge(112, 126).
edge(56, 132).
edge(71, 137).
edge(0, 58).
edge(7, 80).
edge(24, 135).
edge(50, 104).
edge(58, 101).
edge(0, 85).
edge(88, 106).
edge(44, 83).
edge(13, 56).
edge(53, 79).
edge(71, 117).
edge(21, 122).
edge(46, 65).
edge(128, 131).
edge(65, 66).
edge(18, 83).
edge(13, 38).
edge(100, 127).
edge(62, 93).
edge(90, 104).
edge(19, 44).
edge(27, 53).
edge(6, 55).
edge(27, 77).
edge(65, 76).
edge(22, 35).
edge(43, 107).
edge(45, 111).
edge(91, 140).
edge(56, 89).
edge(9, 14).
edge(109, 111).
edge(23, 91).
edge(69, 107).
edge(36, 113).
edge(5, 125).
edge(64, 108).
edge(84, 99).
edge(42, 108).
edge(86, 96).
edge(15, 108).
edge(44, 111).
edge(16, 18).
edge(1, 101).
edge(55, 129).
edge(74, 116).
edge(37, 136).
edge(23, 108).
edge(32, 139).
edge(28, 53).
edge(48, 85).
edge(104, 141).
edge(30, 104).
edge(12, 66).
edge(18, 56).
edge(132, 141).
edge(127, 142).
edge(3, 47).
edge(6, 124).
edge(21, 116).
edge(118, 119).
edge(24, 96).
edge(24, 112).
edge(4, 98).
edge(11, 141).
edge(62, 125).
edge(15, 112).
edge(47, 65).
edge(7, 137).
edge(71, 104).
edge(102, 114).
edge(121, 141).
edge(1, 76).
edge(118, 135).
edge(6, 120).
edge(19, 117).
edge(43, 68).
edge(68, 140).
edge(50, 105).
edge(50, 123).
edge(6, 31).
edge(11, 93).
edge(48, 52).
edge(5, 42).
edge(104, 131).
edge(56, 97).
edge(34, 70).
edge(25, 125).
edge(0, 75).
edge(2, 106).
edge(41, 108).
edge(68, 119).
edge(16, 103).
edge(71, 132).
edge(105, 117).
edge(63, 128).
edge(90, 135).
edge(28, 34).
edge(21, 68).
edge(26, 113).
edge(24, 59).
edge(100, 120).
edge(10, 101).
edge(6, 17).
edge(1, 43).
edge(120, 123).
edge(60, 74).
edge(26, 52).
edge(76, 116).
edge(57, 126).
edge(69, 88).
edge(71, 140).
edge(51, 66).
edge(0, 122).
edge(15, 81).
edge(27, 109).
edge(92, 105).
edge(12, 134).
edge(51, 62).
edge(66, 84).
edge(34, 101).
edge(21, 108).
edge(71, 115).
edge(61, 118).
edge(134, 138).
edge(35, 48).
edge(16, 65).
edge(2, 84).
edge(10, 139).
edge(26, 130).
edge(49, 90).
edge(30, 109).
edge(84, 119).
edge(44, 117).
edge(8, 103).
edge(14, 75).
edge(0, 89).
edge(20, 105).
edge(23, 132).
edge(37, 106).
edge(28, 108).
edge(5, 101).
edge(22, 48).
edge(47, 110).
edge(61, 133).
edge(34, 140).
edge(79, 86).
edge(16, 35).
edge(65, 110).
edge(35, 76).
edge(6, 86).
edge(57, 136).
edge(0, 129).
edge(31, 77).
edge(133, 140).
edge(129, 133).
edge(30, 67).
edge(109, 142).
edge(23, 97).
edge(36, 81).
edge(26, 90).
edge(20, 142).
edge(30, 103).
edge(52, 79).
edge(45, 81).
edge(69, 122).
edge(71, 118).
edge(120, 129).
edge(30, 72).
edge(80, 136).
edge(24, 136).
edge(42, 117).
edge(26, 127).
edge(56, 96).
edge(49, 50).
edge(68, 82).
edge(2, 30).
edge(22, 23).
edge(29, 118).
edge(43, 70).
edge(71, 135).
edge(54, 60).
edge(11, 82).
edge(33, 94).
edge(75, 102).
edge(78, 97).
edge(59, 80).
edge(121, 126).
edge(46, 47).
edge(57, 83).
edge(16, 46).
edge(75, 92).
edge(73, 86).
edge(18, 59).
edge(82, 86).
edge(115, 122).
edge(2, 118).
edge(26, 54).
edge(67, 110).
edge(37, 43).
edge(43, 77).
edge(86, 139).
edge(24, 80).
edge(55, 139).
edge(83, 86).
edge(13, 105).
edge(99, 111).
edge(57, 62).
edge(94, 138).
edge(10, 30).
edge(92, 137).
edge(17, 65).
edge(83, 102).
edge(11, 120).
edge(0, 39).
edge(5, 6).
edge(5, 129).
edge(25, 139).
edge(23, 69).
edge(96, 131).
edge(76, 86).
edge(108, 120).
edge(36, 123).
edge(110, 119).
edge(12, 71).
edge(29, 34).
edge(22, 90).
edge(21, 34).
edge(23, 31).
edge(97, 131).
edge(43, 91).
edge(123, 129).
edge(37, 86).
edge(23, 88).
edge(3, 108).
edge(87, 98).
edge(52, 129).
edge(24, 139).
edge(100, 136).
edge(26, 108).
edge(0, 87).
edge(9, 30).
edge(96, 113).
edge(63, 107).
edge(20, 48).
edge(118, 126).
edge(70, 74).
edge(24, 47).
edge(1, 83).
edge(47, 124).
edge(26, 56).
edge(113, 135).
edge(64, 67).
edge(50, 142).
edge(22, 137).
edge(39, 130).
edge(80, 105).
edge(118, 141).
edge(61, 98).
edge(63, 103).
edge(88, 115).
edge(88, 91).
edge(8, 142).
edge(58, 62).
edge(69, 134).
edge(89, 110).
edge(64, 139).
edge(129, 131).
edge(15, 92).
edge(78, 84).
edge(26, 139).
edge(19, 89).
edge(61, 123).
edge(74, 102).
edge(40, 73).
edge(17, 36).
edge(53, 129).
edge(2, 127).
edge(7, 70).
edge(46, 67).
edge(17, 46).
edge(7, 64).
edge(4, 137).
edge(73, 77).
edge(40, 116).
edge(22, 89).
edge(10, 125).
edge(7, 104).
edge(56, 87).
edge(110, 140).
edge(89, 119).
edge(2, 28).
edge(71, 130).
edge(61, 75).
edge(17, 90).
edge(47, 125).
edge(41, 71).
edge(21, 57).
edge(59, 116).
edge(34, 128).
edge(16, 84).
edge(22, 116).
edge(106, 127).
edge(67, 83).
edge(30, 38).
edge(18, 131).
edge(10, 115).
edge(7, 17).
edge(34, 63).
edge(46, 79).
edge(67, 70).
edge(119, 140).
edge(1, 30).
edge(34, 72).
edge(18, 94).
edge(62, 138).
edge(16, 87).
edge(3, 118).
edge(126, 130).
edge(16, 104).
edge(13, 25).
edge(130, 139).
edge(38, 88).
edge(32, 113).
edge(61, 67).
edge(0, 64).
edge(45, 51).
edge(37, 95).
edge(2, 32).
edge(24, 40).
edge(7, 15).
edge(32, 103).
edge(12, 97).
edge(40, 58).
edge(25, 83).
edge(25, 110).
edge(50, 116).
edge(55, 74).
edge(48, 110).
edge(97, 129).
edge(89, 139).
edge(0, 76).
edge(57, 60).
edge(12, 42).
edge(30, 71).
edge(85, 140).
edge(10, 25).
edge(9, 42).
edge(24, 103).
edge(71, 134).
edge(14, 80).
edge(2, 60).
edge(58, 103).
edge(29, 114).
edge(70, 115).
edge(6, 98).
edge(28, 133).
edge(98, 128).
edge(2, 96).
edge(5, 132).
edge(82, 130).
edge(33, 35).
edge(70, 137).
edge(29, 63).
edge(5, 105).
edge(46, 131).
edge(97, 136).
edge(30, 63).
edge(101, 109).
edge(116, 131).
edge(11, 53).
edge(126, 134).
edge(69, 135).
edge(41, 95).
edge(1, 14).
edge(18, 49).
edge(38, 58).
edge(28, 60).
edge(122, 133).
edge(53, 83).
edge(27, 112).
edge(116, 140).
edge(62, 85).
edge(7, 32).
edge(52, 73).
edge(53, 100).
edge(15, 79).
edge(0, 43).
edge(1, 16).
edge(56, 120).
edge(90, 130).
edge(46, 55).
edge(20, 56).
edge(25, 67).
edge(40, 56).
edge(117, 119).
edge(79, 94).
edge(91, 136).
edge(77, 125).
edge(40, 133).
edge(108, 142).
edge(41, 127).
edge(17, 68).
edge(72, 113).
edge(27, 100).
edge(6, 101).
edge(32, 95).
edge(36, 133).
edge(78, 110).
edge(55, 83).
edge(84, 94).
edge(24, 99).
edge(45, 106).
edge(106, 119).
edge(53, 76).
edge(77, 101).
edge(81, 116).
edge(13, 80).
edge(58, 113).
edge(40, 142).
edge(79, 108).
edge(3, 120).
edge(2, 117).
edge(34, 82).
edge(36, 68).
edge(69, 126).
edge(23, 120).
edge(66, 108).
edge(32, 46).
edge(73, 87).
edge(0, 99).
edge(110, 126).
edge(3, 64).
edge(81, 86).
edge(43, 47).
edge(41, 90).
edge(38, 108).
edge(8, 64).
edge(19, 35).
edge(6, 130).
edge(32, 39).
edge(100, 107).
edge(27, 83).
edge(49, 106).
edge(19, 48).
edge(48, 72).
edge(10, 16).
edge(47, 64).
edge(61, 117).
edge(32, 58).
edge(53, 126).
edge(8, 10).
edge(44, 62).
edge(59, 99).
edge(32, 44).
edge(75, 113).
edge(12, 93).
edge(6, 140).
edge(27, 61).
edge(66, 102).
edge(115, 129).
edge(9, 117).
edge(60, 135).
edge(53, 110).
edge(102, 119).
edge(61, 109).
edge(21, 73).
edge(17, 76).
edge(29, 124).
edge(48, 88).
edge(6, 74).
edge(85, 131).
edge(30, 39).
edge(47, 62).
edge(0, 32).
edge(28, 120).
edge(12, 53).
edge(20, 103).
edge(5, 8).
edge(60, 87).
edge(20, 107).
edge(38, 141).
edge(28, 81).
edge(104, 140).
edge(15, 75).
edge(47, 55).
edge(116, 125).
edge(7, 112).
edge(28, 37).
edge(84, 125).
edge(8, 68).
edge(71, 89).
edge(5, 90).
edge(92, 132).
edge(36, 37).
edge(78, 134).
edge(68, 88).
edge(81, 105).
edge(63, 86).
edge(35, 64).
edge(4, 127).
edge(83, 121).
edge(28, 114).
edge(21, 67).
edge(12, 57).
edge(90, 127).
edge(20, 111).
edge(76, 91).
edge(81, 118).
edge(8, 127).
edge(120, 124).
edge(74, 141).
edge(104, 132).
edge(23, 136).
edge(39, 137).
edge(28, 89).
edge(127, 138).
edge(70, 84).
edge(15, 45).
edge(49, 133).
edge(43, 137).
edge(65, 111).
edge(43, 66).
edge(5, 97).
edge(68, 117).
edge(50, 61).
edge(46, 62).
edge(67, 136).
edge(52, 113).
edge(53, 101).
edge(94, 131).
edge(102, 131).
edge(32, 104).
edge(9, 26).
edge(22, 31).
edge(16, 85).
edge(29, 47).
edge(3, 136).
edge(8, 59).
edge(76, 123).
edge(105, 123).
edge(83, 123).
edge(80, 83).
edge(9, 135).
edge(19, 78).
edge(51, 80).
edge(11, 136).
edge(59, 111).
edge(62, 129).
edge(23, 100).
edge(20, 141).
edge(2, 11).
edge(17, 133).
edge(4, 133).
edge(52, 107).
edge(120, 134).
edge(74, 117).
edge(10, 73).
edge(43, 110).
edge(59, 133).
edge(25, 40).
edge(94, 121).
edge(91, 101).
edge(113, 128).
edge(40, 129).
edge(26, 126).
edge(98, 137).
edge(77, 81).
edge(18, 62).
edge(31, 32).
edge(50, 92).
edge(1, 85).
edge(38, 131).
edge(0, 95).
edge(122, 132).
edge(6, 113).
edge(123, 132).
edge(17, 112).
edge(3, 35).
edge(76, 105).
edge(18, 114).
edge(1, 90).
edge(6, 45).
edge(104, 138).
edge(58, 99).
edge(42, 87).
edge(60, 88).
edge(24, 102).
edge(4, 110).
edge(21, 99).
edge(71, 120).
edge(41, 112).
edge(5, 78).
edge(48, 128).
edge(86, 110).
edge(117, 139).
edge(53, 82).
edge(95, 130).
edge(46, 86).
edge(85, 94).
edge(32, 126).
edge(46, 129).
edge(17, 31).
edge(23, 99).
edge(14, 28).
edge(46, 122).
edge(10, 67).
edge(38, 125).
edge(24, 131).
edge(11, 129).
edge(2, 61).
edge(42, 56).
edge(96, 97).
edge(24, 60).
edge(11, 100).
edge(31, 54).
edge(97, 101).
edge(13, 103).
edge(9, 97).
edge(25, 68).
edge(104, 118).
edge(18, 72).
edge(33, 54).
edge(86, 123).
edge(4, 19).
edge(34, 123).
edge(98, 104).
edge(19, 120).
edge(48, 127).
edge(38, 121).
edge(46, 61).
edge(97, 107).
edge(0, 128).
edge(22, 59).
edge(5, 58).
edge(64, 134).
edge(72, 91).
edge(94, 100).
edge(12, 75).
edge(68, 106).
edge(35, 130).
edge(16, 23).
edge(4, 53).
edge(28, 111).
edge(20, 59).
edge(13, 19).
edge(5, 134).
edge(88, 140).
edge(84, 112).
edge(29, 78).
edge(138, 142).
edge(16, 127).
edge(105, 139).
edge(48, 82).
edge(21, 41).
edge(44, 94).
edge(12, 82).
edge(30, 123).
edge(4, 73).
edge(90, 97).
edge(14, 58).
edge(44, 119).
edge(93, 101).
edge(33, 101).
edge(72, 83).
edge(68, 134).
edge(103, 125).
edge(10, 40).
edge(65, 71).
edge(55, 102).
edge(92, 93).
edge(55, 93).
edge(135, 138).
edge(103, 133).
edge(79, 135).
edge(23, 111).
edge(83, 119).
edge(83, 91).
edge(11, 56).
edge(54, 61).
edge(3, 102).
edge(37, 85).
edge(82, 136).
edge(1, 100).
edge(92, 115).
edge(20, 64).
edge(30, 100).
edge(104, 109).
edge(3, 130).
edge(66, 134).
edge(7, 12).
edge(4, 85).
edge(91, 112).
edge(21, 58).
edge(9, 123).
edge(79, 122).
edge(22, 51).
edge(8, 50).
edge(53, 94).
edge(73, 78).
edge(17, 78).
edge(9, 73).
edge(24, 81).
edge(4, 117).
edge(93, 141).
edge(27, 80).
edge(70, 94).
edge(63, 130).
edge(82, 133).
edge(105, 130).
edge(35, 79).
edge(101, 125).
edge(37, 119).
edge(21, 120).
edge(43, 136).
edge(82, 131).
edge(63, 70).
edge(2, 39).
edge(11, 37).
edge(31, 69).
edge(42, 78).
edge(24, 64).
edge(89, 90).
edge(46, 126).
edge(23, 127).
edge(36, 110).
edge(25, 118).
edge(27, 68).
edge(62, 115).
edge(67, 85).
edge(7, 42).
edge(51, 100).
edge(9, 102).
edge(87, 131).
edge(97, 114).
edge(56, 136).
edge(36, 114).
edge(32, 34).
edge(0, 111).
edge(1, 19).
edge(58, 137).
edge(76, 80).
edge(42, 123).
edge(81, 94).
edge(35, 98).
edge(24, 34).
edge(77, 102).
edge(97, 105).
edge(28, 109).
edge(36, 54).
edge(26, 41).
edge(66, 74).
edge(64, 97).
edge(54, 63).
edge(112, 124).
edge(137, 139).
weight(0, 6).
weight(1, 1).
weight(2, 9).
weight(3, 16).
weight(4, 15).
weight(5, 7).
weight(6, 12).
weight(7, 14).
weight(8, 12).
weight(9, 18).
weight(10, 10).
weight(11, 12).
weight(12, 8).
weight(13, 20).
weight(14, 3).
weight(15, 16).
weight(16, 7).
weight(17, 17).
weight(18, 12).
weight(19, 8).
weight(20, 12).
weight(21, 20).
weight(22, 2).
weight(23, 5).
weight(24, 19).
weight(25, 4).
weight(26, 11).
weight(27, 14).
weight(28, 11).
weight(29, 5).
weight(30, 15).
weight(31, 19).
weight(32, 8).
weight(33, 1).
weight(34, 8).
weight(35, 5).
weight(36, 16).
weight(37, 4).
weight(38, 13).
weight(39, 6).
weight(40, 13).
weight(41, 8).
weight(42, 16).
weight(43, 7).
weight(44, 19).
weight(45, 16).
weight(46, 12).
weight(47, 7).
weight(48, 3).
weight(49, 13).
weight(50, 19).
weight(51, 7).
weight(52, 10).
weight(53, 12).
weight(54, 10).
weight(55, 8).
weight(56, 17).
weight(57, 16).
weight(58, 16).
weight(59, 11).
weight(60, 13).
weight(61, 6).
weight(62, 19).
weight(63, 18).
weight(64, 5).
weight(65, 20).
weight(66, 6).
weight(67, 9).
weight(68, 5).
weight(69, 11).
weight(70, 20).
weight(71, 6).
weight(72, 20).
weight(73, 6).
weight(74, 8).
weight(75, 4).
weight(76, 13).
weight(77, 10).
weight(78, 19).
weight(79, 7).
weight(80, 15).
weight(81, 17).
weight(82, 18).
weight(83, 12).
weight(84, 8).
weight(85, 16).
weight(86, 19).
weight(87, 12).
weight(88, 1).
weight(89, 11).
weight(90, 11).
weight(91, 7).
weight(92, 1).
weight(93, 7).
weight(94, 8).
weight(95, 7).
weight(96, 3).
weight(97, 7).
weight(98, 16).
weight(99, 1).
weight(100, 16).
weight(101, 15).
weight(102, 19).
weight(103, 6).
weight(104, 16).
weight(105, 20).
weight(106, 3).
weight(107, 9).
weight(108, 13).
weight(109, 20).
weight(110, 20).
weight(111, 8).
weight(112, 7).
weight(113, 5).
weight(114, 14).
weight(115, 1).
weight(116, 2).
weight(117, 16).
weight(118, 7).
weight(119, 15).
weight(120, 2).
weight(121, 15).
weight(122, 12).
weight(123, 8).
weight(124, 18).
weight(125, 9).
weight(126, 11).
weight(127, 9).
weight(128, 17).
weight(129, 2).
weight(130, 18).
weight(131, 18).
weight(132, 5).
weight(133, 5).
weight(134, 6).
weight(135, 19).
weight(136, 3).
weight(137, 6).
weight(138, 7).
weight(139, 6).
weight(140, 13).
weight(141, 11).
weight(142, 2).

{in(V)} :- node(V).
:- in(U), in(V), U < V, not edge(U,V).
:~ not in(V), weight(V,W). [W@1,V]
