node(0..135).
edge(82, 121).
edge(83, 90).
edge(10, 113).
edge(20, 127).
edge(5, 14).
edge(59, 114).
edge(26, 101).
edge(19, 111).
edge(81, 106).
edge(97, 127).
edge(0, 76).
edge(67, 111).
edge(77, 96).
edge(40, 63).
edge(32, 47).
edge(70, 76).
edge(39, 45).
edge(84, 133).
edge(79, 93).
edge(4, 30).
edge(54, 63).
edge(8, 60).
edge(26, 53).
edge(52, 114).
edge(38, 66).
edge(8, 13).
edge(8, 37).
edge(22, 40).
edge(67, 124).
edge(89, 133).
edge(37, 71).
edge(23, 51).
edge(63, 68).
edge(8, 33).
edge(44, 70).
edge(56, 106).
edge(17, 61).
edge(7, 127).
edge(22, 94).
edge(9, 74).
edge(40, 55).
edge(27, 98).
edge(32, 101).
edge(37, 72).
edge(38, 58).
edge(17, 26).
edge(64, 117).
edge(76, 117).
edge(47, 129).
edge(66, 73).
edge(58, 85).
edge(31, 109).
edge(71, 120).
edge(91, 111).
edge(81, 135).
edge(26, 124).
edge(1, 122).
edge(55, 57).
edge(27, 41).
edge(76, 116).
edge(55, 98).
edge(56, 62).
edge(3, 96).
edge(66, 126).
edge(61, 135).
edge(62, 80).
edge(41, 97).
edge(117, 123).
edge(21, 63).
edge(8, 121).
edge(108, 130).
edge(41, 123).
edge(21, 62).
edge(106, 114).
edge(35, 83).
edge(27, 66).
edge(75, 90).
edge(0, 66).
edge(48, 89).
edge(61, 77).
edge(49, 74).
edge(61, 85).
edge(3, 19).
edge(13, 122).
edge(80, 111).
edge(28, 95).
edge(66, 128).
edge(130, 134).
edge(41, 94).
edge(43, 97).
edge(82, 131).
edge(10, 116).
edge(11, 17).
edge(27, 69).
edge(53, 93).
edge(10, 112).
edge(58, 129).
edge(51, 63).
edge(34, 38).
edge(8, 52).
edge(48, 98).
edge(13, 62).
edge(92, 105).
edge(126, 135).
edge(36, 39).
edge(35, 51).
edge(54, 66).
edge(18, 45).
edge(25, 37).
edge(39, 116).
edge(43, 128).
edge(19, 99).
edge(109, 130).
edge(12, 125).
edge(48, 102).
edge(32, 49).
edge(43, 73).
edge(12, 97).
edge(41, 50).
edge(8, 111).
edge(44, 59).
edge(23, 89).
edge(53, 76).
edge(20, 40).
edge(104, 115).
edge(3, 21).
edge(13, 92).
edge(113, 122).
edge(18, 83).
edge(45, 131).
edge(66, 74).
edge(23, 125).
edge(33, 68).
edge(87, 114).
edge(7, 31).
edge(59, 101).
edge(19, 129).
edge(74, 91).
edge(69, 70).
edge(89, 96).
edge(24, 130).
edge(44, 110).
edge(40, 115).
edge(52, 109).
edge(7, 96).
edge(114, 134).
edge(118, 125).
edge(49, 66).
edge(71, 81).
edge(51, 134).
edge(0, 11).
edge(56, 88).
edge(69, 96).
edge(92, 124).
edge(93, 126).
edge(1, 13).
edge(47, 50).
edge(55, 60).
edge(15, 68).
edge(11, 32).
edge(32, 113).
edge(76, 122).
edge(7, 17).
edge(42, 44).
edge(44, 48).
edge(65, 119).
edge(25, 28).
edge(42, 71).
edge(14, 22).
edge(33, 35).
edge(103, 120).
edge(53, 124).
edge(41, 86).
edge(28, 67).
edge(27, 36).
edge(29, 99).
edge(54, 86).
edge(37, 98).
edge(122, 125).
edge(7, 54).
edge(30, 65).
edge(96, 119).
edge(75, 128).
edge(11, 110).
edge(63, 114).
edge(55, 84).
edge(0, 57).
edge(46, 52).
edge(17, 122).
edge(22, 99).
edge(57, 75).
edge(47, 52).
edge(13, 14).
edge(24, 120).
edge(87, 97).
edge(105, 124).
edge(18, 135).
edge(67, 93).
edge(36, 51).
edge(60, 84).
edge(57, 73).
edge(5, 66).
edge(64, 78).
edge(19, 35).
edge(38, 124).
edge(31, 102).
edge(103, 125).
edge(11, 109).
edge(4, 107).
edge(8, 91).
edge(14, 28).
edge(31, 134).
edge(46, 97).
edge(36, 79).
edge(46, 47).
edge(26, 31).
edge(32, 125).
edge(55, 95).
edge(68, 108).
edge(85, 134).
edge(82, 96).
edge(1, 59).
edge(66, 81).
edge(4, 24).
edge(112, 125).
edge(28, 114).
edge(20, 91).
edge(38, 73).
edge(11, 42).
edge(105, 134).
edge(19, 90).
edge(32, 33).
edge(14, 51).
edge(78, 80).
edge(46, 57).
edge(11, 95).
edge(8, 116).
edge(59, 94).
edge(37, 108).
edge(26, 93).
edge(78, 118).
edge(26, 60).
edge(39, 99).
edge(73, 93).
edge(21, 93).
edge(63, 117).
edge(2, 44).
edge(23, 54).
edge(49, 114).
edge(72, 126).
edge(18, 92).
edge(75, 96).
edge(73, 111).
edge(68, 74).
edge(33, 36).
edge(33, 82).
edge(25, 128).
edge(58, 66).
edge(57, 114).
edge(56, 98).
edge(117, 131).
edge(30, 63).
edge(94, 112).
edge(37, 75).
edge(64, 103).
edge(78, 81).
edge(70, 74).
edge(24, 86).
edge(14, 68).
edge(80, 127).
edge(51, 132).
edge(30, 105).
edge(36, 50).
edge(55, 71).
edge(5, 59).
edge(16, 125).
edge(71, 100).
edge(64, 94).
edge(9, 135).
edge(100, 111).
edge(96, 98).
edge(76, 79).
edge(86, 91).
edge(83, 93).
edge(29, 66).
edge(47, 96).
edge(102, 114).
edge(47, 66).
edge(12, 78).
edge(41, 75).
edge(30, 123).
edge(70, 134).
edge(69, 134).
edge(25, 126).
edge(95, 126).
edge(54, 61).
edge(68, 83).
edge(55, 96).
edge(11, 43).
edge(58, 67).
edge(12, 62).
edge(24, 94).
edge(19, 97).
edge(39, 96).
edge(18, 102).
edge(72, 103).
edge(22, 115).
edge(50, 107).
edge(58, 101).
edge(1, 95).
edge(82, 107).
edge(123, 131).
edge(71, 131).
edge(75, 100).
edge(37, 103).
edge(102, 115).
edge(28, 83).
edge(6, 18).
edge(30, 48).
edge(68, 95).
edge(5, 88).
edge(5, 120).
edge(24, 42).
edge(1, 109).
edge(14, 135).
edge(31, 81).
edge(59, 107).
edge(8, 123).
edge(59, 116).
edge(66, 135).
edge(114, 123).
edge(35, 72).
edge(24, 28).
edge(78, 110).
edge(48, 99).
edge(21, 103).
edge(58, 86).
edge(71, 115).
edge(33, 70).
edge(44, 82).
edge(35, 129).
edge(117, 121).
edge(23, 36).
edge(15, 90).
edge(95, 105).
edge(67, 94).
edge(64, 73).
edge(25, 57).
edge(31, 92).
edge(5, 92).
edge(80, 130).
edge(79, 133).
edge(97, 132).
edge(69, 123).
edge(115, 132).
edge(47, 55).
edge(41, 96).
edge(7, 101).
edge(103, 134).
edge(33, 107).
edge(0, 45).
edge(7, 53).
edge(13, 127).
edge(104, 109).
edge(21, 48).
edge(59, 90).
edge(96, 125).
edge(32, 104).
edge(27, 131).
edge(54, 99).
edge(76, 129).
edge(103, 111).
edge(41, 111).
edge(32, 133).
edge(51, 52).
edge(0, 80).
edge(76, 110).
edge(90, 126).
edge(76, 124).
edge(38, 135).
edge(90, 114).
edge(40, 78).
edge(32, 51).
edge(86, 111).
edge(65, 109).
edge(14, 126).
edge(65, 123).
edge(49, 69).
edge(65, 126).
edge(41, 66).
edge(74, 125).
edge(83, 100).
edge(98, 129).
edge(55, 109).
edge(9, 41).
edge(9, 61).
edge(90, 127).
edge(24, 113).
edge(77, 109).
edge(7, 78).
edge(46, 128).
edge(31, 95).
edge(102, 103).
edge(57, 135).
edge(80, 114).
edge(41, 44).
edge(111, 117).
edge(61, 68).
edge(45, 67).
edge(3, 132).
edge(30, 113).
edge(81, 125).
edge(16, 76).
edge(109, 123).
edge(21, 128).
edge(43, 49).
edge(63, 127).
edge(50, 81).
edge(118, 130).
edge(4, 48).
edge(2, 88).
edge(20, 99).
edge(34, 108).
edge(61, 63).
edge(83, 92).
edge(46, 101).
edge(60, 123).
edge(2, 86).
edge(60, 113).
edge(77, 99).
edge(76, 99).
edge(5, 102).
edge(94, 102).
edge(13, 63).
edge(35, 119).
edge(39, 44).
edge(9, 113).
edge(72, 125).
edge(28, 66).
edge(80, 129).
edge(30, 96).
edge(12, 43).
edge(7, 41).
edge(94, 95).
edge(82, 113).
edge(3, 60).
edge(106, 108).
edge(60, 96).
edge(27, 97).
edge(6, 96).
edge(29, 63).
edge(9, 118).
edge(10, 96).
edge(19, 81).
edge(48, 62).
edge(71, 122).
edge(6, 13).
edge(79, 134).
edge(53, 97).
edge(24, 84).
edge(84, 101).
edge(118, 122).
edge(28, 55).
edge(16, 111).
edge(97, 100).
edge(3, 90).
edge(116, 132).
edge(20, 134).
edge(56, 81).
edge(3, 119).
edge(6, 16).
edge(23, 30).
edge(13, 48).
edge(45, 54).
edge(45, 91).
edge(20, 85).
edge(70, 93).
edge(42, 83).
edge(61, 69).
edge(29, 93).
edge(8, 12).
edge(29, 69).
edge(15, 94).
edge(5, 52).
edge(26, 104).
edge(128, 133).
edge(32, 54).
edge(89, 92).
edge(1, 93).
edge(106, 130).
edge(87, 119).
edge(21, 50).
edge(18, 69).
edge(84, 119).
edge(4, 5).
edge(103, 124).
edge(10, 110).
edge(44, 133).
edge(32, 103).
edge(0, 41).
edge(55, 59).
edge(42, 131).
edge(120, 122).
edge(26, 39).
edge(5, 15).
edge(70, 78).
edge(30, 110).
edge(68, 119).
edge(38, 62).
edge(37, 126).
edge(72, 112).
edge(61, 78).
edge(24, 122).
edge(49, 120).
edge(35, 44).
edge(2, 92).
edge(31, 105).
edge(26, 41).
edge(100, 133).
edge(64, 71).
edge(12, 17).
edge(24, 115).
edge(113, 115).
edge(16, 128).
edge(67, 86).
edge(51, 55).
edge(25, 86).
edge(43, 132).
edge(6, 30).
edge(17, 114).
edge(8, 122).
edge(32, 115).
edge(62, 135).
edge(70, 101).
edge(12, 126).
edge(68, 131).
edge(32, 42).
edge(48, 64).
edge(17, 49).
edge(50, 65).
edge(78, 131).
edge(20, 125).
edge(48, 53).
edge(6, 103).
edge(6, 78).
edge(6, 122).
edge(25, 45).
edge(53, 60).
edge(59, 121).
edge(19, 79).
edge(5, 37).
edge(67, 92).
edge(84, 103).
edge(32, 37).
edge(11, 104).
edge(85, 122).
edge(38, 43).
edge(80, 109).
edge(16, 127).
edge(132, 133).
edge(50, 62).
edge(69, 125).
edge(64, 89).
edge(22, 43).
edge(30, 127).
edge(13, 49).
edge(46, 134).
edge(66, 112).
edge(125, 129).
edge(74, 78).
edge(48, 108).
edge(39, 122).
edge(24, 67).
edge(54, 60).
edge(17, 131).
edge(111, 115).
edge(74, 128).
edge(20, 41).
edge(49, 72).
edge(90, 134).
edge(13, 86).
edge(55, 79).
edge(18, 70).
edge(17, 110).
edge(9, 127).
edge(3, 40).
edge(19, 122).
edge(15, 34).
edge(28, 54).
edge(117, 125).
edge(74, 130).
edge(116, 119).
edge(52, 89).
edge(12, 118).
edge(56, 99).
edge(99, 122).
edge(62, 75).
edge(40, 49).
edge(12, 55).
edge(1, 124).
edge(8, 96).
edge(40, 112).
edge(56, 114).
edge(8, 46).
edge(24, 112).
edge(11, 92).
edge(29, 92).
edge(1, 11).
edge(49, 79).
edge(101, 104).
edge(31, 51).
edge(21, 39).
edge(35, 59).
edge(26, 65).
edge(16, 86).
edge(5, 22).
edge(101, 116).
edge(116, 128).
edge(1, 94).
edge(94, 130).
edge(73, 104).
edge(117, 119).
edge(1, 89).
edge(46, 80).
edge(29, 133).
edge(53, 56).
edge(80, 128).
edge(17, 38).
edge(26, 123).
edge(14, 77).
edge(3, 58).
edge(116, 135).
edge(45, 95).
edge(86, 121).
edge(11, 100).
edge(26, 92).
edge(15, 41).
edge(77, 78).
edge(12, 63).
edge(29, 118).
edge(15, 63).
edge(26, 43).
edge(14, 42).
edge(37, 54).
edge(84, 95).
edge(87, 122).
edge(88, 97).
edge(50, 84).
edge(105, 111).
edge(27, 76).
edge(84, 135).
edge(16, 42).
edge(43, 78).
edge(21, 81).
edge(35, 81).
edge(79, 82).
edge(64, 91).
edge(68, 70).
edge(31, 45).
edge(18, 126).
edge(31, 114).
edge(54, 114).
edge(35, 126).
edge(52, 70).
edge(10, 89).
edge(21, 122).
edge(44, 61).
edge(15, 131).
edge(12, 111).
edge(57, 79).
edge(76, 125).
edge(31, 103).
edge(42, 56).
edge(67, 95).
edge(118, 119).
edge(114, 129).
edge(34, 122).
edge(30, 131).
edge(3, 18).
edge(1, 21).
edge(12, 100).
edge(0, 118).
edge(77, 122).
edge(97, 126).
edge(115, 122).
edge(51, 80).
edge(54, 124).
edge(17, 117).
edge(80, 83).
edge(63, 88).
edge(110, 127).
edge(39, 76).
edge(10, 88).
edge(9, 21).
edge(57, 85).
edge(84, 131).
edge(16, 81).
edge(18, 71).
edge(70, 91).
edge(4, 83).
edge(36, 82).
edge(65, 115).
edge(18, 50).
edge(8, 17).
edge(16, 121).
edge(82, 122).
edge(93, 103).
edge(18, 109).
edge(23, 90).
edge(59, 125).
edge(44, 101).
edge(101, 117).
edge(47, 49).
edge(63, 133).
edge(48, 59).
edge(18, 23).
edge(18, 84).
edge(10, 30).
edge(39, 111).
edge(24, 60).
edge(16, 60).
edge(63, 116).
edge(1, 98).
edge(57, 104).
edge(20, 107).
edge(0, 132).
edge(28, 56).
edge(93, 112).
edge(10, 36).
edge(20, 109).
edge(27, 79).
edge(89, 99).
edge(10, 127).
edge(86, 124).
edge(79, 107).
edge(51, 79).
edge(14, 107).
edge(5, 9).
edge(9, 86).
edge(0, 133).
edge(2, 20).
edge(134, 135).
edge(3, 89).
edge(9, 17).
edge(55, 90).
edge(19, 37).
edge(97, 135).
edge(88, 90).
edge(54, 91).
edge(6, 102).
edge(24, 117).
edge(95, 100).
edge(43, 126).
edge(13, 61).
edge(62, 116).
edge(49, 86).
edge(25, 129).
edge(9, 65).
edge(60, 70).
edge(28, 76).
edge(29, 76).
edge(69, 92).
edge(48, 91).
edge(36, 133).
edge(18, 52).
edge(80, 105).
edge(1, 52).
edge(60, 110).
edge(79, 119).
edge(20, 34).
edge(36, 107).
edge(1, 115).
edge(93, 111).
edge(124, 132).
edge(19, 94).
edge(23, 41).
edge(8, 99).
edge(15, 117).
edge(97, 122).
edge(110, 134).
edge(104, 133).
edge(112, 126).
edge(21, 99).
edge(55, 113).
edge(3, 108).
edge(104, 111).
edge(116, 117).
edge(55, 92).
edge(3, 71).
edge(51, 54).
edge(119, 135).
edge(21, 134).
edge(25, 71).
edge(6, 133).
edge(79, 83).
edge(18, 116).
edge(60, 122).
edge(74, 122).
edge(73, 123).
edge(75, 126).
edge(0, 125).
edge(62, 134).
edge(50, 55).
edge(46, 50).
edge(9, 76).
edge(96, 126).
edge(48, 51).
edge(62, 71).
edge(68, 129).
edge(44, 77).
edge(16, 84).
edge(117, 120).
edge(28, 32).
edge(11, 97).
edge(28, 86).
edge(29, 34).
edge(75, 135).
edge(7, 58).
edge(25, 50).
edge(75, 104).
edge(3, 78).
edge(81, 83).
edge(42, 76).
edge(96, 110).
edge(23, 97).
edge(56, 68).
edge(2, 21).
edge(98, 120).
edge(91, 135).
edge(16, 123).
edge(25, 117).
edge(35, 61).
edge(48, 78).
edge(86, 114).
edge(9, 129).
edge(64, 80).
edge(48, 130).
edge(8, 77).
edge(32, 84).
edge(53, 116).
edge(91, 132).
edge(34, 114).
edge(39, 68).
edge(92, 117).
edge(37, 46).
edge(53, 88).
edge(25, 39).
edge(37, 76).
edge(6, 24).
edge(38, 48).
edge(45, 64).
edge(39, 43).
edge(36, 45).
edge(35, 135).
edge(79, 90).
edge(0, 91).
edge(66, 96).
edge(4, 120).
edge(10, 16).
edge(78, 104).
edge(93, 131).
edge(46, 56).
edge(83, 95).
edge(6, 101).
edge(26, 106).
edge(67, 78).
edge(69, 87).
edge(17, 94).
edge(79, 94).
edge(4, 126).
edge(24, 52).
edge(36, 108).
edge(9, 99).
edge(22, 80).
edge(88, 103).
edge(127, 132).
edge(34, 62).
edge(32, 110).
edge(55, 135).
edge(52, 116).
edge(0, 36).
edge(2, 42).
edge(76, 134).
edge(42, 90).
edge(0, 48).
edge(81, 95).
edge(39, 128).
edge(28, 120).
edge(116, 127).
edge(81, 134).
edge(118, 123).
edge(49, 99).
edge(93, 122).
edge(36, 116).
edge(3, 52).
edge(97, 128).
edge(37, 116).
edge(11, 119).
edge(23, 35).
edge(0, 87).
edge(21, 67).
edge(0, 40).
edge(11, 60).
edge(7, 23).
edge(4, 12).
edge(21, 123).
edge(23, 44).
edge(45, 111).
edge(71, 75).
edge(97, 103).
edge(39, 104).
edge(44, 103).
edge(24, 106).
edge(20, 89).
edge(19, 62).
edge(107, 108).
edge(30, 119).
edge(78, 117).
edge(100, 110).
edge(18, 41).
edge(33, 81).
edge(39, 85).
edge(2, 97).
edge(15, 43).
edge(86, 103).
edge(45, 89).
edge(27, 114).
edge(40, 69).
edge(34, 69).
edge(21, 77).
edge(126, 132).
edge(78, 102).
edge(57, 101).
edge(82, 84).
edge(24, 57).
edge(11, 125).
edge(72, 116).
edge(104, 124).
edge(93, 130).
edge(76, 78).
edge(27, 62).
edge(6, 105).
edge(36, 124).
edge(5, 113).
edge(8, 18).
edge(11, 24).
edge(55, 121).
edge(25, 46).
edge(39, 51).
edge(30, 83).
edge(66, 109).
edge(5, 117).
edge(22, 123).
edge(27, 107).
edge(67, 135).
edge(12, 57).
edge(4, 64).
edge(23, 31).
edge(44, 78).
edge(78, 134).
edge(80, 119).
edge(26, 77).
edge(119, 132).
edge(29, 72).
edge(16, 80).
edge(107, 135).
edge(62, 131).
edge(7, 22).
edge(50, 89).
edge(101, 123).
edge(70, 90).
edge(2, 51).
edge(19, 119).
edge(8, 83).
edge(124, 134).
edge(4, 81).
edge(108, 114).
edge(36, 88).
edge(8, 34).
edge(79, 110).
edge(89, 98).
edge(1, 34).
edge(42, 118).
edge(85, 102).
edge(70, 77).
edge(38, 106).
edge(36, 125).
edge(59, 79).
edge(23, 49).
edge(11, 12).
edge(96, 111).
edge(56, 76).
edge(30, 93).
edge(62, 74).
edge(32, 116).
edge(28, 116).
edge(104, 122).
edge(54, 76).
edge(67, 110).
edge(50, 98).
edge(39, 74).
edge(3, 87).
edge(27, 133).
edge(32, 83).
edge(12, 84).
edge(7, 16).
edge(119, 127).
edge(8, 27).
edge(100, 124).
edge(9, 125).
edge(16, 21).
edge(96, 100).
edge(120, 134).
edge(52, 53).
edge(6, 23).
edge(18, 73).
edge(23, 46).
edge(20, 62).
edge(8, 38).
edge(31, 68).
edge(65, 79).
edge(68, 80).
edge(26, 58).
edge(10, 38).
edge(48, 66).
edge(98, 121).
edge(65, 99).
edge(14, 80).
edge(12, 48).
edge(117, 127).
edge(93, 124).
edge(20, 95).
edge(78, 109).
edge(39, 53).
edge(86, 107).
edge(39, 86).
edge(37, 120).
edge(54, 108).
edge(49, 118).
edge(32, 121).
edge(37, 53).
edge(28, 58).
edge(55, 62).
edge(34, 97).
edge(47, 83).
edge(24, 110).
edge(17, 118).
edge(9, 78).
edge(25, 103).
edge(15, 78).
edge(5, 130).
edge(106, 116).
edge(16, 133).
edge(114, 120).
edge(39, 63).
edge(54, 69).
edge(40, 77).
edge(9, 34).
edge(0, 62).
edge(45, 83).
edge(62, 67).
edge(29, 49).
edge(10, 54).
edge(40, 56).
edge(81, 122).
edge(21, 58).
edge(95, 124).
edge(26, 49).
edge(79, 111).
edge(27, 129).
edge(59, 120).
edge(13, 45).
edge(48, 110).
edge(13, 72).
edge(82, 92).
edge(2, 13).
edge(83, 111).
edge(109, 129).
edge(9, 77).
edge(27, 55).
edge(18, 99).
edge(6, 64).
edge(116, 124).
edge(23, 108).
edge(12, 46).
edge(55, 81).
edge(73, 124).
edge(70, 107).
edge(2, 112).
edge(63, 76).
edge(50, 117).
edge(65, 70).
edge(5, 84).
edge(41, 114).
edge(44, 83).
edge(39, 114).
edge(76, 100).
edge(46, 124).
edge(45, 117).
edge(45, 93).
edge(28, 48).
edge(17, 102).
edge(32, 118).
edge(49, 91).
edge(60, 135).
edge(18, 117).
edge(14, 36).
edge(100, 125).
edge(4, 8).
edge(16, 88).
edge(34, 101).
edge(59, 133).
edge(2, 34).
edge(28, 125).
edge(4, 66).
edge(30, 81).
edge(47, 94).
edge(9, 60).
edge(62, 85).
edge(21, 30).
edge(18, 44).
edge(21, 25).
edge(32, 105).
edge(29, 84).
edge(52, 128).
edge(23, 104).
edge(78, 105).
edge(62, 124).
edge(95, 134).
edge(71, 90).
edge(23, 96).
edge(77, 134).
edge(50, 53).
edge(16, 61).
edge(47, 112).
edge(40, 132).
edge(42, 116).
edge(29, 123).
edge(99, 104).
edge(105, 116).
edge(7, 132).
edge(13, 54).
edge(49, 104).
edge(11, 87).
edge(37, 129).
edge(20, 74).
edge(30, 68).
edge(85, 93).
edge(19, 96).
edge(71, 87).
edge(43, 92).
edge(39, 57).
edge(3, 45).
edge(17, 99).
edge(63, 90).
edge(74, 105).
edge(55, 89).
edge(30, 108).
edge(24, 79).
edge(29, 33).
edge(17, 132).
edge(21, 37).
edge(80, 88).
edge(6, 8).
edge(22, 108).
edge(38, 111).
edge(92, 106).
edge(8, 20).
edge(6, 7).
edge(14, 38).
edge(28, 105).
edge(73, 85).
edge(2, 132).
edge(9, 54).
edge(36, 129).
edge(45, 46).
edge(112, 129).
edge(10, 34).
edge(75, 129).
edge(91, 95).
edge(34, 61).
edge(32, 34).
edge(119, 129).
edge(3, 23).
edge(69, 82).
edge(41, 132).
edge(59, 61).
edge(109, 131).
edge(42, 63).
edge(48, 115).
edge(80, 93).
edge(59, 78).
edge(32, 40).
edge(19, 43).
edge(71, 106).
edge(10, 73).
edge(41, 62).
edge(31, 41).
edge(22, 48).
edge(29, 52).
edge(29, 103).
edge(11, 46).
edge(86, 102).
edge(45, 62).
edge(99, 114).
edge(45, 108).
edge(8, 15).
edge(46, 76).
edge(31, 97).
edge(39, 100).
edge(48, 72).
edge(29, 68).
edge(31, 40).
edge(85, 119).
edge(51, 73).
edge(34, 113).
edge(100, 104).
edge(18, 111).
edge(22, 92).
edge(64, 90).
edge(47, 102).
edge(41, 52).
edge(101, 129).
edge(20, 67).
edge(26, 79).
edge(92, 103).
edge(11, 114).
edge(79, 124).
edge(111, 131).
edge(117, 132).
edge(80, 95).
edge(18, 31).
edge(11, 129).
edge(25, 41).
edge(26, 117).
edge(52, 56).
edge(24, 34).
edge(64, 101).
edge(69, 120).
edge(6, 9).
edge(12, 132).
edge(22, 39).
edge(43, 105).
edge(60, 100).
edge(90, 93).
edge(25, 67).
edge(28, 117).
edge(1, 84).
edge(58, 65).
edge(84, 98).
edge(62, 127).
edge(52, 73).
edge(28, 118).
edge(21, 73).
edge(34, 107).
edge(93, 128).
edge(65, 80).
edge(48, 131).
edge(111, 123).
edge(30, 31).
edge(0, 65).
edge(22, 78).
edge(17, 129).
edge(76, 92).
edge(40, 135).
edge(11, 15).
edge(15, 61).
edge(92, 104).
edge(87, 99).
edge(7, 28).
edge(48, 132).
edge(48, 88).
edge(101, 118).
edge(121, 134).
edge(49, 106).
edge(107, 123).
edge(45, 120).
edge(16, 100).
edge(36, 128).
edge(25, 83).
edge(82, 120).
edge(4, 23).
edge(31, 58).
edge(10, 63).
edge(54, 122).
edge(92, 99).
edge(0, 4).
edge(35, 113).
edge(44, 134).
edge(45, 68).
edge(21, 104).
edge(26, 86).
edge(44, 112).
edge(100, 120).
edge(13, 19).
edge(16, 65).
edge(92, 111).
edge(7, 26).
edge(67, 105).
edge(112, 116).
edge(13, 47).
edge(21, 36).
edge(80, 113).
edge(7, 12).
edge(36, 114).
edge(3, 37).
edge(39, 101).
edge(40, 53).
edge(82, 93).
edge(99, 121).
edge(13, 64).
edge(92, 127).
edge(75, 79).
edge(67, 97).
edge(29, 88).
edge(62, 113).
edge(56, 93).
edge(56, 70).
edge(0, 127).
edge(36, 99).
edge(33, 131).
edge(88, 129).
edge(7, 129).
edge(91, 119).
edge(47, 89).
edge(1, 77).
edge(114, 122).
edge(25, 30).
edge(20, 25).
edge(1, 120).
edge(1, 38).
edge(4, 98).
edge(18, 119).
edge(67, 104).
edge(109, 126).
edge(78, 108).
edge(73, 125).
edge(12, 83).
edge(46, 75).
edge(2, 94).
edge(34, 117).
edge(56, 119).
edge(111, 122).
edge(5, 97).
edge(40, 127).
edge(17, 23).
edge(57, 105).
edge(130, 132).
edge(107, 120).
edge(119, 121).
edge(85, 132).
edge(92, 95).
edge(98, 116).
edge(29, 30).
edge(103, 115).
edge(36, 110).
edge(40, 110).
edge(77, 83).
edge(27, 58).
edge(90, 133).
edge(56, 111).
edge(25, 33).
edge(7, 135).
edge(76, 133).
edge(2, 9).
edge(107, 127).
edge(116, 133).
edge(49, 95).
edge(26, 54).
edge(24, 58).
edge(0, 6).
edge(19, 87).
edge(61, 95).
edge(31, 104).
edge(81, 89).
edge(74, 82).
edge(16, 30).
edge(46, 108).
edge(15, 110).
edge(22, 89).
edge(10, 129).
edge(3, 83).
edge(10, 32).
edge(5, 29).
edge(95, 130).
edge(8, 84).
edge(0, 93).
edge(77, 131).
edge(3, 74).
edge(21, 98).
edge(13, 84).
edge(51, 112).
edge(92, 96).
edge(2, 63).
edge(9, 56).
edge(46, 87).
edge(51, 99).
edge(71, 110).
edge(34, 109).
edge(9, 30).
edge(68, 77).
edge(55, 111).
edge(1, 92).
edge(20, 130).
edge(1, 2).
edge(71, 112).
edge(34, 126).
edge(26, 127).
edge(27, 95).
edge(93, 107).
edge(51, 102).
edge(50, 88).
edge(90, 125).
edge(19, 83).
edge(22, 76).
edge(54, 85).
edge(117, 135).
edge(25, 51).
edge(24, 66).
edge(35, 118).
edge(55, 123).
edge(34, 50).
edge(75, 123).
edge(12, 37).
edge(75, 108).
edge(62, 114).
edge(81, 86).
edge(57, 109).
edge(110, 116).
edge(9, 102).
edge(3, 110).
edge(111, 135).
edge(26, 42).
edge(0, 92).
edge(89, 104).
edge(43, 115).
edge(87, 126).
edge(19, 28).
edge(20, 101).
edge(9, 80).
edge(2, 78).
edge(36, 63).
edge(40, 82).
edge(84, 121).
edge(98, 113).
edge(24, 127).
edge(2, 22).
edge(80, 116).
edge(85, 133).
edge(51, 72).
edge(23, 107).
edge(89, 100).
edge(3, 101).
edge(85, 108).
edge(39, 95).
edge(19, 105).
edge(51, 82).
edge(14, 118).
edge(27, 40).
edge(98, 108).
edge(41, 110).
edge(108, 135).
edge(8, 69).
edge(103, 106).
edge(25, 27).
edge(18, 53).
edge(114, 125).
edge(94, 101).
edge(10, 135).
edge(103, 105).
edge(80, 91).
edge(114, 126).
edge(50, 118).
edge(53, 61).
edge(89, 111).
edge(50, 95).
edge(3, 92).
edge(8, 42).
edge(8, 41).
edge(44, 102).
edge(53, 108).
edge(28, 96).
edge(6, 77).
edge(48, 82).
edge(10, 70).
edge(58, 102).
edge(20, 133).
edge(26, 89).
edge(38, 67).
edge(54, 59).
edge(31, 87).
edge(22, 97).
edge(57, 130).
edge(53, 85).
edge(9, 10).
edge(13, 113).
edge(44, 46).
edge(47, 67).
edge(41, 125).
edge(31, 126).
edge(30, 98).
edge(115, 135).
edge(27, 29).
edge(24, 41).
edge(28, 132).
edge(3, 75).
edge(18, 29).
edge(113, 121).
edge(7, 44).
edge(64, 129).
edge(59, 123).
edge(25, 65).
edge(33, 74).
edge(54, 119).
edge(30, 114).
edge(36, 120).
edge(43, 54).
edge(7, 95).
edge(14, 47).
edge(21, 106).
edge(51, 98).
edge(51, 111).
edge(13, 71).
edge(80, 96).
edge(3, 59).
edge(37, 55).
edge(36, 66).
edge(83, 109).
edge(87, 98).
edge(16, 114).
edge(17, 56).
edge(23, 109).
edge(92, 134).
edge(24, 36).
edge(53, 113).
edge(37, 122).
edge(35, 133).
edge(43, 72).
edge(61, 82).
edge(91, 120).
edge(77, 120).
edge(78, 88).
edge(34, 51).
edge(38, 80).
edge(28, 75).
edge(2, 56).
edge(3, 103).
edge(70, 116).
edge(2, 48).
edge(96, 117).
edge(27, 93).
edge(99, 105).
edge(63, 71).
edge(122, 133).
edge(52, 64).
edge(88, 131).
edge(83, 118).
edge(29, 128).
edge(99, 128).
edge(51, 106).
edge(8, 49).
edge(5, 69).
edge(56, 63).
edge(7, 15).
edge(37, 70).
edge(69, 124).
edge(131, 135).
edge(82, 117).
edge(51, 62).
edge(69, 77).
edge(1, 9).
edge(5, 8).
edge(29, 43).
edge(5, 74).
edge(2, 16).
edge(37, 91).
edge(15, 51).
edge(5, 35).
edge(4, 70).
edge(8, 101).
edge(2, 68).
edge(44, 65).
edge(68, 132).
edge(44, 113).
edge(59, 89).
edge(100, 119).
edge(56, 121).
edge(33, 89).
edge(86, 122).
edge(19, 115).
edge(42, 79).
edge(41, 63).
edge(9, 120).
edge(65, 111).
edge(3, 117).
edge(37, 39).
edge(10, 134).
edge(115, 134).
edge(109, 112).
edge(51, 115).
edge(108, 110).
edge(50, 52).
edge(87, 110).
edge(63, 81).
edge(40, 61).
edge(90, 109).
edge(62, 126).
edge(62, 125).
edge(59, 108).
edge(2, 24).
edge(42, 108).
edge(66, 72).
edge(35, 116).
edge(46, 96).
edge(52, 117).
edge(91, 96).
edge(36, 74).
edge(0, 103).
edge(62, 77).
edge(33, 57).
edge(25, 68).
edge(58, 80).
edge(34, 36).
edge(3, 4).
edge(65, 101).
edge(11, 14).
edge(2, 89).
edge(34, 85).
edge(72, 101).
edge(53, 83).
edge(22, 90).
edge(24, 133).
edge(6, 113).
edge(66, 92).
edge(6, 70).
edge(4, 135).
edge(67, 91).
edge(93, 116).
edge(72, 78).
edge(36, 87).
edge(65, 78).
edge(50, 113).
edge(44, 126).
edge(33, 39).
edge(44, 96).
edge(42, 55).
edge(46, 54).
edge(59, 62).
edge(21, 117).
edge(22, 102).
edge(29, 36).
edge(52, 55).
edge(4, 128).
edge(80, 99).
edge(47, 74).
edge(89, 119).
edge(119, 126).
edge(1, 53).
edge(110, 124).
edge(30, 122).
edge(65, 105).
edge(41, 49).
edge(17, 19).
edge(57, 115).
edge(56, 57).
edge(1, 3).
edge(11, 134).
edge(22, 127).
edge(88, 116).
edge(42, 52).
edge(72, 135).
edge(0, 37).
edge(10, 120).
edge(50, 63).
edge(11, 103).
edge(78, 99).
edge(8, 118).
edge(11, 61).
edge(104, 116).
edge(8, 47).
edge(62, 89).
edge(34, 71).
edge(22, 61).
edge(27, 60).
edge(52, 103).
edge(43, 46).
edge(60, 134).
edge(72, 102).
edge(28, 37).
edge(43, 79).
edge(2, 103).
edge(40, 111).
edge(116, 129).
edge(34, 92).
edge(11, 102).
edge(114, 133).
edge(74, 87).
edge(47, 90).
edge(26, 111).
edge(25, 87).
edge(64, 81).
edge(27, 89).
edge(35, 90).
edge(47, 92).
edge(0, 123).
edge(7, 81).
edge(3, 118).
edge(43, 84).
edge(14, 115).
edge(41, 120).
edge(3, 68).
edge(56, 123).
edge(19, 72).
edge(13, 90).
edge(34, 131).
edge(18, 133).
edge(104, 121).
edge(4, 117).
edge(44, 87).
edge(72, 100).
edge(84, 93).
edge(30, 85).
edge(7, 11).
edge(39, 98).
edge(55, 70).
edge(15, 37).
edge(78, 90).
edge(32, 124).
edge(44, 89).
edge(16, 37).
edge(14, 59).
edge(67, 96).
edge(26, 115).
edge(68, 98).
edge(48, 134).
edge(18, 75).
edge(51, 121).
edge(9, 12).
edge(1, 90).
edge(3, 32).
edge(29, 51).
edge(10, 85).
edge(84, 111).
edge(21, 27).
edge(46, 112).
edge(2, 120).
edge(88, 111).
edge(12, 88).
edge(4, 88).
edge(42, 59).
edge(122, 135).
edge(11, 121).
edge(2, 25).
edge(46, 109).
edge(41, 100).
edge(14, 29).
edge(45, 85).
edge(52, 61).
edge(19, 50).
edge(20, 61).
edge(25, 107).
edge(43, 44).
edge(124, 135).
edge(47, 124).
edge(29, 91).
edge(14, 93).
edge(6, 60).
edge(57, 120).
edge(34, 79).
edge(31, 48).
edge(61, 117).
edge(40, 113).
edge(4, 22).
edge(36, 54).
edge(21, 102).
edge(51, 58).
edge(5, 107).
edge(29, 80).
edge(104, 135).
edge(74, 88).
edge(28, 94).
edge(73, 131).
edge(3, 42).
edge(78, 85).
edge(44, 124).
edge(68, 113).
edge(109, 114).
edge(88, 99).
edge(89, 134).
edge(88, 104).
edge(92, 132).
edge(41, 102).
edge(14, 106).
edge(16, 64).
edge(19, 117).
edge(110, 130).
edge(52, 98).
edge(67, 108).
edge(94, 134).
edge(76, 91).
edge(26, 35).
edge(13, 56).
edge(62, 82).
edge(23, 65).
edge(1, 105).
edge(58, 120).
edge(26, 83).
edge(71, 89).
edge(1, 58).
edge(59, 102).
edge(36, 60).
edge(44, 73).
edge(85, 91).
edge(72, 133).
edge(22, 37).
edge(47, 116).
edge(34, 57).
edge(0, 7).
edge(66, 122).
edge(76, 107).
edge(9, 103).
edge(12, 61).
edge(31, 33).
edge(53, 77).
edge(52, 66).
edge(88, 127).
edge(78, 124).
edge(70, 86).
edge(13, 53).
edge(0, 16).
edge(20, 123).
edge(33, 128).
edge(24, 134).
edge(28, 57).
edge(30, 132).
edge(27, 90).
edge(82, 85).
edge(97, 120).
edge(49, 75).
edge(77, 112).
edge(19, 39).
edge(2, 3).
edge(8, 72).
edge(58, 87).
edge(26, 74).
edge(39, 103).
edge(47, 56).
edge(5, 99).
edge(17, 103).
edge(61, 80).
edge(0, 61).
edge(5, 80).
edge(50, 67).
edge(16, 103).
edge(58, 119).
edge(27, 56).
edge(87, 129).
edge(26, 132).
edge(27, 52).
edge(54, 70).
edge(28, 72).
edge(25, 133).
edge(42, 117).
edge(90, 121).
edge(21, 70).
edge(85, 112).
edge(10, 111).
edge(51, 110).
edge(62, 63).
edge(8, 90).
edge(56, 120).
edge(17, 31).
edge(30, 84).
edge(64, 132).
edge(113, 128).
edge(67, 133).
edge(24, 65).
edge(68, 101).
edge(19, 48).
edge(20, 43).
edge(42, 112).
edge(71, 88).
edge(4, 46).
edge(40, 95).
edge(55, 130).
edge(106, 118).
edge(89, 115).
edge(114, 124).
edge(27, 120).
edge(26, 80).
edge(106, 111).
edge(1, 64).
edge(106, 131).
edge(117, 128).
edge(56, 124).
edge(68, 120).
edge(6, 87).
edge(77, 93).
edge(29, 46).
edge(34, 130).
edge(4, 122).
edge(71, 104).
edge(17, 35).
edge(33, 116).
edge(3, 29).
edge(83, 129).
edge(43, 117).
edge(14, 21).
edge(40, 109).
edge(94, 125).
edge(93, 96).
edge(84, 89).
edge(15, 122).
edge(19, 41).
edge(9, 84).
edge(38, 55).
edge(56, 79).
edge(53, 102).
edge(16, 62).
edge(30, 118).
edge(18, 129).
edge(75, 109).
edge(5, 87).
edge(15, 107).
edge(35, 55).
edge(100, 126).
edge(22, 59).
edge(98, 101).
edge(58, 90).
edge(40, 123).
edge(74, 79).
edge(21, 54).
edge(42, 68).
edge(51, 128).
edge(60, 64).
edge(3, 57).
edge(56, 78).
edge(46, 133).
edge(0, 101).
edge(31, 77).
edge(40, 85).
edge(31, 46).
edge(22, 105).
edge(92, 130).
edge(6, 79).
edge(49, 132).
edge(18, 97).
edge(14, 110).
edge(45, 96).
edge(39, 42).
edge(51, 116).
edge(81, 110).
edge(64, 76).
edge(66, 78).
edge(35, 62).
edge(68, 81).
edge(120, 129).
edge(11, 111).
edge(33, 78).
edge(59, 99).
edge(14, 86).
edge(5, 70).
edge(105, 130).
edge(14, 105).
edge(41, 119).
edge(20, 92).
edge(1, 17).
edge(90, 112).
edge(14, 40).
edge(104, 126).
edge(56, 117).
edge(4, 9).
edge(71, 107).
edge(9, 22).
edge(66, 68).
edge(71, 124).
edge(83, 103).
edge(49, 56).
edge(62, 90).
edge(44, 64).
edge(35, 101).
edge(58, 112).
edge(40, 54).
edge(20, 116).
edge(75, 89).
edge(16, 83).
edge(9, 38).
edge(91, 98).
edge(44, 53).
edge(94, 116).
edge(90, 94).
edge(3, 112).
edge(39, 62).
edge(24, 69).
edge(103, 107).
edge(111, 134).
edge(9, 59).
edge(20, 100).
edge(18, 19).
edge(75, 113).
edge(5, 56).
edge(70, 92).
edge(75, 99).
edge(77, 80).
edge(37, 135).
edge(21, 44).
edge(35, 89).
edge(35, 58).
edge(27, 123).
edge(61, 124).
edge(26, 103).
edge(75, 120).
edge(1, 15).
edge(28, 124).
edge(47, 126).
edge(95, 132).
edge(42, 91).
edge(49, 93).
edge(13, 32).
edge(87, 112).
edge(79, 95).
edge(112, 117).
edge(8, 50).
edge(114, 128).
edge(38, 76).
edge(72, 96).
edge(43, 119).
edge(57, 68).
edge(12, 34).
edge(100, 116).
edge(0, 116).
edge(33, 83).
edge(26, 55).
edge(5, 26).
edge(9, 109).
edge(60, 116).
edge(5, 78).
edge(125, 128).
edge(45, 86).
edge(0, 115).
edge(64, 88).
edge(47, 85).
edge(2, 52).
edge(107, 118).
edge(96, 115).
edge(9, 79).
edge(15, 79).
edge(75, 93).
edge(87, 101).
edge(26, 120).
edge(62, 95).
edge(26, 131).
edge(90, 103).
edge(91, 115).
edge(17, 43).
edge(12, 90).
edge(8, 110).
edge(66, 91).
edge(67, 84).
edge(30, 77).
edge(36, 117).
edge(37, 123).
edge(36, 44).
edge(4, 86).
edge(59, 130).
edge(63, 108).
edge(69, 88).
edge(94, 96).
edge(27, 111).
edge(7, 63).
edge(73, 135).
edge(105, 125).
edge(104, 118).
edge(82, 123).
edge(38, 70).
edge(55, 125).
edge(33, 103).
edge(18, 47).
edge(58, 124).
edge(36, 53).
edge(2, 69).
edge(76, 120).
edge(14, 25).
edge(13, 105).
edge(23, 101).
edge(6, 112).
edge(82, 89).
edge(87, 131).
edge(73, 98).
edge(101, 130).
edge(56, 64).
edge(79, 128).
edge(48, 70).
edge(25, 73).
edge(111, 119).
edge(33, 49).
edge(79, 122).
edge(18, 122).
edge(20, 84).
edge(53, 126).
edge(16, 82).
edge(94, 119).
edge(9, 20).
edge(72, 86).
edge(64, 79).
edge(51, 125).
edge(38, 100).
edge(10, 58).
edge(18, 35).
edge(29, 58).
edge(41, 122).
edge(26, 95).
edge(125, 134).
edge(30, 79).
edge(28, 108).
edge(21, 95).
edge(95, 106).
edge(55, 102).
edge(55, 127).
edge(71, 76).
edge(9, 49).
edge(101, 108).
edge(7, 46).
edge(55, 85).
edge(64, 119).
edge(6, 59).
edge(2, 38).
edge(102, 105).
edge(4, 21).
edge(13, 106).
edge(2, 131).
edge(21, 131).
edge(81, 124).
edge(44, 135).
edge(61, 71).
edge(25, 118).
edge(74, 77).
edge(2, 106).
edge(93, 98).
edge(44, 107).
edge(22, 131).
edge(14, 95).
edge(87, 108).
edge(63, 77).
edge(27, 44).
edge(3, 27).
edge(9, 68).
edge(23, 71).
edge(11, 66).
edge(34, 111).
edge(26, 36).
edge(43, 62).
edge(115, 130).
edge(36, 97).
edge(56, 95).
edge(19, 52).
edge(43, 123).
edge(17, 58).
edge(112, 123).
edge(52, 88).
edge(106, 123).
edge(36, 100).
edge(32, 59).
edge(41, 82).
edge(11, 78).
edge(49, 61).
edge(11, 90).
edge(49, 87).
edge(32, 45).
edge(48, 113).
edge(13, 135).
edge(97, 130).
edge(40, 58).
edge(34, 37).
edge(0, 35).
edge(45, 124).
edge(88, 122).
edge(27, 49).
edge(24, 104).
edge(52, 108).
edge(11, 84).
edge(99, 111).
edge(40, 119).
edge(95, 122).
edge(35, 115).
edge(39, 126).
edge(48, 124).
edge(101, 115).
edge(49, 121).
edge(37, 125).
edge(94, 129).
edge(16, 70).
edge(96, 97).
edge(31, 54).
edge(10, 125).
edge(27, 109).
edge(81, 94).
edge(23, 47).
edge(50, 123).
edge(31, 70).
edge(110, 131).
edge(43, 101).
edge(66, 80).
edge(60, 63).
edge(0, 8).
edge(40, 59).
edge(4, 41).
edge(50, 103).
edge(99, 127).
edge(22, 66).
edge(29, 55).
edge(11, 132).
edge(19, 116).
edge(25, 81).
edge(18, 38).
edge(50, 112).
edge(45, 125).
edge(28, 51).
edge(106, 128).
edge(21, 53).
edge(72, 97).
edge(4, 27).
edge(48, 63).
edge(1, 56).
edge(68, 103).
edge(80, 118).
edge(13, 110).
edge(44, 119).
edge(2, 49).
edge(17, 80).
edge(6, 40).
edge(125, 130).
edge(19, 26).
edge(69, 72).
edge(0, 42).
edge(42, 64).
edge(73, 100).
edge(20, 47).
edge(6, 12).
edge(68, 109).
edge(71, 80).
edge(46, 106).
edge(47, 73).
edge(4, 108).
edge(103, 133).
edge(3, 24).
edge(45, 105).
edge(50, 82).
edge(22, 129).
edge(28, 115).
edge(87, 89).
edge(72, 114).
edge(10, 80).
edge(42, 123).
edge(35, 79).
edge(80, 131).
edge(73, 107).
edge(91, 92).
edge(21, 105).
edge(26, 87).
edge(20, 52).
edge(8, 112).
edge(113, 132).
edge(92, 125).
edge(35, 57).
edge(8, 55).
edge(65, 98).
edge(114, 117).
edge(77, 92).
edge(68, 91).
edge(77, 135).
edge(29, 89).
edge(17, 59).
edge(105, 123).
edge(20, 79).
edge(2, 70).
edge(20, 111).
edge(1, 97).
edge(95, 98).
edge(80, 108).
edge(15, 102).
edge(40, 80).
edge(88, 98).
edge(14, 62).
edge(121, 131).
edge(54, 133).
edge(50, 58).
edge(87, 132).
edge(14, 75).
edge(0, 51).
edge(29, 44).
edge(42, 125).
edge(57, 94).
edge(8, 25).
edge(61, 73).
edge(41, 89).
edge(6, 116).
edge(0, 75).
edge(3, 126).
edge(22, 50).
edge(50, 57).
edge(67, 90).
edge(61, 129).
edge(20, 48).
edge(68, 107).
edge(16, 59).
edge(29, 48).
edge(44, 50).
edge(41, 77).
edge(29, 74).
edge(71, 116).
edge(56, 103).
edge(88, 120).
edge(119, 134).
edge(99, 126).
edge(44, 117).
edge(6, 107).
edge(99, 130).
edge(82, 116).
edge(12, 36).
edge(70, 119).
edge(88, 107).
edge(73, 101).
edge(30, 97).
edge(35, 91).
edge(111, 125).
edge(36, 43).
edge(67, 69).
edge(89, 94).
edge(82, 103).
edge(27, 31).
edge(28, 104).
edge(76, 97).
edge(10, 53).
edge(2, 74).
edge(5, 32).
edge(9, 112).
edge(5, 34).
edge(1, 65).
edge(53, 104).
edge(107, 117).
edge(52, 86).
edge(40, 134).
edge(37, 117).
edge(5, 114).
edge(17, 30).
edge(1, 111).
edge(96, 108).
edge(107, 134).
edge(8, 65).
edge(15, 133).
edge(37, 130).
edge(14, 128).
edge(21, 133).
edge(85, 96).
edge(23, 55).
edge(5, 55).
edge(4, 34).
edge(38, 68).
edge(73, 112).
edge(15, 106).
edge(125, 131).
edge(67, 71).
edge(15, 64).
edge(19, 88).
edge(64, 107).
edge(15, 49).
edge(17, 95).
edge(4, 73).
edge(10, 14).
edge(59, 109).
edge(56, 91).
edge(47, 59).
edge(62, 97).
edge(22, 72).
edge(30, 70).
edge(36, 52).
edge(7, 62).
edge(54, 92).
edge(12, 113).
edge(15, 99).
edge(13, 68).
edge(40, 89).
edge(12, 102).
edge(2, 110).
edge(24, 37).
edge(1, 119).
edge(54, 67).
edge(18, 48).
edge(101, 119).
edge(80, 120).
edge(54, 100).
edge(83, 87).
edge(38, 86).
edge(120, 131).
edge(84, 94).
edge(22, 33).
edge(21, 35).
edge(2, 14).
edge(11, 108).
edge(125, 135).
edge(35, 46).
edge(26, 51).
edge(99, 106).
edge(60, 104).
edge(0, 95).
edge(18, 72).
edge(45, 59).
edge(33, 65).
edge(51, 97).
edge(18, 130).
edge(82, 115).
edge(42, 82).
edge(70, 83).
edge(78, 107).
edge(7, 48).
edge(6, 92).
edge(49, 89).
edge(23, 32).
edge(14, 102).
edge(104, 105).
edge(45, 57).
edge(64, 97).
edge(95, 123).
edge(108, 132).
edge(23, 64).
edge(3, 22).
edge(8, 104).
edge(30, 130).
edge(22, 32).
edge(11, 124).
edge(75, 87).
edge(76, 121).
edge(63, 113).
edge(34, 70).
edge(53, 123).
edge(27, 67).
edge(16, 69).
edge(13, 55).
edge(85, 89).
edge(50, 90).
edge(1, 57).
edge(9, 116).
edge(27, 105).
edge(84, 126).
edge(99, 133).
edge(25, 64).
edge(74, 132).
edge(11, 80).
edge(85, 107).
edge(57, 98).
edge(19, 102).
edge(88, 133).
edge(47, 68).
edge(6, 50).
edge(16, 27).
edge(103, 128).
edge(30, 109).
edge(49, 51).
edge(1, 8).
edge(40, 45).
edge(5, 129).
edge(26, 130).
edge(6, 19).
edge(1, 116).
edge(33, 118).
edge(28, 109).
edge(114, 135).
edge(35, 88).
edge(53, 110).
edge(16, 34).
edge(2, 117).
edge(58, 91).
edge(35, 121).
edge(72, 132).
edge(4, 103).
edge(116, 130).
edge(28, 121).
edge(91, 112).
edge(43, 57).
edge(85, 100).
edge(20, 120).
edge(15, 26).
edge(49, 94).
edge(13, 37).
edge(37, 62).
edge(75, 92).
edge(0, 14).
edge(95, 127).
edge(37, 127).
edge(5, 17).
edge(46, 102).
edge(88, 128).
edge(2, 135).
edge(22, 118).
edge(93, 129).
edge(42, 104).
edge(31, 55).
edge(37, 81).
edge(4, 43).
edge(73, 121).
edge(50, 77).
edge(94, 126).
edge(109, 113).
edge(32, 123).
edge(34, 44).
edge(9, 16).
edge(6, 20).
edge(35, 84).
edge(66, 117).
edge(27, 63).
edge(26, 91).
edge(37, 107).
edge(12, 65).
edge(68, 94).
edge(26, 100).
edge(39, 115).
edge(86, 128).
edge(54, 58).
edge(4, 39).
edge(60, 81).
edge(52, 58).
edge(6, 88).
edge(49, 98).
edge(3, 97).
edge(16, 90).
edge(124, 127).
edge(30, 40).
edge(7, 133).
edge(34, 123).
edge(28, 74).
edge(40, 52).
edge(8, 70).
edge(24, 71).
edge(1, 76).
edge(54, 106).
edge(110, 114).
edge(71, 113).
edge(82, 100).
edge(54, 113).
edge(13, 125).
edge(37, 58).
edge(7, 59).
edge(107, 129).
edge(74, 112).
edge(10, 72).
edge(11, 53).
edge(58, 79).
edge(52, 106).
edge(25, 61).
edge(127, 130).
edge(21, 46).
edge(14, 31).
edge(23, 33).
edge(119, 130).
edge(63, 124).
edge(76, 105).
edge(8, 62).
edge(20, 49).
edge(45, 61).
edge(67, 77).
edge(48, 104).
edge(54, 78).
edge(24, 56).
edge(82, 110).
edge(17, 51).
edge(57, 61).
edge(32, 130).
edge(19, 53).
edge(23, 102).
edge(6, 93).
edge(101, 128).
edge(85, 124).
edge(76, 96).
edge(9, 108).
edge(54, 135).
edge(105, 131).
edge(12, 53).
edge(50, 86).
edge(23, 34).
edge(19, 20).
edge(33, 58).
edge(7, 52).
edge(14, 125).
edge(31, 135).
edge(7, 49).
edge(38, 129).
edge(37, 64).
edge(7, 76).
edge(42, 58).
edge(69, 98).
edge(86, 97).
edge(19, 23).
edge(15, 75).
edge(18, 36).
edge(97, 119).
edge(13, 46).
edge(7, 97).
edge(67, 109).
edge(68, 121).
edge(55, 56).
edge(0, 86).
edge(76, 90).
edge(0, 84).
edge(34, 67).
edge(23, 133).
edge(102, 118).
edge(13, 44).
edge(30, 92).
edge(79, 113).
edge(50, 94).
edge(53, 71).
edge(114, 130).
edge(7, 116).
edge(10, 65).
edge(52, 120).
edge(17, 97).
edge(78, 101).
edge(19, 55).
edge(18, 55).
edge(23, 52).
edge(108, 134).
edge(17, 107).
edge(21, 113).
edge(14, 41).
edge(53, 55).
edge(42, 53).
edge(68, 100).
edge(89, 120).
edge(8, 21).
edge(78, 114).
edge(80, 90).
edge(87, 106).
edge(58, 128).
edge(110, 122).
edge(41, 135).
edge(33, 110).
edge(105, 108).
edge(73, 102).
edge(26, 118).
edge(124, 125).
edge(20, 57).
edge(53, 63).
edge(60, 101).
edge(23, 124).
edge(13, 93).
edge(57, 99).
edge(7, 57).
edge(31, 65).
edge(50, 68).
edge(30, 102).
edge(22, 133).
edge(46, 62).
edge(42, 50).
edge(30, 61).
edge(54, 74).
edge(123, 135).
edge(51, 109).
edge(43, 103).
edge(66, 111).
edge(48, 68).
edge(38, 104).
edge(38, 81).
edge(96, 106).
edge(72, 75).
edge(81, 84).
edge(25, 94).
edge(34, 121).
edge(0, 22).
edge(108, 119).
edge(21, 126).
edge(72, 117).
edge(92, 98).
edge(34, 129).
edge(5, 132).
edge(64, 113).
edge(70, 108).
edge(18, 96).
edge(45, 82).
edge(53, 131).
edge(6, 104).
edge(92, 108).
edge(18, 46).
edge(64, 100).
edge(64, 82).
edge(10, 107).
edge(75, 133).
edge(5, 27).
edge(11, 38).
edge(59, 115).
edge(30, 44).
edge(31, 100).
edge(107, 113).
edge(39, 47).
edge(75, 107).
edge(55, 66).
edge(45, 51).
edge(78, 128).
edge(33, 111).
edge(91, 113).
edge(32, 72).
edge(0, 109).
edge(63, 128).
edge(76, 123).
edge(32, 39).
edge(11, 73).
edge(58, 96).
edge(61, 97).
edge(67, 115).
edge(83, 125).
edge(42, 93).
edge(6, 119).
edge(19, 33).
edge(82, 126).
edge(27, 99).
edge(14, 69).
edge(73, 115).
edge(23, 120).
edge(43, 135).
edge(18, 34).
edge(58, 81).
edge(25, 84).
edge(64, 121).
edge(56, 86).
edge(96, 135).
edge(67, 82).
edge(9, 46).
edge(117, 126).
edge(103, 129).
edge(6, 106).
edge(3, 17).
edge(6, 100).
edge(53, 84).
edge(28, 84).
edge(17, 64).
edge(14, 74).
edge(12, 129).
edge(40, 47).
edge(8, 67).
edge(3, 36).
edge(16, 26).
edge(92, 114).
edge(23, 98).
edge(66, 82).
edge(56, 71).
edge(16, 43).
edge(41, 98).
edge(13, 60).
edge(70, 111).
edge(64, 85).
edge(59, 97).
edge(0, 96).
edge(14, 97).
edge(8, 106).
edge(23, 85).
edge(38, 52).
edge(79, 129).
edge(71, 128).
edge(14, 32).
edge(17, 100).
edge(86, 115).
edge(23, 117).
edge(43, 125).
edge(18, 22).
edge(55, 132).
edge(94, 115).
edge(125, 132).
edge(29, 45).
edge(112, 121).
edge(39, 134).
edge(72, 129).
edge(30, 124).
edge(113, 135).
edge(18, 93).
edge(3, 82).
edge(39, 81).
edge(30, 43).
edge(7, 35).
edge(5, 30).
edge(13, 50).
edge(67, 87).
edge(33, 41).
edge(77, 130).
edge(64, 74).
edge(73, 105).
edge(78, 82).
edge(12, 67).
edge(85, 106).
edge(43, 107).
edge(92, 93).
edge(114, 131).
edge(11, 45).
edge(55, 99).
edge(36, 75).
edge(9, 11).
edge(48, 75).
edge(105, 126).
edge(96, 128).
edge(35, 45).
edge(81, 128).
edge(81, 101).
edge(90, 111).
edge(3, 120).
edge(5, 90).
edge(98, 119).
edge(61, 115).
edge(17, 41).
edge(64, 102).
edge(80, 121).
edge(49, 128).
edge(9, 64).
edge(35, 117).
edge(70, 99).
edge(21, 55).
edge(20, 78).
edge(29, 65).
edge(70, 118).
edge(74, 94).
edge(12, 133).
edge(69, 78).
edge(23, 74).
edge(48, 100).
edge(52, 76).
edge(28, 91).
edge(52, 80).
edge(2, 64).
edge(85, 120).
edge(97, 123).
edge(3, 102).
edge(16, 24).
edge(59, 72).
edge(106, 127).
edge(114, 118).
edge(20, 128).
edge(23, 112).
edge(1, 106).
edge(34, 73).
edge(0, 135).
edge(66, 131).
edge(45, 128).
edge(15, 98).
edge(102, 125).
edge(113, 118).
edge(7, 80).
edge(118, 134).
edge(55, 91).
edge(41, 91).
edge(49, 59).
edge(46, 92).
edge(104, 127).
edge(88, 102).
edge(116, 134).
edge(59, 106).
edge(45, 76).
edge(17, 90).
edge(55, 63).
edge(15, 39).
edge(31, 119).
edge(79, 100).
edge(13, 33).
edge(117, 129).
edge(4, 127).
edge(40, 51).
edge(73, 88).
edge(13, 131).
edge(105, 118).
edge(8, 80).
edge(11, 96).
edge(4, 62).
edge(6, 25).
edge(37, 121).
edge(80, 125).
edge(25, 119).
edge(19, 107).
edge(60, 86).
edge(102, 128).
edge(124, 128).
edge(71, 95).
edge(24, 70).
edge(5, 131).
edge(62, 129).
edge(20, 35).
edge(15, 56).
edge(61, 116).
edge(20, 76).
edge(12, 71).
edge(1, 40).
edge(60, 112).
edge(72, 74).
edge(83, 127).
edge(108, 131).
edge(24, 55).
edge(60, 103).
edge(16, 63).
edge(48, 133).
edge(54, 131).
edge(66, 76).
edge(107, 109).
edge(44, 131).
edge(23, 95).
edge(89, 90).
edge(29, 47).
edge(37, 128).
edge(26, 102).
edge(49, 105).
edge(43, 120).
edge(21, 110).
edge(82, 94).
edge(16, 108).
edge(40, 83).
edge(11, 106).
edge(47, 82).
edge(69, 107).
edge(60, 126).
edge(10, 28).
edge(63, 72).
edge(32, 114).
edge(113, 127).
edge(5, 47).
edge(9, 51).
edge(2, 114).
edge(38, 108).
edge(24, 53).
edge(51, 113).
edge(39, 72).
edge(71, 129).
edge(39, 117).
edge(70, 94).
edge(56, 118).
edge(37, 47).
edge(34, 49).
edge(54, 79).
edge(61, 90).
edge(91, 133).
edge(25, 40).
edge(52, 97).
edge(31, 34).
edge(7, 72).
edge(103, 119).
edge(52, 115).
edge(67, 119).
edge(27, 51).
edge(61, 96).
edge(78, 96).
edge(31, 118).
edge(57, 131).
edge(27, 84).
edge(73, 81).
edge(37, 80).
edge(93, 125).
edge(24, 62).
edge(9, 115).
edge(83, 96).
edge(39, 71).
edge(62, 98).
edge(9, 81).
edge(29, 125).
edge(4, 15).
edge(19, 131).
edge(78, 87).
edge(19, 100).
edge(77, 100).
edge(36, 134).
edge(48, 114).
edge(29, 54).
edge(5, 135).
edge(85, 101).
edge(16, 131).
edge(105, 115).
edge(68, 130).
edge(23, 129).
edge(53, 120).
edge(27, 30).
edge(46, 51).
edge(39, 131).
edge(4, 58).
edge(48, 116).
edge(20, 88).
edge(15, 84).
edge(91, 130).
edge(81, 117).
edge(24, 46).
edge(47, 58).
edge(12, 81).
edge(22, 56).
edge(57, 126).
edge(19, 73).
edge(51, 122).
edge(42, 75).
edge(46, 85).
edge(1, 31).
edge(19, 82).
edge(106, 122).
edge(25, 114).
edge(89, 129).
edge(7, 83).
edge(85, 97).
edge(66, 125).
edge(67, 132).
edge(24, 98).
edge(30, 58).
edge(27, 47).
edge(38, 78).
edge(31, 63).
edge(27, 85).
edge(41, 65).
edge(44, 122).
edge(34, 39).
edge(66, 104).
edge(39, 58).
edge(74, 113).
edge(10, 51).
edge(57, 122).
edge(19, 71).
edge(75, 130).
edge(50, 105).
edge(53, 92).
edge(99, 118).
edge(70, 132).
edge(20, 132).
edge(8, 73).
edge(19, 121).
edge(54, 57).
edge(74, 133).
edge(32, 43).
edge(54, 105).
edge(36, 69).
edge(68, 82).
edge(24, 102).
edge(41, 59).
edge(15, 40).
edge(101, 131).
edge(67, 118).
edge(62, 115).
edge(3, 31).
edge(18, 60).
edge(31, 64).
edge(25, 108).
edge(94, 99).
edge(54, 90).
edge(17, 72).
edge(103, 126).
edge(96, 116).
edge(22, 52).
edge(24, 47).
edge(1, 128).
edge(126, 133).
edge(48, 118).
edge(44, 81).
edge(16, 49).
edge(78, 84).
edge(15, 125).
edge(4, 84).
edge(14, 72).
edge(78, 126).
edge(32, 106).
edge(25, 69).
edge(20, 26).
edge(3, 124).
edge(27, 64).
edge(84, 124).
edge(14, 104).
edge(25, 127).
edge(12, 94).
edge(90, 117).
edge(6, 58).
edge(19, 67).
edge(25, 44).
edge(9, 45).
edge(94, 97).
edge(103, 116).
edge(25, 115).
edge(25, 32).
edge(56, 77).
edge(1, 83).
edge(79, 125).
edge(23, 39).
edge(25, 53).
edge(18, 120).
edge(17, 101).
edge(69, 119).
edge(62, 112).
edge(1, 113).
edge(62, 103).
edge(80, 133).
edge(84, 104).
edge(3, 128).
edge(9, 55).
edge(43, 58).
edge(8, 82).
edge(33, 109).
edge(31, 101).
edge(74, 134).
edge(82, 88).
edge(69, 81).
edge(64, 130).
edge(66, 134).
edge(0, 64).
edge(51, 71).
edge(4, 133).
edge(105, 117).
edge(90, 131).
edge(20, 23).
edge(112, 124).
edge(31, 35).
edge(13, 128).
edge(32, 81).
edge(95, 115).
edge(25, 90).
edge(4, 25).
edge(1, 30).
edge(42, 135).
edge(40, 76).
edge(17, 71).
edge(4, 40).
edge(33, 85).
edge(44, 71).
edge(24, 125).
edge(117, 118).
edge(58, 71).
edge(18, 61).
edge(46, 71).
edge(76, 135).
edge(8, 68).
edge(65, 114).
edge(63, 98).
edge(38, 61).
edge(22, 114).
edge(33, 38).
edge(93, 132).
edge(12, 104).
edge(2, 134).
edge(16, 52).
edge(51, 107).
edge(17, 126).
edge(8, 127).
edge(50, 119).
edge(64, 65).
edge(18, 54).
edge(97, 99).
edge(34, 95).
edge(38, 116).
edge(38, 92).
edge(79, 96).
edge(10, 62).
edge(21, 94).
edge(68, 85).
edge(63, 93).
edge(84, 92).
edge(12, 75).
edge(32, 97).
edge(22, 55).
edge(45, 126).
edge(71, 102).
edge(79, 87).
edge(5, 62).
edge(71, 101).
edge(34, 41).
edge(56, 127).
edge(72, 105).
edge(56, 96).
edge(13, 65).
edge(47, 104).
edge(38, 99).
edge(15, 104).
edge(67, 80).
edge(32, 53).
edge(10, 132).
edge(94, 106).
edge(2, 111).
edge(67, 75).
edge(12, 115).
edge(50, 124).
edge(59, 128).
edge(81, 113).
edge(78, 86).
edge(109, 128).
edge(7, 124).
edge(71, 77).
edge(25, 54).
edge(69, 84).
edge(16, 98).
edge(7, 34).
edge(0, 77).
edge(77, 84).
edge(60, 105).
edge(70, 75).
edge(34, 58).
edge(97, 114).
edge(0, 106).
edge(54, 62).
edge(19, 60).
edge(8, 51).
edge(14, 23).
edge(89, 130).
edge(60, 76).
edge(67, 70).
edge(1, 7).
edge(4, 125).
edge(75, 117).
edge(11, 28).
edge(69, 85).
edge(71, 84).
edge(70, 121).
edge(20, 83).
edge(7, 99).
edge(34, 127).
edge(27, 45).
edge(36, 113).
edge(10, 104).
edge(17, 46).
edge(15, 47).
edge(9, 48).
edge(68, 97).
edge(11, 94).
edge(56, 101).
edge(61, 87).
edge(81, 123).
edge(124, 131).
edge(0, 126).
edge(31, 83).
edge(49, 125).
edge(68, 71).
edge(65, 130).
edge(62, 123).
edge(90, 130).
edge(15, 120).
edge(30, 46).
edge(102, 107).
edge(62, 93).
edge(24, 124).
edge(53, 95).
edge(23, 82).
edge(79, 116).
edge(64, 116).
edge(72, 108).
edge(81, 111).
edge(17, 96).
edge(58, 77).
edge(36, 64).
edge(57, 108).
edge(31, 39).
edge(13, 67).
edge(14, 15).
edge(74, 93).
edge(81, 104).
edge(12, 107).
edge(55, 115).
edge(51, 135).
edge(60, 99).
edge(39, 133).
edge(96, 102).
edge(9, 105).
edge(30, 86).
edge(27, 106).
edge(33, 60).
edge(29, 71).
edge(23, 116).
edge(6, 72).
edge(41, 47).
edge(6, 63).
edge(72, 104).
edge(75, 84).
edge(65, 103).
edge(49, 117).
edge(30, 57).
edge(60, 68).
edge(30, 135).
edge(59, 74).
edge(45, 122).
edge(1, 14).
edge(16, 74).
edge(111, 120).
edge(85, 121).
edge(80, 87).
edge(2, 61).
edge(37, 67).
edge(34, 116).
edge(60, 78).
edge(17, 76).
edge(12, 25).
edge(95, 108).
edge(88, 105).
edge(42, 77).
edge(26, 72).
edge(7, 110).
edge(49, 65).
edge(43, 87).
edge(7, 45).
edge(30, 34).
edge(21, 74).
edge(102, 124).
edge(87, 104).
edge(80, 117).
edge(36, 72).
edge(52, 94).
edge(14, 30).
edge(23, 110).
edge(82, 90).
edge(0, 60).
edge(2, 26).
edge(5, 112).
edge(83, 123).
edge(10, 40).
edge(16, 122).
edge(35, 114).
edge(7, 21).
edge(18, 121).
edge(78, 112).
edge(39, 46).
edge(69, 135).
edge(59, 131).
edge(67, 81).
edge(50, 71).
edge(109, 124).
edge(27, 78).
edge(58, 133).
edge(84, 118).
edge(37, 79).
edge(70, 110).
edge(20, 55).
edge(61, 134).
edge(35, 123).
edge(43, 85).
edge(43, 95).
edge(38, 88).
edge(86, 130).
edge(13, 52).
edge(25, 80).
edge(61, 122).
edge(18, 85).
edge(77, 110).
edge(84, 115).
edge(9, 87).
edge(22, 128).
edge(41, 99).
edge(3, 121).
edge(16, 28).
edge(4, 61).
edge(26, 29).
edge(63, 74).
edge(2, 75).
edge(20, 44).
edge(33, 56).
edge(21, 85).
edge(82, 102).
edge(74, 124).
edge(12, 22).
edge(2, 4).
edge(38, 54).
edge(26, 109).
edge(85, 123).
edge(10, 23).
edge(83, 130).
edge(12, 14).
edge(104, 128).
edge(21, 135).
edge(32, 109).
edge(96, 112).
edge(6, 108).
edge(53, 81).
edge(32, 122).
edge(38, 42).
edge(64, 98).
edge(5, 25).
edge(105, 112).
edge(66, 69).
edge(122, 129).
edge(21, 111).
edge(18, 82).
edge(10, 119).
edge(69, 108).
edge(22, 109).
edge(68, 78).
edge(55, 126).
edge(11, 88).
edge(57, 119).
edge(27, 70).
edge(65, 66).
edge(36, 90).
edge(41, 107).
edge(4, 7).
edge(63, 110).
edge(43, 91).
edge(108, 120).
edge(8, 75).
edge(24, 26).
edge(16, 41).
edge(12, 20).
edge(35, 40).
edge(3, 39).
edge(1, 25).
edge(15, 46).
edge(81, 119).
edge(4, 132).
edge(72, 73).
edge(82, 105).
edge(29, 112).
edge(102, 104).
edge(28, 103).
edge(32, 62).
edge(2, 46).
edge(35, 106).
edge(98, 128).
edge(79, 104).
edge(13, 39).
edge(84, 127).
edge(5, 12).
edge(1, 69).
edge(0, 100).
edge(33, 119).
edge(35, 110).
edge(51, 69).
edge(25, 79).
edge(45, 49).
edge(31, 93).
edge(7, 29).
edge(23, 73).
edge(9, 83).
edge(62, 96).
edge(78, 100).
edge(46, 58).
edge(5, 76).
edge(86, 104).
edge(4, 92).
edge(39, 132).
edge(16, 93).
edge(92, 107).
edge(76, 85).
edge(49, 83).
edge(89, 93).
edge(20, 97).
edge(69, 128).
edge(27, 81).
edge(34, 87).
edge(127, 129).
edge(12, 69).
edge(75, 102).
edge(1, 5).
edge(31, 91).
edge(67, 120).
edge(79, 130).
edge(25, 97).
edge(0, 111).
edge(10, 79).
edge(28, 43).
edge(73, 79).
edge(41, 43).
edge(83, 101).
edge(18, 100).
edge(45, 104).
edge(18, 101).
edge(16, 25).
edge(93, 94).
edge(21, 40).
edge(66, 70).
edge(41, 73).
edge(44, 54).
edge(55, 100).
edge(62, 72).
edge(33, 92).
edge(31, 86).
edge(35, 93).
edge(19, 30).
edge(68, 87).
edge(110, 123).
edge(99, 102).
edge(24, 101).
edge(6, 28).
edge(56, 80).
edge(2, 130).
edge(30, 104).
edge(82, 111).
edge(6, 29).
edge(95, 133).
edge(3, 65).
edge(14, 55).
edge(113, 126).
edge(129, 132).
edge(31, 90).
edge(0, 69).
edge(6, 49).
edge(21, 38).
edge(73, 127).
edge(62, 65).
edge(22, 73).
edge(15, 103).
edge(26, 119).
edge(88, 95).
edge(62, 102).
edge(19, 109).
edge(52, 100).
edge(34, 56).
edge(105, 133).
edge(1, 27).
edge(57, 78).
edge(61, 130).
edge(9, 63).
edge(106, 134).
edge(26, 110).
edge(38, 131).
edge(45, 73).
edge(4, 74).
edge(27, 110).
edge(71, 114).
edge(79, 80).
edge(32, 86).
edge(104, 117).
edge(21, 114).
edge(47, 60).
edge(74, 83).
edge(8, 28).
edge(57, 92).
edge(38, 113).
edge(106, 132).
edge(56, 61).
edge(28, 93).
edge(4, 16).
edge(76, 80).
edge(70, 71).
edge(40, 128).
edge(26, 122).
edge(29, 119).
edge(81, 105).
edge(26, 32).
edge(22, 120).
edge(14, 111).
edge(9, 85).
edge(7, 115).
edge(53, 101).
edge(38, 63).
edge(48, 61).
edge(113, 129).
edge(41, 87).
edge(54, 82).
edge(42, 60).
edge(59, 122).
edge(5, 115).
edge(68, 73).
edge(34, 80).
edge(93, 113).
edge(31, 85).
edge(25, 31).
edge(22, 68).
edge(56, 100).
edge(59, 103).
edge(56, 104).
edge(20, 106).
edge(8, 64).
edge(17, 85).
edge(50, 100).
edge(81, 112).
edge(3, 109).
edge(24, 35).
edge(31, 75).
edge(52, 78).
edge(24, 109).
edge(69, 111).
edge(67, 103).
edge(8, 44).
edge(66, 71).
edge(84, 96).
edge(77, 90).
edge(17, 70).
edge(18, 131).
edge(29, 109).
edge(70, 129).
edge(108, 117).
edge(47, 93).
edge(61, 74).
edge(51, 65).
edge(2, 99).
edge(18, 42).
edge(99, 113).
edge(27, 134).
edge(103, 121).
edge(112, 130).
edge(14, 19).
edge(11, 41).
edge(43, 74).
edge(118, 124).
edge(111, 133).
edge(73, 130).
edge(89, 105).
edge(39, 118).
edge(7, 14).
edge(111, 118).
edge(23, 113).
edge(17, 37).
edge(54, 125).
edge(21, 90).
edge(33, 59).
edge(79, 118).
edge(10, 105).
edge(96, 113).
edge(87, 115).
edge(29, 60).
edge(107, 128).
edge(49, 85).
edge(24, 91).
edge(45, 97).
edge(49, 78).
edge(101, 134).
edge(19, 32).
edge(1, 81).
edge(101, 114).
edge(62, 122).
edge(36, 73).
edge(63, 107).
edge(16, 126).
edge(4, 72).
edge(16, 19).
edge(11, 21).
edge(26, 84).
edge(28, 92).
edge(4, 106).
edge(0, 99).
edge(33, 75).
edge(27, 61).
edge(14, 49).
edge(36, 85).
edge(6, 117).
edge(44, 63).
edge(24, 105).
edge(20, 119).
edge(52, 133).
edge(10, 101).
edge(54, 112).
edge(25, 123).
edge(26, 67).
edge(61, 111).
edge(10, 102).
edge(30, 94).
edge(68, 105).
edge(75, 86).
edge(58, 118).
edge(47, 95).
edge(60, 106).
edge(4, 35).
edge(43, 93).
edge(20, 93).
edge(41, 85).
edge(39, 75).
edge(1, 74).
edge(85, 116).
edge(35, 41).
edge(81, 91).
edge(32, 67).
edge(8, 115).
edge(11, 57).
edge(102, 122).
edge(2, 43).
edge(60, 75).
edge(45, 80).
edge(68, 86).
edge(100, 114).
edge(104, 131).
edge(48, 90).
edge(27, 112).
edge(26, 47).
edge(26, 94).
edge(52, 127).
edge(72, 109).
edge(113, 123).
edge(40, 102).
edge(40, 75).
edge(55, 64).
edge(46, 86).
edge(2, 102).
edge(46, 131).
edge(44, 91).
edge(17, 21).
edge(53, 66).
edge(50, 134).
edge(67, 89).
edge(34, 135).
edge(44, 88).
edge(69, 76).
edge(72, 111).
edge(27, 102).
edge(16, 104).
edge(43, 100).
edge(37, 119).
edge(44, 99).
edge(35, 53).
edge(55, 61).
edge(14, 134).
edge(30, 39).
edge(33, 93).
edge(102, 130).
edge(1, 35).
edge(68, 69).
edge(61, 121).
edge(97, 125).
edge(75, 127).
edge(4, 97).
edge(20, 73).
edge(87, 118).
edge(6, 37).
edge(65, 73).
edge(109, 115).
edge(39, 112).
edge(69, 110).
edge(23, 40).
edge(56, 82).
edge(110, 135).
edge(74, 116).
edge(51, 119).
edge(102, 109).
edge(59, 73).
edge(95, 118).
edge(51, 87).
edge(45, 58).
edge(17, 108).
edge(98, 106).
edge(34, 66).
edge(1, 46).
edge(92, 115).
edge(57, 110).
edge(32, 119).
edge(33, 77).
edge(25, 96).
edge(35, 131).
edge(67, 83).
edge(89, 91).
edge(4, 57).
edge(41, 130).
edge(15, 21).
edge(13, 81).
edge(17, 123).
edge(38, 71).
edge(78, 130).
edge(45, 134).
edge(4, 69).
edge(15, 59).
edge(35, 132).
edge(58, 84).
edge(0, 112).
edge(79, 121).
edge(64, 95).
edge(38, 101).
edge(9, 58).
edge(61, 106).
edge(63, 104).
edge(49, 82).
edge(12, 32).
edge(10, 19).
edge(40, 93).
edge(29, 129).
edge(102, 131).
edge(120, 127).
edge(49, 71).
edge(41, 79).
edge(20, 22).
edge(17, 44).
edge(35, 50).
edge(70, 123).
edge(11, 19).
edge(91, 129).
edge(36, 59).
edge(6, 32).
edge(32, 75).
edge(61, 70).
edge(39, 123).
edge(47, 107).
edge(39, 97).
edge(28, 127).
edge(30, 82).
edge(21, 23).
edge(62, 107).
edge(2, 5).
edge(14, 63).
edge(116, 121).
edge(103, 117).
edge(56, 113).
edge(113, 130).
edge(2, 8).
edge(37, 51).
edge(1, 135).
edge(39, 69).
edge(60, 85).
edge(63, 65).
edge(15, 83).
edge(10, 29).
edge(48, 79).
edge(4, 105).
edge(29, 37).
edge(45, 133).
edge(19, 80).
edge(51, 61).
edge(0, 47).
edge(94, 103).
edge(66, 75).
edge(72, 120).
edge(102, 108).
edge(74, 76).
edge(79, 114).
edge(115, 117).
edge(58, 115).
edge(98, 115).
edge(59, 98).
edge(57, 100).
edge(121, 132).
edge(1, 16).
edge(12, 50).
edge(46, 127).
edge(86, 100).
edge(60, 61).
edge(23, 115).
edge(96, 133).
edge(2, 36).
edge(2, 84).
edge(102, 126).
edge(13, 35).
edge(104, 113).
edge(2, 50).
edge(49, 67).
edge(43, 68).
edge(32, 108).
edge(31, 32).
edge(56, 72).
edge(17, 106).
edge(73, 94).
edge(5, 108).
edge(80, 123).
edge(110, 128).
edge(40, 118).
edge(93, 104).
edge(82, 129).
edge(8, 113).
edge(30, 107).
edge(33, 51).
edge(47, 131).
edge(16, 46).
edge(58, 105).
edge(65, 128).
edge(65, 133).
edge(54, 102).
edge(102, 132).
edge(0, 39).
edge(80, 86).
edge(78, 93).
edge(49, 129).
edge(85, 98).
edge(61, 79).
edge(10, 11).
edge(37, 101).
edge(95, 135).
edge(0, 88).
edge(65, 67).
edge(53, 57).
edge(51, 94).
edge(14, 65).
edge(2, 118).
edge(26, 121).
edge(77, 81).
edge(0, 27).
edge(25, 110).
edge(16, 119).
edge(70, 109).
edge(71, 83).
edge(27, 80).
edge(55, 73).
edge(82, 98).
edge(4, 96).
edge(15, 92).
edge(18, 40).
edge(92, 133).
edge(13, 21).
edge(8, 78).
edge(11, 133).
edge(81, 90).
edge(29, 124).
edge(27, 59).
edge(10, 50).
edge(12, 87).
edge(66, 77).
edge(4, 32).
edge(53, 130).
edge(56, 128).
edge(36, 102).
edge(66, 120).
edge(92, 94).
edge(64, 83).
edge(77, 98).
edge(47, 134).
edge(40, 74).
edge(1, 79).
edge(20, 58).
edge(58, 130).
edge(100, 117).
edge(57, 129).
edge(10, 60).
edge(85, 99).
edge(75, 82).
edge(0, 46).
edge(22, 38).
edge(59, 64).
edge(22, 24).
edge(6, 130).
edge(53, 107).
edge(36, 132).
edge(67, 107).
edge(2, 109).
edge(17, 62).
edge(74, 115).
edge(20, 96).
edge(39, 135).
edge(26, 81).
edge(6, 41).
edge(53, 58).
edge(36, 111).
edge(70, 130).
edge(33, 45).
edge(38, 126).
edge(83, 132).
edge(58, 113).
edge(60, 73).
edge(50, 130).
edge(36, 94).
edge(15, 66).
edge(4, 124).
edge(84, 102).
edge(47, 135).
edge(15, 91).
edge(17, 79).
edge(67, 123).
edge(99, 115).
edge(87, 90).
edge(64, 118).
edge(9, 89).
edge(27, 124).
edge(73, 118).
edge(46, 135).
edge(126, 129).
edge(34, 91).
edge(73, 89).
edge(56, 135).
edge(21, 88).
edge(11, 68).
edge(15, 95).
edge(22, 74).
edge(13, 42).
edge(24, 108).
edge(91, 126).
edge(62, 132).
edge(24, 25).
edge(13, 58).
edge(94, 120).
edge(110, 119).
edge(0, 74).
edge(24, 40).
edge(52, 123).
edge(86, 129).
edge(42, 119).
edge(88, 93).
edge(94, 108).
edge(78, 113).
edge(66, 124).
edge(7, 119).
edge(102, 127).
edge(41, 78).
edge(45, 79).
edge(60, 69).
edge(115, 126).
edge(40, 92).
edge(35, 92).
edge(43, 124).
edge(106, 135).
edge(116, 122).
edge(43, 90).
edge(22, 135).
edge(36, 62).
edge(12, 116).
edge(65, 112).
edge(8, 10).
edge(71, 85).
edge(22, 31).
edge(48, 92).
edge(60, 118).
edge(32, 57).
edge(13, 111).
edge(69, 80).
edge(132, 135).
edge(23, 42).
edge(126, 131).
edge(59, 71).
edge(9, 28).
edge(48, 125).
edge(47, 118).
edge(18, 51).
edge(53, 96).
edge(106, 115).
edge(13, 27).
edge(23, 53).
edge(13, 15).
edge(98, 133).
edge(18, 26).
edge(13, 80).
edge(108, 128).
edge(4, 60).
edge(81, 129).
edge(61, 126).
edge(35, 99).
edge(45, 81).
edge(34, 133).
edge(33, 122).
edge(90, 119).
edge(39, 50).
edge(92, 126).
edge(97, 98).
edge(20, 28).
edge(22, 110).
edge(40, 46).
edge(32, 96).
edge(3, 55).
edge(29, 67).
edge(46, 55).
edge(63, 126).
edge(49, 60).
edge(88, 135).
edge(122, 123).
edge(71, 97).
edge(37, 92).
edge(83, 133).
edge(96, 134).
edge(22, 42).
edge(86, 110).
edge(34, 112).
edge(12, 70).
edge(36, 123).
edge(64, 115).
edge(13, 96).
edge(14, 124).
edge(101, 124).
edge(41, 72).
edge(31, 117).
edge(6, 115).
edge(14, 16).
edge(60, 128).
edge(47, 80).
edge(99, 125).
edge(4, 115).
edge(40, 133).
edge(15, 57).
edge(13, 91).
edge(8, 92).
edge(1, 44).
edge(24, 103).
edge(24, 48).
edge(23, 100).
edge(10, 68).
edge(29, 53).
edge(16, 56).
edge(0, 129).
edge(16, 113).
edge(119, 120).
edge(14, 24).
edge(86, 90).
edge(103, 127).
edge(35, 56).
edge(51, 64).
edge(53, 79).
weight(0, 8).
weight(1, 1).
weight(2, 14).
weight(3, 7).
weight(4, 3).
weight(5, 13).
weight(6, 4).
weight(7, 5).
weight(8, 13).
weight(9, 14).
weight(10, 15).
weight(11, 18).
weight(12, 19).
weight(13, 3).
weight(14, 3).
weight(15, 12).
weight(16, 1).
weight(17, 7).
weight(18, 2).
weight(19, 12).
weight(20, 13).
weight(21, 15).
weight(22, 15).
weight(23, 6).
weight(24, 9).
weight(25, 2).
weight(26, 9).
weight(27, 18).
weight(28, 7).
weight(29, 4).
weight(30, 5).
weight(31, 12).
weight(32, 8).
weight(33, 4).
weight(34, 9).
weight(35, 3).
weight(36, 11).
weight(37, 4).
weight(38, 16).
weight(39, 9).
weight(40, 18).
weight(41, 19).
weight(42, 15).
weight(43, 12).
weight(44, 2).
weight(45, 5).
weight(46, 8).
weight(47, 7).
weight(48, 12).
weight(49, 6).
weight(50, 13).
weight(51, 12).
weight(52, 16).
weight(53, 9).
weight(54, 15).
weight(55, 15).
weight(56, 15).
weight(57, 11).
weight(58, 6).
weight(59, 1).
weight(60, 11).
weight(61, 13).
weight(62, 10).
weight(63, 18).
weight(64, 5).
weight(65, 8).
weight(66, 8).
weight(67, 16).
weight(68, 6).
weight(69, 4).
weight(70, 8).
weight(71, 7).
weight(72, 10).
weight(73, 16).
weight(74, 5).
weight(75, 7).
weight(76, 9).
weight(77, 14).
weight(78, 11).
weight(79, 14).
weight(80, 10).
weight(81, 14).
weight(82, 16).
weight(83, 9).
weight(84, 2).
weight(85, 14).
weight(86, 1).
weight(87, 17).
weight(88, 10).
weight(89, 15).
weight(90, 6).
weight(91, 7).
weight(92, 3).
weight(93, 12).
weight(94, 9).
weight(95, 9).
weight(96, 6).
weight(97, 6).
weight(98, 17).
weight(99, 16).
weight(100, 3).
weight(101, 15).
weight(102, 2).
weight(103, 9).
weight(104, 15).
weight(105, 1).
weight(106, 17).
weight(107, 13).
weight(108, 6).
weight(109, 7).
weight(110, 17).
weight(111, 11).
weight(112, 4).
weight(113, 8).
weight(114, 4).
weight(115, 4).
weight(116, 19).
weight(117, 17).
weight(118, 13).
weight(119, 17).
weight(120, 17).
weight(121, 14).
weight(122, 8).
weight(123, 16).
weight(124, 2).
weight(125, 8).
weight(126, 15).
weight(127, 12).
weight(128, 18).
weight(129, 2).
weight(130, 1).
weight(131, 7).
weight(132, 10).
weight(133, 15).
weight(134, 2).
weight(135, 3).

{in(V)} :- node(V).
:- in(U), in(V), U < V, not edge(U,V).
:~ not in(V), weight(V,W). [W@1,V]
