node(0..144).
edge(0, 75).
edge(78, 100).
edge(48, 63).
edge(4, 58).
edge(13, 91).
edge(8, 23).
edge(15, 37).
edge(57, 133).
edge(1, 104).
edge(21, 81).
edge(49, 97).
edge(37, 119).
edge(129, 133).
edge(138, 144).
edge(77, 130).
edge(29, 48).
edge(74, 139).
edge(34, 43).
edge(38, 128).
edge(77, 137).
edge(16, 104).
edge(27, 57).
edge(74, 75).
edge(54, 121).
edge(1, 128).
edge(95, 109).
edge(77, 138).
edge(47, 107).
edge(11, 134).
edge(20, 139).
edge(64, 74).
edge(45, 134).
edge(52, 95).
edge(1, 41).
edge(79, 85).
edge(87, 134).
edge(65, 112).
edge(32, 116).
edge(17, 98).
edge(27, 54).
edge(45, 88).
edge(50, 57).
edge(33, 92).
edge(42, 102).
edge(117, 120).
edge(6, 26).
edge(7, 110).
edge(44, 58).
edge(16, 123).
edge(63, 127).
edge(54, 135).
edge(72, 137).
edge(67, 116).
edge(88, 123).
edge(68, 74).
edge(36, 50).
edge(22, 92).
edge(39, 92).
edge(108, 140).
edge(41, 106).
edge(91, 126).
edge(8, 101).
edge(22, 40).
edge(22, 24).
edge(79, 122).
edge(15, 123).
edge(63, 117).
edge(0, 107).
edge(62, 126).
edge(19, 25).
edge(58, 87).
edge(52, 85).
edge(37, 104).
edge(38, 52).
edge(13, 44).
edge(108, 144).
edge(30, 111).
edge(54, 102).
edge(75, 140).
edge(70, 106).
edge(95, 144).
edge(91, 98).
edge(30, 49).
edge(21, 69).
edge(53, 124).
edge(23, 108).
edge(6, 99).
edge(70, 137).
edge(18, 34).
edge(6, 11).
edge(66, 97).
edge(6, 32).
edge(13, 143).
edge(96, 112).
edge(9, 30).
edge(12, 107).
edge(107, 131).
edge(87, 111).
edge(13, 65).
edge(27, 96).
edge(64, 80).
edge(40, 96).
edge(12, 93).
edge(35, 47).
edge(31, 122).
edge(6, 72).
edge(25, 87).
edge(42, 103).
edge(32, 83).
edge(8, 45).
edge(115, 124).
edge(85, 104).
edge(59, 90).
edge(5, 74).
edge(35, 44).
edge(36, 79).
edge(21, 123).
edge(31, 92).
edge(28, 99).
edge(32, 86).
edge(0, 121).
edge(40, 79).
edge(15, 86).
edge(33, 128).
edge(34, 101).
edge(4, 113).
edge(12, 40).
edge(12, 88).
edge(15, 97).
edge(92, 143).
edge(44, 102).
edge(19, 76).
edge(19, 54).
edge(43, 112).
edge(6, 123).
edge(31, 133).
edge(43, 114).
edge(41, 50).
edge(77, 142).
edge(18, 71).
edge(78, 90).
edge(31, 126).
edge(87, 109).
edge(52, 138).
edge(19, 138).
edge(84, 119).
edge(41, 61).
edge(2, 93).
edge(1, 137).
edge(79, 90).
edge(36, 137).
edge(55, 88).
edge(16, 85).
edge(25, 37).
edge(101, 102).
edge(23, 52).
edge(78, 87).
edge(82, 134).
edge(33, 63).
edge(45, 105).
edge(3, 11).
edge(21, 138).
edge(16, 115).
edge(8, 16).
edge(1, 73).
edge(46, 87).
edge(33, 42).
edge(29, 139).
edge(22, 72).
edge(2, 20).
edge(65, 107).
edge(27, 50).
edge(110, 114).
edge(123, 131).
edge(67, 69).
edge(13, 118).
edge(76, 144).
edge(111, 135).
edge(20, 83).
edge(67, 95).
edge(12, 129).
edge(118, 134).
edge(83, 103).
edge(21, 130).
edge(38, 98).
edge(110, 121).
edge(9, 99).
edge(22, 85).
edge(50, 83).
edge(40, 76).
edge(18, 118).
edge(39, 128).
edge(20, 124).
edge(25, 144).
edge(16, 50).
edge(33, 104).
edge(0, 45).
edge(84, 101).
edge(25, 47).
edge(136, 142).
edge(44, 113).
edge(8, 78).
edge(79, 130).
edge(28, 49).
edge(87, 103).
edge(86, 122).
edge(3, 60).
edge(41, 92).
edge(50, 75).
edge(1, 70).
edge(104, 139).
edge(6, 66).
edge(44, 98).
edge(55, 138).
edge(76, 92).
edge(71, 121).
edge(18, 46).
edge(14, 122).
edge(36, 116).
edge(19, 126).
edge(3, 54).
edge(93, 106).
edge(3, 78).
edge(31, 83).
edge(5, 78).
edge(67, 107).
edge(65, 76).
edge(122, 142).
edge(44, 90).
edge(56, 94).
edge(56, 88).
edge(99, 103).
edge(34, 134).
edge(17, 58).
edge(14, 112).
edge(36, 73).
edge(81, 88).
edge(35, 98).
edge(26, 107).
edge(23, 83).
edge(4, 105).
edge(83, 144).
edge(54, 108).
edge(18, 53).
edge(39, 65).
edge(65, 120).
edge(30, 68).
edge(35, 124).
edge(52, 62).
edge(4, 126).
edge(22, 78).
edge(48, 103).
edge(119, 137).
edge(19, 103).
edge(11, 105).
edge(16, 98).
edge(20, 30).
edge(66, 79).
edge(41, 49).
edge(110, 116).
edge(59, 63).
edge(88, 132).
edge(11, 84).
edge(3, 85).
edge(7, 119).
edge(72, 112).
edge(101, 107).
edge(21, 117).
edge(41, 133).
edge(14, 71).
edge(16, 51).
edge(86, 123).
edge(123, 135).
edge(27, 140).
edge(24, 40).
edge(44, 62).
edge(11, 79).
edge(55, 133).
edge(64, 65).
edge(51, 76).
edge(25, 63).
edge(18, 45).
edge(111, 128).
edge(4, 32).
edge(91, 107).
edge(14, 37).
edge(93, 131).
edge(89, 103).
edge(3, 20).
edge(34, 39).
edge(111, 119).
edge(22, 116).
edge(32, 80).
edge(11, 75).
edge(49, 95).
edge(2, 51).
edge(117, 144).
edge(70, 84).
edge(1, 99).
edge(45, 124).
edge(1, 40).
edge(42, 137).
edge(96, 131).
edge(57, 98).
edge(33, 55).
edge(40, 120).
edge(46, 121).
edge(0, 35).
edge(37, 67).
edge(27, 110).
edge(108, 132).
edge(83, 96).
edge(44, 135).
edge(42, 49).
edge(27, 33).
edge(16, 19).
edge(0, 33).
edge(20, 37).
edge(2, 30).
edge(26, 32).
edge(23, 129).
edge(10, 59).
edge(28, 129).
edge(85, 124).
edge(16, 56).
edge(1, 54).
edge(43, 71).
edge(10, 54).
edge(36, 99).
edge(17, 117).
edge(42, 100).
edge(29, 99).
edge(35, 77).
edge(59, 95).
edge(140, 141).
edge(18, 65).
edge(43, 105).
edge(16, 129).
edge(48, 127).
edge(57, 58).
edge(103, 110).
edge(39, 55).
edge(21, 102).
edge(20, 52).
edge(26, 131).
edge(0, 114).
edge(22, 25).
edge(1, 46).
edge(89, 128).
edge(71, 79).
edge(64, 113).
edge(47, 140).
edge(98, 105).
edge(41, 89).
edge(102, 115).
edge(120, 130).
edge(27, 44).
edge(8, 56).
edge(11, 66).
edge(5, 54).
edge(27, 111).
edge(45, 86).
edge(65, 92).
edge(2, 8).
edge(67, 118).
edge(85, 138).
edge(7, 86).
edge(122, 141).
edge(52, 136).
edge(56, 123).
edge(44, 55).
edge(12, 72).
edge(18, 61).
edge(13, 106).
edge(18, 114).
edge(12, 30).
edge(27, 144).
edge(16, 88).
edge(8, 93).
edge(23, 111).
edge(51, 115).
edge(13, 34).
edge(50, 112).
edge(66, 113).
edge(56, 120).
edge(107, 144).
edge(4, 101).
edge(19, 44).
edge(36, 41).
edge(96, 111).
edge(31, 100).
edge(92, 118).
edge(5, 81).
edge(21, 83).
edge(41, 71).
edge(3, 69).
edge(54, 62).
edge(96, 133).
edge(8, 26).
edge(109, 141).
edge(1, 129).
edge(28, 75).
edge(8, 22).
edge(75, 103).
edge(54, 78).
edge(88, 143).
edge(14, 126).
edge(19, 111).
edge(114, 138).
edge(55, 137).
edge(3, 21).
edge(25, 122).
edge(60, 104).
edge(31, 53).
edge(138, 140).
edge(9, 64).
edge(60, 130).
edge(1, 38).
edge(30, 121).
edge(57, 84).
edge(42, 120).
edge(118, 125).
edge(8, 32).
edge(13, 104).
edge(91, 93).
edge(19, 125).
edge(1, 131).
edge(39, 58).
edge(76, 112).
edge(34, 112).
edge(28, 51).
edge(44, 75).
edge(6, 49).
edge(79, 136).
edge(22, 55).
edge(30, 50).
edge(119, 130).
edge(10, 13).
edge(46, 139).
edge(15, 105).
edge(16, 138).
edge(73, 114).
edge(6, 143).
edge(112, 120).
edge(110, 131).
edge(41, 73).
edge(51, 59).
edge(67, 138).
edge(86, 114).
edge(43, 128).
edge(61, 134).
edge(5, 31).
edge(57, 134).
edge(93, 96).
edge(13, 119).
edge(98, 126).
edge(14, 67).
edge(7, 58).
edge(7, 70).
edge(38, 139).
edge(41, 132).
edge(29, 79).
edge(30, 31).
edge(23, 92).
edge(48, 93).
edge(85, 133).
edge(84, 98).
edge(120, 128).
edge(48, 97).
edge(37, 80).
edge(63, 140).
edge(60, 82).
edge(104, 142).
edge(32, 50).
edge(127, 143).
edge(24, 124).
edge(1, 20).
edge(11, 85).
edge(104, 126).
edge(90, 114).
edge(110, 130).
edge(34, 59).
edge(32, 143).
edge(36, 120).
edge(44, 63).
edge(76, 119).
edge(81, 132).
edge(93, 97).
edge(88, 89).
edge(64, 127).
edge(51, 75).
edge(46, 53).
edge(67, 135).
edge(42, 113).
edge(62, 143).
edge(3, 26).
edge(86, 142).
edge(60, 95).
edge(23, 96).
edge(105, 124).
edge(77, 85).
edge(59, 130).
edge(50, 94).
edge(45, 49).
edge(60, 90).
edge(7, 104).
edge(89, 90).
edge(4, 47).
edge(33, 36).
edge(11, 129).
edge(20, 55).
edge(88, 111).
edge(49, 141).
edge(88, 126).
edge(32, 129).
edge(59, 97).
edge(25, 66).
edge(94, 118).
edge(6, 82).
edge(57, 93).
edge(108, 137).
edge(5, 102).
edge(48, 143).
edge(85, 90).
edge(66, 131).
edge(1, 36).
edge(99, 122).
edge(51, 56).
edge(91, 118).
edge(75, 144).
edge(14, 101).
edge(53, 143).
edge(80, 144).
edge(50, 89).
edge(134, 137).
edge(84, 122).
edge(0, 53).
edge(111, 130).
edge(18, 41).
edge(61, 81).
edge(119, 127).
edge(17, 49).
edge(98, 107).
edge(63, 95).
edge(13, 113).
edge(25, 113).
edge(125, 133).
edge(64, 140).
edge(40, 98).
edge(33, 56).
edge(120, 132).
edge(46, 55).
edge(33, 136).
edge(16, 77).
edge(120, 126).
edge(26, 114).
edge(58, 133).
edge(1, 44).
edge(23, 103).
edge(14, 65).
edge(80, 111).
edge(17, 51).
edge(88, 134).
edge(57, 144).
edge(75, 87).
edge(62, 114).
edge(3, 126).
edge(35, 96).
edge(42, 134).
edge(39, 112).
edge(15, 101).
edge(48, 74).
edge(24, 77).
edge(103, 139).
edge(47, 118).
edge(43, 142).
edge(137, 142).
edge(64, 106).
edge(27, 62).
edge(40, 99).
edge(2, 104).
edge(100, 142).
edge(64, 69).
edge(54, 64).
edge(134, 144).
edge(127, 133).
edge(5, 35).
edge(25, 136).
edge(46, 110).
edge(5, 94).
edge(26, 79).
edge(26, 45).
edge(27, 41).
edge(37, 106).
edge(62, 131).
edge(16, 107).
edge(125, 141).
edge(65, 88).
edge(77, 96).
edge(14, 33).
edge(31, 110).
edge(106, 137).
edge(51, 90).
edge(74, 130).
edge(2, 132).
edge(85, 129).
edge(7, 99).
edge(77, 87).
edge(26, 72).
edge(83, 111).
edge(1, 140).
edge(63, 75).
edge(50, 132).
edge(27, 43).
edge(9, 22).
edge(36, 78).
edge(39, 117).
edge(115, 128).
edge(109, 137).
edge(17, 76).
edge(102, 139).
edge(33, 118).
edge(18, 89).
edge(48, 105).
edge(58, 144).
edge(52, 102).
edge(127, 131).
edge(11, 74).
edge(87, 123).
edge(92, 114).
edge(97, 126).
edge(5, 15).
edge(112, 132).
edge(101, 105).
edge(60, 75).
edge(31, 109).
edge(33, 61).
edge(47, 66).
edge(32, 103).
edge(4, 52).
edge(53, 131).
edge(61, 97).
edge(27, 132).
edge(51, 62).
edge(42, 72).
edge(6, 21).
edge(9, 93).
edge(100, 123).
edge(104, 140).
edge(27, 31).
edge(78, 126).
edge(76, 109).
edge(8, 134).
edge(62, 137).
edge(37, 79).
edge(54, 97).
edge(29, 80).
edge(61, 127).
edge(22, 120).
edge(58, 116).
edge(108, 138).
edge(27, 104).
edge(44, 57).
edge(86, 126).
edge(70, 124).
edge(75, 82).
edge(20, 43).
edge(93, 137).
edge(10, 86).
edge(47, 82).
edge(89, 120).
edge(41, 59).
edge(8, 72).
edge(14, 24).
edge(71, 88).
edge(14, 121).
edge(71, 138).
edge(71, 108).
edge(33, 114).
edge(39, 127).
edge(11, 103).
edge(26, 121).
edge(35, 87).
edge(70, 89).
edge(50, 64).
edge(5, 57).
edge(90, 111).
edge(100, 111).
edge(107, 114).
edge(13, 96).
edge(8, 140).
edge(16, 101).
edge(17, 77).
edge(95, 121).
edge(103, 132).
edge(97, 104).
edge(40, 125).
edge(70, 105).
edge(69, 81).
edge(43, 93).
edge(30, 143).
edge(54, 138).
edge(102, 142).
edge(101, 122).
edge(101, 120).
edge(5, 142).
edge(18, 127).
edge(29, 88).
edge(108, 122).
edge(50, 139).
edge(113, 144).
edge(23, 141).
edge(34, 66).
edge(4, 21).
edge(35, 117).
edge(130, 131).
edge(12, 57).
edge(30, 85).
edge(74, 136).
edge(21, 90).
edge(80, 114).
edge(60, 78).
edge(25, 54).
edge(14, 89).
edge(19, 43).
edge(17, 67).
edge(93, 139).
edge(49, 90).
edge(44, 108).
edge(132, 142).
edge(24, 135).
edge(39, 122).
edge(77, 111).
edge(10, 94).
edge(107, 142).
edge(22, 34).
edge(72, 111).
edge(54, 141).
edge(69, 112).
edge(2, 94).
edge(41, 75).
edge(4, 120).
edge(129, 137).
edge(34, 53).
edge(104, 132).
edge(59, 62).
edge(55, 71).
edge(33, 97).
edge(95, 133).
edge(104, 115).
edge(6, 88).
edge(89, 140).
edge(37, 77).
edge(7, 9).
edge(35, 129).
edge(87, 117).
edge(68, 118).
edge(43, 100).
edge(44, 122).
edge(94, 128).
edge(85, 105).
edge(15, 73).
edge(0, 55).
edge(36, 103).
edge(39, 141).
edge(10, 112).
edge(80, 93).
edge(111, 118).
edge(91, 142).
edge(39, 93).
edge(82, 135).
edge(56, 133).
edge(3, 124).
edge(33, 123).
edge(62, 74).
edge(2, 37).
edge(107, 109).
edge(10, 19).
edge(89, 139).
edge(13, 94).
edge(124, 131).
edge(9, 123).
edge(6, 44).
edge(30, 93).
edge(65, 113).
edge(5, 125).
edge(63, 108).
edge(59, 73).
edge(13, 133).
edge(65, 93).
edge(8, 25).
edge(67, 97).
edge(25, 108).
edge(44, 74).
edge(40, 43).
edge(20, 48).
edge(134, 140).
edge(38, 112).
edge(16, 76).
edge(17, 26).
edge(111, 134).
edge(7, 44).
edge(51, 127).
edge(26, 125).
edge(134, 139).
edge(58, 97).
edge(80, 126).
edge(61, 84).
edge(32, 110).
edge(30, 113).
edge(33, 89).
edge(74, 113).
edge(72, 113).
edge(45, 136).
edge(99, 143).
edge(111, 127).
edge(46, 116).
edge(53, 59).
edge(74, 129).
edge(43, 129).
edge(14, 88).
edge(65, 131).
edge(6, 9).
edge(110, 115).
edge(55, 100).
edge(5, 14).
edge(82, 99).
edge(13, 50).
edge(80, 118).
edge(80, 90).
edge(97, 108).
edge(41, 144).
edge(29, 119).
edge(29, 107).
edge(130, 144).
edge(83, 117).
edge(52, 108).
edge(7, 89).
edge(2, 66).
edge(102, 123).
edge(32, 130).
edge(75, 92).
edge(38, 69).
edge(6, 50).
edge(21, 56).
edge(21, 43).
edge(99, 100).
edge(75, 83).
edge(101, 135).
edge(92, 109).
edge(12, 115).
edge(33, 34).
edge(7, 79).
edge(72, 82).
edge(18, 120).
edge(24, 62).
edge(23, 113).
edge(59, 132).
edge(107, 108).
edge(60, 122).
edge(83, 138).
edge(5, 136).
edge(34, 35).
edge(7, 33).
edge(78, 131).
edge(38, 130).
edge(33, 46).
edge(35, 68).
edge(83, 95).
edge(92, 124).
edge(27, 101).
edge(26, 31).
edge(66, 102).
edge(10, 116).
edge(4, 133).
edge(48, 84).
edge(50, 105).
edge(83, 108).
edge(39, 124).
edge(8, 130).
edge(15, 45).
edge(38, 77).
edge(107, 139).
edge(20, 71).
edge(17, 85).
edge(96, 132).
edge(24, 72).
edge(52, 78).
edge(58, 65).
edge(5, 75).
edge(19, 119).
edge(42, 84).
edge(21, 94).
edge(54, 103).
edge(17, 42).
edge(90, 121).
edge(42, 50).
edge(20, 103).
edge(25, 137).
edge(49, 107).
edge(41, 63).
edge(9, 115).
edge(53, 134).
edge(14, 29).
edge(63, 90).
edge(90, 106).
edge(8, 75).
edge(15, 50).
edge(24, 28).
edge(8, 18).
edge(52, 127).
edge(27, 102).
edge(55, 62).
edge(80, 121).
edge(25, 73).
edge(84, 100).
edge(44, 116).
edge(13, 137).
edge(86, 135).
edge(70, 100).
edge(12, 120).
edge(10, 123).
edge(28, 116).
edge(70, 96).
edge(91, 120).
edge(38, 40).
edge(119, 126).
edge(10, 24).
edge(36, 38).
edge(3, 90).
edge(4, 141).
edge(5, 116).
edge(2, 73).
edge(11, 42).
edge(23, 76).
edge(9, 34).
edge(12, 38).
edge(2, 99).
edge(1, 127).
edge(68, 106).
edge(12, 71).
edge(5, 133).
edge(112, 128).
edge(38, 89).
edge(30, 126).
edge(21, 53).
edge(71, 82).
edge(57, 69).
edge(48, 72).
edge(104, 130).
edge(34, 104).
edge(17, 94).
edge(109, 136).
edge(23, 116).
edge(8, 38).
edge(69, 95).
edge(11, 127).
edge(21, 96).
edge(12, 108).
edge(107, 125).
edge(63, 123).
edge(98, 125).
edge(11, 116).
edge(57, 127).
edge(101, 118).
edge(32, 93).
edge(32, 94).
edge(25, 75).
edge(11, 62).
edge(72, 124).
edge(8, 84).
edge(48, 70).
edge(88, 119).
edge(21, 128).
edge(84, 125).
edge(96, 122).
edge(6, 95).
edge(72, 74).
edge(103, 137).
edge(39, 46).
edge(67, 87).
edge(0, 97).
edge(34, 89).
edge(13, 21).
edge(92, 129).
edge(66, 126).
edge(112, 113).
edge(12, 31).
edge(34, 54).
edge(88, 114).
edge(77, 93).
edge(97, 137).
edge(8, 74).
edge(74, 115).
edge(18, 64).
edge(57, 74).
edge(66, 141).
edge(109, 121).
edge(84, 126).
edge(33, 116).
edge(97, 127).
edge(6, 112).
edge(37, 61).
edge(76, 139).
edge(56, 136).
edge(9, 60).
edge(19, 82).
edge(31, 121).
edge(9, 135).
edge(72, 125).
edge(16, 60).
edge(105, 129).
edge(58, 98).
edge(37, 131).
edge(10, 72).
edge(35, 59).
edge(9, 14).
edge(44, 71).
edge(15, 122).
edge(56, 142).
edge(31, 112).
edge(45, 109).
edge(98, 133).
edge(40, 50).
edge(83, 131).
edge(33, 91).
edge(75, 141).
edge(125, 136).
edge(37, 120).
edge(32, 112).
edge(22, 88).
edge(118, 142).
edge(85, 100).
edge(36, 89).
edge(65, 73).
edge(83, 125).
edge(112, 130).
edge(20, 79).
edge(30, 130).
edge(94, 137).
edge(69, 115).
edge(69, 140).
edge(106, 112).
edge(68, 75).
edge(77, 98).
edge(64, 108).
edge(53, 64).
edge(10, 70).
edge(51, 134).
edge(50, 92).
edge(6, 35).
edge(37, 99).
edge(20, 113).
edge(80, 105).
edge(79, 103).
edge(30, 74).
edge(16, 48).
edge(46, 115).
edge(28, 86).
edge(0, 84).
edge(86, 102).
edge(55, 87).
edge(44, 119).
edge(57, 79).
edge(89, 123).
edge(17, 31).
edge(53, 77).
edge(19, 20).
edge(85, 114).
edge(13, 124).
edge(63, 135).
edge(76, 113).
edge(88, 118).
edge(60, 109).
edge(2, 123).
edge(50, 124).
edge(91, 140).
edge(121, 139).
edge(2, 63).
edge(49, 109).
edge(0, 41).
edge(60, 100).
edge(3, 134).
edge(88, 139).
edge(38, 58).
edge(37, 86).
edge(1, 106).
edge(83, 92).
edge(73, 120).
edge(37, 87).
edge(64, 76).
edge(11, 20).
edge(24, 38).
edge(16, 73).
edge(32, 76).
edge(9, 89).
edge(12, 128).
edge(104, 128).
edge(100, 135).
edge(34, 138).
edge(75, 78).
edge(61, 77).
edge(38, 105).
edge(16, 21).
edge(10, 62).
edge(12, 121).
edge(82, 138).
edge(51, 126).
edge(18, 92).
edge(2, 7).
edge(61, 140).
edge(61, 75).
edge(21, 59).
edge(48, 117).
edge(43, 45).
edge(41, 45).
edge(115, 144).
edge(4, 119).
edge(74, 78).
edge(41, 99).
edge(75, 84).
edge(124, 134).
edge(104, 137).
edge(3, 14).
edge(9, 17).
edge(9, 91).
edge(36, 129).
edge(27, 61).
edge(91, 106).
edge(25, 72).
edge(25, 67).
edge(31, 68).
edge(57, 68).
edge(21, 28).
edge(17, 86).
edge(20, 106).
edge(19, 115).
edge(5, 77).
edge(4, 92).
edge(50, 70).
edge(65, 144).
edge(62, 71).
edge(120, 134).
edge(74, 112).
edge(40, 71).
edge(30, 132).
edge(39, 89).
edge(0, 65).
edge(68, 96).
edge(90, 131).
edge(81, 115).
edge(0, 80).
edge(26, 100).
edge(19, 81).
edge(5, 87).
edge(24, 31).
edge(12, 134).
edge(84, 121).
edge(26, 75).
edge(50, 106).
edge(12, 41).
edge(19, 60).
edge(101, 114).
edge(19, 83).
edge(93, 125).
edge(41, 107).
edge(3, 76).
edge(4, 102).
edge(50, 129).
edge(8, 126).
edge(34, 60).
edge(12, 37).
edge(12, 25).
edge(84, 136).
edge(42, 77).
edge(4, 30).
edge(90, 101).
edge(45, 113).
edge(26, 58).
edge(28, 113).
edge(53, 98).
edge(65, 142).
edge(69, 87).
edge(23, 77).
edge(28, 39).
edge(60, 97).
edge(116, 126).
edge(109, 129).
edge(55, 132).
edge(0, 56).
edge(38, 63).
edge(55, 140).
edge(47, 108).
edge(101, 121).
edge(29, 61).
edge(8, 41).
edge(17, 87).
edge(48, 104).
edge(40, 100).
edge(12, 140).
edge(42, 125).
edge(31, 94).
edge(78, 129).
edge(52, 131).
edge(74, 124).
edge(94, 119).
edge(10, 90).
edge(88, 135).
edge(2, 87).
edge(61, 96).
edge(11, 95).
edge(33, 39).
edge(58, 137).
edge(45, 131).
edge(85, 113).
edge(111, 140).
edge(17, 33).
edge(67, 70).
edge(29, 33).
edge(51, 116).
edge(14, 108).
edge(60, 84).
edge(55, 110).
edge(57, 138).
edge(10, 12).
edge(91, 138).
edge(63, 92).
edge(1, 58).
edge(31, 86).
edge(12, 52).
edge(32, 33).
edge(109, 139).
edge(121, 128).
edge(8, 49).
edge(84, 97).
edge(32, 122).
edge(87, 90).
edge(58, 77).
edge(15, 71).
edge(60, 94).
edge(3, 27).
edge(50, 138).
edge(8, 55).
edge(36, 140).
edge(64, 126).
edge(39, 142).
edge(70, 88).
edge(4, 36).
edge(47, 67).
edge(75, 102).
edge(70, 97).
edge(3, 67).
edge(107, 130).
edge(75, 91).
edge(109, 142).
edge(48, 116).
edge(20, 94).
edge(75, 121).
edge(48, 54).
edge(50, 118).
edge(95, 96).
edge(11, 35).
edge(120, 137).
edge(104, 141).
edge(20, 131).
edge(70, 114).
edge(46, 118).
edge(100, 140).
edge(119, 124).
edge(35, 63).
edge(16, 126).
edge(20, 82).
edge(57, 66).
edge(1, 10).
edge(25, 30).
edge(69, 135).
edge(130, 136).
edge(84, 102).
edge(6, 31).
edge(85, 97).
edge(53, 113).
edge(135, 136).
edge(4, 68).
edge(30, 81).
edge(22, 86).
edge(17, 142).
edge(111, 125).
edge(80, 86).
edge(30, 142).
edge(133, 144).
edge(37, 98).
edge(90, 141).
edge(74, 135).
edge(38, 114).
edge(93, 98).
edge(74, 127).
edge(15, 132).
edge(2, 25).
edge(68, 113).
edge(32, 47).
edge(21, 120).
edge(52, 64).
edge(25, 41).
edge(66, 114).
edge(23, 85).
edge(86, 111).
edge(11, 22).
edge(73, 81).
edge(41, 84).
edge(70, 141).
edge(92, 99).
edge(13, 90).
edge(134, 135).
edge(14, 42).
edge(22, 140).
edge(16, 38).
edge(19, 74).
edge(15, 39).
edge(53, 106).
edge(17, 105).
edge(30, 106).
edge(15, 55).
edge(75, 131).
edge(78, 102).
edge(25, 68).
edge(75, 124).
edge(120, 131).
edge(36, 105).
edge(37, 88).
edge(21, 57).
edge(17, 73).
edge(54, 80).
edge(38, 131).
edge(10, 26).
edge(92, 108).
edge(143, 144).
edge(54, 68).
edge(66, 134).
edge(38, 67).
edge(48, 98).
edge(5, 131).
edge(1, 69).
edge(60, 64).
edge(40, 142).
edge(75, 127).
edge(103, 115).
edge(53, 126).
edge(83, 105).
edge(30, 41).
edge(58, 68).
edge(42, 92).
edge(47, 78).
edge(0, 70).
edge(30, 120).
edge(32, 139).
edge(102, 118).
edge(9, 75).
edge(18, 142).
edge(99, 108).
edge(61, 95).
edge(70, 134).
edge(79, 83).
edge(25, 135).
edge(60, 63).
edge(15, 129).
edge(89, 122).
edge(94, 116).
edge(20, 39).
edge(22, 71).
edge(55, 139).
edge(45, 69).
edge(46, 120).
edge(25, 51).
edge(18, 70).
edge(106, 118).
edge(30, 90).
edge(85, 140).
edge(76, 79).
edge(94, 121).
edge(0, 72).
edge(28, 58).
edge(68, 73).
edge(39, 134).
edge(57, 142).
edge(35, 115).
edge(42, 62).
edge(42, 66).
edge(43, 136).
edge(20, 32).
edge(29, 66).
edge(51, 112).
edge(46, 64).
edge(46, 63).
edge(66, 84).
edge(91, 115).
edge(31, 104).
edge(96, 134).
edge(17, 69).
edge(44, 141).
edge(5, 123).
edge(14, 134).
edge(48, 87).
edge(59, 134).
edge(44, 50).
edge(3, 55).
edge(115, 118).
edge(108, 130).
edge(31, 129).
edge(74, 77).
edge(85, 122).
edge(8, 44).
edge(106, 132).
edge(54, 109).
edge(4, 142).
edge(61, 62).
edge(80, 131).
edge(51, 121).
edge(93, 123).
edge(64, 70).
edge(46, 97).
edge(21, 110).
edge(39, 131).
edge(45, 74).
edge(73, 118).
edge(27, 88).
edge(5, 82).
edge(124, 138).
edge(70, 121).
edge(14, 26).
edge(11, 136).
edge(38, 60).
edge(86, 88).
edge(74, 104).
edge(116, 137).
edge(71, 89).
edge(56, 87).
edge(50, 77).
edge(60, 107).
edge(11, 114).
edge(92, 95).
edge(10, 11).
edge(40, 140).
edge(98, 110).
edge(3, 12).
edge(55, 134).
edge(32, 59).
edge(26, 68).
edge(22, 114).
edge(62, 132).
edge(97, 109).
edge(18, 115).
edge(20, 53).
edge(84, 110).
edge(22, 101).
edge(43, 82).
edge(4, 16).
edge(1, 75).
edge(69, 80).
edge(21, 74).
edge(32, 142).
edge(6, 139).
edge(105, 117).
edge(71, 124).
edge(69, 114).
edge(116, 119).
edge(21, 134).
edge(5, 143).
edge(106, 131).
edge(23, 58).
edge(9, 72).
edge(0, 46).
edge(46, 57).
edge(18, 85).
edge(7, 111).
edge(22, 141).
edge(113, 116).
edge(46, 117).
edge(42, 138).
edge(89, 106).
edge(82, 86).
edge(15, 44).
edge(79, 129).
edge(57, 101).
edge(56, 67).
edge(35, 74).
edge(3, 121).
edge(114, 122).
edge(49, 62).
edge(74, 99).
edge(10, 65).
edge(45, 89).
edge(95, 122).
edge(86, 139).
edge(7, 74).
edge(33, 47).
edge(3, 48).
edge(1, 119).
edge(7, 140).
edge(41, 56).
edge(11, 94).
edge(35, 69).
edge(50, 79).
edge(4, 31).
edge(22, 109).
edge(40, 53).
edge(96, 121).
edge(17, 122).
edge(5, 135).
edge(95, 114).
edge(19, 33).
edge(76, 95).
edge(105, 137).
edge(52, 96).
edge(25, 84).
edge(73, 139).
edge(48, 112).
edge(126, 142).
edge(69, 131).
edge(29, 75).
edge(94, 114).
edge(21, 104).
edge(12, 126).
edge(0, 38).
edge(58, 94).
edge(20, 76).
edge(34, 123).
edge(30, 107).
edge(68, 122).
edge(31, 46).
edge(0, 135).
edge(15, 116).
edge(69, 76).
edge(105, 142).
edge(31, 32).
edge(92, 131).
edge(98, 127).
edge(39, 74).
edge(73, 83).
edge(81, 142).
edge(77, 128).
edge(63, 74).
edge(85, 131).
edge(18, 86).
edge(43, 75).
edge(52, 97).
edge(139, 141).
edge(127, 140).
edge(90, 96).
edge(15, 20).
edge(10, 75).
edge(40, 89).
edge(47, 116).
edge(8, 12).
edge(48, 136).
edge(29, 95).
edge(43, 55).
edge(89, 126).
edge(32, 71).
edge(51, 128).
edge(5, 119).
edge(4, 116).
edge(50, 128).
edge(120, 125).
edge(48, 139).
edge(19, 106).
edge(62, 94).
edge(29, 68).
edge(26, 89).
edge(55, 102).
edge(66, 108).
edge(10, 122).
edge(39, 125).
edge(43, 125).
edge(19, 50).
edge(84, 139).
edge(9, 132).
edge(18, 137).
edge(35, 94).
edge(59, 72).
edge(27, 81).
edge(135, 137).
edge(2, 39).
edge(132, 138).
edge(9, 87).
edge(101, 131).
edge(5, 44).
edge(46, 73).
edge(54, 74).
edge(22, 70).
edge(90, 109).
edge(37, 91).
edge(94, 138).
edge(2, 62).
edge(13, 138).
edge(94, 115).
edge(35, 75).
edge(45, 101).
edge(1, 67).
edge(19, 99).
edge(2, 44).
edge(28, 141).
edge(5, 141).
edge(32, 85).
edge(91, 134).
edge(84, 85).
edge(12, 24).
edge(114, 128).
edge(35, 46).
edge(68, 110).
edge(58, 128).
edge(72, 102).
edge(6, 28).
edge(55, 119).
edge(113, 127).
edge(33, 81).
edge(9, 39).
edge(19, 80).
edge(131, 138).
edge(1, 87).
edge(11, 13).
edge(32, 90).
edge(6, 29).
edge(20, 87).
edge(136, 138).
edge(119, 136).
edge(3, 93).
edge(31, 143).
edge(30, 137).
edge(28, 97).
edge(5, 16).
edge(30, 64).
edge(15, 92).
edge(110, 138).
edge(67, 100).
edge(79, 105).
edge(73, 75).
edge(6, 85).
edge(82, 91).
edge(30, 103).
edge(29, 40).
edge(38, 133).
edge(90, 99).
edge(73, 130).
edge(6, 40).
edge(59, 114).
edge(16, 53).
edge(18, 44).
edge(87, 93).
edge(68, 124).
edge(74, 114).
edge(90, 115).
edge(54, 132).
edge(19, 64).
edge(30, 53).
edge(13, 26).
edge(39, 132).
edge(49, 135).
edge(46, 103).
edge(64, 83).
edge(72, 122).
edge(62, 79).
edge(51, 52).
edge(81, 106).
edge(71, 91).
edge(48, 113).
edge(50, 93).
edge(40, 77).
edge(39, 108).
edge(35, 130).
edge(8, 90).
edge(0, 54).
edge(117, 134).
edge(62, 69).
edge(11, 86).
edge(58, 86).
edge(13, 24).
edge(67, 104).
edge(79, 96).
edge(58, 84).
edge(67, 131).
edge(4, 39).
edge(94, 129).
edge(65, 87).
edge(2, 78).
edge(15, 46).
edge(66, 90).
edge(2, 110).
edge(108, 111).
edge(99, 104).
edge(36, 63).
edge(22, 143).
edge(52, 69).
edge(14, 105).
edge(99, 129).
edge(47, 68).
edge(32, 115).
edge(21, 99).
edge(26, 56).
edge(73, 95).
edge(82, 95).
edge(0, 138).
edge(74, 110).
edge(111, 142).
edge(25, 26).
edge(97, 136).
edge(11, 40).
edge(61, 66).
edge(37, 137).
edge(45, 135).
edge(8, 67).
edge(31, 91).
edge(25, 126).
edge(23, 134).
edge(52, 89).
edge(21, 131).
edge(114, 134).
edge(38, 78).
edge(16, 71).
edge(33, 64).
edge(18, 55).
edge(21, 34).
edge(58, 134).
edge(3, 95).
edge(16, 36).
edge(17, 99).
edge(21, 23).
edge(23, 68).
edge(2, 80).
edge(15, 68).
edge(0, 124).
edge(4, 117).
edge(98, 122).
edge(52, 70).
edge(35, 135).
edge(75, 122).
edge(64, 115).
edge(53, 103).
edge(22, 139).
edge(34, 102).
edge(2, 127).
edge(105, 127).
edge(22, 28).
edge(36, 90).
edge(51, 144).
edge(79, 135).
edge(98, 143).
edge(68, 104).
edge(115, 137).
edge(38, 137).
edge(24, 111).
edge(3, 119).
edge(69, 136).
edge(58, 72).
edge(44, 140).
edge(32, 79).
edge(7, 48).
edge(68, 121).
edge(0, 119).
edge(21, 103).
edge(99, 131).
edge(19, 112).
edge(39, 66).
edge(100, 132).
edge(57, 70).
edge(62, 73).
edge(1, 117).
edge(30, 38).
edge(1, 110).
edge(14, 111).
edge(101, 127).
edge(47, 53).
edge(21, 101).
edge(45, 58).
edge(47, 111).
edge(78, 88).
edge(61, 126).
edge(77, 120).
edge(28, 133).
edge(4, 143).
edge(5, 59).
edge(46, 131).
edge(88, 103).
edge(84, 140).
edge(49, 100).
edge(63, 109).
edge(59, 121).
edge(51, 54).
edge(65, 141).
edge(58, 124).
edge(85, 93).
edge(119, 128).
edge(49, 75).
edge(20, 128).
edge(40, 128).
edge(22, 65).
edge(63, 104).
edge(22, 136).
edge(80, 123).
edge(126, 140).
edge(18, 36).
edge(36, 76).
edge(70, 123).
edge(18, 136).
edge(39, 56).
edge(95, 131).
edge(12, 51).
edge(88, 127).
edge(97, 117).
edge(125, 144).
edge(46, 137).
edge(106, 138).
edge(79, 126).
edge(107, 116).
edge(69, 107).
edge(9, 142).
edge(88, 107).
edge(36, 141).
edge(57, 126).
edge(84, 133).
edge(0, 32).
edge(109, 115).
edge(45, 133).
edge(6, 79).
edge(9, 42).
edge(67, 111).
edge(57, 139).
edge(13, 49).
edge(41, 101).
edge(79, 86).
edge(4, 111).
edge(28, 69).
edge(16, 86).
edge(44, 69).
edge(13, 33).
edge(49, 70).
edge(11, 71).
edge(38, 143).
edge(22, 49).
edge(23, 29).
edge(50, 123).
edge(39, 82).
edge(0, 140).
edge(53, 100).
edge(66, 87).
edge(1, 90).
edge(48, 126).
edge(98, 123).
edge(51, 133).
edge(78, 84).
edge(41, 55).
edge(9, 116).
edge(51, 81).
edge(26, 71).
edge(40, 93).
edge(9, 52).
edge(24, 137).
edge(125, 131).
edge(85, 103).
edge(41, 70).
edge(93, 118).
edge(93, 107).
edge(54, 96).
edge(9, 80).
edge(9, 104).
edge(109, 112).
edge(23, 88).
edge(68, 108).
edge(0, 128).
edge(1, 103).
edge(83, 130).
edge(57, 92).
edge(82, 110).
edge(103, 123).
edge(66, 68).
edge(33, 140).
edge(3, 5).
edge(108, 124).
edge(46, 86).
edge(2, 22).
edge(31, 73).
edge(88, 129).
edge(71, 131).
edge(86, 109).
edge(5, 29).
edge(37, 89).
edge(28, 88).
edge(52, 121).
edge(26, 38).
edge(22, 137).
edge(128, 136).
edge(33, 122).
edge(55, 89).
edge(36, 75).
edge(84, 93).
edge(55, 113).
edge(60, 91).
edge(45, 59).
edge(44, 134).
edge(45, 100).
edge(62, 133).
edge(60, 141).
edge(4, 51).
edge(102, 144).
edge(74, 108).
edge(126, 129).
edge(76, 103).
edge(0, 95).
edge(22, 67).
edge(32, 74).
edge(103, 143).
edge(35, 116).
edge(1, 141).
edge(69, 120).
edge(24, 76).
edge(44, 46).
edge(11, 82).
edge(35, 104).
edge(63, 141).
edge(93, 127).
edge(91, 102).
edge(110, 125).
edge(5, 24).
edge(10, 137).
edge(67, 143).
edge(43, 67).
edge(69, 139).
edge(26, 120).
edge(25, 62).
edge(46, 69).
edge(39, 63).
edge(40, 49).
edge(90, 136).
edge(19, 55).
edge(14, 53).
edge(70, 92).
edge(1, 76).
edge(60, 126).
edge(36, 39).
edge(79, 104).
edge(25, 76).
edge(11, 80).
edge(32, 70).
edge(100, 128).
edge(3, 101).
edge(77, 124).
edge(34, 42).
edge(73, 121).
edge(10, 113).
edge(50, 66).
edge(23, 102).
edge(73, 116).
edge(34, 116).
edge(16, 114).
edge(87, 138).
edge(36, 60).
edge(108, 141).
edge(117, 119).
edge(17, 70).
edge(54, 134).
edge(79, 119).
edge(10, 36).
edge(52, 91).
edge(56, 132).
edge(64, 73).
edge(116, 120).
edge(50, 104).
edge(4, 50).
edge(83, 119).
edge(72, 119).
edge(14, 38).
edge(60, 138).
edge(59, 125).
edge(35, 64).
edge(131, 141).
edge(51, 70).
edge(129, 141).
edge(45, 65).
edge(100, 113).
edge(9, 83).
edge(21, 48).
edge(125, 127).
edge(65, 71).
edge(61, 68).
edge(7, 93).
edge(14, 132).
edge(58, 85).
edge(27, 133).
edge(128, 138).
edge(18, 144).
edge(57, 125).
edge(84, 96).
edge(56, 101).
edge(64, 130).
edge(90, 118).
edge(16, 127).
edge(7, 114).
edge(36, 144).
edge(46, 124).
edge(31, 50).
edge(60, 81).
edge(27, 95).
edge(122, 128).
edge(7, 123).
edge(113, 122).
edge(1, 51).
edge(16, 20).
edge(23, 69).
edge(62, 89).
edge(24, 84).
edge(96, 97).
edge(63, 115).
edge(16, 78).
edge(73, 128).
edge(81, 129).
edge(46, 105).
edge(80, 124).
edge(1, 113).
edge(19, 102).
edge(3, 120).
edge(12, 17).
edge(61, 87).
edge(60, 129).
edge(27, 115).
edge(19, 96).
edge(78, 141).
edge(68, 94).
edge(31, 108).
edge(114, 126).
edge(69, 102).
edge(84, 89).
edge(20, 143).
edge(64, 112).
edge(33, 78).
edge(14, 17).
edge(68, 76).
edge(21, 111).
edge(32, 126).
edge(9, 44).
edge(82, 143).
edge(2, 91).
edge(49, 67).
edge(15, 89).
edge(64, 81).
edge(103, 142).
edge(72, 120).
edge(24, 48).
edge(43, 122).
edge(43, 110).
edge(15, 33).
edge(19, 97).
edge(17, 124).
edge(16, 84).
edge(116, 134).
edge(114, 119).
edge(18, 132).
edge(50, 111).
edge(12, 29).
edge(11, 49).
edge(66, 143).
edge(41, 129).
edge(117, 122).
edge(106, 141).
edge(43, 116).
edge(13, 82).
edge(73, 133).
edge(22, 73).
edge(11, 109).
edge(92, 125).
edge(37, 73).
edge(40, 106).
edge(15, 62).
edge(23, 97).
edge(2, 4).
edge(60, 131).
edge(7, 109).
edge(25, 129).
edge(80, 134).
edge(4, 106).
edge(24, 123).
edge(16, 105).
edge(24, 58).
edge(96, 105).
edge(0, 77).
edge(124, 133).
edge(20, 63).
edge(53, 91).
edge(36, 53).
edge(27, 86).
edge(42, 111).
edge(129, 143).
edge(47, 109).
edge(23, 107).
edge(9, 121).
edge(113, 124).
edge(87, 135).
edge(25, 60).
edge(31, 65).
edge(37, 100).
edge(65, 72).
edge(60, 125).
edge(22, 58).
edge(13, 134).
edge(98, 142).
edge(28, 34).
edge(64, 138).
edge(116, 125).
edge(34, 71).
edge(94, 111).
edge(84, 109).
edge(3, 96).
edge(85, 95).
edge(10, 61).
edge(25, 99).
edge(49, 54).
edge(43, 56).
edge(9, 23).
edge(8, 114).
edge(89, 118).
edge(77, 101).
edge(20, 77).
edge(13, 117).
edge(20, 116).
edge(71, 122).
edge(30, 96).
edge(19, 46).
edge(67, 126).
edge(43, 58).
edge(120, 139).
edge(11, 120).
edge(100, 114).
edge(9, 144).
edge(122, 134).
edge(16, 40).
edge(84, 103).
edge(111, 112).
edge(28, 77).
edge(69, 89).
edge(27, 127).
edge(75, 118).
edge(36, 82).
edge(73, 108).
edge(30, 46).
edge(45, 79).
edge(57, 65).
edge(137, 138).
edge(99, 121).
edge(11, 23).
edge(123, 141).
edge(73, 107).
edge(69, 127).
edge(1, 43).
edge(73, 101).
edge(25, 115).
edge(29, 93).
edge(11, 140).
edge(36, 55).
edge(64, 97).
edge(94, 122).
edge(46, 132).
edge(87, 130).
edge(12, 118).
edge(11, 125).
edge(41, 127).
edge(96, 108).
edge(28, 54).
edge(10, 139).
edge(8, 123).
edge(74, 122).
edge(103, 129).
edge(4, 35).
edge(11, 106).
edge(83, 94).
edge(55, 142).
edge(42, 89).
edge(45, 121).
edge(58, 119).
edge(60, 70).
edge(65, 124).
edge(39, 98).
edge(86, 110).
edge(13, 123).
edge(11, 34).
edge(41, 93).
edge(70, 128).
edge(83, 89).
edge(96, 144).
edge(61, 121).
edge(73, 105).
edge(2, 58).
edge(30, 144).
edge(13, 54).
edge(16, 106).
edge(57, 135).
edge(58, 120).
edge(54, 55).
edge(63, 97).
edge(38, 70).
edge(20, 123).
edge(89, 132).
edge(115, 125).
edge(43, 108).
edge(0, 142).
edge(115, 135).
edge(10, 58).
edge(5, 25).
edge(15, 74).
edge(71, 109).
edge(60, 96).
edge(15, 117).
edge(44, 64).
edge(24, 57).
edge(35, 85).
edge(58, 63).
edge(40, 138).
edge(39, 144).
edge(72, 135).
edge(60, 118).
edge(28, 44).
edge(5, 99).
edge(42, 108).
edge(9, 24).
edge(92, 98).
edge(5, 38).
edge(7, 36).
edge(31, 54).
edge(70, 103).
edge(1, 39).
edge(37, 72).
edge(126, 135).
edge(124, 130).
edge(30, 138).
edge(30, 131).
edge(7, 131).
edge(10, 87).
edge(97, 107).
edge(50, 134).
edge(5, 71).
edge(17, 24).
edge(53, 144).
edge(34, 56).
edge(9, 31).
edge(116, 130).
edge(17, 66).
edge(36, 114).
edge(8, 54).
edge(31, 66).
edge(56, 75).
edge(15, 75).
edge(40, 133).
edge(90, 140).
edge(29, 77).
edge(129, 144).
edge(49, 110).
edge(25, 138).
edge(48, 123).
edge(2, 144).
edge(9, 88).
edge(57, 123).
edge(13, 70).
edge(121, 123).
edge(45, 143).
edge(55, 128).
edge(66, 122).
edge(105, 118).
edge(0, 34).
edge(20, 140).
edge(72, 96).
edge(95, 115).
edge(30, 127).
edge(79, 110).
edge(12, 66).
edge(26, 81).
edge(2, 31).
edge(72, 98).
edge(37, 143).
edge(55, 56).
edge(90, 95).
edge(13, 52).
edge(18, 128).
edge(55, 117).
edge(99, 110).
edge(20, 65).
edge(11, 97).
edge(50, 103).
edge(1, 42).
edge(5, 67).
edge(137, 141).
edge(40, 70).
edge(1, 15).
edge(86, 143).
edge(73, 91).
edge(47, 54).
edge(54, 66).
edge(32, 107).
edge(64, 95).
edge(91, 141).
edge(13, 135).
edge(46, 66).
edge(36, 59).
edge(2, 115).
edge(51, 60).
edge(33, 144).
edge(20, 133).
edge(87, 98).
edge(22, 35).
edge(42, 87).
edge(55, 84).
edge(18, 76).
edge(51, 74).
edge(43, 59).
edge(42, 54).
edge(13, 107).
edge(39, 103).
edge(121, 137).
edge(95, 102).
edge(28, 142).
edge(62, 113).
edge(4, 118).
edge(27, 34).
edge(24, 141).
edge(68, 111).
edge(21, 63).
edge(54, 142).
edge(39, 114).
edge(69, 99).
edge(60, 114).
edge(59, 67).
edge(25, 27).
edge(34, 55).
edge(1, 11).
edge(7, 69).
edge(69, 142).
edge(17, 39).
edge(39, 40).
edge(5, 17).
edge(24, 121).
edge(121, 134).
edge(42, 90).
edge(19, 45).
edge(36, 136).
edge(6, 22).
edge(79, 82).
edge(47, 99).
edge(2, 32).
edge(30, 110).
edge(89, 143).
edge(37, 64).
edge(44, 88).
edge(80, 140).
edge(59, 82).
edge(32, 38).
edge(30, 72).
edge(3, 47).
edge(10, 51).
edge(14, 20).
edge(45, 102).
edge(23, 45).
edge(87, 96).
edge(39, 126).
edge(42, 60).
edge(12, 56).
edge(1, 82).
edge(100, 144).
edge(14, 77).
edge(6, 140).
edge(113, 133).
edge(55, 108).
edge(14, 141).
edge(37, 57).
edge(55, 65).
edge(105, 111).
edge(40, 101).
edge(34, 115).
edge(7, 88).
edge(42, 73).
edge(46, 71).
edge(77, 100).
edge(34, 119).
edge(116, 128).
edge(91, 104).
edge(67, 127).
edge(39, 130).
edge(10, 21).
edge(1, 21).
edge(17, 120).
edge(43, 134).
edge(140, 143).
edge(42, 59).
edge(71, 141).
edge(5, 128).
edge(79, 87).
edge(104, 122).
edge(57, 91).
edge(52, 84).
edge(101, 112).
edge(27, 52).
edge(28, 79).
edge(49, 77).
edge(47, 55).
edge(86, 105).
edge(0, 23).
edge(1, 115).
edge(72, 138).
edge(76, 120).
edge(4, 13).
edge(1, 7).
edge(46, 54).
edge(49, 103).
edge(21, 30).
edge(28, 61).
edge(12, 22).
edge(83, 124).
edge(7, 112).
edge(10, 135).
edge(110, 143).
edge(33, 124).
edge(62, 123).
edge(52, 139).
edge(23, 110).
edge(84, 99).
edge(35, 143).
edge(101, 106).
edge(51, 85).
edge(1, 112).
edge(39, 68).
edge(14, 102).
edge(23, 87).
edge(106, 139).
edge(67, 105).
edge(48, 141).
edge(20, 41).
edge(25, 32).
edge(11, 72).
edge(52, 128).
edge(38, 106).
edge(6, 78).
edge(17, 119).
edge(44, 59).
edge(42, 101).
edge(34, 50).
edge(51, 71).
edge(81, 90).
edge(22, 97).
edge(49, 133).
edge(80, 128).
edge(26, 136).
edge(113, 119).
edge(77, 104).
edge(57, 115).
edge(66, 136).
edge(3, 23).
edge(20, 104).
edge(97, 134).
edge(55, 92).
edge(16, 132).
edge(22, 80).
edge(33, 121).
edge(121, 130).
edge(76, 88).
edge(80, 139).
edge(30, 82).
edge(61, 122).
edge(13, 68).
edge(106, 144).
edge(20, 122).
edge(40, 46).
edge(18, 37).
edge(67, 82).
edge(2, 133).
edge(30, 61).
edge(55, 121).
edge(39, 84).
edge(57, 129).
edge(90, 104).
edge(70, 80).
edge(50, 119).
edge(26, 129).
edge(10, 107).
edge(103, 131).
edge(14, 131).
edge(24, 89).
edge(44, 105).
edge(131, 140).
edge(77, 106).
edge(76, 117).
edge(8, 60).
edge(0, 116).
edge(90, 139).
edge(62, 76).
edge(11, 63).
edge(19, 30).
edge(17, 135).
edge(47, 49).
edge(19, 41).
edge(36, 49).
edge(10, 25).
edge(35, 132).
edge(60, 136).
edge(3, 70).
edge(74, 111).
edge(45, 127).
edge(82, 109).
edge(6, 73).
edge(39, 43).
edge(118, 119).
edge(115, 131).
edge(31, 34).
edge(81, 99).
edge(47, 60).
edge(16, 133).
edge(60, 111).
edge(36, 88).
edge(64, 77).
edge(57, 130).
edge(104, 124).
edge(30, 112).
edge(16, 26).
edge(38, 141).
edge(53, 57).
edge(13, 16).
edge(109, 118).
edge(97, 124).
edge(39, 111).
edge(21, 49).
edge(32, 124).
edge(56, 115).
edge(7, 24).
edge(29, 56).
edge(123, 133).
edge(67, 72).
edge(12, 95).
edge(42, 96).
edge(37, 90).
edge(86, 130).
edge(45, 78).
edge(42, 116).
edge(79, 108).
edge(124, 141).
edge(20, 114).
edge(130, 143).
edge(15, 96).
edge(35, 128).
edge(81, 131).
edge(90, 105).
edge(94, 131).
edge(49, 50).
edge(102, 104).
edge(68, 137).
edge(79, 95).
edge(114, 140).
edge(30, 60).
edge(43, 119).
edge(12, 55).
edge(12, 142).
edge(83, 123).
edge(76, 100).
edge(50, 76).
edge(52, 104).
edge(31, 141).
edge(25, 121).
edge(53, 128).
edge(3, 130).
edge(58, 82).
edge(41, 136).
edge(83, 142).
edge(81, 89).
edge(86, 117).
edge(8, 137).
edge(52, 120).
edge(83, 107).
edge(37, 134).
edge(46, 123).
edge(15, 119).
edge(16, 103).
edge(24, 138).
edge(2, 109).
edge(16, 142).
edge(8, 144).
edge(46, 89).
edge(46, 48).
edge(51, 120).
edge(47, 65).
edge(3, 30).
edge(4, 54).
edge(108, 123).
edge(105, 130).
edge(92, 121).
edge(80, 132).
edge(120, 133).
edge(67, 108).
edge(23, 64).
edge(66, 119).
edge(126, 130).
edge(44, 115).
edge(61, 72).
edge(65, 86).
edge(1, 34).
edge(64, 89).
edge(22, 37).
edge(100, 130).
edge(13, 142).
edge(130, 138).
edge(128, 142).
edge(35, 131).
edge(27, 78).
edge(12, 54).
edge(18, 58).
edge(6, 51).
edge(15, 66).
edge(19, 104).
edge(30, 128).
edge(20, 81).
edge(77, 95).
edge(63, 124).
edge(6, 57).
edge(86, 138).
edge(1, 22).
edge(37, 74).
edge(82, 139).
edge(35, 89).
edge(27, 97).
edge(46, 135).
edge(56, 135).
edge(92, 105).
edge(15, 82).
edge(43, 46).
edge(26, 137).
edge(82, 107).
edge(7, 50).
edge(48, 75).
edge(0, 82).
edge(82, 118).
edge(2, 105).
edge(8, 83).
edge(129, 142).
edge(86, 108).
edge(6, 37).
edge(57, 104).
edge(64, 101).
edge(6, 18).
edge(40, 112).
edge(33, 110).
edge(53, 88).
edge(96, 118).
edge(48, 58).
edge(8, 138).
edge(112, 139).
edge(83, 132).
edge(73, 99).
edge(19, 31).
edge(66, 76).
edge(64, 116).
edge(75, 132).
edge(47, 105).
edge(29, 49).
edge(36, 93).
edge(86, 91).
edge(122, 131).
edge(28, 122).
edge(21, 54).
edge(6, 65).
edge(46, 93).
edge(46, 78).
edge(44, 118).
edge(65, 69).
edge(38, 110).
edge(58, 114).
edge(0, 90).
edge(12, 113).
edge(60, 123).
edge(14, 52).
edge(61, 144).
edge(57, 122).
edge(73, 137).
edge(19, 101).
edge(97, 128).
edge(54, 98).
edge(55, 101).
edge(28, 125).
edge(6, 93).
edge(20, 31).
edge(47, 51).
edge(48, 108).
edge(23, 125).
edge(20, 49).
edge(85, 92).
edge(53, 108).
edge(38, 94).
edge(95, 134).
edge(68, 120).
edge(81, 139).
edge(35, 48).
edge(68, 93).
edge(35, 119).
edge(132, 136).
edge(24, 118).
edge(0, 60).
edge(3, 111).
edge(53, 104).
edge(25, 45).
edge(105, 140).
edge(47, 133).
edge(6, 119).
edge(96, 100).
edge(80, 96).
edge(49, 82).
edge(13, 122).
edge(63, 78).
edge(49, 61).
edge(40, 108).
edge(34, 113).
edge(40, 63).
edge(27, 118).
edge(32, 102).
edge(61, 69).
edge(39, 129).
edge(97, 144).
edge(110, 144).
edge(48, 107).
edge(2, 17).
edge(75, 79).
edge(69, 125).
edge(79, 141).
edge(5, 100).
edge(79, 91).
edge(113, 121).
edge(17, 79).
edge(27, 64).
edge(45, 129).
edge(109, 123).
edge(10, 133).
edge(48, 67).
edge(2, 40).
edge(37, 128).
edge(108, 134).
edge(20, 117).
edge(69, 72).
edge(79, 89).
edge(29, 103).
edge(97, 125).
edge(78, 101).
edge(12, 70).
edge(114, 125).
edge(35, 39).
edge(66, 70).
edge(48, 66).
edge(6, 43).
edge(125, 134).
edge(3, 137).
edge(4, 19).
edge(49, 51).
edge(33, 100).
edge(11, 58).
edge(84, 91).
edge(72, 90).
edge(4, 66).
edge(38, 72).
edge(34, 103).
edge(96, 142).
edge(59, 116).
edge(38, 109).
edge(40, 56).
edge(56, 76).
edge(11, 117).
edge(27, 129).
edge(93, 105).
edge(46, 74).
edge(61, 124).
edge(84, 118).
edge(24, 46).
edge(14, 127).
edge(21, 80).
edge(10, 64).
edge(27, 70).
edge(19, 91).
edge(55, 66).
edge(41, 79).
edge(84, 135).
edge(40, 116).
edge(108, 117).
edge(37, 97).
edge(11, 98).
edge(27, 135).
edge(31, 48).
edge(14, 81).
edge(55, 78).
edge(58, 135).
edge(96, 126).
edge(37, 42).
edge(70, 99).
edge(76, 143).
edge(29, 121).
edge(99, 135).
edge(55, 118).
edge(7, 95).
edge(33, 82).
edge(50, 87).
edge(30, 62).
edge(11, 130).
edge(108, 142).
edge(20, 115).
edge(62, 91).
edge(106, 115).
edge(3, 51).
edge(28, 130).
edge(99, 136).
edge(11, 19).
edge(16, 49).
edge(72, 142).
edge(139, 140).
edge(11, 29).
edge(101, 133).
edge(59, 122).
edge(8, 9).
edge(24, 126).
edge(1, 53).
edge(25, 64).
edge(14, 104).
edge(74, 81).
edge(56, 139).
edge(41, 117).
edge(81, 116).
edge(27, 93).
edge(4, 27).
edge(2, 56).
edge(30, 118).
edge(119, 135).
edge(43, 123).
edge(10, 115).
edge(22, 132).
edge(18, 130).
edge(109, 131).
edge(111, 113).
edge(16, 139).
edge(101, 143).
edge(51, 97).
edge(8, 79).
edge(28, 71).
edge(78, 107).
edge(36, 47).
edge(29, 63).
edge(39, 99).
edge(14, 60).
edge(42, 140).
edge(30, 129).
edge(14, 79).
edge(30, 32).
edge(72, 83).
edge(7, 59).
edge(0, 27).
edge(53, 72).
edge(81, 105).
edge(76, 121).
edge(13, 31).
edge(102, 126).
edge(110, 132).
edge(38, 66).
edge(131, 139).
edge(28, 80).
edge(19, 141).
edge(118, 141).
edge(18, 40).
edge(18, 23).
edge(34, 49).
edge(30, 84).
edge(34, 67).
edge(66, 103).
edge(113, 115).
edge(96, 137).
edge(48, 142).
edge(3, 37).
edge(52, 71).
edge(5, 96).
edge(1, 61).
edge(2, 48).
edge(35, 121).
edge(109, 133).
edge(6, 106).
edge(97, 142).
edge(103, 113).
edge(93, 95).
edge(3, 24).
edge(72, 92).
edge(35, 107).
edge(45, 125).
edge(84, 94).
edge(52, 130).
edge(48, 110).
edge(51, 84).
edge(3, 41).
edge(13, 93).
edge(42, 131).
edge(97, 130).
edge(47, 96).
edge(20, 78).
edge(23, 98).
edge(69, 111).
edge(26, 93).
edge(92, 93).
edge(1, 60).
edge(56, 107).
edge(44, 114).
edge(77, 105).
edge(41, 44).
edge(90, 97).
edge(51, 61).
edge(92, 140).
edge(13, 127).
edge(25, 50).
edge(43, 66).
edge(85, 98).
edge(21, 95).
edge(80, 99).
edge(15, 140).
edge(77, 119).
edge(28, 128).
edge(78, 86).
edge(68, 85).
edge(61, 63).
edge(85, 137).
edge(91, 95).
edge(59, 110).
edge(53, 105).
edge(36, 64).
edge(50, 59).
edge(25, 86).
edge(99, 109).
edge(9, 117).
edge(27, 130).
edge(83, 85).
edge(23, 63).
edge(18, 54).
edge(101, 110).
edge(76, 105).
edge(0, 48).
edge(2, 10).
edge(18, 84).
edge(32, 133).
edge(30, 97).
edge(78, 120).
edge(24, 97).
edge(2, 74).
edge(64, 117).
edge(127, 138).
edge(51, 125).
edge(20, 46).
edge(19, 133).
edge(1, 138).
edge(3, 129).
edge(45, 50).
edge(117, 139).
edge(34, 130).
edge(13, 83).
edge(4, 87).
edge(38, 50).
edge(77, 126).
edge(21, 113).
edge(0, 89).
edge(112, 137).
edge(38, 122).
edge(48, 56).
edge(62, 115).
edge(26, 39).
edge(65, 102).
edge(7, 122).
edge(12, 90).
edge(12, 46).
edge(51, 58).
edge(18, 77).
edge(37, 125).
edge(107, 123).
edge(82, 127).
edge(7, 134).
edge(58, 143).
edge(102, 133).
edge(55, 141).
edge(6, 70).
edge(2, 95).
edge(2, 92).
edge(51, 117).
edge(19, 128).
edge(6, 62).
edge(27, 39).
edge(60, 74).
edge(35, 142).
edge(23, 41).
edge(9, 19).
edge(102, 132).
edge(19, 42).
edge(88, 113).
edge(24, 74).
edge(21, 79).
edge(32, 57).
edge(64, 96).
edge(68, 141).
edge(43, 140).
edge(7, 8).
edge(69, 86).
edge(58, 90).
edge(27, 65).
edge(10, 131).
edge(74, 90).
edge(33, 69).
edge(52, 55).
edge(63, 126).
edge(4, 23).
edge(83, 135).
edge(44, 143).
edge(97, 114).
edge(79, 144).
edge(9, 130).
edge(73, 122).
edge(67, 83).
edge(48, 115).
edge(77, 86).
edge(76, 110).
edge(12, 76).
edge(76, 130).
edge(76, 81).
edge(6, 63).
edge(50, 140).
edge(10, 44).
edge(108, 128).
edge(31, 125).
edge(128, 144).
edge(3, 10).
edge(90, 117).
edge(41, 128).
edge(46, 143).
edge(34, 118).
edge(54, 85).
edge(73, 129).
edge(8, 128).
edge(110, 122).
edge(100, 139).
edge(25, 34).
edge(62, 109).
edge(77, 127).
edge(17, 97).
edge(89, 112).
edge(44, 106).
edge(46, 94).
edge(36, 121).
edge(42, 51).
edge(44, 80).
edge(63, 121).
edge(8, 30).
edge(5, 140).
edge(20, 142).
edge(49, 79).
edge(59, 104).
edge(23, 89).
edge(30, 48).
edge(65, 85).
edge(124, 128).
edge(67, 102).
edge(100, 104).
edge(81, 107).
edge(9, 20).
edge(46, 113).
edge(73, 98).
edge(8, 51).
edge(60, 127).
edge(88, 96).
edge(47, 69).
edge(85, 96).
edge(30, 35).
edge(48, 71).
edge(64, 142).
edge(80, 135).
edge(94, 144).
edge(15, 25).
edge(83, 100).
edge(43, 74).
edge(72, 104).
edge(22, 94).
edge(14, 35).
edge(53, 58).
edge(63, 76).
edge(78, 118).
edge(75, 80).
edge(10, 66).
edge(46, 72).
edge(81, 91).
edge(100, 136).
edge(27, 56).
edge(27, 119).
edge(8, 21).
edge(40, 64).
edge(0, 15).
edge(74, 121).
edge(22, 66).
edge(0, 5).
edge(59, 131).
edge(37, 41).
edge(60, 113).
edge(13, 38).
edge(12, 32).
edge(15, 118).
edge(22, 82).
edge(98, 104).
edge(7, 13).
edge(32, 127).
edge(9, 140).
edge(133, 141).
edge(99, 134).
edge(44, 56).
edge(53, 122).
edge(33, 41).
edge(46, 104).
edge(31, 72).
edge(40, 61).
edge(7, 37).
edge(29, 92).
edge(2, 122).
edge(42, 53).
edge(16, 117).
edge(47, 84).
edge(13, 99).
edge(118, 123).
edge(122, 140).
edge(57, 61).
edge(89, 131).
edge(101, 136).
edge(25, 127).
edge(47, 126).
edge(92, 122).
edge(22, 113).
edge(103, 133).
edge(115, 134).
edge(14, 129).
edge(31, 49).
edge(66, 116).
edge(48, 122).
edge(63, 111).
edge(32, 78).
edge(77, 133).
edge(121, 141).
edge(73, 125).
edge(3, 79).
edge(65, 67).
edge(44, 73).
edge(44, 125).
edge(22, 27).
edge(2, 86).
edge(4, 42).
edge(4, 28).
edge(69, 85).
edge(100, 137).
edge(62, 92).
edge(2, 61).
edge(55, 111).
edge(58, 100).
edge(16, 94).
edge(5, 23).
edge(36, 108).
edge(7, 61).
edge(48, 125).
edge(18, 81).
edge(24, 80).
edge(24, 47).
edge(77, 108).
edge(86, 101).
edge(2, 55).
edge(18, 62).
edge(37, 44).
edge(93, 143).
edge(23, 27).
edge(70, 98).
edge(43, 47).
edge(52, 125).
edge(26, 141).
edge(2, 88).
edge(79, 124).
edge(9, 28).
edge(99, 133).
edge(27, 82).
edge(31, 98).
edge(15, 47).
edge(111, 117).
edge(45, 97).
edge(32, 113).
edge(28, 138).
edge(74, 105).
edge(39, 67).
edge(105, 144).
edge(12, 65).
edge(35, 141).
edge(80, 117).
edge(39, 106).
edge(72, 115).
edge(106, 114).
edge(109, 125).
edge(94, 97).
edge(51, 68).
edge(48, 131).
edge(113, 125).
edge(30, 134).
edge(128, 141).
edge(117, 130).
edge(109, 120).
edge(54, 115).
edge(35, 49).
edge(77, 109).
edge(24, 51).
edge(30, 67).
edge(7, 102).
edge(16, 89).
edge(75, 106).
edge(91, 97).
edge(10, 15).
edge(8, 11).
edge(23, 28).
edge(20, 70).
edge(56, 110).
edge(50, 101).
edge(21, 93).
edge(33, 44).
edge(74, 91).
edge(65, 134).
edge(53, 78).
edge(13, 61).
edge(11, 131).
edge(38, 102).
edge(67, 132).
edge(135, 140).
edge(46, 122).
edge(78, 85).
edge(93, 132).
edge(35, 55).
edge(60, 132).
edge(55, 115).
edge(37, 78).
edge(12, 49).
edge(35, 61).
edge(63, 132).
edge(64, 103).
edge(7, 16).
edge(57, 137).
edge(63, 137).
edge(113, 128).
edge(45, 71).
edge(66, 86).
edge(25, 69).
edge(72, 109).
edge(78, 110).
edge(29, 50).
edge(8, 106).
edge(8, 27).
edge(34, 131).
edge(122, 126).
edge(21, 62).
edge(54, 56).
edge(24, 132).
edge(21, 97).
edge(133, 140).
edge(4, 108).
edge(93, 113).
edge(39, 88).
edge(6, 41).
edge(47, 121).
edge(100, 134).
edge(47, 87).
edge(62, 103).
edge(67, 74).
edge(35, 137).
edge(17, 43).
edge(101, 116).
edge(31, 39).
edge(3, 62).
edge(21, 86).
edge(39, 119).
edge(19, 134).
edge(98, 103).
edge(21, 75).
edge(22, 36).
edge(62, 82).
edge(82, 122).
edge(16, 82).
edge(67, 120).
edge(63, 113).
edge(43, 85).
edge(105, 135).
edge(78, 83).
edge(62, 120).
edge(8, 141).
edge(81, 137).
edge(41, 87).
edge(5, 103).
edge(72, 94).
edge(62, 140).
edge(26, 64).
edge(7, 76).
edge(41, 72).
edge(28, 96).
edge(12, 98).
edge(3, 92).
edge(28, 78).
edge(17, 92).
edge(39, 71).
edge(39, 135).
edge(60, 80).
edge(39, 50).
edge(47, 71).
edge(1, 80).
edge(104, 131).
edge(40, 72).
edge(1, 74).
edge(29, 126).
edge(71, 135).
edge(138, 139).
edge(11, 101).
edge(66, 110).
edge(52, 94).
edge(73, 77).
edge(9, 49).
edge(92, 133).
edge(59, 142).
edge(48, 129).
edge(42, 105).
edge(11, 17).
edge(38, 44).
edge(25, 53).
edge(21, 108).
edge(41, 62).
edge(28, 83).
edge(21, 100).
edge(45, 126).
edge(85, 123).
edge(106, 142).
edge(41, 46).
edge(23, 46).
edge(62, 78).
edge(84, 116).
edge(15, 67).
edge(0, 22).
edge(117, 118).
edge(14, 39).
edge(110, 139).
edge(108, 116).
edge(10, 48).
edge(49, 88).
edge(21, 45).
edge(74, 93).
edge(74, 138).
edge(56, 114).
edge(45, 99).
edge(89, 99).
edge(72, 106).
edge(4, 110).
edge(16, 70).
edge(30, 40).
edge(132, 137).
edge(63, 128).
edge(20, 130).
edge(19, 47).
edge(9, 106).
edge(67, 137).
edge(82, 113).
edge(7, 118).
edge(32, 77).
edge(82, 132).
edge(51, 87).
edge(50, 98).
edge(48, 51).
edge(7, 63).
edge(30, 108).
edge(15, 28).
edge(7, 107).
edge(33, 45).
edge(128, 134).
edge(43, 60).
edge(22, 23).
edge(14, 46).
edge(77, 79).
edge(27, 72).
edge(69, 94).
edge(29, 52).
edge(15, 83).
edge(56, 69).
edge(72, 117).
edge(2, 29).
edge(23, 49).
edge(42, 118).
edge(58, 129).
edge(2, 28).
edge(9, 124).
edge(70, 110).
edge(2, 70).
edge(9, 58).
edge(78, 111).
edge(88, 90).
edge(124, 127).
edge(64, 93).
edge(8, 94).
edge(104, 133).
edge(50, 51).
edge(0, 100).
edge(2, 96).
edge(51, 72).
edge(112, 135).
edge(15, 138).
edge(19, 135).
edge(15, 93).
edge(80, 137).
edge(86, 116).
edge(52, 75).
edge(16, 59).
edge(15, 111).
edge(48, 69).
edge(56, 96).
edge(40, 82).
edge(84, 105).
edge(28, 102).
edge(87, 112).
edge(14, 128).
edge(56, 71).
edge(23, 82).
edge(59, 106).
edge(83, 143).
edge(27, 136).
edge(114, 123).
edge(43, 138).
edge(40, 141).
edge(54, 84).
edge(25, 91).
edge(34, 65).
edge(110, 124).
edge(17, 128).
edge(81, 111).
edge(94, 139).
edge(24, 96).
edge(44, 110).
edge(7, 39).
edge(61, 117).
edge(107, 110).
edge(53, 109).
edge(81, 109).
edge(22, 51).
edge(2, 135).
edge(1, 4).
edge(87, 100).
edge(21, 39).
edge(17, 52).
edge(5, 63).
edge(67, 96).
edge(102, 110).
edge(28, 73).
edge(50, 71).
edge(2, 60).
edge(84, 113).
edge(66, 128).
edge(71, 133).
edge(30, 52).
edge(14, 93).
edge(17, 37).
edge(118, 129).
edge(35, 103).
edge(1, 93).
edge(94, 110).
edge(0, 108).
edge(66, 118).
edge(45, 123).
edge(42, 75).
edge(21, 71).
edge(72, 86).
edge(63, 67).
edge(11, 46).
edge(59, 126).
edge(23, 40).
edge(70, 81).
edge(23, 25).
edge(68, 98).
edge(112, 143).
edge(45, 93).
edge(97, 135).
edge(10, 95).
edge(98, 108).
edge(68, 69).
edge(104, 120).
edge(99, 141).
edge(33, 126).
edge(5, 73).
edge(63, 65).
edge(68, 125).
edge(17, 133).
edge(56, 73).
edge(96, 117).
edge(36, 69).
edge(1, 86).
edge(65, 90).
edge(22, 81).
edge(74, 88).
edge(105, 106).
edge(78, 122).
edge(34, 120).
edge(11, 96).
edge(8, 29).
edge(42, 85).
edge(45, 95).
edge(136, 144).
edge(69, 137).
edge(95, 112).
edge(122, 124).
edge(29, 42).
edge(26, 49).
edge(79, 111).
edge(91, 128).
edge(47, 83).
edge(38, 53).
edge(32, 134).
edge(32, 48).
edge(136, 137).
edge(59, 103).
edge(116, 127).
edge(17, 109).
edge(11, 123).
edge(76, 128).
edge(52, 129).
edge(100, 105).
edge(74, 117).
edge(26, 140).
edge(13, 47).
edge(42, 142).
edge(54, 144).
edge(7, 18).
edge(28, 124).
edge(13, 78).
edge(52, 92).
edge(28, 38).
edge(2, 12).
edge(1, 84).
edge(74, 95).
edge(34, 126).
edge(51, 106).
edge(58, 122).
edge(58, 118).
edge(86, 120).
edge(41, 121).
edge(83, 104).
edge(38, 73).
edge(56, 91).
edge(28, 104).
edge(11, 25).
edge(128, 130).
edge(6, 107).
edge(31, 115).
edge(82, 115).
edge(78, 106).
edge(39, 101).
edge(12, 60).
edge(19, 79).
edge(37, 65).
edge(3, 33).
edge(103, 124).
edge(40, 59).
edge(41, 104).
edge(109, 143).
edge(3, 143).
edge(29, 81).
edge(104, 111).
edge(57, 113).
edge(13, 98).
edge(79, 121).
edge(34, 88).
edge(91, 135).
edge(70, 86).
edge(10, 69).
edge(40, 91).
edge(14, 87).
edge(104, 127).
edge(94, 112).
edge(10, 114).
edge(63, 64).
edge(42, 82).
edge(0, 111).
edge(20, 60).
edge(87, 95).
edge(40, 131).
edge(62, 75).
edge(49, 112).
edge(62, 102).
edge(94, 142).
edge(51, 100).
edge(20, 138).
edge(76, 90).
edge(16, 64).
edge(27, 85).
edge(94, 98).
edge(74, 125).
edge(116, 132).
edge(23, 54).
edge(10, 93).
edge(32, 118).
edge(8, 57).
edge(10, 121).
edge(48, 90).
edge(20, 144).
edge(29, 101).
edge(22, 53).
edge(30, 37).
edge(75, 119).
edge(17, 121).
edge(9, 78).
edge(80, 136).
edge(58, 111).
edge(39, 52).
edge(112, 123).
edge(21, 91).
edge(123, 140).
edge(10, 124).
edge(63, 79).
edge(74, 137).
edge(38, 97).
edge(17, 48).
edge(55, 93).
edge(4, 24).
edge(88, 128).
edge(48, 121).
edge(20, 119).
edge(14, 137).
edge(33, 59).
edge(71, 112).
edge(98, 117).
edge(65, 110).
edge(69, 123).
edge(34, 142).
edge(1, 18).
edge(29, 106).
edge(36, 142).
edge(22, 95).
edge(4, 22).
edge(103, 125).
edge(112, 124).
edge(36, 104).
edge(77, 91).
edge(31, 63).
edge(31, 43).
edge(18, 66).
edge(27, 107).
edge(139, 142).
edge(2, 68).
edge(107, 135).
edge(36, 133).
edge(73, 89).
edge(3, 102).
edge(61, 82).
edge(30, 98).
edge(6, 125).
edge(66, 89).
edge(26, 132).
edge(125, 142).
edge(5, 28).
edge(11, 60).
edge(70, 87).
edge(5, 92).
edge(122, 138).
edge(21, 33).
edge(0, 102).
edge(46, 47).
edge(96, 103).
edge(37, 117).
edge(77, 136).
edge(1, 62).
edge(14, 120).
edge(29, 112).
edge(73, 132).
edge(48, 134).
edge(99, 115).
edge(42, 83).
edge(20, 57).
edge(18, 83).
edge(33, 130).
edge(87, 119).
edge(52, 68).
edge(26, 88).
edge(41, 54).
edge(16, 37).
edge(4, 144).
edge(108, 113).
edge(59, 93).
edge(127, 142).
edge(26, 47).
edge(53, 121).
edge(75, 139).
edge(18, 126).
edge(121, 138).
edge(101, 128).
edge(73, 109).
edge(59, 79).
edge(43, 65).
edge(50, 55).
edge(1, 64).
edge(1, 107).
edge(6, 16).
edge(17, 136).
edge(69, 77).
edge(25, 142).
edge(27, 40).
edge(16, 110).
edge(109, 134).
edge(26, 87).
edge(81, 87).
edge(15, 98).
edge(40, 41).
edge(62, 95).
edge(3, 113).
edge(82, 120).
edge(67, 103).
edge(0, 14).
edge(29, 104).
edge(69, 97).
edge(83, 136).
edge(23, 30).
edge(11, 90).
edge(27, 109).
edge(69, 122).
edge(59, 80).
edge(50, 113).
edge(67, 92).
edge(70, 107).
edge(2, 13).
edge(79, 128).
edge(109, 135).
edge(5, 93).
edge(84, 123).
edge(13, 116).
edge(31, 103).
edge(91, 123).
edge(99, 127).
edge(74, 123).
edge(9, 25).
edge(28, 114).
edge(7, 14).
edge(58, 81).
edge(13, 115).
edge(8, 34).
edge(8, 96).
edge(38, 76).
edge(44, 107).
edge(40, 119).
edge(81, 122).
edge(90, 127).
edge(3, 65).
edge(52, 74).
edge(110, 118).
edge(11, 48).
edge(64, 100).
edge(8, 108).
edge(45, 118).
edge(76, 86).
edge(42, 70).
edge(79, 102).
edge(34, 111).
edge(58, 131).
edge(27, 48).
edge(76, 140).
edge(3, 135).
edge(131, 136).
edge(1, 92).
edge(29, 44).
edge(22, 126).
edge(87, 105).
edge(1, 59).
edge(66, 67).
edge(46, 127).
edge(77, 97).
edge(44, 85).
edge(37, 59).
edge(41, 114).
edge(13, 128).
edge(62, 108).
edge(47, 141).
edge(60, 71).
edge(13, 14).
edge(91, 127).
edge(25, 107).
edge(8, 33).
edge(95, 111).
edge(80, 82).
edge(3, 38).
edge(15, 127).
edge(96, 113).
edge(37, 107).
edge(40, 113).
edge(89, 101).
edge(55, 126).
edge(30, 116).
edge(90, 93).
edge(35, 93).
edge(35, 133).
edge(23, 53).
edge(10, 97).
edge(43, 84).
edge(6, 71).
edge(4, 10).
edge(15, 57).
edge(43, 117).
edge(41, 143).
edge(11, 27).
edge(129, 136).
edge(11, 24).
edge(50, 88).
edge(53, 90).
edge(15, 134).
edge(90, 98).
edge(52, 56).
edge(59, 83).
edge(62, 98).
edge(69, 100).
edge(31, 144).
edge(48, 83).
edge(76, 96).
edge(0, 106).
edge(106, 130).
edge(30, 63).
edge(37, 144).
edge(78, 93).
edge(38, 120).
edge(49, 121).
edge(19, 23).
edge(62, 100).
edge(102, 106).
edge(40, 74).
edge(122, 130).
edge(44, 100).
edge(120, 140).
edge(123, 130).
edge(45, 68).
edge(35, 67).
edge(47, 142).
edge(5, 115).
edge(16, 119).
edge(42, 130).
edge(7, 41).
edge(71, 144).
edge(18, 33).
edge(24, 99).
edge(77, 123).
edge(65, 114).
edge(51, 94).
edge(19, 117).
edge(32, 42).
edge(13, 60).
edge(29, 111).
edge(9, 40).
edge(53, 135).
edge(37, 84).
edge(8, 70).
edge(3, 105).
edge(1, 63).
edge(46, 102).
edge(17, 118).
edge(94, 107).
edge(23, 115).
edge(7, 27).
edge(52, 65).
edge(24, 125).
edge(105, 108).
edge(57, 82).
edge(57, 94).
edge(40, 55).
edge(21, 114).
edge(117, 128).
edge(83, 121).
edge(43, 113).
edge(1, 5).
edge(13, 95).
edge(8, 117).
edge(7, 136).
edge(85, 125).
edge(109, 122).
edge(0, 3).
edge(46, 90).
edge(51, 109).
edge(38, 121).
edge(12, 26).
edge(63, 133).
edge(28, 50).
edge(17, 44).
edge(13, 129).
edge(26, 119).
edge(33, 57).
edge(42, 44).
edge(67, 106).
edge(92, 94).
edge(63, 68).
edge(42, 56).
edge(65, 80).
edge(17, 54).
edge(102, 111).
edge(48, 61).
edge(23, 48).
edge(19, 113).
edge(96, 110).
edge(46, 91).
edge(65, 122).
edge(63, 136).
edge(75, 104).
edge(102, 108).
edge(8, 118).
edge(57, 114).
edge(23, 71).
edge(27, 121).
edge(28, 70).
edge(36, 138).
edge(74, 101).
edge(47, 73).
edge(6, 20).
edge(14, 15).
edge(97, 112).
edge(118, 139).
edge(5, 144).
edge(113, 135).
edge(18, 103).
edge(25, 81).
edge(61, 112).
edge(64, 104).
edge(13, 89).
edge(74, 76).
edge(17, 21).
edge(82, 112).
edge(71, 139).
edge(2, 9).
edge(34, 58).
edge(50, 61).
edge(28, 56).
edge(75, 81).
edge(61, 113).
edge(93, 138).
edge(125, 132).
edge(97, 111).
edge(29, 100).
edge(19, 49).
edge(83, 98).
edge(21, 85).
edge(27, 90).
edge(14, 25).
edge(77, 116).
edge(41, 81).
edge(99, 105).
edge(44, 86).
edge(73, 84).
edge(105, 134).
edge(71, 118).
edge(17, 25).
edge(90, 122).
edge(62, 67).
edge(46, 98).
edge(8, 46).
edge(21, 47).
edge(47, 112).
edge(53, 68).
edge(2, 102).
edge(70, 82).
edge(10, 32).
edge(32, 82).
edge(51, 98).
edge(30, 42).
edge(1, 48).
edge(18, 78).
edge(43, 83).
edge(75, 133).
edge(14, 140).
edge(15, 124).
edge(46, 140).
edge(88, 138).
edge(35, 122).
edge(83, 137).
edge(99, 114).
edge(16, 17).
edge(3, 68).
edge(82, 133).
edge(67, 130).
edge(90, 142).
edge(94, 99).
edge(26, 44).
edge(54, 77).
edge(2, 138).
edge(59, 141).
edge(15, 72).
edge(99, 137).
edge(11, 110).
edge(0, 40).
edge(10, 108).
edge(1, 28).
edge(71, 98).
edge(108, 129).
edge(28, 115).
edge(45, 132).
edge(133, 138).
edge(17, 35).
edge(5, 61).
edge(6, 39).
edge(72, 123).
edge(117, 138).
edge(17, 60).
edge(56, 100).
edge(41, 69).
edge(41, 135).
edge(40, 73).
edge(36, 134).
edge(17, 18).
edge(2, 27).
edge(67, 114).
edge(21, 139).
edge(107, 138).
edge(103, 121).
edge(16, 140).
edge(59, 129).
edge(4, 138).
edge(80, 115).
edge(2, 72).
edge(3, 144).
edge(64, 133).
edge(80, 89).
edge(24, 112).
edge(12, 73).
edge(94, 108).
edge(109, 114).
edge(37, 71).
edge(38, 64).
edge(39, 48).
edge(109, 124).
edge(38, 129).
edge(17, 45).
edge(15, 40).
edge(24, 88).
edge(57, 60).
edge(21, 121).
edge(4, 115).
edge(130, 134).
edge(59, 88).
edge(31, 131).
edge(111, 144).
edge(53, 110).
edge(34, 144).
edge(112, 127).
edge(95, 136).
edge(38, 62).
edge(99, 116).
edge(65, 79).
edge(21, 144).
edge(26, 30).
edge(26, 109).
edge(63, 144).
edge(24, 105).
edge(15, 52).
edge(4, 104).
edge(9, 48).
edge(84, 92).
edge(35, 60).
edge(67, 129).
edge(86, 141).
edge(3, 118).
edge(127, 137).
edge(101, 119).
edge(34, 74).
edge(79, 123).
edge(2, 21).
edge(62, 125).
edge(13, 139).
edge(20, 93).
edge(26, 80).
edge(12, 61).
edge(9, 51).
edge(41, 95).
edge(75, 88).
edge(45, 144).
edge(20, 25).
edge(33, 52).
edge(43, 72).
edge(31, 84).
edge(91, 124).
edge(7, 31).
edge(87, 144).
edge(75, 93).
edge(76, 91).
edge(105, 123).
edge(36, 127).
edge(9, 11).
edge(49, 83).
edge(20, 134).
edge(0, 143).
edge(16, 67).
edge(30, 140).
edge(74, 131).
edge(0, 13).
edge(113, 137).
edge(59, 87).
edge(92, 120).
edge(14, 135).
edge(69, 110).
edge(38, 93).
edge(7, 65).
edge(101, 139).
edge(28, 119).
edge(73, 124).
edge(97, 105).
edge(72, 143).
edge(19, 85).
edge(26, 52).
edge(16, 39).
edge(86, 94).
edge(11, 122).
edge(79, 139).
edge(8, 133).
edge(2, 3).
edge(55, 76).
edge(37, 132).
edge(44, 131).
edge(20, 96).
edge(71, 105).
edge(51, 79).
edge(42, 63).
edge(30, 78).
edge(7, 26).
edge(18, 75).
edge(13, 19).
edge(76, 89).
edge(80, 116).
edge(87, 125).
edge(81, 135).
edge(43, 95).
edge(123, 144).
edge(82, 124).
edge(32, 140).
edge(24, 120).
edge(43, 132).
edge(19, 124).
edge(40, 90).
edge(5, 109).
edge(30, 54).
edge(52, 59).
edge(70, 125).
edge(90, 119).
edge(9, 97).
edge(48, 60).
edge(5, 107).
edge(12, 125).
edge(54, 123).
edge(25, 100).
edge(39, 76).
edge(44, 109).
edge(19, 144).
edge(80, 107).
edge(61, 86).
edge(40, 118).
edge(61, 104).
edge(28, 29).
edge(131, 134).
edge(54, 122).
edge(48, 92).
edge(63, 119).
edge(97, 121).
edge(127, 128).
edge(54, 86).
edge(106, 124).
edge(9, 81).
edge(49, 59).
edge(9, 69).
edge(63, 118).
edge(7, 15).
edge(45, 67).
edge(4, 129).
edge(37, 102).
edge(17, 55).
edge(9, 74).
edge(53, 141).
edge(33, 60).
edge(73, 123).
edge(73, 92).
edge(45, 80).
edge(10, 117).
edge(25, 93).
edge(60, 79).
edge(37, 75).
edge(11, 59).
edge(12, 127).
edge(98, 137).
edge(17, 130).
edge(46, 65).
edge(12, 122).
edge(36, 68).
edge(47, 77).
edge(4, 96).
edge(66, 72).
edge(82, 101).
edge(21, 46).
edge(0, 78).
edge(84, 95).
edge(77, 125).
edge(45, 46).
edge(17, 125).
edge(18, 91).
edge(49, 86).
edge(7, 81).
edge(42, 91).
edge(60, 102).
edge(49, 132).
edge(17, 111).
edge(29, 124).
edge(94, 95).
edge(28, 126).
edge(67, 86).
edge(19, 62).
edge(38, 99).
edge(87, 142).
edge(85, 118).
edge(44, 117).
edge(9, 128).
edge(34, 76).
edge(34, 73).
edge(25, 103).
edge(1, 25).
edge(0, 37).
edge(81, 110).
edge(63, 86).
edge(56, 137).
edge(39, 118).
edge(110, 137).
edge(2, 77).
edge(41, 77).
edge(26, 108).
edge(62, 138).
edge(71, 129).
edge(36, 56).
edge(16, 118).
edge(61, 100).
edge(92, 144).
edge(107, 115).
edge(36, 37).
edge(51, 142).
edge(54, 133).
edge(12, 35).
edge(3, 104).
edge(9, 45).
edge(107, 141).
edge(26, 90).
edge(0, 67).
edge(31, 118).
edge(75, 77).
edge(83, 128).
edge(11, 52).
edge(54, 139).
edge(95, 141).
edge(105, 141).
edge(21, 52).
edge(118, 124).
edge(31, 124).
edge(66, 140).
edge(22, 100).
edge(24, 59).
edge(68, 119).
edge(125, 129).
edge(93, 109).
edge(13, 66).
edge(88, 131).
edge(17, 30).
edge(44, 92).
edge(12, 33).
edge(106, 140).
edge(12, 77).
edge(93, 135).
edge(31, 106).
edge(12, 67).
edge(33, 103).
edge(66, 124).
edge(9, 119).
edge(84, 130).
edge(103, 105).
edge(9, 68).
edge(55, 61).
edge(55, 91).
edge(22, 96).
edge(10, 56).
edge(94, 143).
edge(9, 18).
edge(4, 134).
edge(27, 36).
edge(5, 10).
edge(62, 88).
edge(66, 107).
edge(20, 105).
edge(10, 81).
edge(81, 93).
edge(14, 30).
edge(108, 139).
edge(28, 103).
edge(46, 125).
edge(82, 129).
edge(68, 81).
edge(12, 111).
edge(47, 75).
edge(22, 56).
edge(29, 137).
edge(22, 110).
edge(45, 112).
edge(10, 77).
edge(95, 137).
edge(14, 40).
edge(28, 117).
edge(91, 99).
edge(62, 83).
edge(108, 110).
edge(25, 141).
edge(28, 139).
edge(118, 127).
edge(68, 70).
edge(50, 97).
edge(34, 75).
edge(30, 34).
edge(76, 108).
edge(61, 136).
edge(80, 95).
edge(100, 109).
edge(27, 84).
edge(31, 140).
edge(2, 49).
edge(21, 118).
edge(128, 139).
edge(14, 100).
edge(18, 94).
edge(17, 36).
edge(13, 30).
edge(72, 105).
edge(131, 132).
edge(8, 76).
edge(93, 108).
edge(27, 32).
edge(50, 95).
edge(20, 97).
edge(63, 89).
edge(2, 98).
edge(27, 76).
edge(123, 137).
edge(118, 128).
edge(52, 63).
edge(9, 65).
edge(79, 125).
edge(39, 100).
edge(27, 74).
edge(46, 142).
edge(23, 101).
edge(102, 128).
edge(73, 113).
edge(65, 109).
edge(135, 139).
edge(71, 132).
edge(14, 91).
edge(89, 116).
edge(47, 92).
edge(22, 32).
edge(1, 65).
edge(51, 99).
edge(71, 76).
edge(49, 94).
edge(48, 78).
edge(136, 141).
edge(58, 91).
edge(60, 134).
edge(49, 58).
edge(89, 137).
edge(102, 135).
edge(81, 134).
edge(92, 119).
edge(18, 74).
edge(24, 34).
edge(39, 45).
edge(106, 116).
edge(18, 88).
edge(66, 139).
edge(62, 72).
edge(45, 122).
edge(24, 32).
edge(18, 82).
edge(35, 109).
edge(87, 114).
edge(14, 138).
edge(41, 60).
edge(61, 137).
edge(4, 80).
edge(34, 140).
edge(92, 106).
edge(24, 78).
edge(0, 110).
edge(130, 132).
edge(6, 96).
edge(24, 129).
edge(122, 133).
edge(14, 123).
edge(6, 75).
edge(32, 109).
edge(12, 123).
edge(8, 14).
edge(33, 62).
edge(44, 128).
edge(53, 79).
edge(21, 106).
edge(58, 125).
edge(74, 89).
edge(5, 98).
edge(20, 38).
edge(9, 131).
edge(24, 139).
edge(76, 122).
edge(36, 74).
edge(60, 76).
edge(86, 133).
edge(9, 118).
edge(9, 143).
edge(14, 78).
edge(54, 106).
edge(121, 140).
edge(64, 107).
edge(16, 61).
edge(107, 129).
edge(28, 106).
edge(14, 70).
edge(9, 43).
edge(39, 113).
edge(58, 69).
edge(48, 138).
edge(45, 64).
edge(74, 126).
edge(60, 66).
edge(110, 127).
edge(104, 134).
edge(92, 110).
edge(50, 137).
edge(10, 85).
edge(87, 132).
edge(3, 53).
edge(106, 134).
edge(59, 68).
edge(30, 124).
edge(54, 92).
edge(52, 110).
edge(13, 39).
edge(20, 108).
edge(17, 143).
edge(17, 61).
edge(24, 39).
edge(19, 75).
edge(80, 129).
edge(11, 124).
edge(73, 82).
edge(19, 69).
edge(4, 131).
edge(6, 114).
edge(3, 4).
edge(18, 95).
edge(41, 98).
edge(23, 127).
edge(59, 112).
edge(1, 23).
edge(2, 106).
edge(38, 135).
edge(1, 29).
edge(119, 143).
edge(56, 97).
edge(54, 101).
edge(103, 106).
edge(66, 101).
edge(62, 90).
edge(44, 67).
edge(37, 83).
edge(38, 57).
edge(3, 73).
edge(77, 92).
edge(57, 89).
edge(19, 53).
edge(33, 90).
edge(84, 131).
edge(29, 90).
edge(48, 86).
edge(23, 117).
edge(94, 117).
edge(95, 117).
edge(6, 111).
edge(68, 135).
edge(67, 142).
edge(18, 107).
edge(81, 92).
edge(32, 123).
edge(48, 96).
edge(64, 139).
edge(75, 98).
edge(78, 82).
edge(24, 36).
edge(38, 45).
edge(22, 33).
edge(82, 100).
edge(129, 140).
edge(30, 59).
edge(14, 18).
edge(63, 120).
edge(34, 121).
edge(0, 144).
edge(55, 96).
edge(28, 136).
edge(80, 138).
edge(75, 128).
edge(24, 100).
edge(3, 125).
edge(38, 71).
edge(55, 131).
edge(61, 74).
edge(40, 97).
edge(27, 80).
edge(7, 144).
edge(96, 98).
edge(88, 125).
edge(31, 55).
edge(83, 120).
edge(61, 88).
edge(76, 137).
edge(22, 127).
edge(89, 102).
edge(28, 32).
edge(76, 134).
edge(20, 98).
edge(18, 38).
edge(51, 92).
edge(40, 68).
edge(5, 83).
edge(29, 53).
edge(44, 136).
edge(115, 127).
edge(0, 62).
edge(40, 122).
edge(8, 143).
edge(7, 137).
edge(70, 140).
edge(0, 83).
edge(56, 105).
edge(64, 128).
edge(123, 128).
edge(5, 30).
edge(66, 144).
edge(2, 38).
edge(36, 85).
edge(26, 84).
edge(24, 67).
edge(12, 139).
edge(21, 107).
edge(43, 98).
edge(31, 52).
edge(29, 69).
edge(115, 132).
edge(94, 133).
edge(8, 120).
edge(31, 123).
edge(93, 124).
edge(29, 116).
edge(8, 92).
edge(37, 124).
edge(52, 143).
edge(72, 126).
edge(88, 116).
edge(5, 22).
edge(18, 21).
edge(29, 43).
edge(103, 135).
edge(101, 113).
edge(77, 107).
edge(23, 42).
edge(71, 107).
edge(36, 42).
edge(81, 126).
edge(6, 109).
edge(21, 84).
edge(33, 99).
edge(53, 61).
edge(66, 106).
edge(97, 103).
edge(51, 118).
edge(38, 125).
edge(122, 132).
edge(44, 97).
edge(61, 91).
edge(45, 87).
edge(3, 112).
edge(41, 90).
edge(18, 110).
edge(26, 40).
edge(1, 111).
edge(14, 22).
edge(15, 107).
edge(62, 97).
edge(22, 105).
edge(55, 143).
edge(33, 40).
edge(14, 56).
edge(56, 70).
edge(115, 129).
edge(61, 106).
edge(117, 124).
edge(104, 138).
edge(20, 127).
edge(52, 137).
edge(54, 75).
edge(61, 78).
edge(24, 103).
edge(72, 73).
edge(26, 122).
edge(37, 56).
edge(54, 107).
edge(12, 42).
edge(82, 121).
edge(86, 95).
edge(46, 68).
edge(49, 84).
edge(12, 13).
edge(56, 86).
edge(73, 78).
edge(0, 1).
edge(49, 71).
edge(7, 38).
edge(61, 114).
edge(37, 53).
edge(29, 89).
edge(50, 142).
edge(49, 114).
edge(35, 83).
edge(61, 125).
edge(111, 115).
edge(49, 129).
edge(73, 88).
edge(88, 112).
edge(1, 17).
edge(72, 93).
edge(47, 129).
edge(85, 107).
edge(43, 81).
edge(12, 34).
edge(127, 139).
edge(33, 80).
edge(106, 120).
edge(77, 117).
edge(1, 16).
edge(6, 58).
edge(102, 109).
edge(75, 113).
edge(82, 114).
edge(36, 100).
edge(19, 24).
edge(50, 115).
edge(18, 25).
edge(55, 107).
edge(24, 68).
edge(10, 38).
edge(43, 107).
edge(111, 131).
edge(47, 57).
edge(117, 137).
edge(16, 100).
edge(11, 121).
edge(104, 117).
edge(42, 86).
edge(80, 94).
edge(68, 84).
edge(71, 103).
edge(10, 37).
edge(118, 120).
edge(47, 93).
edge(80, 125).
edge(31, 117).
edge(45, 66).
edge(62, 142).
edge(31, 35).
edge(16, 46).
edge(59, 71).
edge(10, 28).
edge(92, 141).
edge(11, 32).
edge(70, 73).
edge(45, 110).
edge(1, 101).
edge(4, 48).
edge(20, 100).
edge(41, 57).
edge(37, 103).
edge(78, 113).
edge(35, 70).
edge(111, 143).
edge(3, 99).
edge(48, 101).
edge(38, 144).
edge(33, 53).
edge(96, 124).
edge(9, 66).
edge(18, 27).
edge(66, 142).
edge(10, 27).
edge(32, 128).
edge(93, 128).
edge(29, 115).
edge(47, 135).
edge(86, 112).
edge(69, 113).
edge(35, 100).
edge(29, 72).
edge(113, 123).
edge(7, 83).
edge(44, 126).
edge(11, 53).
edge(23, 67).
edge(22, 135).
edge(42, 124).
edge(4, 40).
edge(67, 134).
edge(82, 131).
edge(27, 137).
edge(74, 103).
edge(4, 33).
edge(82, 84).
edge(10, 143).
edge(130, 142).
edge(9, 73).
edge(109, 119).
edge(51, 95).
edge(33, 113).
edge(89, 98).
edge(9, 105).
edge(1, 55).
edge(11, 65).
edge(68, 126).
edge(130, 133).
edge(10, 42).
edge(67, 75).
edge(15, 139).
edge(71, 102).
edge(71, 113).
edge(81, 136).
edge(82, 102).
edge(47, 104).
edge(65, 105).
edge(2, 47).
edge(47, 120).
edge(38, 142).
edge(33, 138).
edge(7, 124).
edge(35, 106).
edge(91, 143).
edge(98, 102).
edge(22, 115).
edge(8, 17).
edge(22, 124).
edge(55, 95).
edge(35, 108).
edge(64, 67).
edge(55, 86).
edge(52, 87).
edge(116, 143).
edge(77, 78).
edge(23, 118).
edge(57, 103).
edge(33, 106).
edge(78, 144).
edge(53, 132).
edge(81, 114).
edge(23, 90).
edge(91, 125).
edge(45, 92).
edge(78, 137).
edge(110, 133).
edge(43, 103).
edge(13, 110).
edge(94, 136).
edge(5, 32).
edge(51, 141).
edge(16, 41).
edge(35, 126).
edge(45, 83).
edge(42, 126).
edge(58, 104).
edge(6, 45).
edge(26, 103).
edge(59, 81).
edge(65, 83).
edge(48, 81).
edge(19, 89).
edge(71, 136).
edge(92, 107).
edge(23, 55).
edge(49, 115).
edge(87, 120).
edge(2, 69).
edge(23, 106).
edge(4, 94).
edge(44, 103).
edge(25, 111).
edge(33, 87).
edge(38, 119).
edge(10, 53).
edge(47, 74).
edge(81, 127).
edge(45, 47).
edge(71, 140).
edge(0, 92).
edge(114, 132).
edge(27, 77).
edge(33, 134).
edge(10, 67).
edge(89, 130).
edge(61, 92).
edge(7, 84).
edge(34, 80).
edge(25, 40).
edge(27, 79).
edge(56, 85).
edge(41, 66).
edge(17, 40).
edge(24, 127).
edge(42, 136).
edge(35, 41).
edge(67, 110).
edge(4, 65).
edge(77, 140).
edge(49, 78).
edge(87, 91).
edge(40, 54).
edge(26, 60).
edge(20, 64).
edge(13, 75).
edge(35, 79).
edge(18, 79).
edge(8, 15).
edge(132, 140).
edge(71, 142).
edge(8, 98).
edge(61, 116).
edge(107, 124).
edge(101, 137).
edge(108, 118).
edge(105, 139).
edge(13, 126).
edge(92, 139).
edge(3, 100).
edge(27, 126).
edge(3, 42).
edge(7, 34).
edge(55, 116).
edge(49, 91).
edge(95, 143).
edge(19, 109).
edge(25, 57).
edge(110, 129).
edge(1, 31).
edge(98, 130).
edge(8, 48).
edge(22, 90).
edge(23, 56).
edge(9, 37).
edge(117, 140).
edge(88, 94).
edge(86, 113).
edge(68, 80).
edge(57, 102).
edge(103, 126).
edge(82, 105).
edge(3, 108).
edge(62, 110).
edge(15, 38).
edge(9, 57).
edge(112, 126).
edge(8, 95).
edge(97, 100).
edge(31, 61).
edge(48, 50).
edge(87, 140).
edge(65, 130).
edge(77, 118).
edge(30, 136).
edge(2, 59).
edge(68, 107).
edge(74, 107).
edge(42, 99).
edge(50, 135).
edge(59, 109).
edge(28, 111).
edge(35, 66).
edge(3, 75).
edge(38, 47).
edge(57, 83).
edge(15, 114).
edge(79, 117).
edge(38, 74).
edge(77, 135).
edge(116, 123).
edge(34, 47).
edge(15, 65).
edge(44, 84).
edge(1, 49).
edge(9, 139).
edge(87, 99).
edge(1, 35).
edge(43, 99).
edge(52, 66).
edge(19, 70).
edge(42, 67).
edge(1, 97).
edge(58, 107).
edge(26, 55).
edge(50, 144).
edge(0, 39).
edge(78, 89).
edge(39, 73).
edge(58, 67).
edge(33, 88).
edge(43, 87).
edge(119, 129).
edge(12, 18).
edge(45, 141).
edge(7, 12).
edge(7, 19).
edge(36, 109).
edge(87, 116).
edge(114, 118).
edge(46, 85).
edge(88, 97).
edge(15, 88).
edge(49, 74).
edge(11, 135).
edge(46, 101).
edge(0, 4).
edge(1, 114).
edge(12, 100).
edge(68, 77).
edge(18, 60).
edge(7, 125).
edge(65, 135).
edge(96, 107).
edge(85, 99).
edge(68, 112).
edge(6, 126).
edge(27, 125).
edge(93, 94).
edge(26, 78).
edge(92, 128).
edge(15, 19).
edge(61, 105).
edge(50, 54).
edge(55, 144).
edge(54, 79).
edge(37, 118).
edge(15, 23).
edge(53, 75).
edge(32, 98).
edge(83, 118).
edge(137, 139).
edge(10, 71).
edge(3, 141).
edge(118, 131).
edge(8, 19).
edge(4, 90).
edge(23, 104).
edge(24, 104).
edge(30, 39).
edge(33, 50).
edge(90, 123).
edge(23, 122).
edge(72, 130).
edge(102, 113).
edge(82, 88).
edge(95, 100).
edge(41, 141).
edge(125, 137).
edge(25, 120).
edge(78, 119).
edge(94, 100).
edge(47, 56).
edge(100, 103).
edge(26, 96).
edge(35, 86).
edge(54, 71).
edge(73, 119).
edge(79, 120).
edge(66, 109).
edge(60, 117).
edge(65, 137).
edge(41, 91).
edge(16, 25).
edge(36, 126).
edge(100, 125).
edge(54, 73).
edge(12, 14).
edge(46, 128).
edge(39, 115).
edge(5, 95).
edge(46, 76).
edge(133, 134).
edge(71, 116).
edge(52, 133).
edge(34, 122).
edge(18, 30).
edge(70, 120).
edge(28, 134).
edge(60, 119).
edge(25, 82).
edge(72, 80).
edge(3, 31).
edge(34, 129).
edge(49, 104).
edge(64, 136).
edge(79, 99).
edge(85, 110).
edge(38, 107).
edge(75, 137).
edge(104, 121).
edge(79, 134).
edge(42, 98).
edge(108, 114).
edge(41, 65).
edge(51, 104).
edge(32, 66).
edge(119, 134).
edge(5, 101).
edge(26, 118).
edge(108, 136).
edge(83, 106).
edge(19, 131).
edge(59, 74).
edge(10, 129).
edge(23, 72).
edge(74, 84).
edge(2, 42).
edge(39, 51).
edge(51, 78).
edge(5, 117).
edge(43, 52).
edge(66, 132).
edge(82, 141).
edge(39, 85).
edge(81, 97).
edge(20, 110).
edge(41, 124).
edge(32, 39).
edge(31, 138).
edge(49, 130).
edge(42, 45).
edge(6, 84).
edge(56, 106).
edge(23, 70).
edge(5, 88).
edge(41, 47).
edge(40, 103).
edge(40, 51).
edge(113, 136).
edge(65, 70).
edge(32, 62).
edge(0, 11).
edge(98, 116).
edge(89, 96).
edge(70, 94).
edge(118, 137).
edge(3, 17).
edge(45, 107).
edge(91, 139).
edge(51, 139).
edge(106, 107).
edge(59, 105).
edge(117, 142).
edge(3, 25).
edge(10, 79).
edge(7, 30).
edge(13, 15).
edge(60, 86).
edge(32, 89).
edge(126, 133).
edge(73, 86).
edge(7, 98).
edge(78, 138).
edge(54, 57).
edge(26, 142).
edge(36, 54).
edge(81, 84).
edge(3, 140).
edge(39, 44).
edge(131, 144).
edge(50, 131).
edge(29, 96).
edge(41, 85).
edge(61, 115).
edge(87, 139).
edge(21, 136).
edge(62, 118).
edge(65, 119).
edge(6, 42).
edge(68, 115).
edge(38, 39).
edge(17, 116).
edge(19, 100).
edge(67, 128).
edge(42, 48).
edge(55, 135).
edge(76, 136).
edge(23, 105).
edge(36, 45).
edge(74, 85).
edge(32, 141).
edge(15, 76).
edge(24, 82).
edge(100, 101).
edge(8, 13).
edge(19, 90).
edge(134, 141).
edge(46, 107).
edge(62, 77).
edge(14, 36).
edge(96, 143).
edge(10, 14).
edge(51, 129).
edge(48, 132).
edge(3, 114).
edge(4, 123).
edge(28, 132).
edge(27, 113).
edge(38, 83).
edge(33, 94).
edge(13, 97).
edge(38, 136).
edge(5, 126).
edge(99, 111).
edge(93, 144).
edge(43, 133).
edge(93, 142).
edge(46, 56).
edge(7, 20).
edge(9, 61).
edge(57, 80).
edge(35, 54).
edge(41, 122).
edge(41, 130).
edge(86, 92).
edge(91, 101).
edge(123, 129).
edge(5, 121).
edge(6, 89).
edge(19, 130).
edge(2, 67).
edge(101, 142).
edge(106, 135).
edge(70, 132).
edge(36, 48).
edge(23, 137).
edge(38, 134).
edge(3, 8).
edge(23, 91).
edge(91, 136).
edge(10, 103).
edge(129, 131).
edge(49, 143).
edge(21, 129).
edge(24, 94).
edge(22, 119).
edge(6, 92).
edge(53, 95).
edge(49, 55).
edge(32, 91).
edge(31, 56).
edge(25, 132).
edge(106, 127).
edge(29, 109).
edge(15, 56).
edge(85, 89).
edge(55, 67).
edge(27, 100).
edge(37, 82).
edge(19, 71).
edge(31, 142).
edge(30, 88).
edge(62, 129).
edge(45, 82).
edge(131, 143).
edge(78, 136).
edge(22, 46).
edge(108, 121).
edge(31, 96).
edge(15, 31).
edge(107, 118).
edge(84, 107).
edge(58, 59).
edge(31, 45).
edge(66, 82).
edge(15, 95).
edge(123, 134).
edge(63, 107).
edge(6, 105).
edge(64, 125).
edge(16, 52).
edge(6, 60).
edge(85, 94).
edge(61, 129).
edge(40, 115).
edge(123, 132).
edge(72, 85).
edge(50, 73).
edge(9, 15).
edge(76, 101).
edge(74, 134).
edge(61, 101).
edge(72, 100).
edge(63, 122).
edge(31, 97).
edge(58, 123).
edge(21, 35).
edge(81, 143).
edge(17, 29).
edge(79, 106).
edge(2, 121).
edge(59, 118).
edge(36, 118).
edge(116, 121).
edge(32, 88).
edge(13, 69).
edge(54, 113).
edge(13, 92).
edge(57, 85).
edge(21, 31).
edge(56, 74).
edge(9, 84).
edge(12, 116).
edge(107, 121).
edge(49, 137).
edge(26, 57).
edge(68, 88).
edge(58, 99).
edge(4, 41).
edge(20, 137).
edge(29, 86).
edge(67, 99).
edge(100, 138).
edge(46, 136).
edge(15, 103).
edge(108, 131).
edge(70, 71).
edge(19, 56).
edge(74, 87).
edge(1, 71).
edge(16, 58).
edge(88, 93).
edge(51, 80).
edge(27, 42).
edge(6, 103).
edge(85, 91).
edge(11, 21).
edge(83, 87).
edge(74, 133).
edge(87, 115).
edge(37, 110).
edge(78, 134).
edge(38, 68).
edge(54, 90).
edge(94, 96).
edge(76, 111).
edge(30, 75).
edge(34, 127).
edge(51, 73).
edge(102, 138).
edge(38, 117).
edge(46, 82).
edge(48, 68).
edge(28, 64).
edge(47, 98).
edge(8, 65).
edge(65, 95).
edge(121, 133).
edge(27, 131).
edge(47, 64).
edge(50, 96).
edge(112, 134).
edge(49, 73).
edge(43, 124).
edge(47, 110).
edge(7, 68).
edge(6, 19).
edge(29, 34).
edge(19, 110).
edge(63, 85).
edge(85, 120).
edge(49, 142).
edge(20, 59).
edge(56, 113).
edge(114, 142).
edge(107, 133).
edge(45, 114).
edge(83, 127).
edge(11, 55).
edge(129, 130).
edge(52, 53).
edge(33, 132).
edge(14, 32).
edge(1, 13).
edge(13, 84).
edge(52, 118).
edge(55, 114).
edge(55, 97).
edge(1, 88).
edge(2, 43).
edge(53, 117).
edge(16, 135).
edge(13, 112).
edge(84, 120).
edge(31, 136).
edge(86, 118).
edge(57, 87).
edge(33, 58).
edge(89, 104).
edge(47, 72).
edge(93, 122).
edge(16, 116).
edge(85, 88).
edge(19, 120).
edge(100, 118).
edge(23, 37).
edge(107, 134).
edge(130, 135).
edge(20, 75).
edge(41, 82).
edge(7, 60).
edge(49, 105).
edge(8, 99).
edge(0, 26).
edge(55, 57).
edge(3, 52).
edge(41, 42).
edge(39, 70).
edge(4, 81).
edge(20, 61).
edge(87, 97).
edge(48, 109).
edge(57, 110).
edge(33, 71).
edge(32, 64).
edge(17, 129).
edge(52, 77).
edge(40, 143).
edge(46, 80).
edge(6, 87).
edge(23, 86).
edge(61, 98).
edge(0, 74).
edge(68, 71).
edge(68, 138).
edge(68, 100).
edge(41, 118).
edge(98, 128).
edge(43, 68).
edge(11, 37).
edge(20, 125).
edge(64, 124).
edge(109, 113).
edge(57, 141).
edge(61, 90).
edge(54, 72).
edge(37, 62).
edge(4, 62).
edge(25, 43).
edge(6, 7).
edge(28, 107).
edge(17, 41).
edge(34, 63).
edge(14, 21).
edge(25, 74).
edge(69, 118).
edge(52, 140).
edge(79, 133).
edge(19, 77).
edge(20, 58).
edge(78, 116).
edge(98, 134).
edge(17, 78).
edge(19, 28).
edge(15, 131).
edge(60, 101).
edge(22, 54).
edge(10, 101).
edge(22, 68).
edge(43, 141).
edge(33, 43).
edge(66, 95).
edge(56, 140).
edge(24, 134).
edge(49, 102).
edge(97, 138).
edge(26, 63).
edge(37, 114).
edge(34, 114).
edge(67, 133).
edge(26, 117).
edge(12, 86).
edge(67, 88).
edge(103, 119).
edge(100, 126).
edge(24, 42).
edge(34, 109).
edge(137, 140).
edge(20, 74).
edge(29, 55).
edge(38, 92).
edge(58, 89).
edge(34, 84).
edge(60, 112).
edge(50, 136).
edge(62, 119).
edge(103, 118).
edge(81, 113).
edge(6, 14).
edge(57, 120).
edge(17, 101).
edge(29, 83).
edge(51, 130).
edge(12, 131).
edge(45, 75).
edge(90, 129).
edge(112, 140).
edge(17, 132).
edge(27, 143).
edge(17, 93).
edge(32, 58).
edge(110, 119).
edge(76, 106).
edge(4, 12).
edge(13, 132).
edge(25, 55).
edge(65, 89).
edge(6, 12).
edge(37, 54).
edge(29, 141).
edge(76, 78).
edge(55, 122).
edge(59, 86).
edge(39, 133).
edge(56, 81).
edge(21, 65).
edge(40, 44).
edge(21, 105).
edge(7, 127).
edge(20, 112).
edge(30, 100).
edge(5, 68).
edge(95, 123).
edge(35, 80).
edge(77, 114).
edge(29, 125).
edge(59, 139).
edge(112, 131).
edge(60, 115).
edge(28, 68).
edge(107, 120).
edge(73, 112).
edge(19, 87).
edge(18, 98).
edge(12, 58).
edge(69, 106).
edge(74, 119).
edge(1, 118).
edge(0, 115).
edge(27, 141).
edge(12, 20).
edge(31, 69).
edge(58, 61).
edge(61, 103).
edge(61, 133).
edge(30, 133).
edge(8, 110).
edge(99, 106).
edge(68, 132).
edge(107, 113).
edge(26, 133).
edge(113, 138).
edge(39, 143).
edge(17, 46).
edge(57, 100).
edge(52, 113).
edge(27, 71).
edge(6, 127).
edge(43, 62).
edge(3, 97).
edge(11, 73).
edge(65, 101).
edge(98, 99).
edge(98, 118).
edge(114, 129).
edge(6, 138).
edge(21, 122).
edge(18, 116).
edge(79, 142).
edge(15, 143).
edge(124, 137).
edge(73, 85).
edge(109, 130).
edge(33, 141).
edge(47, 125).
edge(14, 103).
edge(13, 102).
edge(47, 103).
edge(44, 51).
edge(68, 114).
edge(31, 80).
edge(35, 118).
edge(55, 103).
edge(66, 69).
edge(130, 140).
edge(30, 122).
edge(27, 30).
edge(57, 107).
edge(18, 22).
edge(64, 109).
edge(70, 104).
edge(68, 116).
edge(15, 133).
edge(67, 117).
edge(24, 91).
edge(20, 40).
edge(8, 36).
edge(2, 101).
edge(7, 43).
edge(21, 24).
edge(133, 136).
edge(26, 70).
edge(24, 128).
edge(26, 59).
edge(40, 65).
edge(9, 120).
edge(10, 57).
edge(75, 95).
edge(86, 97).
edge(119, 122).
edge(55, 70).
edge(53, 93).
edge(3, 115).
edge(31, 82).
edge(33, 101).
edge(52, 100).
edge(23, 35).
edge(8, 24).
edge(40, 52).
edge(59, 89).
edge(58, 103).
edge(25, 79).
edge(92, 103).
edge(18, 72).
edge(115, 133).
edge(114, 133).
edge(20, 69).
edge(24, 92).
edge(27, 89).
edge(90, 137).
edge(37, 39).
edge(22, 76).
edge(103, 108).
edge(18, 73).
edge(86, 90).
edge(110, 141).
edge(116, 117).
edge(97, 110).
edge(75, 130).
edge(35, 111).
edge(93, 130).
edge(44, 83).
edge(29, 140).
edge(26, 48).
edge(67, 78).
edge(16, 68).
edge(42, 121).
edge(0, 85).
edge(40, 67).
edge(57, 67).
edge(6, 15).
edge(17, 112).
edge(52, 123).
edge(44, 133).
edge(68, 87).
edge(19, 68).
edge(30, 71).
edge(4, 83).
edge(117, 121).
edge(4, 112).
edge(91, 92).
edge(51, 143).
edge(83, 101).
edge(61, 76).
edge(106, 117).
edge(12, 105).
edge(71, 94).
edge(28, 120).
edge(59, 77).
edge(28, 35).
edge(91, 117).
edge(21, 32).
edge(88, 110).
edge(49, 63).
edge(1, 108).
edge(39, 140).
edge(61, 130).
edge(22, 42).
edge(69, 124).
edge(50, 143).
edge(47, 81).
edge(69, 109).
edge(108, 115).
edge(5, 56).
edge(4, 11).
edge(17, 88).
weight(0, 8).
weight(1, 11).
weight(2, 13).
weight(3, 4).
weight(4, 13).
weight(5, 2).
weight(6, 17).
weight(7, 12).
weight(8, 8).
weight(9, 16).
weight(10, 18).
weight(11, 15).
weight(12, 14).
weight(13, 16).
weight(14, 10).
weight(15, 13).
weight(16, 10).
weight(17, 5).
weight(18, 1).
weight(19, 11).
weight(20, 2).
weight(21, 14).
weight(22, 16).
weight(23, 9).
weight(24, 12).
weight(25, 5).
weight(26, 18).
weight(27, 19).
weight(28, 14).
weight(29, 8).
weight(30, 4).
weight(31, 20).
weight(32, 9).
weight(33, 15).
weight(34, 2).
weight(35, 19).
weight(36, 9).
weight(37, 13).
weight(38, 18).
weight(39, 13).
weight(40, 8).
weight(41, 5).
weight(42, 13).
weight(43, 14).
weight(44, 18).
weight(45, 3).
weight(46, 16).
weight(47, 5).
weight(48, 11).
weight(49, 7).
weight(50, 15).
weight(51, 11).
weight(52, 6).
weight(53, 8).
weight(54, 13).
weight(55, 4).
weight(56, 8).
weight(57, 5).
weight(58, 15).
weight(59, 12).
weight(60, 18).
weight(61, 6).
weight(62, 17).
weight(63, 9).
weight(64, 8).
weight(65, 17).
weight(66, 4).
weight(67, 8).
weight(68, 2).
weight(69, 13).
weight(70, 3).
weight(71, 7).
weight(72, 5).
weight(73, 12).
weight(74, 4).
weight(75, 15).
weight(76, 2).
weight(77, 20).
weight(78, 11).
weight(79, 10).
weight(80, 7).
weight(81, 2).
weight(82, 8).
weight(83, 3).
weight(84, 7).
weight(85, 9).
weight(86, 2).
weight(87, 16).
weight(88, 17).
weight(89, 6).
weight(90, 16).
weight(91, 12).
weight(92, 15).
weight(93, 10).
weight(94, 12).
weight(95, 7).
weight(96, 4).
weight(97, 13).
weight(98, 8).
weight(99, 14).
weight(100, 10).
weight(101, 12).
weight(102, 2).
weight(103, 4).
weight(104, 8).
weight(105, 17).
weight(106, 5).
weight(107, 12).
weight(108, 17).
weight(109, 20).
weight(110, 3).
weight(111, 1).
weight(112, 7).
weight(113, 7).
weight(114, 2).
weight(115, 14).
weight(116, 15).
weight(117, 3).
weight(118, 17).
weight(119, 8).
weight(120, 16).
weight(121, 10).
weight(122, 16).
weight(123, 8).
weight(124, 6).
weight(125, 12).
weight(126, 18).
weight(127, 19).
weight(128, 6).
weight(129, 18).
weight(130, 18).
weight(131, 18).
weight(132, 16).
weight(133, 9).
weight(134, 4).
weight(135, 12).
weight(136, 20).
weight(137, 14).
weight(138, 9).
weight(139, 14).
weight(140, 6).
weight(141, 5).
weight(142, 19).
weight(143, 8).
weight(144, 3).

{in(V)} :- node(V).
:- in(U), in(V), U < V, not edge(U,V).
:~ not in(V), weight(V,W). [W@1,V]
