node(0..145).
edge(131, 141).
edge(31, 123).
edge(19, 130).
edge(45, 123).
edge(56, 75).
edge(46, 47).
edge(88, 137).
edge(34, 130).
edge(66, 109).
edge(56, 123).
edge(76, 87).
edge(18, 114).
edge(95, 120).
edge(106, 138).
edge(86, 104).
edge(72, 128).
edge(46, 116).
edge(40, 140).
edge(76, 107).
edge(41, 59).
edge(58, 98).
edge(47, 83).
edge(63, 99).
edge(19, 72).
edge(68, 140).
edge(46, 122).
edge(17, 99).
edge(11, 15).
edge(49, 78).
edge(32, 83).
edge(11, 103).
edge(131, 132).
edge(82, 89).
edge(53, 143).
edge(99, 135).
edge(1, 63).
edge(130, 131).
edge(108, 137).
edge(14, 29).
edge(4, 23).
edge(104, 124).
edge(6, 119).
edge(105, 118).
edge(89, 94).
edge(46, 90).
edge(122, 128).
edge(79, 105).
edge(54, 115).
edge(127, 132).
edge(41, 67).
edge(70, 116).
edge(79, 93).
edge(68, 123).
edge(68, 110).
edge(38, 88).
edge(103, 139).
edge(95, 115).
edge(93, 106).
edge(44, 109).
edge(24, 47).
edge(42, 95).
edge(76, 130).
edge(15, 96).
edge(9, 96).
edge(59, 86).
edge(6, 122).
edge(0, 2).
edge(57, 140).
edge(88, 117).
edge(46, 123).
edge(29, 61).
edge(28, 114).
edge(59, 89).
edge(55, 81).
edge(51, 103).
edge(60, 122).
edge(81, 124).
edge(63, 73).
edge(73, 136).
edge(11, 86).
edge(1, 41).
edge(86, 125).
edge(20, 121).
edge(101, 124).
edge(90, 136).
edge(31, 38).
edge(2, 46).
edge(53, 111).
edge(76, 126).
edge(118, 141).
edge(83, 92).
edge(83, 109).
edge(80, 93).
edge(7, 111).
edge(38, 98).
edge(5, 141).
edge(59, 140).
edge(71, 81).
edge(34, 125).
edge(117, 136).
edge(34, 76).
edge(25, 68).
edge(29, 57).
edge(3, 129).
edge(33, 91).
edge(31, 57).
edge(18, 125).
edge(15, 124).
edge(48, 88).
edge(17, 49).
edge(25, 96).
edge(4, 34).
edge(121, 143).
edge(40, 116).
edge(30, 80).
edge(123, 143).
edge(32, 51).
edge(130, 137).
edge(8, 88).
edge(54, 71).
edge(8, 119).
edge(8, 137).
edge(76, 92).
edge(44, 112).
edge(84, 95).
edge(33, 132).
edge(23, 95).
edge(13, 61).
edge(16, 35).
edge(6, 29).
edge(16, 72).
edge(46, 120).
edge(80, 120).
edge(55, 140).
edge(14, 110).
edge(87, 98).
edge(59, 65).
edge(96, 141).
edge(69, 81).
edge(71, 101).
edge(40, 64).
edge(28, 129).
edge(68, 131).
edge(47, 128).
edge(79, 135).
edge(7, 48).
edge(112, 118).
edge(87, 143).
edge(103, 115).
edge(72, 124).
edge(6, 67).
edge(75, 106).
edge(43, 63).
edge(4, 86).
edge(121, 130).
edge(8, 38).
edge(16, 57).
edge(83, 104).
edge(14, 43).
edge(55, 119).
edge(104, 118).
edge(72, 122).
edge(51, 71).
edge(15, 51).
edge(42, 100).
edge(76, 100).
edge(75, 114).
edge(8, 135).
edge(8, 24).
edge(16, 134).
edge(68, 70).
edge(94, 114).
edge(53, 130).
edge(12, 38).
edge(4, 114).
edge(59, 109).
edge(51, 115).
edge(49, 140).
edge(3, 53).
edge(59, 125).
edge(18, 67).
edge(101, 139).
edge(24, 137).
edge(105, 144).
edge(137, 145).
edge(62, 144).
edge(25, 133).
edge(38, 51).
edge(88, 123).
edge(14, 137).
edge(80, 123).
edge(7, 117).
edge(26, 140).
edge(22, 43).
edge(38, 90).
edge(33, 94).
edge(93, 97).
edge(114, 123).
edge(98, 129).
edge(26, 145).
edge(5, 71).
edge(17, 119).
edge(36, 73).
edge(15, 98).
edge(46, 118).
edge(26, 103).
edge(52, 140).
edge(44, 115).
edge(106, 122).
edge(75, 91).
edge(59, 84).
edge(71, 97).
edge(8, 61).
edge(64, 73).
edge(43, 109).
edge(120, 137).
edge(124, 129).
edge(45, 125).
edge(7, 55).
edge(38, 82).
edge(26, 73).
edge(7, 100).
edge(16, 71).
edge(30, 46).
edge(118, 129).
edge(41, 124).
edge(18, 84).
edge(59, 132).
edge(58, 111).
edge(64, 95).
edge(40, 62).
edge(37, 123).
edge(46, 128).
edge(56, 107).
edge(144, 145).
edge(7, 102).
edge(100, 133).
edge(35, 120).
edge(9, 49).
edge(63, 110).
edge(78, 144).
edge(3, 74).
edge(17, 36).
edge(16, 93).
edge(8, 9).
edge(85, 114).
edge(1, 93).
edge(19, 144).
edge(65, 71).
edge(28, 130).
edge(5, 123).
edge(85, 142).
edge(13, 66).
edge(5, 83).
edge(26, 141).
edge(59, 79).
edge(55, 116).
edge(2, 138).
edge(67, 134).
edge(11, 17).
edge(125, 144).
edge(34, 107).
edge(62, 93).
edge(62, 127).
edge(50, 110).
edge(39, 106).
edge(55, 90).
edge(1, 72).
edge(107, 142).
edge(60, 98).
edge(40, 93).
edge(63, 89).
edge(59, 77).
edge(72, 103).
edge(59, 126).
edge(40, 72).
edge(78, 119).
edge(7, 109).
edge(102, 128).
edge(3, 14).
edge(26, 70).
edge(20, 32).
edge(50, 60).
edge(2, 65).
edge(4, 109).
edge(87, 137).
edge(60, 113).
edge(34, 121).
edge(68, 100).
edge(58, 112).
edge(4, 17).
edge(61, 119).
edge(5, 98).
edge(34, 53).
edge(38, 104).
edge(22, 87).
edge(85, 117).
edge(111, 143).
edge(18, 36).
edge(100, 126).
edge(39, 144).
edge(94, 119).
edge(91, 135).
edge(83, 91).
edge(99, 101).
edge(85, 94).
edge(55, 113).
edge(65, 105).
edge(3, 127).
edge(15, 69).
edge(30, 120).
edge(26, 105).
edge(38, 70).
edge(65, 118).
edge(32, 56).
edge(15, 113).
edge(7, 49).
edge(45, 136).
edge(88, 96).
edge(18, 24).
edge(93, 133).
edge(28, 35).
edge(39, 45).
edge(109, 119).
edge(75, 134).
edge(117, 130).
edge(34, 145).
edge(77, 107).
edge(1, 73).
edge(1, 67).
edge(60, 129).
edge(51, 141).
edge(26, 132).
edge(40, 53).
edge(12, 60).
edge(40, 97).
edge(43, 143).
edge(4, 92).
edge(9, 44).
edge(64, 99).
edge(22, 97).
edge(36, 99).
edge(54, 124).
edge(88, 104).
edge(101, 109).
edge(29, 88).
edge(8, 109).
edge(76, 93).
edge(48, 107).
edge(94, 122).
edge(10, 99).
edge(7, 10).
edge(41, 111).
edge(52, 87).
edge(5, 45).
edge(70, 115).
edge(21, 56).
edge(53, 96).
edge(13, 54).
edge(98, 143).
edge(1, 124).
edge(69, 119).
edge(14, 135).
edge(47, 118).
edge(7, 54).
edge(62, 69).
edge(25, 67).
edge(85, 124).
edge(18, 77).
edge(39, 117).
edge(18, 79).
edge(83, 90).
edge(27, 129).
edge(80, 110).
edge(2, 96).
edge(12, 115).
edge(113, 120).
edge(1, 28).
edge(93, 107).
edge(74, 108).
edge(91, 110).
edge(73, 144).
edge(25, 84).
edge(7, 93).
edge(45, 98).
edge(75, 94).
edge(36, 92).
edge(104, 112).
edge(11, 39).
edge(22, 39).
edge(99, 105).
edge(11, 95).
edge(112, 136).
edge(9, 136).
edge(39, 87).
edge(8, 32).
edge(38, 80).
edge(106, 137).
edge(74, 82).
edge(26, 106).
edge(19, 112).
edge(71, 99).
edge(25, 72).
edge(45, 67).
edge(5, 68).
edge(7, 79).
edge(117, 141).
edge(41, 84).
edge(39, 70).
edge(89, 116).
edge(12, 37).
edge(77, 110).
edge(4, 98).
edge(3, 112).
edge(55, 144).
edge(84, 120).
edge(7, 22).
edge(61, 109).
edge(39, 77).
edge(128, 136).
edge(87, 120).
edge(22, 65).
edge(39, 92).
edge(6, 115).
edge(4, 102).
edge(30, 124).
edge(2, 70).
edge(91, 143).
edge(58, 144).
edge(33, 68).
edge(62, 95).
edge(82, 129).
edge(10, 35).
edge(15, 126).
edge(8, 97).
edge(44, 54).
edge(129, 139).
edge(86, 131).
edge(13, 15).
edge(26, 84).
edge(41, 132).
edge(126, 141).
edge(127, 138).
edge(74, 76).
edge(76, 79).
edge(45, 86).
edge(4, 138).
edge(90, 118).
edge(5, 27).
edge(18, 42).
edge(97, 144).
edge(70, 114).
edge(23, 59).
edge(60, 65).
edge(33, 81).
edge(45, 143).
edge(84, 112).
edge(72, 121).
edge(45, 133).
edge(58, 133).
edge(23, 90).
edge(43, 105).
edge(32, 91).
edge(10, 82).
edge(3, 37).
edge(42, 92).
edge(126, 133).
edge(80, 103).
edge(15, 64).
edge(34, 91).
edge(28, 117).
edge(17, 139).
edge(23, 31).
edge(23, 70).
edge(89, 115).
edge(36, 141).
edge(42, 62).
edge(19, 29).
edge(68, 82).
edge(7, 119).
edge(27, 31).
edge(4, 9).
edge(7, 37).
edge(8, 71).
edge(68, 130).
edge(56, 93).
edge(6, 78).
edge(3, 21).
edge(53, 144).
edge(64, 113).
edge(21, 133).
edge(14, 118).
edge(26, 126).
edge(30, 88).
edge(86, 141).
edge(13, 21).
edge(64, 82).
edge(29, 96).
edge(82, 141).
edge(53, 91).
edge(72, 131).
edge(97, 119).
edge(24, 89).
edge(8, 114).
edge(8, 83).
edge(5, 127).
edge(5, 129).
edge(109, 120).
edge(2, 55).
edge(10, 54).
edge(63, 94).
edge(16, 30).
edge(120, 121).
edge(97, 112).
edge(25, 30).
edge(99, 104).
edge(56, 128).
edge(43, 103).
edge(74, 86).
edge(114, 139).
edge(45, 46).
edge(66, 92).
edge(20, 45).
edge(2, 29).
edge(65, 145).
edge(58, 78).
edge(117, 140).
edge(69, 70).
edge(47, 134).
edge(9, 80).
edge(43, 89).
edge(87, 101).
edge(68, 129).
edge(74, 98).
edge(46, 104).
edge(78, 109).
edge(69, 104).
edge(6, 75).
edge(29, 136).
edge(35, 50).
edge(82, 83).
edge(69, 143).
edge(14, 105).
edge(71, 129).
edge(54, 128).
edge(1, 82).
edge(26, 123).
edge(5, 64).
edge(60, 120).
edge(18, 130).
edge(27, 125).
edge(14, 120).
edge(83, 89).
edge(28, 138).
edge(3, 76).
edge(0, 13).
edge(58, 129).
edge(72, 107).
edge(36, 78).
edge(28, 36).
edge(21, 80).
edge(55, 105).
edge(31, 119).
edge(34, 45).
edge(64, 77).
edge(48, 75).
edge(65, 139).
edge(9, 116).
edge(79, 137).
edge(27, 136).
edge(43, 73).
edge(103, 104).
edge(44, 138).
edge(42, 141).
edge(15, 28).
edge(9, 39).
edge(1, 77).
edge(26, 89).
edge(80, 142).
edge(33, 63).
edge(117, 145).
edge(62, 128).
edge(14, 58).
edge(12, 121).
edge(45, 126).
edge(59, 82).
edge(75, 78).
edge(24, 26).
edge(1, 143).
edge(114, 132).
edge(16, 143).
edge(76, 81).
edge(9, 20).
edge(15, 65).
edge(50, 115).
edge(9, 144).
edge(10, 80).
edge(21, 93).
edge(85, 130).
edge(110, 136).
edge(83, 105).
edge(82, 144).
edge(97, 129).
edge(90, 112).
edge(5, 126).
edge(25, 60).
edge(71, 133).
edge(88, 107).
edge(15, 67).
edge(4, 128).
edge(39, 67).
edge(101, 119).
edge(138, 142).
edge(14, 75).
edge(59, 101).
edge(43, 118).
edge(19, 71).
edge(95, 105).
edge(24, 142).
edge(80, 119).
edge(123, 124).
edge(14, 124).
edge(13, 101).
edge(39, 137).
edge(46, 50).
edge(29, 89).
edge(14, 133).
edge(6, 83).
edge(136, 137).
edge(14, 91).
edge(73, 89).
edge(74, 110).
edge(39, 130).
edge(92, 93).
edge(29, 39).
edge(4, 21).
edge(111, 119).
edge(1, 110).
edge(108, 134).
edge(3, 141).
edge(24, 118).
edge(97, 137).
edge(60, 70).
edge(48, 121).
edge(27, 46).
edge(0, 128).
edge(29, 124).
edge(0, 1).
edge(19, 69).
edge(60, 64).
edge(14, 32).
edge(38, 76).
edge(118, 138).
edge(75, 82).
edge(52, 132).
edge(68, 142).
edge(26, 32).
edge(1, 23).
edge(86, 120).
edge(21, 42).
edge(22, 62).
edge(87, 117).
edge(30, 51).
edge(63, 75).
edge(34, 100).
edge(13, 113).
edge(81, 127).
edge(4, 51).
edge(3, 71).
edge(90, 106).
edge(91, 142).
edge(18, 62).
edge(5, 142).
edge(36, 129).
edge(37, 81).
edge(12, 103).
edge(2, 10).
edge(109, 144).
edge(55, 98).
edge(10, 86).
edge(117, 126).
edge(4, 60).
edge(6, 140).
edge(6, 60).
edge(3, 78).
edge(92, 110).
edge(49, 70).
edge(51, 101).
edge(18, 76).
edge(26, 48).
edge(103, 131).
edge(97, 131).
edge(28, 127).
edge(25, 129).
edge(71, 141).
edge(6, 36).
edge(75, 142).
edge(79, 94).
edge(38, 140).
edge(137, 144).
edge(48, 101).
edge(50, 64).
edge(47, 92).
edge(63, 137).
edge(23, 83).
edge(30, 126).
edge(105, 124).
edge(12, 16).
edge(86, 111).
edge(57, 110).
edge(16, 69).
edge(11, 110).
edge(11, 73).
edge(36, 75).
edge(120, 122).
edge(30, 74).
edge(102, 140).
edge(79, 126).
edge(18, 44).
edge(18, 63).
edge(56, 84).
edge(92, 125).
edge(81, 137).
edge(94, 145).
edge(35, 94).
edge(23, 48).
edge(117, 123).
edge(32, 50).
edge(74, 87).
edge(94, 105).
edge(3, 23).
edge(16, 103).
edge(91, 125).
edge(60, 123).
edge(78, 89).
edge(66, 83).
edge(25, 128).
edge(19, 35).
edge(27, 43).
edge(15, 79).
edge(33, 73).
edge(0, 110).
edge(107, 143).
edge(36, 139).
edge(110, 115).
edge(28, 74).
edge(117, 121).
edge(15, 97).
edge(102, 130).
edge(44, 61).
edge(20, 78).
edge(78, 81).
edge(118, 122).
edge(45, 112).
edge(8, 113).
edge(18, 88).
edge(7, 69).
edge(44, 63).
edge(98, 115).
edge(69, 73).
edge(115, 132).
edge(62, 135).
edge(36, 100).
edge(8, 74).
edge(32, 61).
edge(94, 98).
edge(38, 91).
edge(57, 72).
edge(5, 122).
edge(14, 85).
edge(58, 81).
edge(51, 137).
edge(90, 101).
edge(52, 67).
edge(44, 47).
edge(115, 127).
edge(40, 41).
edge(90, 142).
edge(9, 13).
edge(52, 71).
edge(78, 95).
edge(29, 137).
edge(86, 110).
edge(30, 117).
edge(0, 124).
edge(57, 63).
edge(90, 133).
edge(64, 100).
edge(92, 105).
edge(65, 120).
edge(53, 64).
edge(11, 31).
edge(17, 52).
edge(58, 83).
edge(42, 77).
edge(13, 67).
edge(38, 43).
edge(52, 77).
edge(88, 126).
edge(33, 139).
edge(10, 12).
edge(58, 117).
edge(93, 130).
edge(22, 47).
edge(94, 123).
edge(56, 92).
edge(120, 143).
edge(20, 98).
edge(58, 96).
edge(49, 83).
edge(82, 140).
edge(35, 74).
edge(6, 87).
edge(29, 98).
edge(22, 94).
edge(7, 87).
edge(64, 130).
edge(58, 104).
edge(41, 109).
edge(18, 134).
edge(60, 111).
edge(45, 51).
edge(0, 133).
edge(3, 69).
edge(63, 121).
edge(45, 89).
edge(52, 60).
edge(41, 122).
edge(16, 67).
edge(16, 108).
edge(17, 22).
edge(110, 134).
edge(28, 65).
edge(30, 90).
edge(50, 120).
edge(5, 130).
edge(19, 82).
edge(86, 112).
edge(101, 106).
edge(2, 58).
edge(48, 118).
edge(12, 138).
edge(24, 121).
edge(12, 143).
edge(92, 134).
edge(53, 116).
edge(47, 71).
edge(0, 55).
edge(20, 21).
edge(41, 82).
edge(73, 91).
edge(22, 129).
edge(42, 54).
edge(61, 84).
edge(12, 74).
edge(18, 123).
edge(22, 34).
edge(49, 97).
edge(83, 141).
edge(50, 109).
edge(6, 111).
edge(23, 58).
edge(4, 55).
edge(68, 93).
edge(86, 118).
edge(8, 98).
edge(23, 142).
edge(30, 71).
edge(29, 65).
edge(54, 64).
edge(40, 50).
edge(25, 55).
edge(64, 68).
edge(9, 102).
edge(63, 93).
edge(8, 133).
edge(72, 84).
edge(0, 60).
edge(23, 64).
edge(3, 93).
edge(29, 133).
edge(65, 110).
edge(41, 107).
edge(66, 68).
edge(12, 82).
edge(78, 115).
edge(91, 94).
edge(31, 92).
edge(86, 122).
edge(48, 51).
edge(57, 80).
edge(6, 49).
edge(80, 138).
edge(31, 127).
edge(7, 8).
edge(63, 136).
edge(53, 123).
edge(54, 90).
edge(141, 144).
edge(73, 132).
edge(44, 80).
edge(39, 126).
edge(74, 118).
edge(7, 66).
edge(37, 141).
edge(10, 38).
edge(8, 11).
edge(60, 69).
edge(117, 144).
edge(133, 134).
edge(59, 107).
edge(23, 130).
edge(51, 144).
edge(48, 90).
edge(8, 87).
edge(29, 69).
edge(10, 22).
edge(22, 38).
edge(61, 106).
edge(110, 112).
edge(17, 105).
edge(38, 126).
edge(94, 137).
edge(4, 108).
edge(25, 110).
edge(66, 97).
edge(65, 112).
edge(4, 101).
edge(68, 87).
edge(26, 55).
edge(34, 138).
edge(11, 83).
edge(65, 102).
edge(75, 89).
edge(50, 134).
edge(11, 71).
edge(54, 74).
edge(21, 52).
edge(8, 81).
edge(36, 135).
edge(14, 131).
edge(45, 76).
edge(10, 88).
edge(32, 65).
edge(42, 90).
edge(19, 74).
edge(8, 136).
edge(2, 35).
edge(38, 142).
edge(111, 120).
edge(37, 103).
edge(36, 127).
edge(1, 25).
edge(56, 144).
edge(2, 80).
edge(27, 73).
edge(28, 73).
edge(42, 125).
edge(55, 67).
edge(55, 56).
edge(40, 45).
edge(62, 118).
edge(78, 101).
edge(86, 143).
edge(62, 75).
edge(27, 89).
edge(62, 140).
edge(27, 118).
edge(99, 118).
edge(9, 32).
edge(11, 46).
edge(46, 60).
edge(52, 115).
edge(35, 70).
edge(33, 65).
edge(27, 120).
edge(3, 96).
edge(46, 136).
edge(3, 131).
edge(101, 137).
edge(85, 120).
edge(67, 112).
edge(88, 119).
edge(87, 96).
edge(69, 129).
edge(76, 112).
edge(5, 67).
edge(66, 104).
edge(51, 90).
edge(51, 68).
edge(115, 122).
edge(112, 127).
edge(27, 116).
edge(86, 140).
edge(78, 132).
edge(51, 59).
edge(24, 135).
edge(71, 100).
edge(26, 97).
edge(0, 93).
edge(31, 100).
edge(86, 96).
edge(55, 112).
edge(17, 121).
edge(30, 131).
edge(126, 129).
edge(10, 109).
edge(61, 99).
edge(81, 91).
edge(2, 115).
edge(1, 97).
edge(30, 42).
edge(20, 27).
edge(97, 132).
edge(140, 144).
edge(58, 80).
edge(117, 138).
edge(70, 137).
edge(59, 134).
edge(8, 22).
edge(27, 113).
edge(116, 131).
edge(1, 87).
edge(97, 128).
edge(20, 74).
edge(64, 94).
edge(3, 98).
edge(17, 28).
edge(29, 115).
edge(3, 31).
edge(50, 86).
edge(8, 100).
edge(0, 64).
edge(34, 103).
edge(6, 39).
edge(73, 74).
edge(2, 62).
edge(52, 70).
edge(21, 44).
edge(42, 76).
edge(59, 97).
edge(89, 126).
edge(105, 110).
edge(75, 138).
edge(3, 92).
edge(1, 80).
edge(14, 122).
edge(103, 116).
edge(100, 136).
edge(94, 107).
edge(18, 65).
edge(45, 63).
edge(75, 100).
edge(108, 118).
edge(22, 113).
edge(81, 121).
edge(96, 98).
edge(59, 76).
edge(24, 138).
edge(52, 92).
edge(134, 138).
edge(9, 76).
edge(2, 73).
edge(66, 98).
edge(63, 114).
edge(29, 76).
edge(15, 93).
edge(5, 13).
edge(48, 102).
edge(16, 46).
edge(79, 124).
edge(48, 53).
edge(26, 131).
edge(36, 56).
edge(4, 46).
edge(125, 138).
edge(113, 121).
edge(79, 81).
edge(12, 111).
edge(5, 20).
edge(104, 108).
edge(91, 109).
edge(0, 92).
edge(121, 136).
edge(72, 87).
edge(15, 22).
edge(96, 113).
edge(29, 109).
edge(43, 91).
edge(19, 75).
edge(48, 87).
edge(108, 121).
edge(30, 133).
edge(3, 115).
edge(4, 95).
edge(85, 87).
edge(4, 18).
edge(34, 128).
edge(20, 76).
edge(34, 117).
edge(79, 140).
edge(94, 97).
edge(31, 115).
edge(29, 71).
edge(59, 142).
edge(44, 82).
edge(25, 81).
edge(79, 130).
edge(0, 68).
edge(55, 79).
edge(4, 19).
edge(70, 124).
edge(17, 97).
edge(42, 114).
edge(59, 61).
edge(26, 143).
edge(19, 98).
edge(48, 66).
edge(46, 51).
edge(21, 102).
edge(85, 99).
edge(3, 68).
edge(3, 13).
edge(105, 135).
edge(90, 105).
edge(96, 109).
edge(75, 121).
edge(70, 122).
edge(64, 116).
edge(24, 101).
edge(17, 18).
edge(33, 58).
edge(65, 131).
edge(67, 77).
edge(81, 108).
edge(27, 114).
edge(60, 110).
edge(107, 140).
edge(77, 101).
edge(77, 123).
edge(75, 105).
edge(29, 100).
edge(46, 92).
edge(25, 89).
edge(53, 58).
edge(96, 142).
edge(91, 127).
edge(18, 80).
edge(17, 80).
edge(26, 83).
edge(88, 116).
edge(17, 48).
edge(6, 130).
edge(47, 82).
edge(11, 129).
edge(68, 92).
edge(4, 70).
edge(17, 44).
edge(8, 59).
edge(52, 135).
edge(77, 128).
edge(7, 130).
edge(88, 92).
edge(12, 42).
edge(34, 86).
edge(20, 110).
edge(61, 87).
edge(83, 93).
edge(28, 143).
edge(75, 83).
edge(66, 105).
edge(52, 141).
edge(45, 82).
edge(4, 133).
edge(64, 66).
edge(43, 116).
edge(43, 68).
edge(48, 110).
edge(122, 141).
edge(66, 115).
edge(105, 126).
edge(118, 131).
edge(47, 86).
edge(26, 61).
edge(11, 140).
edge(107, 115).
edge(19, 94).
edge(18, 50).
edge(26, 74).
edge(11, 104).
edge(32, 87).
edge(33, 141).
edge(93, 109).
edge(14, 142).
edge(22, 133).
edge(38, 74).
edge(64, 65).
edge(33, 48).
edge(14, 64).
edge(52, 86).
edge(33, 89).
edge(96, 140).
edge(71, 92).
edge(31, 59).
edge(51, 131).
edge(13, 64).
edge(49, 50).
edge(95, 123).
edge(58, 105).
edge(19, 44).
edge(12, 51).
edge(30, 82).
edge(7, 116).
edge(13, 36).
edge(44, 73).
edge(56, 88).
edge(1, 116).
edge(7, 65).
edge(28, 132).
edge(46, 111).
edge(20, 133).
edge(54, 80).
edge(10, 51).
edge(63, 134).
edge(89, 124).
edge(1, 137).
edge(88, 132).
edge(77, 122).
edge(53, 138).
edge(42, 101).
edge(29, 79).
edge(44, 139).
edge(21, 84).
edge(18, 68).
edge(5, 86).
edge(34, 64).
edge(113, 118).
edge(23, 32).
edge(60, 115).
edge(89, 112).
edge(33, 140).
edge(5, 106).
edge(54, 94).
edge(3, 128).
edge(85, 93).
edge(23, 106).
edge(46, 49).
edge(76, 104).
edge(46, 141).
edge(17, 19).
edge(17, 34).
edge(88, 115).
edge(65, 132).
edge(107, 117).
edge(59, 119).
edge(0, 99).
edge(60, 84).
edge(81, 134).
edge(71, 96).
edge(63, 109).
edge(68, 109).
edge(52, 125).
edge(23, 111).
edge(2, 105).
edge(17, 115).
edge(61, 124).
edge(78, 86).
edge(62, 124).
edge(50, 80).
edge(116, 134).
edge(81, 96).
edge(95, 102).
edge(11, 62).
edge(51, 82).
edge(100, 113).
edge(78, 138).
edge(7, 13).
edge(136, 140).
edge(46, 145).
edge(52, 124).
edge(41, 128).
edge(17, 107).
edge(65, 133).
edge(82, 107).
edge(4, 140).
edge(83, 135).
edge(62, 82).
edge(14, 125).
edge(5, 44).
edge(33, 71).
edge(62, 119).
edge(129, 145).
edge(32, 102).
edge(5, 107).
edge(101, 122).
edge(116, 124).
edge(33, 72).
edge(73, 116).
edge(1, 118).
edge(9, 45).
edge(25, 116).
edge(17, 95).
edge(41, 83).
edge(31, 51).
edge(48, 120).
edge(42, 105).
edge(20, 100).
edge(20, 48).
edge(115, 120).
edge(90, 134).
edge(67, 102).
edge(25, 42).
edge(20, 111).
edge(23, 102).
edge(22, 105).
edge(120, 142).
edge(0, 126).
edge(4, 15).
edge(66, 84).
edge(41, 95).
edge(109, 126).
edge(25, 135).
edge(28, 80).
edge(13, 80).
edge(50, 118).
edge(51, 113).
edge(22, 130).
edge(32, 66).
edge(23, 33).
edge(20, 38).
edge(16, 101).
edge(30, 118).
edge(49, 104).
edge(20, 42).
edge(78, 118).
edge(36, 137).
edge(8, 125).
edge(93, 141).
edge(36, 104).
edge(7, 58).
edge(12, 89).
edge(1, 108).
edge(42, 66).
edge(49, 144).
edge(86, 95).
edge(87, 89).
edge(31, 90).
edge(129, 136).
edge(58, 74).
edge(27, 79).
edge(28, 30).
edge(29, 77).
edge(16, 50).
edge(51, 129).
edge(9, 86).
edge(108, 138).
edge(12, 83).
edge(107, 118).
edge(17, 114).
edge(56, 118).
edge(21, 142).
edge(51, 62).
edge(77, 87).
edge(66, 132).
edge(22, 36).
edge(47, 93).
edge(112, 115).
edge(57, 73).
edge(10, 130).
edge(102, 142).
edge(28, 64).
edge(29, 144).
edge(99, 129).
edge(69, 85).
edge(22, 55).
edge(49, 94).
edge(17, 71).
edge(69, 109).
edge(4, 134).
edge(73, 108).
edge(65, 134).
edge(21, 28).
edge(8, 143).
edge(55, 124).
edge(46, 107).
edge(40, 78).
edge(51, 102).
edge(45, 68).
edge(24, 85).
edge(19, 86).
edge(46, 117).
edge(29, 101).
edge(7, 133).
edge(16, 21).
edge(4, 61).
edge(82, 127).
edge(17, 64).
edge(37, 50).
edge(66, 72).
edge(40, 69).
edge(104, 145).
edge(78, 131).
edge(26, 117).
edge(31, 140).
edge(59, 87).
edge(46, 62).
edge(5, 100).
edge(92, 113).
edge(40, 73).
edge(62, 98).
edge(41, 114).
edge(54, 139).
edge(35, 38).
edge(20, 43).
edge(82, 121).
edge(9, 119).
edge(37, 105).
edge(120, 128).
edge(31, 45).
edge(118, 125).
edge(55, 145).
edge(36, 41).
edge(45, 118).
edge(129, 137).
edge(12, 66).
edge(45, 101).
edge(17, 113).
edge(20, 90).
edge(61, 127).
edge(40, 144).
edge(39, 82).
edge(47, 126).
edge(2, 131).
edge(17, 29).
edge(130, 132).
edge(17, 66).
edge(2, 144).
edge(69, 137).
edge(68, 118).
edge(18, 93).
edge(70, 110).
edge(28, 120).
edge(75, 110).
edge(71, 143).
edge(51, 135).
edge(45, 84).
edge(2, 21).
edge(27, 112).
edge(115, 130).
edge(21, 22).
edge(50, 82).
edge(8, 26).
edge(57, 118).
edge(37, 76).
edge(10, 50).
edge(4, 14).
edge(45, 106).
edge(53, 63).
edge(69, 128).
edge(0, 14).
edge(63, 116).
edge(40, 48).
edge(27, 124).
edge(83, 143).
edge(5, 26).
edge(31, 109).
edge(18, 66).
edge(79, 91).
edge(8, 118).
edge(93, 124).
edge(18, 47).
edge(0, 115).
edge(43, 83).
edge(0, 107).
edge(10, 106).
edge(68, 97).
edge(91, 104).
edge(93, 144).
edge(36, 131).
edge(42, 118).
edge(1, 105).
edge(9, 123).
edge(73, 140).
edge(40, 124).
edge(8, 66).
edge(102, 145).
edge(16, 78).
edge(94, 96).
edge(128, 132).
edge(128, 139).
edge(28, 125).
edge(39, 104).
edge(49, 89).
edge(17, 31).
edge(24, 68).
edge(39, 71).
edge(112, 138).
edge(75, 124).
edge(67, 76).
edge(13, 41).
edge(0, 131).
edge(48, 145).
edge(17, 24).
edge(37, 136).
edge(76, 116).
edge(48, 59).
edge(75, 102).
edge(3, 81).
edge(38, 89).
edge(76, 128).
edge(41, 110).
edge(121, 126).
edge(98, 130).
edge(95, 109).
edge(36, 106).
edge(37, 113).
edge(69, 113).
edge(25, 65).
edge(56, 109).
edge(38, 96).
edge(61, 69).
edge(71, 140).
edge(31, 82).
edge(1, 109).
edge(46, 81).
edge(3, 29).
edge(63, 84).
edge(16, 27).
edge(1, 10).
edge(24, 115).
edge(86, 107).
edge(40, 59).
edge(14, 103).
edge(38, 50).
edge(46, 135).
edge(20, 34).
edge(52, 89).
edge(34, 106).
edge(1, 7).
edge(0, 63).
edge(63, 131).
edge(104, 136).
edge(21, 36).
edge(43, 49).
edge(57, 70).
edge(0, 11).
edge(130, 135).
edge(39, 44).
edge(41, 115).
edge(69, 74).
edge(112, 117).
edge(135, 137).
edge(2, 67).
edge(3, 103).
edge(17, 73).
edge(45, 66).
edge(113, 130).
edge(13, 48).
edge(7, 15).
edge(15, 119).
edge(64, 105).
edge(94, 139).
edge(39, 54).
edge(123, 136).
edge(93, 118).
edge(64, 141).
edge(119, 141).
edge(15, 72).
edge(56, 82).
edge(59, 136).
edge(14, 59).
edge(74, 89).
edge(3, 87).
edge(86, 98).
edge(39, 98).
edge(84, 85).
edge(41, 103).
edge(67, 73).
edge(47, 57).
edge(17, 96).
edge(75, 96).
edge(40, 132).
edge(52, 145).
edge(17, 33).
edge(56, 125).
edge(91, 134).
edge(3, 16).
edge(51, 116).
edge(65, 144).
edge(117, 127).
edge(14, 48).
edge(56, 139).
edge(48, 82).
edge(49, 106).
edge(95, 134).
edge(22, 29).
edge(76, 91).
edge(36, 85).
edge(54, 114).
edge(58, 69).
edge(112, 129).
edge(22, 44).
edge(78, 124).
edge(23, 36).
edge(15, 75).
edge(74, 112).
edge(29, 104).
edge(18, 69).
edge(32, 123).
edge(27, 130).
edge(4, 26).
edge(58, 100).
edge(56, 68).
edge(88, 98).
edge(103, 117).
edge(11, 77).
edge(101, 110).
edge(49, 111).
edge(100, 128).
edge(111, 123).
edge(120, 123).
edge(25, 119).
edge(76, 89).
edge(19, 43).
edge(112, 128).
edge(119, 124).
edge(111, 136).
edge(63, 108).
edge(20, 70).
edge(59, 133).
edge(16, 80).
edge(10, 66).
edge(58, 62).
edge(18, 30).
edge(120, 129).
edge(25, 52).
edge(82, 133).
edge(22, 139).
edge(31, 32).
edge(127, 128).
edge(32, 111).
edge(39, 90).
edge(90, 93).
edge(27, 59).
edge(74, 134).
edge(72, 79).
edge(22, 82).
edge(82, 90).
edge(33, 97).
edge(7, 24).
edge(12, 109).
edge(50, 69).
edge(3, 95).
edge(58, 110).
edge(91, 140).
edge(21, 119).
edge(41, 108).
edge(24, 90).
edge(53, 121).
edge(11, 16).
edge(28, 58).
edge(72, 76).
edge(22, 116).
edge(84, 88).
edge(82, 128).
edge(30, 78).
edge(5, 59).
edge(29, 81).
edge(37, 67).
edge(89, 133).
edge(11, 40).
edge(17, 94).
edge(72, 137).
edge(28, 128).
edge(46, 68).
edge(25, 31).
edge(92, 132).
edge(42, 143).
edge(47, 53).
edge(5, 76).
edge(13, 26).
edge(80, 106).
edge(79, 80).
edge(2, 60).
edge(12, 107).
edge(5, 104).
edge(73, 120).
edge(22, 104).
edge(120, 131).
edge(19, 73).
edge(19, 87).
edge(38, 129).
edge(26, 37).
edge(107, 123).
edge(85, 92).
edge(99, 126).
edge(2, 79).
edge(23, 67).
edge(83, 118).
edge(27, 40).
edge(43, 128).
edge(72, 81).
edge(36, 116).
edge(102, 135).
edge(22, 60).
edge(13, 71).
edge(8, 19).
edge(20, 136).
edge(125, 142).
edge(15, 125).
edge(92, 124).
edge(54, 138).
edge(20, 84).
edge(42, 126).
edge(4, 122).
edge(103, 125).
edge(13, 31).
edge(21, 45).
edge(2, 121).
edge(31, 64).
edge(47, 66).
edge(73, 114).
edge(53, 65).
edge(60, 99).
edge(123, 137).
edge(5, 48).
edge(8, 25).
edge(62, 108).
edge(19, 89).
edge(62, 123).
edge(97, 123).
edge(22, 84).
edge(2, 6).
edge(95, 126).
edge(75, 80).
edge(63, 71).
edge(108, 132).
edge(51, 70).
edge(33, 109).
edge(10, 131).
edge(45, 78).
edge(0, 132).
edge(34, 35).
edge(12, 61).
edge(12, 119).
edge(16, 19).
edge(78, 133).
edge(40, 75).
edge(88, 106).
edge(70, 136).
edge(12, 118).
edge(99, 108).
edge(85, 115).
edge(44, 48).
edge(24, 79).
edge(131, 143).
edge(2, 47).
edge(4, 33).
edge(47, 77).
edge(117, 129).
edge(67, 84).
edge(119, 133).
edge(14, 60).
edge(51, 130).
edge(53, 57).
edge(41, 92).
edge(16, 113).
edge(19, 92).
edge(20, 23).
edge(47, 85).
edge(35, 77).
edge(62, 68).
edge(36, 79).
edge(60, 77).
edge(33, 128).
edge(91, 111).
edge(56, 85).
edge(98, 132).
edge(119, 144).
edge(5, 72).
edge(76, 98).
edge(98, 140).
edge(82, 116).
edge(40, 57).
edge(11, 89).
edge(71, 117).
edge(79, 97).
edge(61, 65).
edge(77, 98).
edge(42, 138).
edge(47, 117).
edge(56, 132).
edge(18, 92).
edge(94, 120).
edge(20, 60).
edge(8, 27).
edge(77, 134).
edge(5, 74).
edge(30, 125).
edge(72, 93).
edge(78, 121).
edge(47, 114).
edge(75, 97).
edge(4, 58).
edge(108, 123).
edge(4, 41).
edge(48, 138).
edge(47, 139).
edge(37, 117).
edge(61, 93).
edge(29, 49).
edge(68, 75).
edge(8, 117).
edge(33, 46).
edge(54, 86).
edge(44, 55).
edge(0, 108).
edge(33, 78).
edge(35, 117).
edge(37, 130).
edge(19, 54).
edge(75, 128).
edge(58, 70).
edge(32, 81).
edge(73, 121).
edge(31, 44).
edge(45, 110).
edge(44, 53).
edge(15, 105).
edge(4, 56).
edge(14, 37).
edge(66, 93).
edge(11, 37).
edge(57, 76).
edge(83, 130).
edge(49, 134).
edge(104, 134).
edge(135, 142).
edge(85, 118).
edge(1, 81).
edge(97, 138).
edge(15, 117).
edge(32, 68).
edge(79, 88).
edge(22, 71).
edge(71, 124).
edge(43, 98).
edge(68, 119).
edge(111, 126).
edge(55, 132).
edge(38, 137).
edge(56, 134).
edge(16, 31).
edge(100, 104).
edge(7, 115).
edge(58, 113).
edge(34, 38).
edge(10, 111).
edge(31, 136).
edge(6, 23).
edge(108, 131).
edge(3, 70).
edge(87, 139).
edge(18, 33).
edge(40, 61).
edge(73, 130).
edge(37, 129).
edge(16, 125).
edge(69, 134).
edge(50, 107).
edge(57, 88).
edge(115, 131).
edge(10, 52).
edge(44, 141).
edge(63, 76).
edge(130, 143).
edge(71, 103).
edge(6, 135).
edge(35, 105).
edge(12, 32).
edge(74, 77).
edge(103, 135).
edge(99, 122).
edge(11, 111).
edge(10, 94).
edge(11, 88).
edge(66, 137).
edge(86, 127).
edge(12, 76).
edge(31, 128).
edge(69, 123).
edge(53, 69).
edge(76, 83).
edge(54, 122).
edge(24, 93).
edge(87, 114).
edge(75, 99).
edge(51, 105).
edge(92, 97).
edge(4, 137).
edge(42, 80).
edge(2, 97).
edge(98, 119).
edge(35, 103).
edge(50, 144).
edge(26, 56).
edge(41, 45).
edge(62, 90).
edge(69, 121).
edge(77, 143).
edge(55, 120).
edge(9, 94).
edge(20, 64).
edge(9, 37).
edge(17, 89).
edge(49, 88).
edge(21, 136).
edge(74, 136).
edge(95, 125).
edge(128, 141).
edge(44, 113).
edge(12, 88).
edge(12, 54).
edge(76, 106).
edge(105, 136).
edge(5, 139).
edge(96, 127).
edge(76, 133).
edge(69, 140).
edge(10, 145).
edge(4, 13).
edge(15, 73).
edge(18, 35).
edge(8, 94).
edge(10, 134).
edge(26, 33).
edge(0, 7).
edge(22, 50).
edge(45, 127).
edge(107, 141).
edge(32, 33).
edge(68, 141).
edge(15, 110).
edge(60, 96).
edge(17, 58).
edge(7, 44).
edge(49, 130).
edge(93, 127).
edge(69, 125).
edge(27, 52).
edge(5, 138).
edge(89, 131).
edge(108, 124).
edge(96, 133).
edge(63, 67).
edge(34, 83).
edge(64, 72).
edge(66, 81).
edge(18, 142).
edge(38, 72).
edge(59, 91).
edge(0, 73).
edge(30, 98).
edge(84, 126).
edge(72, 135).
edge(18, 73).
edge(8, 37).
edge(5, 18).
edge(12, 135).
edge(9, 89).
edge(53, 115).
edge(78, 112).
edge(105, 133).
edge(14, 26).
edge(44, 66).
edge(30, 109).
edge(72, 125).
edge(96, 106).
edge(16, 74).
edge(111, 118).
edge(17, 108).
edge(51, 143).
edge(52, 121).
edge(75, 107).
edge(61, 134).
edge(64, 135).
edge(16, 34).
edge(102, 116).
edge(65, 77).
edge(20, 77).
edge(4, 123).
edge(57, 97).
edge(132, 143).
edge(81, 135).
edge(21, 99).
edge(73, 139).
edge(17, 74).
edge(42, 60).
edge(97, 102).
edge(74, 144).
edge(22, 99).
edge(7, 92).
edge(78, 123).
edge(9, 126).
edge(1, 43).
edge(125, 130).
edge(103, 138).
edge(87, 106).
edge(20, 94).
edge(67, 140).
edge(58, 125).
edge(43, 81).
edge(71, 114).
edge(84, 96).
edge(40, 98).
edge(121, 142).
edge(12, 65).
edge(14, 17).
edge(83, 123).
edge(28, 139).
edge(39, 50).
edge(59, 104).
edge(2, 34).
edge(13, 126).
edge(118, 120).
edge(7, 43).
edge(30, 110).
edge(21, 83).
edge(26, 107).
edge(90, 145).
edge(58, 128).
edge(122, 134).
edge(62, 66).
edge(79, 102).
edge(84, 113).
edge(7, 125).
edge(80, 130).
edge(44, 90).
edge(48, 76).
edge(26, 120).
edge(56, 61).
edge(104, 138).
edge(10, 112).
edge(24, 83).
edge(77, 78).
edge(7, 23).
edge(124, 130).
edge(35, 102).
edge(18, 90).
edge(96, 100).
edge(53, 97).
edge(81, 143).
edge(0, 144).
edge(7, 42).
edge(18, 81).
edge(48, 119).
edge(12, 55).
edge(96, 107).
edge(103, 134).
edge(10, 27).
edge(8, 46).
edge(63, 129).
edge(109, 114).
edge(19, 25).
edge(37, 78).
edge(8, 60).
edge(64, 132).
edge(18, 136).
edge(68, 96).
edge(16, 110).
edge(22, 143).
edge(74, 119).
edge(62, 101).
edge(10, 16).
edge(18, 31).
edge(46, 139).
edge(15, 29).
edge(107, 129).
edge(7, 89).
edge(7, 110).
edge(2, 59).
edge(7, 39).
edge(13, 23).
edge(105, 137).
edge(99, 120).
edge(50, 88).
edge(81, 83).
edge(112, 141).
edge(65, 66).
edge(2, 84).
edge(67, 94).
edge(71, 83).
edge(4, 59).
edge(73, 90).
edge(103, 121).
edge(0, 49).
edge(5, 133).
edge(38, 60).
edge(3, 89).
edge(61, 75).
edge(66, 116).
edge(33, 49).
edge(61, 91).
edge(20, 79).
edge(86, 100).
edge(32, 79).
edge(74, 124).
edge(44, 140).
edge(76, 131).
edge(53, 131).
edge(19, 122).
edge(105, 116).
edge(9, 43).
edge(9, 145).
edge(78, 96).
edge(116, 117).
edge(7, 126).
edge(21, 135).
edge(137, 142).
edge(13, 139).
edge(12, 129).
edge(11, 54).
edge(54, 134).
edge(0, 32).
edge(17, 145).
edge(49, 75).
edge(98, 141).
edge(34, 134).
edge(81, 142).
edge(64, 89).
edge(108, 115).
edge(34, 51).
edge(75, 101).
edge(99, 127).
edge(45, 69).
edge(34, 142).
edge(74, 143).
edge(25, 111).
edge(99, 136).
edge(61, 129).
edge(28, 145).
edge(1, 134).
edge(6, 53).
edge(78, 136).
edge(24, 50).
edge(23, 60).
edge(63, 142).
edge(4, 24).
edge(30, 145).
edge(35, 115).
edge(118, 126).
edge(42, 64).
edge(14, 18).
edge(19, 24).
edge(59, 62).
edge(57, 116).
edge(69, 117).
edge(21, 141).
edge(94, 110).
edge(101, 131).
edge(18, 48).
edge(97, 100).
edge(33, 60).
edge(50, 54).
edge(1, 13).
edge(39, 86).
edge(2, 128).
edge(13, 128).
edge(13, 38).
edge(39, 108).
edge(23, 112).
edge(48, 117).
edge(56, 137).
edge(36, 51).
edge(32, 142).
edge(103, 123).
edge(26, 60).
edge(73, 88).
edge(66, 80).
edge(67, 124).
edge(5, 117).
edge(19, 104).
edge(38, 136).
edge(106, 109).
edge(40, 108).
edge(96, 116).
edge(9, 22).
edge(98, 111).
edge(66, 136).
edge(21, 31).
edge(57, 117).
edge(109, 135).
edge(20, 72).
edge(40, 135).
edge(56, 65).
edge(7, 97).
edge(0, 141).
edge(15, 133).
edge(50, 126).
edge(5, 112).
edge(95, 129).
edge(32, 40).
edge(94, 124).
edge(8, 103).
edge(33, 39).
edge(44, 71).
edge(24, 65).
edge(22, 138).
edge(39, 100).
edge(112, 116).
edge(114, 122).
edge(4, 106).
edge(48, 127).
edge(50, 104).
edge(70, 125).
edge(37, 124).
edge(115, 143).
edge(53, 81).
edge(42, 53).
edge(41, 97).
edge(28, 83).
edge(63, 91).
edge(18, 55).
edge(17, 67).
edge(17, 84).
edge(25, 59).
edge(21, 64).
edge(46, 106).
edge(10, 25).
edge(107, 122).
edge(2, 44).
edge(12, 102).
edge(5, 58).
edge(13, 56).
edge(18, 120).
edge(46, 105).
edge(128, 144).
edge(27, 142).
edge(11, 12).
edge(16, 88).
edge(87, 136).
edge(62, 83).
edge(19, 26).
edge(11, 82).
edge(49, 55).
edge(3, 33).
edge(56, 67).
edge(17, 35).
edge(7, 78).
edge(32, 47).
edge(10, 67).
edge(53, 104).
edge(70, 142).
edge(13, 111).
edge(119, 138).
edge(82, 130).
edge(9, 35).
edge(111, 115).
edge(18, 34).
edge(122, 135).
edge(61, 89).
edge(30, 75).
edge(109, 145).
edge(18, 91).
edge(92, 139).
edge(51, 107).
edge(86, 106).
edge(2, 27).
edge(88, 113).
edge(37, 109).
edge(18, 145).
edge(10, 95).
edge(97, 110).
edge(59, 90).
edge(12, 120).
edge(23, 131).
edge(114, 115).
edge(16, 123).
edge(66, 96).
edge(91, 139).
edge(77, 108).
edge(68, 138).
edge(32, 41).
edge(40, 129).
edge(88, 111).
edge(25, 134).
edge(60, 144).
edge(2, 92).
edge(48, 64).
edge(87, 122).
edge(77, 86).
edge(46, 121).
edge(102, 122).
edge(76, 110).
edge(35, 78).
edge(41, 102).
edge(0, 139).
edge(108, 139).
edge(56, 101).
edge(68, 84).
edge(1, 125).
edge(5, 53).
edge(48, 96).
edge(46, 138).
edge(73, 95).
edge(38, 40).
edge(100, 132).
edge(9, 140).
edge(16, 138).
edge(93, 115).
edge(82, 132).
edge(4, 30).
edge(113, 135).
edge(34, 94).
edge(14, 86).
edge(13, 65).
edge(27, 135).
edge(58, 134).
edge(109, 116).
edge(7, 113).
edge(42, 56).
edge(23, 85).
edge(15, 43).
edge(18, 59).
edge(30, 139).
edge(25, 29).
edge(1, 74).
edge(13, 144).
edge(27, 109).
edge(86, 90).
edge(111, 137).
edge(53, 99).
edge(57, 142).
edge(13, 46).
edge(36, 88).
edge(87, 127).
edge(72, 92).
edge(57, 124).
edge(36, 97).
edge(19, 39).
edge(25, 121).
edge(33, 77).
edge(1, 59).
edge(4, 88).
edge(1, 4).
edge(32, 59).
edge(30, 99).
edge(39, 127).
edge(3, 45).
edge(35, 118).
edge(72, 113).
edge(51, 120).
edge(10, 32).
edge(83, 112).
edge(8, 134).
edge(106, 133).
edge(75, 135).
edge(44, 98).
edge(100, 116).
edge(138, 139).
edge(53, 126).
edge(102, 124).
edge(60, 108).
edge(103, 119).
edge(68, 145).
edge(40, 115).
edge(40, 113).
edge(6, 32).
edge(16, 41).
edge(15, 106).
edge(89, 140).
edge(57, 101).
edge(12, 92).
edge(2, 51).
edge(16, 91).
edge(65, 124).
edge(73, 111).
edge(69, 112).
edge(23, 138).
edge(102, 127).
edge(66, 140).
edge(70, 130).
edge(31, 97).
edge(51, 128).
edge(22, 78).
edge(100, 118).
edge(47, 55).
edge(49, 114).
edge(3, 125).
edge(44, 52).
edge(87, 109).
edge(94, 109).
edge(65, 104).
edge(18, 96).
edge(12, 31).
edge(45, 104).
edge(9, 21).
edge(61, 64).
edge(22, 67).
edge(21, 71).
edge(32, 48).
edge(101, 114).
edge(113, 141).
edge(10, 13).
edge(36, 84).
edge(24, 132).
edge(15, 31).
edge(27, 78).
edge(118, 136).
edge(72, 75).
edge(84, 110).
edge(70, 81).
edge(26, 71).
edge(72, 94).
edge(50, 71).
edge(19, 143).
edge(3, 18).
edge(23, 86).
edge(64, 80).
edge(55, 100).
edge(8, 123).
edge(75, 113).
edge(6, 82).
edge(18, 103).
edge(45, 137).
edge(109, 123).
edge(45, 120).
edge(1, 132).
edge(3, 82).
edge(53, 86).
edge(65, 115).
edge(101, 113).
edge(39, 76).
edge(62, 73).
edge(45, 128).
edge(3, 17).
edge(33, 62).
edge(28, 53).
edge(107, 127).
edge(60, 135).
edge(32, 101).
edge(101, 145).
edge(76, 132).
edge(22, 114).
edge(7, 45).
edge(115, 119).
edge(17, 65).
edge(57, 132).
edge(89, 134).
edge(75, 123).
edge(42, 61).
edge(27, 28).
edge(40, 43).
edge(18, 112).
edge(85, 106).
edge(96, 117).
edge(103, 137).
edge(3, 138).
edge(32, 128).
edge(57, 108).
edge(64, 98).
edge(32, 67).
edge(14, 90).
edge(77, 85).
edge(46, 87).
edge(1, 122).
edge(115, 137).
edge(79, 82).
edge(98, 116).
edge(33, 129).
edge(26, 58).
edge(89, 121).
edge(50, 141).
edge(31, 83).
edge(49, 101).
edge(139, 142).
edge(46, 82).
edge(23, 54).
edge(34, 101).
edge(55, 80).
edge(68, 103).
edge(5, 32).
edge(11, 28).
edge(82, 136).
edge(27, 98).
edge(23, 94).
edge(89, 132).
edge(0, 12).
edge(48, 67).
edge(11, 119).
edge(97, 107).
edge(51, 53).
edge(60, 118).
edge(29, 73).
edge(15, 86).
edge(3, 59).
edge(11, 138).
edge(49, 58).
edge(54, 109).
edge(62, 102).
edge(63, 105).
edge(24, 63).
edge(134, 137).
edge(3, 117).
edge(42, 91).
edge(18, 106).
edge(11, 36).
edge(3, 22).
edge(113, 140).
edge(17, 133).
edge(69, 72).
edge(39, 57).
edge(20, 73).
edge(80, 97).
edge(72, 74).
edge(100, 130).
edge(21, 67).
edge(48, 131).
edge(61, 76).
edge(24, 36).
edge(51, 109).
edge(39, 66).
edge(116, 130).
edge(31, 131).
edge(38, 46).
edge(36, 81).
edge(23, 55).
edge(1, 39).
edge(83, 97).
edge(59, 110).
edge(38, 139).
edge(79, 114).
edge(14, 76).
edge(23, 39).
edge(31, 107).
edge(54, 141).
edge(51, 58).
edge(24, 109).
edge(105, 138).
edge(43, 78).
edge(36, 142).
edge(24, 69).
edge(38, 118).
edge(78, 110).
edge(10, 42).
edge(31, 79).
edge(124, 131).
edge(92, 141).
edge(95, 142).
edge(48, 71).
edge(106, 145).
edge(80, 83).
edge(14, 93).
edge(103, 144).
edge(27, 72).
edge(42, 112).
edge(13, 106).
edge(82, 98).
edge(48, 95).
edge(6, 107).
edge(48, 111).
edge(63, 90).
edge(23, 82).
edge(46, 83).
edge(78, 84).
edge(60, 117).
edge(29, 36).
edge(94, 101).
edge(53, 77).
edge(112, 130).
edge(66, 102).
edge(38, 62).
edge(69, 71).
edge(27, 94).
edge(68, 74).
edge(52, 100).
edge(39, 119).
edge(10, 84).
edge(19, 132).
edge(34, 69).
edge(30, 49).
edge(25, 115).
edge(70, 71).
edge(88, 124).
edge(0, 95).
edge(72, 78).
edge(34, 122).
edge(31, 46).
edge(103, 141).
edge(16, 121).
edge(91, 113).
edge(10, 65).
edge(58, 63).
edge(49, 85).
edge(39, 56).
edge(24, 120).
edge(59, 118).
edge(12, 122).
edge(64, 111).
edge(29, 33).
edge(57, 65).
edge(34, 59).
edge(70, 93).
edge(33, 96).
edge(80, 99).
edge(128, 145).
edge(119, 142).
edge(36, 52).
edge(0, 79).
edge(30, 76).
edge(62, 76).
edge(8, 108).
edge(46, 88).
edge(40, 137).
edge(27, 91).
edge(17, 100).
edge(6, 90).
edge(69, 118).
edge(64, 134).
edge(15, 17).
edge(79, 112).
edge(127, 131).
edge(53, 85).
edge(3, 40).
edge(136, 143).
edge(11, 66).
edge(75, 85).
edge(59, 100).
edge(8, 127).
edge(23, 100).
edge(19, 62).
edge(97, 109).
edge(62, 80).
edge(6, 117).
edge(33, 74).
edge(13, 79).
edge(17, 116).
edge(126, 128).
edge(37, 53).
edge(127, 129).
edge(32, 137).
edge(7, 29).
edge(92, 121).
edge(131, 138).
edge(27, 111).
edge(52, 128).
edge(15, 78).
edge(70, 144).
edge(55, 71).
edge(79, 98).
edge(35, 53).
edge(40, 100).
edge(49, 74).
edge(53, 128).
edge(37, 92).
edge(124, 142).
edge(100, 105).
edge(3, 114).
edge(2, 75).
edge(83, 94).
edge(27, 66).
edge(28, 97).
edge(89, 120).
edge(22, 56).
edge(16, 111).
edge(14, 117).
edge(23, 62).
edge(78, 103).
edge(35, 45).
edge(38, 108).
edge(59, 96).
edge(56, 96).
edge(12, 95).
edge(83, 99).
edge(43, 54).
edge(3, 44).
edge(41, 61).
edge(44, 85).
edge(98, 118).
edge(127, 133).
edge(38, 61).
edge(6, 48).
edge(23, 92).
edge(101, 138).
edge(78, 106).
edge(88, 105).
edge(14, 42).
edge(1, 47).
edge(37, 96).
edge(59, 113).
edge(83, 128).
edge(40, 46).
edge(9, 125).
edge(72, 120).
edge(44, 99).
edge(77, 105).
edge(75, 116).
edge(36, 114).
edge(32, 86).
edge(36, 54).
edge(69, 133).
edge(98, 112).
edge(10, 98).
edge(99, 131).
edge(56, 77).
edge(3, 25).
edge(12, 59).
edge(5, 75).
edge(33, 82).
edge(28, 37).
edge(54, 75).
edge(7, 62).
edge(74, 125).
edge(4, 48).
edge(8, 91).
edge(105, 120).
edge(41, 91).
edge(112, 132).
edge(34, 72).
edge(67, 145).
edge(21, 79).
edge(44, 118).
edge(11, 13).
edge(56, 114).
edge(41, 54).
edge(10, 60).
edge(36, 122).
edge(46, 77).
edge(87, 91).
edge(70, 82).
edge(21, 114).
edge(117, 139).
edge(110, 135).
edge(17, 43).
edge(60, 128).
edge(56, 126).
edge(66, 90).
edge(17, 81).
edge(22, 66).
edge(46, 54).
edge(22, 107).
edge(46, 142).
edge(106, 140).
edge(47, 51).
edge(55, 61).
edge(53, 84).
edge(81, 140).
edge(82, 91).
edge(21, 41).
edge(21, 116).
edge(91, 122).
edge(16, 73).
edge(96, 118).
edge(5, 52).
edge(44, 108).
edge(66, 103).
edge(17, 128).
edge(80, 95).
edge(90, 114).
edge(59, 85).
edge(43, 85).
edge(15, 140).
edge(45, 129).
edge(65, 126).
edge(25, 103).
edge(104, 113).
edge(91, 112).
edge(19, 67).
edge(13, 27).
edge(5, 56).
edge(71, 109).
edge(77, 80).
edge(60, 79).
edge(55, 70).
edge(8, 102).
edge(62, 120).
edge(4, 25).
edge(17, 79).
edge(80, 132).
edge(33, 131).
edge(48, 142).
edge(40, 102).
edge(3, 7).
edge(34, 144).
edge(7, 106).
edge(16, 96).
edge(7, 30).
edge(106, 121).
edge(67, 138).
edge(87, 141).
edge(102, 104).
edge(43, 56).
edge(32, 132).
edge(31, 143).
edge(119, 143).
edge(53, 125).
edge(44, 144).
edge(11, 117).
edge(0, 56).
edge(34, 68).
edge(64, 87).
edge(77, 90).
edge(37, 57).
edge(11, 74).
edge(9, 64).
edge(10, 144).
edge(97, 127).
edge(109, 140).
edge(3, 54).
edge(23, 99).
edge(23, 65).
edge(27, 103).
edge(66, 139).
edge(47, 49).
edge(43, 77).
edge(102, 123).
edge(72, 142).
edge(41, 129).
edge(5, 29).
edge(3, 123).
edge(34, 131).
edge(3, 80).
edge(62, 133).
edge(16, 118).
edge(33, 85).
edge(10, 123).
edge(5, 25).
edge(15, 41).
edge(45, 48).
edge(52, 134).
edge(96, 128).
edge(25, 74).
edge(105, 130).
edge(59, 124).
edge(60, 67).
edge(73, 138).
edge(7, 144).
edge(3, 32).
edge(101, 141).
edge(115, 117).
edge(21, 54).
edge(93, 131).
edge(16, 54).
edge(61, 115).
edge(42, 137).
edge(67, 83).
edge(5, 132).
edge(70, 105).
edge(28, 31).
edge(0, 97).
edge(60, 93).
edge(4, 126).
edge(3, 60).
edge(67, 136).
edge(28, 126).
edge(24, 102).
edge(65, 92).
edge(24, 107).
edge(129, 131).
edge(25, 54).
edge(100, 115).
edge(62, 142).
edge(8, 96).
edge(71, 112).
edge(73, 97).
edge(13, 17).
edge(43, 97).
edge(30, 64).
edge(100, 142).
edge(111, 132).
edge(45, 61).
edge(40, 42).
edge(112, 134).
edge(72, 114).
edge(18, 41).
edge(21, 57).
edge(73, 137).
edge(39, 65).
edge(4, 97).
edge(6, 18).
edge(4, 118).
edge(39, 110).
edge(12, 70).
edge(32, 136).
edge(19, 40).
edge(53, 113).
edge(0, 36).
edge(88, 134).
edge(36, 91).
edge(9, 26).
edge(127, 145).
edge(37, 79).
edge(64, 128).
edge(133, 141).
edge(28, 133).
edge(21, 85).
edge(44, 62).
edge(133, 144).
edge(39, 53).
edge(57, 115).
edge(49, 129).
edge(51, 72).
edge(23, 25).
edge(94, 142).
edge(7, 9).
edge(20, 104).
edge(14, 98).
edge(121, 129).
edge(40, 105).
edge(21, 63).
edge(12, 106).
edge(0, 76).
edge(23, 113).
edge(1, 101).
edge(13, 97).
edge(56, 69).
edge(15, 23).
edge(52, 101).
edge(119, 126).
edge(43, 145).
edge(96, 132).
edge(18, 53).
edge(8, 18).
edge(34, 135).
edge(31, 141).
edge(102, 110).
edge(91, 92).
edge(13, 119).
edge(44, 126).
edge(17, 142).
edge(16, 44).
edge(17, 60).
edge(104, 127).
edge(87, 102).
edge(24, 43).
edge(1, 106).
edge(18, 49).
edge(19, 70).
edge(55, 93).
edge(72, 141).
edge(84, 127).
edge(40, 110).
edge(17, 62).
edge(8, 45).
edge(34, 109).
edge(58, 75).
edge(35, 71).
edge(111, 130).
edge(76, 127).
edge(35, 42).
edge(48, 122).
edge(84, 100).
edge(140, 145).
edge(11, 60).
edge(109, 122).
edge(42, 98).
edge(32, 76).
edge(48, 78).
edge(36, 113).
edge(20, 96).
edge(43, 100).
edge(73, 93).
edge(25, 77).
edge(82, 95).
edge(15, 70).
edge(10, 102).
edge(3, 79).
edge(67, 96).
edge(2, 68).
edge(26, 113).
edge(3, 30).
edge(73, 79).
edge(61, 94).
edge(18, 40).
edge(103, 143).
edge(100, 124).
edge(15, 16).
edge(31, 80).
edge(9, 105).
edge(73, 104).
edge(133, 136).
edge(43, 127).
edge(15, 53).
edge(19, 100).
edge(90, 104).
edge(4, 79).
edge(47, 65).
edge(7, 129).
edge(97, 101).
edge(80, 124).
edge(9, 77).
edge(30, 91).
edge(77, 82).
edge(10, 126).
edge(83, 98).
edge(13, 140).
edge(56, 120).
edge(49, 76).
edge(73, 133).
edge(57, 96).
edge(22, 35).
edge(116, 119).
edge(73, 87).
edge(109, 111).
edge(56, 140).
edge(21, 76).
edge(125, 139).
edge(16, 59).
edge(14, 121).
edge(68, 137).
edge(30, 92).
edge(25, 132).
edge(130, 141).
edge(35, 47).
edge(35, 111).
edge(3, 39).
edge(123, 139).
edge(45, 75).
edge(55, 78).
edge(44, 111).
edge(9, 47).
edge(6, 55).
edge(6, 63).
edge(65, 97).
edge(34, 127).
edge(10, 89).
edge(123, 134).
edge(65, 73).
edge(29, 78).
edge(36, 98).
edge(29, 41).
edge(106, 139).
edge(38, 85).
edge(16, 127).
edge(26, 108).
edge(57, 135).
edge(66, 87).
edge(4, 16).
edge(15, 118).
edge(67, 90).
edge(104, 120).
edge(112, 131).
edge(36, 134).
edge(75, 87).
edge(39, 131).
edge(20, 145).
edge(38, 53).
edge(32, 144).
edge(96, 123).
edge(43, 108).
edge(35, 40).
edge(38, 113).
edge(6, 114).
edge(75, 98).
edge(30, 59).
edge(49, 125).
edge(64, 104).
edge(15, 102).
edge(96, 103).
edge(119, 121).
edge(87, 99).
edge(21, 72).
edge(43, 58).
edge(61, 72).
edge(38, 114).
edge(16, 42).
edge(24, 108).
edge(70, 120).
edge(100, 120).
edge(103, 120).
edge(5, 85).
edge(39, 140).
edge(17, 82).
edge(47, 101).
edge(14, 66).
edge(86, 129).
edge(41, 139).
edge(22, 90).
edge(27, 127).
edge(94, 143).
edge(8, 89).
edge(67, 87).
edge(38, 45).
edge(76, 109).
edge(0, 45).
edge(117, 120).
edge(36, 58).
edge(89, 138).
edge(47, 78).
edge(19, 59).
edge(30, 113).
edge(79, 99).
edge(46, 137).
edge(52, 57).
edge(37, 91).
edge(35, 131).
edge(42, 122).
edge(66, 107).
edge(4, 29).
edge(18, 23).
edge(9, 130).
edge(15, 111).
edge(13, 45).
edge(60, 97).
edge(51, 55).
edge(71, 119).
edge(0, 26).
edge(119, 125).
edge(77, 141).
edge(85, 119).
edge(16, 99).
edge(24, 42).
edge(106, 114).
edge(8, 14).
edge(42, 111).
edge(111, 141).
edge(52, 78).
edge(38, 78).
edge(12, 62).
edge(11, 33).
edge(42, 135).
edge(56, 103).
edge(20, 130).
edge(0, 142).
edge(8, 85).
edge(18, 27).
edge(37, 73).
edge(74, 90).
edge(62, 64).
edge(97, 126).
edge(10, 142).
edge(81, 128).
edge(33, 47).
edge(52, 122).
edge(95, 113).
edge(24, 33).
edge(78, 105).
edge(70, 108).
edge(16, 63).
edge(9, 66).
edge(37, 142).
edge(25, 90).
edge(22, 122).
edge(102, 134).
edge(14, 20).
edge(53, 54).
edge(98, 107).
edge(49, 133).
edge(66, 112).
edge(15, 144).
edge(27, 81).
edge(133, 143).
edge(16, 132).
edge(77, 127).
edge(90, 137).
edge(126, 144).
edge(27, 85).
edge(53, 82).
edge(79, 111).
edge(12, 144).
edge(62, 110).
edge(21, 115).
edge(60, 62).
edge(49, 92).
edge(46, 56).
edge(1, 91).
edge(15, 101).
edge(32, 52).
edge(12, 77).
edge(30, 115).
edge(107, 119).
edge(0, 100).
edge(69, 131).
edge(18, 110).
edge(75, 104).
edge(124, 139).
edge(29, 55).
edge(33, 104).
edge(63, 68).
edge(103, 130).
edge(103, 105).
edge(106, 110).
edge(108, 127).
edge(58, 72).
edge(73, 129).
edge(79, 108).
edge(25, 61).
edge(19, 134).
edge(45, 47).
edge(17, 54).
edge(36, 59).
edge(101, 140).
edge(15, 71).
edge(72, 101).
edge(28, 115).
edge(41, 140).
edge(45, 103).
edge(89, 108).
edge(105, 127).
edge(31, 78).
edge(26, 43).
edge(86, 87).
edge(78, 125).
edge(86, 97).
edge(64, 96).
edge(35, 72).
edge(29, 112).
edge(75, 125).
edge(16, 141).
edge(96, 119).
edge(27, 145).
edge(55, 62).
edge(87, 123).
edge(0, 104).
edge(39, 145).
edge(101, 135).
edge(42, 78).
edge(80, 122).
edge(37, 68).
edge(68, 85).
edge(94, 99).
edge(64, 119).
edge(18, 20).
edge(20, 24).
edge(82, 93).
edge(53, 106).
edge(67, 128).
edge(79, 101).
edge(99, 138).
edge(30, 70).
edge(63, 101).
edge(16, 131).
edge(80, 145).
edge(93, 100).
edge(34, 95).
edge(120, 140).
edge(47, 97).
edge(81, 106).
edge(42, 110).
edge(13, 43).
edge(1, 42).
edge(133, 139).
edge(2, 88).
edge(115, 142).
edge(96, 114).
edge(136, 142).
edge(97, 139).
edge(3, 65).
edge(87, 116).
edge(31, 99).
edge(47, 68).
edge(56, 127).
edge(65, 83).
edge(1, 61).
edge(0, 130).
edge(50, 62).
edge(68, 89).
edge(30, 127).
edge(76, 111).
edge(58, 121).
edge(75, 145).
edge(9, 108).
edge(44, 51).
edge(115, 140).
edge(41, 90).
edge(5, 63).
edge(33, 86).
edge(48, 85).
edge(7, 75).
edge(114, 120).
edge(47, 61).
edge(5, 36).
edge(28, 29).
edge(106, 120).
edge(9, 134).
edge(93, 99).
edge(25, 91).
edge(45, 130).
edge(129, 143).
edge(14, 136).
edge(49, 138).
edge(25, 131).
edge(75, 118).
edge(35, 62).
edge(19, 138).
edge(54, 135).
edge(10, 47).
edge(31, 117).
edge(15, 114).
edge(45, 91).
edge(71, 139).
edge(30, 66).
edge(66, 111).
edge(96, 104).
edge(80, 94).
edge(23, 121).
edge(17, 51).
edge(35, 73).
edge(46, 86).
edge(52, 107).
edge(23, 125).
edge(0, 86).
edge(52, 106).
edge(60, 103).
edge(78, 104).
edge(28, 42).
edge(74, 109).
edge(39, 49).
edge(48, 136).
edge(101, 130).
edge(104, 135).
edge(32, 127).
edge(99, 143).
edge(37, 88).
edge(15, 54).
edge(82, 117).
edge(45, 80).
edge(6, 131).
edge(91, 141).
edge(109, 131).
edge(29, 72).
edge(0, 16).
edge(28, 122).
edge(73, 78).
edge(10, 121).
edge(22, 92).
edge(25, 145).
edge(84, 129).
edge(12, 105).
edge(68, 143).
edge(92, 138).
edge(61, 88).
edge(1, 14).
edge(24, 45).
edge(68, 125).
edge(35, 107).
edge(28, 92).
edge(23, 101).
edge(20, 82).
edge(82, 97).
edge(5, 109).
edge(40, 130).
edge(60, 102).
edge(40, 58).
edge(40, 126).
edge(16, 144).
edge(77, 121).
edge(25, 33).
edge(78, 129).
edge(31, 116).
edge(50, 78).
edge(63, 78).
edge(88, 133).
edge(107, 131).
edge(63, 130).
edge(79, 119).
edge(73, 84).
edge(5, 88).
edge(53, 76).
edge(22, 23).
edge(34, 111).
edge(65, 111).
edge(60, 94).
edge(20, 83).
edge(88, 141).
edge(31, 48).
edge(132, 140).
edge(29, 53).
edge(73, 83).
edge(61, 63).
edge(45, 70).
edge(0, 15).
edge(122, 126).
edge(20, 46).
edge(96, 122).
edge(90, 129).
edge(43, 62).
edge(78, 79).
edge(5, 41).
edge(3, 61).
edge(70, 132).
edge(89, 102).
edge(23, 84).
edge(3, 121).
edge(8, 124).
edge(32, 38).
edge(33, 70).
edge(11, 50).
edge(54, 67).
edge(35, 101).
edge(31, 67).
edge(49, 87).
edge(63, 98).
edge(68, 120).
edge(55, 76).
edge(5, 12).
edge(3, 135).
edge(30, 129).
edge(16, 115).
edge(41, 130).
edge(8, 126).
edge(137, 143).
edge(49, 103).
edge(16, 89).
edge(43, 104).
edge(24, 139).
edge(50, 145).
edge(0, 90).
edge(12, 101).
edge(9, 19).
edge(26, 138).
edge(2, 135).
edge(127, 135).
edge(37, 41).
edge(14, 52).
edge(15, 135).
edge(29, 63).
edge(19, 50).
edge(15, 62).
edge(0, 10).
edge(62, 92).
edge(53, 56).
edge(25, 80).
edge(1, 135).
edge(21, 131).
edge(70, 102).
edge(6, 134).
edge(92, 143).
edge(33, 135).
edge(69, 126).
edge(45, 134).
edge(113, 117).
edge(50, 135).
edge(96, 97).
edge(75, 131).
edge(69, 136).
edge(91, 97).
edge(20, 101).
edge(28, 44).
edge(43, 136).
edge(132, 133).
edge(108, 119).
edge(6, 20).
edge(86, 128).
edge(96, 110).
edge(62, 96).
edge(50, 112).
edge(17, 138).
edge(91, 119).
edge(76, 94).
edge(3, 84).
edge(15, 138).
edge(28, 118).
edge(47, 145).
edge(92, 95).
edge(49, 121).
edge(23, 133).
edge(64, 123).
edge(4, 99).
edge(72, 123).
edge(103, 113).
edge(85, 136).
edge(113, 142).
edge(116, 120).
edge(35, 121).
edge(53, 129).
edge(10, 41).
edge(18, 32).
edge(37, 89).
edge(44, 46).
edge(96, 120).
edge(107, 108).
edge(72, 88).
edge(57, 131).
edge(64, 112).
edge(121, 139).
edge(16, 84).
edge(59, 75).
edge(12, 43).
edge(24, 51).
edge(41, 117).
edge(23, 87).
edge(9, 75).
edge(18, 128).
edge(48, 83).
edge(80, 118).
edge(10, 21).
edge(18, 51).
edge(20, 116).
edge(18, 26).
edge(28, 70).
edge(0, 54).
edge(28, 105).
edge(103, 129).
edge(108, 141).
edge(6, 112).
edge(93, 114).
edge(11, 41).
edge(68, 115).
edge(6, 34).
edge(49, 86).
edge(15, 24).
edge(21, 68).
edge(29, 42).
edge(18, 38).
edge(74, 101).
edge(29, 87).
edge(79, 123).
edge(54, 92).
edge(125, 132).
edge(50, 117).
edge(84, 145).
edge(99, 124).
edge(64, 70).
edge(7, 105).
edge(41, 77).
edge(4, 119).
edge(132, 136).
edge(39, 47).
edge(124, 126).
edge(45, 62).
edge(33, 59).
edge(33, 143).
edge(18, 64).
edge(6, 31).
edge(97, 114).
edge(76, 115).
edge(23, 52).
edge(11, 34).
edge(118, 119).
edge(26, 76).
edge(78, 90).
edge(111, 121).
edge(14, 140).
edge(57, 62).
edge(89, 136).
edge(75, 88).
edge(13, 73).
edge(58, 139).
edge(30, 79).
edge(62, 137).
edge(54, 133).
edge(20, 40).
edge(74, 117).
edge(25, 139).
edge(46, 133).
edge(48, 49).
edge(75, 117).
edge(4, 135).
edge(26, 99).
edge(4, 91).
edge(4, 50).
edge(20, 115).
edge(70, 127).
edge(7, 107).
edge(3, 64).
edge(131, 139).
edge(80, 84).
edge(91, 129).
edge(14, 104).
edge(24, 106).
edge(51, 67).
edge(69, 79).
edge(4, 96).
edge(28, 101).
edge(25, 82).
edge(118, 132).
edge(74, 107).
edge(102, 136).
edge(56, 142).
edge(8, 12).
edge(58, 68).
edge(62, 125).
edge(73, 80).
edge(28, 90).
edge(10, 28).
edge(129, 135).
edge(15, 30).
edge(55, 57).
edge(84, 139).
edge(82, 142).
edge(14, 126).
edge(10, 133).
edge(30, 43).
edge(32, 113).
edge(57, 86).
edge(74, 113).
edge(49, 127).
edge(2, 101).
edge(25, 118).
edge(18, 46).
edge(35, 66).
edge(92, 116).
edge(45, 119).
edge(139, 140).
edge(42, 47).
edge(28, 109).
edge(16, 25).
edge(3, 38).
edge(56, 91).
edge(67, 109).
edge(71, 95).
edge(12, 73).
edge(61, 90).
edge(118, 137).
edge(74, 75).
edge(67, 127).
edge(97, 141).
edge(41, 75).
edge(50, 55).
edge(2, 116).
edge(25, 86).
edge(0, 125).
edge(23, 144).
edge(48, 55).
edge(50, 75).
edge(67, 89).
edge(65, 107).
edge(134, 135).
edge(14, 95).
edge(97, 115).
edge(42, 67).
edge(21, 127).
edge(27, 84).
edge(7, 11).
edge(32, 130).
edge(37, 110).
edge(44, 114).
edge(32, 125).
edge(81, 144).
edge(91, 117).
edge(97, 145).
edge(0, 27).
edge(24, 82).
edge(20, 58).
edge(68, 104).
edge(118, 144).
edge(28, 51).
edge(59, 122).
edge(108, 130).
edge(122, 125).
edge(77, 118).
edge(129, 138).
edge(75, 76).
edge(10, 120).
edge(50, 92).
edge(54, 145).
edge(91, 137).
edge(107, 110).
edge(47, 64).
edge(88, 90).
edge(52, 56).
edge(58, 91).
edge(104, 139).
edge(65, 109).
edge(107, 132).
edge(61, 133).
edge(60, 61).
edge(40, 107).
edge(75, 77).
edge(25, 45).
edge(16, 140).
edge(118, 123).
edge(4, 43).
edge(57, 128).
edge(17, 55).
edge(114, 117).
edge(17, 135).
edge(44, 97).
edge(20, 107).
edge(13, 24).
edge(26, 80).
edge(36, 102).
edge(46, 64).
edge(23, 114).
edge(76, 144).
edge(2, 18).
edge(74, 126).
edge(30, 34).
edge(1, 92).
edge(93, 128).
edge(46, 127).
edge(47, 58).
edge(81, 98).
edge(95, 97).
edge(28, 43).
edge(15, 137).
edge(12, 53).
edge(30, 108).
edge(76, 117).
edge(40, 104).
edge(33, 138).
edge(6, 9).
edge(32, 49).
edge(13, 19).
edge(11, 58).
edge(95, 140).
edge(61, 140).
edge(22, 52).
edge(26, 104).
edge(132, 139).
edge(6, 50).
edge(12, 141).
edge(10, 114).
edge(15, 84).
edge(107, 124).
edge(99, 132).
edge(58, 118).
edge(124, 132).
edge(100, 108).
edge(127, 130).
edge(97, 134).
edge(41, 51).
edge(16, 53).
edge(30, 140).
edge(19, 120).
edge(73, 86).
edge(34, 54).
edge(66, 91).
edge(80, 92).
edge(27, 128).
edge(50, 101).
edge(17, 134).
edge(45, 131).
edge(9, 10).
edge(23, 97).
edge(23, 57).
edge(9, 38).
edge(104, 111).
edge(33, 112).
edge(82, 109).
edge(0, 113).
edge(70, 100).
edge(43, 129).
edge(36, 45).
edge(46, 101).
edge(22, 134).
edge(41, 79).
edge(56, 138).
edge(47, 72).
edge(0, 74).
edge(99, 114).
edge(78, 98).
edge(35, 48).
edge(70, 123).
edge(33, 108).
edge(84, 87).
edge(88, 142).
edge(94, 115).
edge(36, 65).
edge(39, 42).
edge(28, 123).
edge(10, 56).
edge(114, 137).
edge(125, 136).
edge(23, 51).
edge(11, 52).
edge(14, 139).
edge(88, 144).
edge(55, 123).
edge(25, 95).
edge(13, 133).
edge(34, 143).
edge(72, 117).
edge(61, 105).
edge(52, 139).
edge(16, 60).
edge(4, 68).
edge(7, 25).
edge(15, 60).
edge(67, 130).
edge(72, 126).
edge(34, 89).
edge(46, 129).
edge(119, 128).
edge(25, 37).
edge(38, 49).
edge(47, 90).
edge(0, 3).
edge(14, 79).
edge(2, 23).
edge(67, 75).
edge(82, 131).
edge(79, 120).
edge(59, 102).
edge(39, 84).
edge(38, 81).
edge(19, 111).
edge(73, 134).
edge(97, 140).
edge(83, 114).
edge(31, 74).
edge(43, 71).
edge(51, 54).
edge(46, 73).
edge(91, 95).
edge(11, 102).
edge(29, 139).
edge(29, 90).
edge(21, 130).
edge(104, 129).
edge(5, 42).
edge(65, 81).
edge(4, 124).
edge(30, 103).
edge(34, 47).
edge(85, 126).
edge(26, 96).
edge(36, 44).
edge(11, 59).
edge(11, 109).
edge(93, 132).
edge(22, 68).
edge(32, 114).
edge(16, 94).
edge(10, 57).
edge(35, 84).
edge(13, 91).
edge(28, 68).
edge(67, 115).
edge(117, 132).
edge(35, 69).
edge(94, 127).
edge(70, 77).
edge(0, 47).
edge(9, 50).
edge(0, 78).
edge(89, 122).
edge(31, 84).
edge(57, 69).
edge(40, 82).
edge(40, 66).
edge(85, 95).
edge(39, 123).
edge(80, 87).
edge(31, 86).
edge(62, 122).
edge(42, 70).
edge(15, 77).
edge(29, 110).
edge(63, 132).
edge(18, 43).
edge(30, 83).
edge(35, 67).
edge(138, 145).
edge(116, 129).
edge(79, 115).
edge(107, 120).
edge(107, 137).
edge(17, 42).
edge(5, 90).
edge(78, 137).
edge(3, 62).
edge(129, 134).
edge(16, 137).
edge(72, 115).
edge(7, 12).
edge(88, 130).
edge(45, 100).
edge(40, 54).
edge(0, 48).
edge(12, 116).
edge(40, 52).
edge(55, 64).
edge(49, 113).
edge(92, 109).
edge(14, 31).
edge(7, 108).
edge(112, 114).
edge(80, 135).
edge(114, 136).
edge(23, 123).
edge(23, 124).
edge(21, 74).
edge(68, 112).
edge(30, 106).
edge(25, 40).
edge(127, 137).
edge(47, 60).
edge(47, 141).
edge(55, 133).
edge(11, 92).
edge(2, 98).
edge(71, 79).
edge(17, 109).
edge(14, 53).
edge(90, 109).
edge(19, 36).
edge(86, 102).
edge(56, 95).
edge(123, 144).
edge(45, 88).
edge(105, 129).
edge(119, 120).
edge(21, 105).
edge(80, 117).
edge(44, 135).
edge(0, 43).
edge(8, 51).
edge(68, 73).
edge(104, 106).
edge(57, 83).
edge(54, 113).
edge(25, 66).
edge(65, 99).
edge(10, 45).
edge(6, 76).
edge(6, 30).
edge(52, 114).
edge(58, 141).
edge(18, 102).
edge(32, 105).
edge(43, 111).
edge(2, 139).
edge(47, 76).
edge(7, 137).
edge(104, 137).
edge(6, 86).
edge(55, 125).
edge(9, 34).
edge(47, 140).
edge(2, 37).
edge(66, 126).
edge(29, 141).
edge(5, 40).
edge(98, 113).
edge(55, 137).
edge(21, 47).
edge(33, 50).
edge(87, 95).
edge(56, 81).
edge(50, 87).
edge(54, 79).
edge(6, 129).
edge(17, 59).
edge(3, 24).
edge(25, 101).
edge(47, 133).
edge(74, 83).
edge(98, 103).
edge(56, 99).
edge(67, 110).
edge(38, 109).
edge(27, 101).
edge(42, 44).
edge(18, 124).
edge(2, 103).
edge(71, 122).
edge(79, 110).
edge(6, 25).
edge(14, 88).
edge(35, 44).
edge(75, 119).
edge(109, 113).
edge(2, 132).
edge(0, 4).
edge(0, 24).
edge(18, 19).
edge(84, 117).
edge(106, 141).
edge(67, 135).
edge(27, 140).
edge(106, 124).
edge(1, 12).
edge(43, 86).
edge(95, 96).
edge(53, 137).
edge(128, 143).
edge(29, 94).
edge(87, 125).
edge(23, 129).
edge(116, 121).
edge(68, 102).
edge(58, 120).
edge(60, 107).
edge(74, 80).
edge(72, 86).
edge(83, 100).
edge(19, 34).
edge(45, 121).
edge(19, 56).
edge(71, 136).
edge(56, 116).
edge(0, 58).
edge(54, 131).
edge(54, 69).
edge(12, 44).
edge(65, 69).
edge(34, 39).
edge(11, 47).
edge(50, 106).
edge(51, 97).
edge(12, 113).
edge(76, 85).
edge(36, 136).
edge(47, 54).
edge(40, 95).
edge(104, 128).
edge(38, 100).
edge(0, 62).
edge(90, 144).
edge(63, 139).
edge(40, 96).
edge(24, 41).
edge(5, 69).
edge(20, 28).
edge(28, 79).
edge(1, 69).
edge(46, 112).
edge(29, 140).
edge(126, 140).
edge(137, 139).
edge(37, 107).
edge(2, 123).
edge(30, 87).
edge(55, 59).
edge(13, 68).
edge(18, 70).
edge(37, 46).
edge(6, 35).
edge(20, 120).
edge(11, 48).
edge(58, 132).
edge(15, 80).
edge(32, 36).
edge(50, 57).
edge(11, 126).
edge(64, 81).
edge(93, 135).
edge(36, 55).
edge(27, 49).
edge(33, 117).
edge(70, 121).
edge(100, 103).
edge(66, 67).
edge(92, 119).
edge(60, 63).
edge(54, 87).
edge(75, 103).
edge(21, 139).
edge(79, 107).
edge(120, 138).
edge(46, 94).
edge(53, 62).
edge(81, 136).
edge(97, 133).
edge(8, 130).
edge(109, 128).
edge(67, 121).
edge(84, 131).
edge(93, 140).
edge(72, 91).
edge(36, 103).
edge(46, 132).
edge(13, 123).
edge(52, 91).
edge(64, 101).
edge(27, 34).
edge(89, 101).
edge(61, 131).
edge(2, 3).
edge(103, 122).
edge(45, 64).
edge(12, 67).
edge(10, 113).
edge(29, 58).
edge(34, 113).
edge(31, 113).
edge(0, 143).
edge(30, 44).
edge(76, 118).
edge(69, 91).
edge(72, 145).
edge(11, 69).
edge(33, 44).
edge(122, 145).
edge(63, 107).
edge(42, 88).
edge(40, 84).
edge(40, 51).
edge(77, 95).
edge(15, 48).
edge(31, 52).
edge(90, 138).
edge(85, 125).
edge(28, 75).
edge(79, 122).
edge(130, 145).
edge(48, 100).
edge(11, 142).
edge(75, 86).
edge(3, 73).
edge(69, 144).
edge(24, 72).
edge(126, 145).
edge(71, 127).
edge(1, 38).
edge(36, 130).
edge(124, 137).
edge(102, 108).
edge(3, 106).
edge(31, 139).
edge(68, 83).
edge(21, 104).
edge(9, 70).
edge(6, 113).
edge(108, 142).
edge(30, 84).
edge(41, 99).
edge(73, 135).
edge(10, 76).
edge(40, 94).
edge(39, 89).
edge(76, 96).
edge(5, 131).
edge(76, 136).
edge(31, 95).
edge(130, 133).
edge(5, 128).
edge(82, 101).
edge(49, 105).
edge(95, 122).
edge(44, 76).
edge(20, 91).
edge(37, 56).
edge(87, 134).
edge(42, 55).
edge(57, 93).
edge(35, 126).
edge(53, 139).
edge(0, 134).
edge(12, 52).
edge(31, 88).
edge(34, 90).
edge(85, 91).
edge(108, 126).
edge(113, 123).
edge(49, 117).
edge(59, 95).
edge(42, 73).
edge(44, 94).
edge(92, 129).
edge(13, 108).
edge(35, 56).
edge(18, 39).
edge(127, 140).
edge(33, 95).
edge(16, 120).
edge(71, 82).
edge(29, 60).
edge(55, 96).
edge(23, 73).
edge(107, 126).
edge(1, 2).
edge(48, 106).
edge(67, 123).
edge(60, 83).
edge(24, 37).
edge(40, 56).
edge(0, 81).
edge(14, 71).
edge(14, 50).
edge(48, 103).
edge(83, 126).
edge(57, 74).
edge(93, 142).
edge(17, 86).
edge(67, 81).
edge(40, 114).
edge(10, 69).
edge(21, 137).
edge(59, 83).
edge(94, 144).
edge(2, 102).
edge(74, 88).
edge(35, 58).
edge(51, 94).
edge(32, 139).
edge(96, 101).
edge(37, 140).
edge(8, 72).
edge(16, 97).
edge(81, 95).
edge(57, 137).
edge(67, 98).
edge(70, 107).
edge(22, 141).
edge(65, 84).
edge(50, 132).
edge(23, 109).
edge(12, 29).
edge(81, 112).
edge(33, 75).
edge(47, 48).
edge(45, 65).
edge(7, 84).
edge(49, 81).
edge(2, 5).
edge(8, 79).
edge(5, 134).
edge(34, 88).
edge(10, 68).
edge(94, 108).
edge(33, 119).
edge(56, 58).
edge(39, 143).
edge(24, 92).
edge(22, 103).
edge(22, 24).
edge(109, 117).
edge(1, 35).
edge(109, 136).
edge(1, 40).
edge(53, 134).
edge(86, 142).
edge(100, 121).
edge(13, 14).
edge(44, 86).
edge(34, 42).
edge(71, 91).
edge(18, 87).
edge(10, 75).
edge(7, 46).
edge(9, 36).
edge(66, 114).
edge(35, 91).
edge(8, 13).
edge(85, 112).
edge(18, 97).
edge(3, 139).
edge(20, 85).
edge(14, 134).
edge(36, 126).
edge(36, 69).
edge(36, 53).
edge(48, 61).
edge(87, 93).
edge(29, 117).
edge(81, 101).
edge(79, 103).
edge(11, 136).
edge(39, 74).
edge(68, 122).
edge(3, 99).
edge(3, 85).
edge(54, 121).
edge(64, 125).
edge(24, 131).
edge(44, 49).
edge(13, 89).
edge(27, 36).
edge(67, 108).
edge(48, 135).
edge(24, 70).
edge(70, 103).
edge(75, 122).
edge(88, 99).
edge(62, 141).
edge(26, 69).
edge(6, 84).
edge(94, 140).
edge(32, 73).
edge(65, 128).
edge(6, 91).
edge(82, 125).
edge(121, 134).
edge(36, 105).
edge(54, 65).
edge(16, 65).
edge(19, 77).
edge(57, 143).
edge(54, 96).
edge(18, 72).
edge(20, 33).
edge(17, 63).
edge(42, 103).
edge(57, 61).
edge(32, 46).
edge(3, 66).
edge(44, 95).
edge(63, 115).
edge(111, 125).
edge(77, 94).
edge(58, 137).
edge(105, 123).
edge(113, 128).
edge(89, 143).
edge(65, 76).
edge(63, 133).
edge(16, 29).
edge(13, 35).
edge(86, 113).
edge(72, 102).
edge(65, 138).
edge(53, 98).
edge(37, 42).
edge(65, 108).
edge(59, 66).
edge(4, 76).
edge(37, 75).
edge(3, 36).
edge(8, 17).
edge(5, 89).
edge(58, 93).
edge(58, 119).
edge(32, 60).
edge(111, 145).
edge(39, 132).
edge(57, 114).
edge(14, 101).
edge(124, 138).
edge(7, 70).
edge(124, 143).
edge(44, 60).
edge(41, 63).
edge(41, 131).
edge(55, 94).
edge(31, 36).
edge(21, 117).
edge(20, 31).
edge(42, 130).
edge(34, 71).
edge(63, 135).
edge(0, 52).
edge(72, 95).
edge(36, 95).
edge(2, 118).
edge(43, 135).
edge(36, 67).
edge(99, 119).
edge(3, 55).
edge(41, 121).
edge(6, 136).
edge(60, 100).
edge(6, 44).
edge(100, 102).
edge(52, 126).
edge(58, 140).
edge(11, 53).
edge(0, 94).
edge(7, 19).
edge(36, 47).
edge(7, 121).
edge(102, 106).
edge(13, 60).
edge(45, 77).
edge(19, 116).
edge(84, 124).
edge(0, 18).
edge(15, 76).
edge(85, 135).
edge(96, 136).
edge(6, 19).
edge(4, 6).
edge(38, 133).
edge(62, 121).
edge(61, 116).
edge(18, 86).
edge(8, 107).
edge(1, 65).
edge(98, 114).
edge(45, 135).
edge(42, 96).
edge(6, 38).
edge(98, 142).
edge(91, 102).
edge(46, 114).
edge(16, 79).
edge(90, 126).
edge(3, 143).
edge(8, 144).
edge(89, 141).
edge(45, 94).
edge(23, 93).
edge(20, 95).
edge(86, 145).
edge(40, 123).
edge(29, 35).
edge(62, 132).
edge(20, 132).
edge(34, 126).
edge(127, 139).
edge(45, 115).
edge(2, 78).
edge(42, 133).
edge(61, 96).
edge(35, 61).
edge(21, 120).
edge(6, 43).
edge(65, 87).
edge(80, 141).
edge(81, 99).
edge(17, 106).
edge(41, 46).
edge(3, 63).
edge(8, 111).
edge(11, 20).
edge(0, 116).
edge(44, 106).
edge(106, 116).
edge(72, 100).
edge(52, 127).
edge(62, 136).
edge(26, 38).
edge(17, 123).
edge(25, 53).
edge(87, 90).
edge(39, 68).
edge(49, 141).
edge(22, 102).
edge(3, 56).
edge(67, 68).
edge(17, 129).
edge(38, 94).
edge(17, 103).
edge(42, 129).
edge(40, 63).
edge(62, 63).
edge(59, 115).
edge(2, 93).
edge(20, 112).
edge(109, 127).
edge(27, 39).
edge(26, 139).
edge(66, 110).
edge(54, 55).
edge(39, 40).
edge(27, 70).
edge(1, 70).
edge(22, 46).
edge(73, 117).
edge(5, 62).
edge(0, 112).
edge(18, 52).
edge(19, 119).
edge(48, 70).
edge(39, 142).
edge(35, 127).
edge(26, 101).
edge(7, 104).
edge(53, 136).
edge(28, 38).
edge(61, 123).
edge(89, 117).
edge(6, 41).
edge(39, 91).
edge(9, 55).
edge(20, 92).
edge(50, 139).
edge(105, 106).
edge(36, 93).
edge(45, 105).
edge(93, 94).
edge(109, 139).
edge(36, 101).
edge(22, 119).
edge(82, 120).
edge(67, 141).
edge(66, 74).
edge(56, 73).
edge(27, 45).
edge(46, 66).
edge(118, 139).
edge(7, 33).
edge(30, 102).
edge(61, 77).
edge(43, 117).
edge(46, 58).
edge(1, 6).
edge(22, 126).
edge(29, 84).
edge(69, 103).
edge(41, 65).
edge(77, 103).
edge(95, 106).
edge(17, 50).
edge(61, 67).
edge(40, 131).
edge(24, 46).
edge(114, 135).
edge(51, 57).
edge(38, 132).
edge(11, 67).
edge(19, 102).
edge(46, 80).
edge(40, 44).
edge(37, 111).
edge(23, 79).
edge(2, 39).
edge(79, 118).
edge(31, 124).
edge(24, 52).
edge(30, 53).
edge(37, 120).
edge(62, 99).
edge(6, 109).
edge(74, 96).
edge(55, 74).
edge(33, 57).
edge(6, 65).
edge(55, 127).
edge(31, 118).
edge(40, 77).
edge(26, 65).
edge(64, 75).
edge(21, 70).
edge(4, 120).
edge(64, 88).
edge(90, 117).
edge(34, 139).
edge(110, 130).
edge(43, 94).
edge(32, 55).
edge(70, 97).
edge(4, 28).
edge(47, 52).
edge(49, 96).
edge(58, 61).
edge(20, 63).
edge(116, 118).
edge(87, 100).
edge(44, 104).
edge(4, 116).
edge(56, 122).
edge(25, 73).
edge(98, 125).
edge(2, 13).
edge(27, 86).
edge(52, 83).
edge(84, 122).
edge(64, 102).
edge(91, 108).
edge(19, 84).
edge(30, 143).
edge(98, 137).
edge(43, 110).
edge(85, 133).
edge(0, 75).
edge(50, 58).
edge(32, 103).
edge(44, 84).
edge(41, 80).
edge(11, 91).
edge(55, 122).
edge(27, 131).
edge(19, 109).
edge(96, 126).
edge(3, 133).
edge(63, 92).
edge(33, 84).
edge(98, 120).
edge(25, 117).
edge(3, 47).
edge(68, 76).
edge(25, 35).
edge(96, 105).
edge(44, 129).
edge(65, 125).
edge(6, 116).
edge(42, 119).
edge(38, 103).
edge(8, 77).
edge(81, 139).
edge(7, 101).
edge(102, 131).
edge(23, 135).
edge(62, 94).
edge(50, 89).
edge(38, 106).
edge(4, 139).
edge(81, 131).
edge(29, 45).
edge(30, 55).
edge(22, 70).
edge(23, 126).
edge(48, 134).
edge(48, 125).
edge(11, 135).
edge(8, 54).
edge(99, 103).
edge(39, 62).
edge(50, 72).
edge(5, 81).
edge(138, 144).
edge(17, 130).
edge(82, 118).
edge(30, 50).
edge(32, 74).
edge(26, 64).
edge(57, 79).
edge(61, 143).
edge(29, 143).
edge(74, 137).
edge(74, 94).
edge(5, 17).
edge(68, 135).
edge(28, 86).
edge(8, 80).
edge(29, 119).
edge(57, 68).
edge(0, 77).
edge(95, 110).
edge(41, 73).
edge(60, 134).
edge(31, 60).
edge(5, 102).
edge(32, 117).
edge(13, 143).
edge(122, 136).
edge(4, 132).
edge(24, 62).
edge(80, 98).
edge(32, 120).
edge(101, 116).
edge(33, 55).
edge(106, 123).
edge(58, 106).
edge(78, 82).
edge(22, 83).
edge(20, 99).
edge(1, 85).
edge(41, 133).
edge(33, 64).
edge(52, 74).
edge(36, 71).
edge(0, 44).
edge(31, 120).
edge(78, 94).
edge(119, 145).
edge(37, 116).
edge(110, 138).
edge(5, 121).
edge(30, 47).
edge(71, 93).
edge(77, 136).
edge(27, 141).
edge(22, 131).
edge(24, 30).
edge(53, 92).
edge(48, 92).
edge(31, 132).
edge(25, 140).
edge(53, 60).
edge(109, 124).
edge(57, 60).
edge(42, 57).
edge(106, 108).
edge(56, 110).
edge(13, 32).
edge(46, 75).
edge(60, 85).
edge(40, 76).
edge(58, 86).
edge(44, 116).
edge(80, 129).
edge(2, 89).
edge(7, 64).
edge(59, 123).
edge(35, 138).
edge(50, 59).
edge(68, 121).
edge(14, 72).
edge(14, 99).
edge(36, 118).
edge(30, 61).
edge(63, 95).
edge(1, 18).
edge(91, 121).
edge(46, 130).
edge(43, 92).
edge(90, 91).
edge(30, 95).
edge(55, 99).
edge(57, 92).
edge(26, 35).
edge(31, 58).
edge(31, 69).
edge(42, 124).
edge(26, 28).
edge(17, 88).
edge(5, 9).
edge(5, 96).
edge(77, 111).
edge(81, 125).
edge(124, 144).
edge(6, 45).
edge(85, 86).
edge(62, 111).
edge(2, 41).
edge(41, 125).
edge(17, 110).
edge(33, 113).
edge(1, 34).
edge(0, 122).
edge(49, 71).
edge(77, 84).
edge(81, 84).
edge(40, 74).
edge(94, 141).
edge(140, 143).
edge(74, 78).
edge(47, 111).
edge(13, 59).
edge(30, 48).
edge(23, 77).
edge(88, 114).
edge(68, 144).
edge(9, 135).
edge(70, 98).
edge(26, 122).
edge(107, 109).
edge(28, 62).
edge(126, 139).
edge(4, 44).
edge(103, 110).
edge(15, 136).
edge(78, 126).
edge(67, 97).
edge(31, 34).
edge(47, 107).
edge(44, 130).
edge(23, 132).
edge(8, 15).
edge(54, 81).
edge(2, 137).
edge(1, 79).
edge(16, 81).
edge(99, 128).
edge(74, 95).
edge(65, 103).
edge(115, 123).
edge(23, 63).
edge(29, 34).
edge(10, 115).
edge(121, 137).
edge(90, 102).
edge(64, 71).
edge(66, 130).
edge(41, 85).
edge(22, 80).
edge(92, 131).
edge(43, 47).
edge(41, 96).
edge(76, 108).
edge(0, 136).
edge(15, 132).
edge(18, 144).
edge(23, 128).
edge(10, 17).
edge(30, 38).
edge(41, 135).
edge(17, 20).
edge(16, 83).
edge(18, 143).
edge(82, 108).
edge(14, 68).
edge(51, 136).
edge(55, 89).
edge(60, 130).
edge(44, 65).
edge(8, 23).
edge(95, 139).
edge(30, 54).
edge(91, 124).
edge(43, 70).
edge(77, 112).
edge(3, 52).
edge(2, 43).
edge(26, 85).
edge(114, 141).
edge(21, 62).
edge(22, 51).
edge(11, 42).
edge(6, 58).
edge(28, 47).
edge(48, 116).
edge(21, 24).
edge(91, 115).
edge(75, 133).
edge(72, 97).
edge(94, 117).
edge(7, 128).
edge(42, 85).
edge(32, 84).
edge(73, 128).
edge(74, 139).
edge(35, 134).
edge(97, 124).
edge(8, 50).
edge(25, 107).
edge(18, 133).
edge(24, 77).
edge(121, 138).
edge(99, 117).
edge(77, 106).
edge(0, 106).
edge(16, 28).
edge(98, 121).
edge(31, 126).
edge(17, 21).
edge(17, 77).
edge(14, 143).
edge(13, 52).
edge(114, 131).
edge(104, 114).
edge(17, 61).
edge(99, 140).
edge(40, 86).
edge(3, 101).
edge(13, 47).
edge(10, 26).
edge(50, 56).
edge(19, 133).
edge(1, 130).
edge(68, 132).
edge(69, 90).
edge(125, 128).
edge(31, 134).
edge(49, 80).
edge(21, 46).
edge(24, 136).
edge(2, 31).
edge(60, 138).
edge(90, 116).
edge(5, 34).
edge(45, 93).
edge(4, 40).
edge(43, 46).
edge(12, 84).
edge(17, 102).
edge(87, 103).
edge(32, 107).
edge(86, 93).
edge(15, 40).
edge(93, 145).
edge(12, 71).
edge(4, 7).
edge(128, 133).
edge(121, 144).
edge(80, 134).
edge(30, 107).
edge(108, 120).
edge(75, 84).
edge(28, 110).
edge(17, 27).
edge(26, 72).
edge(27, 41).
edge(142, 143).
edge(77, 130).
edge(5, 60).
edge(19, 48).
edge(71, 145).
edge(15, 33).
edge(9, 67).
edge(1, 54).
edge(6, 79).
edge(2, 9).
edge(7, 124).
edge(28, 59).
edge(82, 105).
edge(10, 62).
edge(106, 107).
edge(35, 41).
edge(59, 112).
edge(95, 137).
edge(134, 143).
edge(24, 87).
edge(3, 136).
edge(11, 25).
edge(70, 90).
edge(47, 130).
edge(66, 127).
edge(15, 20).
edge(6, 138).
edge(6, 144).
edge(67, 69).
edge(48, 144).
edge(38, 134).
edge(48, 79).
edge(56, 94).
edge(4, 121).
edge(8, 35).
edge(2, 143).
edge(34, 133).
edge(65, 114).
edge(41, 116).
edge(9, 106).
edge(8, 82).
edge(108, 112).
edge(19, 135).
edge(14, 77).
edge(36, 108).
edge(11, 14).
edge(6, 110).
edge(71, 144).
edge(74, 93).
edge(64, 86).
edge(2, 8).
edge(68, 111).
edge(32, 45).
edge(14, 83).
edge(63, 100).
edge(7, 140).
edge(69, 80).
edge(76, 123).
edge(74, 115).
edge(65, 95).
edge(10, 100).
edge(12, 40).
edge(34, 119).
edge(52, 61).
edge(66, 142).
edge(24, 86).
edge(24, 95).
edge(99, 100).
edge(75, 141).
edge(12, 20).
edge(92, 135).
edge(85, 100).
edge(30, 86).
edge(1, 30).
edge(104, 133).
edge(23, 49).
edge(3, 12).
edge(108, 125).
edge(63, 88).
edge(73, 127).
edge(78, 92).
edge(32, 75).
edge(111, 135).
edge(4, 10).
edge(111, 138).
edge(13, 29).
edge(38, 130).
edge(50, 85).
edge(8, 141).
edge(48, 139).
edge(35, 104).
edge(1, 131).
edge(44, 79).
edge(14, 51).
edge(31, 65).
edge(36, 120).
edge(20, 139).
edge(55, 68).
edge(33, 100).
edge(93, 134).
edge(22, 135).
edge(25, 138).
edge(97, 106).
edge(6, 89).
edge(40, 134).
edge(81, 138).
edge(75, 108).
edge(143, 145).
edge(105, 140).
edge(65, 91).
edge(47, 135).
edge(18, 98).
edge(124, 133).
edge(9, 27).
edge(20, 114).
edge(9, 23).
edge(135, 145).
edge(37, 127).
edge(30, 33).
edge(35, 37).
edge(93, 116).
edge(122, 143).
edge(15, 134).
edge(15, 90).
edge(84, 137).
edge(68, 88).
edge(19, 85).
edge(11, 22).
edge(29, 106).
edge(49, 90).
edge(59, 72).
edge(22, 37).
edge(63, 82).
edge(56, 63).
edge(35, 142).
edge(10, 11).
edge(54, 105).
edge(75, 115).
edge(60, 78).
edge(71, 73).
edge(34, 70).
edge(48, 56).
edge(58, 124).
edge(36, 83).
edge(60, 139).
edge(18, 111).
edge(61, 136).
edge(50, 142).
edge(0, 8).
edge(10, 71).
edge(116, 123).
edge(2, 12).
edge(100, 140).
edge(24, 53).
edge(11, 79).
edge(54, 126).
edge(48, 97).
edge(69, 92).
edge(63, 127).
edge(101, 121).
edge(30, 81).
edge(123, 140).
edge(14, 84).
edge(58, 107).
edge(100, 125).
edge(52, 62).
edge(24, 64).
edge(86, 135).
edge(98, 136).
edge(10, 110).
edge(60, 112).
edge(113, 136).
edge(111, 122).
edge(63, 140).
edge(42, 140).
edge(101, 127).
edge(72, 98).
edge(91, 105).
edge(84, 105).
edge(37, 135).
edge(15, 89).
edge(10, 129).
edge(16, 90).
edge(15, 128).
edge(69, 122).
edge(33, 87).
edge(8, 68).
edge(29, 83).
edge(7, 38).
edge(111, 112).
edge(70, 85).
edge(61, 108).
edge(48, 130).
edge(92, 104).
edge(15, 59).
edge(16, 95).
edge(37, 86).
edge(70, 88).
edge(35, 95).
edge(9, 117).
edge(35, 75).
edge(70, 101).
edge(48, 50).
edge(42, 134).
edge(38, 105).
edge(56, 102).
edge(14, 102).
edge(39, 134).
edge(50, 67).
edge(15, 18).
edge(65, 117).
edge(14, 74).
edge(46, 99).
edge(78, 117).
edge(10, 97).
edge(22, 93).
edge(53, 120).
edge(90, 123).
edge(25, 85).
edge(10, 83).
edge(39, 63).
edge(64, 83).
edge(83, 103).
edge(102, 139).
edge(43, 101).
edge(78, 113).
edge(80, 81).
edge(52, 98).
edge(65, 127).
edge(26, 87).
edge(57, 138).
edge(93, 104).
edge(139, 144).
edge(19, 33).
edge(45, 109).
edge(74, 97).
edge(89, 118).
edge(84, 92).
edge(87, 111).
edge(50, 94).
edge(16, 52).
edge(1, 71).
edge(50, 97).
edge(60, 143).
edge(25, 98).
edge(19, 22).
edge(90, 110).
edge(37, 87).
edge(33, 106).
edge(13, 82).
edge(4, 20).
edge(31, 93).
edge(40, 47).
edge(21, 134).
edge(55, 143).
edge(66, 118).
edge(3, 4).
edge(65, 137).
edge(70, 126).
edge(38, 87).
edge(53, 78).
edge(42, 71).
edge(56, 141).
edge(24, 55).
edge(19, 38).
edge(109, 137).
edge(33, 107).
edge(1, 8).
edge(25, 92).
edge(24, 81).
edge(38, 79).
edge(2, 90).
edge(129, 142).
edge(6, 68).
edge(4, 75).
edge(44, 59).
edge(72, 144).
edge(33, 98).
edge(98, 138).
edge(71, 113).
edge(6, 133).
edge(8, 92).
edge(25, 34).
edge(80, 105).
edge(19, 90).
edge(18, 118).
edge(3, 20).
edge(39, 75).
edge(29, 50).
edge(28, 34).
edge(35, 110).
edge(109, 142).
edge(81, 126).
edge(26, 31).
edge(87, 145).
edge(54, 144).
edge(30, 77).
edge(52, 58).
edge(20, 80).
edge(21, 39).
edge(70, 138).
edge(25, 47).
edge(104, 125).
edge(1, 83).
edge(16, 47).
edge(28, 71).
edge(66, 76).
edge(21, 103).
edge(53, 127).
edge(73, 118).
edge(86, 139).
edge(33, 93).
edge(15, 25).
edge(49, 124).
edge(54, 84).
edge(64, 136).
edge(8, 58).
edge(54, 95).
edge(80, 125).
edge(3, 8).
edge(93, 102).
edge(88, 139).
edge(21, 101).
edge(23, 46).
edge(43, 138).
edge(48, 115).
edge(59, 80).
edge(63, 120).
edge(14, 92).
edge(44, 124).
edge(61, 68).
edge(126, 132).
edge(68, 99).
edge(32, 89).
edge(42, 132).
edge(13, 72).
edge(102, 120).
edge(63, 117).
edge(65, 140).
edge(17, 136).
edge(14, 62).
edge(118, 140).
edge(10, 128).
edge(26, 109).
edge(14, 132).
edge(108, 117).
edge(8, 78).
edge(84, 108).
edge(111, 113).
edge(46, 96).
edge(44, 78).
edge(128, 140).
edge(48, 65).
edge(7, 63).
edge(126, 137).
edge(15, 37).
edge(96, 145).
edge(71, 84).
edge(47, 59).
edge(43, 139).
edge(124, 135).
edge(101, 102).
edge(37, 134).
edge(36, 133).
edge(39, 103).
edge(11, 97).
edge(80, 113).
edge(58, 101).
edge(77, 145).
edge(38, 42).
edge(16, 64).
edge(6, 17).
edge(16, 38).
edge(21, 122).
edge(4, 77).
edge(18, 105).
edge(124, 136).
edge(88, 131).
edge(110, 111).
edge(91, 118).
edge(18, 138).
edge(79, 85).
edge(89, 142).
edge(26, 47).
edge(36, 112).
edge(13, 100).
edge(121, 123).
edge(107, 139).
edge(24, 61).
edge(55, 77).
edge(48, 114).
edge(22, 125).
edge(67, 133).
edge(24, 75).
edge(102, 143).
edge(61, 62).
edge(91, 100).
edge(37, 61).
edge(20, 51).
edge(54, 57).
edge(59, 105).
edge(13, 25).
edge(55, 139).
edge(26, 68).
edge(17, 85).
edge(39, 94).
edge(8, 48).
edge(63, 74).
edge(63, 124).
edge(74, 122).
edge(24, 54).
edge(49, 61).
edge(41, 44).
edge(31, 41).
edge(48, 86).
edge(15, 45).
edge(41, 118).
edge(10, 14).
edge(98, 105).
edge(28, 93).
edge(61, 113).
edge(26, 125).
edge(87, 140).
edge(38, 131).
edge(69, 106).
edge(92, 108).
edge(74, 142).
edge(84, 94).
edge(76, 140).
edge(69, 94).
edge(95, 136).
edge(20, 105).
edge(60, 131).
edge(19, 68).
edge(20, 142).
edge(69, 116).
edge(0, 103).
edge(83, 107).
edge(93, 138).
edge(132, 142).
edge(83, 116).
edge(5, 7).
edge(26, 144).
edge(53, 87).
edge(114, 127).
edge(23, 78).
edge(23, 61).
edge(58, 138).
edge(28, 69).
edge(87, 110).
edge(123, 142).
edge(27, 32).
edge(79, 131).
edge(12, 64).
edge(27, 63).
edge(4, 117).
edge(46, 67).
edge(20, 36).
edge(19, 129).
edge(54, 116).
edge(21, 90).
edge(90, 113).
edge(89, 99).
edge(9, 69).
edge(39, 79).
edge(14, 39).
edge(79, 132).
edge(89, 139).
edge(27, 50).
edge(53, 67).
edge(90, 111).
edge(15, 35).
edge(4, 66).
edge(37, 143).
edge(16, 45).
edge(112, 133).
edge(17, 90).
edge(6, 26).
edge(101, 133).
edge(6, 54).
edge(0, 82).
edge(44, 134).
edge(118, 145).
edge(29, 128).
edge(13, 94).
edge(10, 96).
edge(14, 24).
edge(87, 113).
edge(90, 119).
edge(77, 114).
edge(57, 109).
edge(105, 142).
edge(102, 129).
edge(41, 134).
edge(53, 145).
edge(130, 134).
edge(118, 128).
edge(66, 73).
edge(74, 79).
edge(57, 121).
edge(63, 128).
edge(39, 48).
edge(38, 128).
edge(3, 43).
edge(44, 103).
edge(39, 64).
edge(9, 131).
edge(3, 130).
edge(63, 123).
edge(124, 145).
edge(9, 15).
edge(51, 81).
edge(30, 57).
edge(104, 141).
edge(74, 131).
edge(23, 41).
edge(44, 77).
edge(89, 104).
edge(28, 96).
edge(28, 57).
edge(45, 108).
edge(8, 73).
edge(14, 116).
edge(80, 107).
edge(48, 98).
edge(89, 96).
edge(9, 122).
edge(85, 129).
edge(18, 75).
edge(83, 96).
edge(82, 122).
edge(98, 101).
edge(40, 88).
edge(31, 72).
edge(83, 95).
edge(1, 49).
edge(45, 85).
edge(8, 67).
edge(54, 103).
edge(32, 78).
edge(6, 7).
edge(34, 63).
edge(4, 82).
edge(115, 145).
edge(64, 122).
edge(65, 88).
edge(63, 66).
edge(55, 82).
edge(18, 22).
edge(80, 85).
edge(9, 28).
edge(61, 66).
edge(98, 127).
edge(54, 136).
edge(62, 67).
edge(4, 100).
edge(17, 78).
edge(44, 133).
edge(37, 137).
edge(44, 142).
edge(77, 97).
edge(63, 64).
edge(47, 67).
edge(114, 143).
edge(127, 141).
edge(6, 103).
edge(31, 35).
edge(1, 51).
edge(114, 119).
edge(8, 120).
edge(57, 104).
edge(45, 114).
edge(6, 24).
edge(9, 12).
edge(37, 39).
edge(56, 98).
edge(31, 61).
edge(46, 91).
edge(22, 108).
edge(102, 105).
edge(26, 128).
edge(64, 114).
edge(49, 131).
edge(2, 24).
edge(10, 39).
edge(32, 138).
edge(93, 143).
edge(19, 58).
edge(70, 139).
edge(84, 141).
edge(138, 140).
edge(50, 76).
edge(31, 85).
edge(48, 77).
edge(7, 26).
edge(13, 84).
edge(83, 84).
edge(27, 104).
edge(31, 142).
edge(25, 39).
edge(61, 71).
edge(33, 76).
edge(0, 39).
edge(21, 60).
edge(10, 19).
edge(8, 57).
edge(52, 95).
edge(21, 96).
edge(50, 66).
edge(66, 88).
edge(5, 73).
edge(31, 110).
edge(33, 56).
edge(1, 50).
edge(71, 86).
edge(12, 98).
edge(82, 102).
edge(6, 102).
edge(5, 101).
edge(23, 56).
edge(18, 99).
edge(117, 118).
edge(6, 42).
edge(82, 92).
edge(78, 127).
edge(37, 128).
edge(67, 118).
edge(121, 133).
edge(31, 114).
edge(97, 108).
edge(7, 47).
edge(104, 130).
edge(55, 111).
edge(22, 85).
edge(72, 132).
edge(5, 137).
edge(5, 19).
edge(1, 68).
edge(14, 96).
edge(70, 94).
edge(5, 99).
edge(11, 21).
edge(45, 83).
edge(43, 102).
edge(38, 141).
edge(51, 93).
edge(92, 115).
edge(23, 134).
edge(88, 127).
edge(64, 97).
edge(11, 64).
edge(34, 96).
edge(27, 119).
edge(118, 134).
edge(34, 129).
edge(29, 48).
edge(48, 73).
edge(91, 136).
edge(13, 87).
edge(36, 60).
edge(58, 135).
edge(29, 121).
edge(76, 120).
edge(46, 48).
edge(27, 30).
edge(21, 144).
edge(71, 120).
edge(81, 102).
edge(79, 86).
edge(113, 131).
edge(11, 24).
edge(16, 106).
edge(53, 66).
edge(47, 98).
edge(12, 108).
edge(18, 94).
edge(49, 122).
edge(120, 132).
edge(97, 135).
edge(105, 122).
edge(41, 53).
edge(49, 52).
edge(81, 129).
edge(98, 122).
edge(21, 29).
edge(41, 43).
edge(32, 100).
edge(37, 108).
edge(49, 69).
edge(44, 45).
edge(32, 35).
edge(7, 127).
edge(29, 80).
edge(29, 59).
edge(86, 138).
edge(16, 20).
edge(39, 121).
edge(1, 62).
edge(104, 132).
edge(14, 82).
edge(35, 98).
edge(53, 112).
edge(6, 51).
edge(11, 131).
edge(25, 46).
edge(21, 82).
edge(8, 86).
edge(51, 139).
edge(75, 111).
edge(50, 121).
edge(62, 107).
edge(76, 90).
edge(56, 80).
edge(83, 108).
edge(9, 88).
edge(5, 79).
edge(40, 71).
edge(30, 96).
edge(128, 138).
edge(65, 70).
edge(16, 68).
edge(113, 124).
edge(38, 69).
edge(30, 41).
edge(100, 134).
edge(27, 96).
edge(19, 32).
edge(49, 119).
edge(33, 115).
edge(5, 82).
edge(71, 75).
edge(24, 134).
edge(12, 80).
edge(47, 69).
edge(9, 97).
edge(61, 100).
edge(58, 76).
edge(108, 128).
edge(53, 105).
edge(95, 101).
edge(89, 128).
edge(35, 76).
edge(55, 75).
edge(94, 103).
edge(37, 132).
edge(1, 129).
edge(66, 128).
edge(20, 59).
edge(13, 112).
edge(78, 134).
edge(0, 61).
edge(127, 142).
edge(44, 136).
edge(8, 116).
edge(52, 131).
edge(78, 145).
edge(2, 19).
edge(114, 134).
edge(46, 59).
edge(51, 127).
edge(104, 123).
edge(34, 78).
edge(41, 55).
edge(100, 129).
edge(6, 77).
edge(24, 127).
edge(12, 117).
edge(66, 134).
edge(75, 140).
edge(33, 127).
edge(35, 43).
edge(17, 120).
edge(14, 49).
edge(90, 92).
edge(53, 135).
edge(30, 73).
edge(48, 129).
edge(37, 55).
edge(30, 93).
edge(134, 139).
edge(23, 115).
edge(109, 133).
edge(31, 37).
edge(48, 69).
edge(5, 46).
edge(84, 140).
edge(58, 131).
edge(21, 125).
edge(34, 41).
edge(104, 126).
edge(89, 125).
edge(4, 31).
edge(27, 100).
edge(6, 52).
edge(17, 117).
edge(24, 126).
edge(30, 32).
edge(93, 123).
edge(37, 44).
edge(122, 127).
edge(9, 87).
edge(46, 102).
edge(71, 76).
edge(28, 32).
edge(32, 115).
edge(80, 82).
edge(2, 106).
edge(49, 66).
edge(79, 84).
edge(43, 67).
edge(84, 111).
edge(41, 64).
edge(85, 138).
edge(9, 83).
edge(13, 58).
edge(38, 117).
edge(32, 133).
edge(33, 110).
edge(48, 68).
edge(22, 124).
edge(23, 28).
edge(66, 121).
edge(21, 97).
edge(9, 142).
edge(9, 110).
edge(57, 145).
edge(20, 67).
edge(12, 133).
edge(57, 90).
edge(26, 124).
edge(76, 84).
edge(12, 36).
edge(55, 130).
edge(22, 61).
edge(109, 112).
edge(1, 111).
edge(88, 91).
edge(118, 121).
edge(20, 103).
edge(97, 117).
edge(44, 132).
edge(31, 53).
edge(101, 105).
edge(19, 110).
edge(18, 45).
edge(34, 140).
edge(79, 117).
edge(60, 88).
edge(54, 142).
edge(132, 144).
edge(70, 96).
edge(14, 144).
edge(100, 143).
edge(63, 77).
edge(0, 105).
edge(25, 50).
edge(2, 94).
edge(37, 62).
edge(32, 141).
edge(75, 81).
edge(9, 104).
edge(123, 130).
edge(32, 95).
edge(0, 85).
edge(41, 50).
edge(2, 32).
edge(41, 104).
edge(72, 106).
edge(48, 62).
edge(65, 74).
edge(44, 93).
edge(27, 144).
edge(1, 123).
edge(56, 60).
edge(99, 145).
edge(35, 122).
edge(116, 141).
edge(45, 87).
edge(96, 121).
edge(26, 100).
edge(96, 134).
edge(57, 82).
edge(49, 79).
edge(52, 54).
edge(63, 79).
edge(22, 142).
edge(86, 117).
edge(128, 129).
edge(29, 118).
edge(43, 115).
edge(117, 135).
edge(48, 140).
edge(52, 65).
edge(9, 139).
edge(59, 60).
edge(8, 20).
edge(24, 114).
edge(84, 130).
edge(24, 140).
edge(2, 71).
edge(55, 134).
edge(51, 140).
edge(12, 99).
edge(17, 75).
edge(21, 100).
edge(51, 96).
edge(54, 89).
edge(110, 137).
edge(115, 144).
edge(44, 92).
edge(84, 107).
edge(51, 124).
edge(55, 107).
edge(9, 92).
edge(34, 85).
edge(32, 62).
edge(67, 104).
edge(65, 75).
edge(56, 83).
edge(33, 134).
edge(96, 115).
edge(92, 123).
edge(26, 29).
edge(47, 138).
edge(35, 82).
edge(24, 25).
edge(39, 69).
edge(28, 89).
edge(83, 137).
edge(76, 142).
edge(50, 99).
edge(52, 123).
edge(11, 99).
edge(95, 112).
edge(62, 74).
edge(16, 62).
edge(91, 116).
edge(69, 95).
edge(11, 23).
edge(41, 127).
edge(20, 61).
edge(56, 89).
edge(54, 123).
edge(121, 124).
edge(33, 136).
edge(6, 123).
edge(22, 63).
edge(81, 104).
edge(10, 30).
edge(4, 47).
weight(0, 6).
weight(1, 16).
weight(2, 2).
weight(3, 15).
weight(4, 16).
weight(5, 1).
weight(6, 2).
weight(7, 8).
weight(8, 3).
weight(9, 2).
weight(10, 11).
weight(11, 2).
weight(12, 2).
weight(13, 6).
weight(14, 16).
weight(15, 4).
weight(16, 1).
weight(17, 1).
weight(18, 1).
weight(19, 14).
weight(20, 4).
weight(21, 16).
weight(22, 16).
weight(23, 1).
weight(24, 6).
weight(25, 4).
weight(26, 20).
weight(27, 8).
weight(28, 16).
weight(29, 7).
weight(30, 17).
weight(31, 10).
weight(32, 14).
weight(33, 13).
weight(34, 1).
weight(35, 13).
weight(36, 16).
weight(37, 13).
weight(38, 9).
weight(39, 7).
weight(40, 16).
weight(41, 10).
weight(42, 13).
weight(43, 8).
weight(44, 20).
weight(45, 19).
weight(46, 16).
weight(47, 20).
weight(48, 14).
weight(49, 2).
weight(50, 5).
weight(51, 5).
weight(52, 5).
weight(53, 9).
weight(54, 7).
weight(55, 17).
weight(56, 7).
weight(57, 5).
weight(58, 1).
weight(59, 5).
weight(60, 20).
weight(61, 15).
weight(62, 8).
weight(63, 17).
weight(64, 11).
weight(65, 10).
weight(66, 15).
weight(67, 18).
weight(68, 19).
weight(69, 3).
weight(70, 1).
weight(71, 19).
weight(72, 17).
weight(73, 14).
weight(74, 13).
weight(75, 8).
weight(76, 18).
weight(77, 20).
weight(78, 19).
weight(79, 6).
weight(80, 15).
weight(81, 12).
weight(82, 2).
weight(83, 7).
weight(84, 17).
weight(85, 1).
weight(86, 18).
weight(87, 17).
weight(88, 11).
weight(89, 11).
weight(90, 14).
weight(91, 6).
weight(92, 13).
weight(93, 10).
weight(94, 18).
weight(95, 6).
weight(96, 2).
weight(97, 14).
weight(98, 8).
weight(99, 15).
weight(100, 7).
weight(101, 14).
weight(102, 8).
weight(103, 18).
weight(104, 20).
weight(105, 19).
weight(106, 9).
weight(107, 4).
weight(108, 7).
weight(109, 15).
weight(110, 17).
weight(111, 8).
weight(112, 2).
weight(113, 12).
weight(114, 13).
weight(115, 19).
weight(116, 8).
weight(117, 4).
weight(118, 4).
weight(119, 10).
weight(120, 7).
weight(121, 12).
weight(122, 1).
weight(123, 11).
weight(124, 3).
weight(125, 1).
weight(126, 7).
weight(127, 2).
weight(128, 10).
weight(129, 12).
weight(130, 19).
weight(131, 5).
weight(132, 5).
weight(133, 17).
weight(134, 8).
weight(135, 4).
weight(136, 2).
weight(137, 14).
weight(138, 20).
weight(139, 11).
weight(140, 15).
weight(141, 5).
weight(142, 3).
weight(143, 19).
weight(144, 14).
weight(145, 16).

{in(V)} :- node(V).
:- in(U), in(V), U < V, not edge(U,V).
:~ not in(V), weight(V,W). [W@1,V]
