node(0..144).
edge(1, 103).
edge(12, 122).
edge(52, 128).
edge(24, 137).
edge(74, 113).
edge(11, 18).
edge(12, 124).
edge(45, 113).
edge(0, 123).
edge(2, 107).
edge(12, 93).
edge(27, 115).
edge(5, 84).
edge(25, 27).
edge(71, 122).
edge(65, 82).
edge(14, 73).
edge(3, 83).
edge(1, 2).
edge(29, 63).
edge(8, 123).
edge(44, 68).
edge(92, 95).
edge(124, 143).
edge(56, 79).
edge(72, 81).
edge(72, 120).
edge(8, 27).
edge(122, 138).
edge(3, 121).
edge(38, 124).
edge(7, 73).
edge(2, 30).
edge(6, 21).
edge(92, 120).
edge(42, 112).
edge(8, 15).
edge(8, 20).
edge(18, 88).
edge(12, 52).
edge(68, 144).
edge(52, 107).
edge(82, 144).
edge(50, 126).
edge(24, 75).
edge(7, 60).
edge(51, 135).
edge(3, 12).
edge(69, 106).
edge(30, 137).
edge(93, 106).
edge(48, 131).
edge(92, 101).
edge(106, 134).
edge(15, 65).
edge(76, 78).
edge(63, 95).
edge(88, 92).
edge(73, 134).
edge(54, 144).
edge(10, 29).
edge(31, 79).
edge(71, 116).
edge(19, 45).
edge(36, 116).
edge(52, 101).
edge(6, 56).
edge(52, 79).
edge(21, 53).
edge(25, 107).
edge(1, 79).
edge(9, 92).
edge(32, 138).
edge(61, 110).
edge(9, 137).
edge(8, 90).
edge(34, 53).
edge(13, 134).
edge(8, 28).
edge(63, 122).
edge(61, 136).
edge(5, 92).
edge(116, 127).
edge(36, 104).
edge(31, 51).
edge(36, 53).
edge(1, 3).
edge(10, 36).
edge(35, 107).
edge(64, 113).
edge(57, 125).
edge(61, 78).
edge(21, 124).
edge(31, 133).
edge(5, 117).
edge(21, 143).
edge(106, 144).
edge(6, 97).
edge(5, 93).
edge(16, 107).
edge(44, 137).
edge(8, 125).
edge(48, 121).
edge(14, 30).
edge(101, 144).
edge(42, 74).
edge(13, 89).
edge(93, 105).
edge(39, 120).
edge(19, 34).
edge(21, 23).
edge(20, 32).
edge(93, 104).
edge(96, 138).
edge(110, 135).
edge(48, 70).
edge(48, 72).
edge(29, 55).
edge(24, 85).
edge(24, 35).
edge(1, 99).
edge(124, 142).
edge(37, 117).
edge(76, 110).
edge(26, 28).
edge(81, 84).
edge(9, 122).
edge(2, 42).
edge(28, 53).
edge(14, 78).
edge(49, 123).
edge(47, 143).
edge(124, 132).
edge(0, 132).
edge(76, 143).
edge(25, 116).
edge(27, 122).
edge(61, 73).
edge(54, 131).
edge(51, 114).
edge(42, 55).
edge(62, 86).
edge(101, 143).
edge(20, 142).
edge(52, 63).
edge(2, 106).
edge(86, 101).
edge(123, 130).
edge(96, 124).
edge(28, 124).
edge(35, 85).
edge(75, 89).
edge(5, 16).
edge(12, 83).
edge(10, 143).
edge(25, 101).
edge(44, 89).
edge(106, 141).
edge(100, 106).
edge(18, 89).
edge(31, 119).
edge(21, 83).
edge(85, 109).
edge(124, 138).
edge(17, 63).
edge(67, 86).
edge(66, 144).
edge(48, 117).
edge(69, 91).
edge(89, 120).
edge(80, 82).
edge(27, 57).
edge(95, 139).
edge(29, 33).
edge(67, 135).
edge(36, 41).
edge(17, 26).
edge(84, 116).
edge(51, 119).
edge(8, 140).
edge(21, 114).
edge(7, 21).
edge(130, 131).
edge(73, 79).
edge(48, 49).
edge(62, 103).
edge(37, 141).
edge(37, 87).
edge(56, 125).
edge(27, 73).
edge(111, 141).
edge(60, 142).
edge(8, 72).
edge(38, 121).
edge(19, 93).
edge(28, 34).
edge(94, 144).
edge(14, 144).
edge(39, 60).
edge(29, 120).
edge(111, 130).
edge(83, 112).
edge(98, 119).
edge(82, 89).
edge(50, 134).
edge(142, 143).
edge(5, 85).
edge(35, 88).
edge(95, 115).
edge(97, 118).
edge(22, 37).
edge(95, 144).
edge(11, 41).
edge(10, 50).
edge(91, 139).
edge(86, 132).
edge(19, 43).
edge(32, 66).
edge(49, 83).
edge(69, 137).
edge(22, 53).
edge(67, 142).
edge(84, 106).
edge(124, 140).
edge(59, 72).
edge(80, 105).
edge(98, 109).
edge(34, 110).
edge(42, 115).
edge(85, 123).
edge(114, 116).
edge(12, 42).
edge(58, 116).
edge(11, 96).
edge(12, 125).
edge(121, 123).
edge(1, 7).
edge(7, 110).
edge(66, 104).
edge(30, 135).
edge(71, 104).
edge(8, 18).
edge(42, 101).
edge(69, 130).
edge(40, 46).
edge(37, 84).
edge(16, 105).
edge(3, 5).
edge(29, 103).
edge(71, 72).
edge(85, 93).
edge(24, 33).
edge(99, 143).
edge(19, 47).
edge(32, 131).
edge(60, 73).
edge(41, 126).
edge(43, 110).
edge(98, 129).
edge(6, 114).
edge(4, 107).
edge(37, 97).
edge(27, 36).
edge(38, 120).
edge(44, 135).
edge(64, 96).
edge(4, 53).
edge(52, 57).
edge(41, 118).
edge(32, 127).
edge(35, 105).
edge(39, 142).
edge(45, 116).
edge(18, 21).
edge(22, 91).
edge(14, 91).
edge(44, 95).
edge(99, 117).
edge(72, 112).
edge(86, 119).
edge(39, 112).
edge(108, 128).
edge(86, 137).
edge(9, 84).
edge(34, 55).
edge(15, 115).
edge(43, 89).
edge(8, 131).
edge(96, 110).
edge(60, 102).
edge(25, 128).
edge(12, 38).
edge(13, 117).
edge(38, 135).
edge(14, 63).
edge(29, 72).
edge(42, 137).
edge(106, 118).
edge(5, 67).
edge(34, 38).
edge(9, 91).
edge(88, 126).
edge(18, 109).
edge(30, 67).
edge(56, 123).
edge(114, 131).
edge(109, 144).
edge(84, 87).
edge(47, 132).
edge(38, 91).
edge(70, 89).
edge(33, 143).
edge(40, 105).
edge(15, 80).
edge(70, 86).
edge(50, 79).
edge(36, 103).
edge(40, 112).
edge(33, 97).
edge(12, 119).
edge(83, 121).
edge(12, 111).
edge(68, 133).
edge(4, 95).
edge(28, 125).
edge(18, 55).
edge(43, 98).
edge(43, 71).
edge(2, 13).
edge(78, 120).
edge(134, 137).
edge(3, 143).
edge(11, 101).
edge(47, 117).
edge(100, 139).
edge(58, 93).
edge(16, 41).
edge(72, 139).
edge(40, 108).
edge(68, 88).
edge(56, 110).
edge(9, 78).
edge(24, 49).
edge(63, 118).
edge(99, 131).
edge(93, 129).
edge(31, 118).
edge(79, 81).
edge(95, 98).
edge(0, 7).
edge(66, 75).
edge(74, 112).
edge(45, 129).
edge(79, 130).
edge(34, 122).
edge(25, 48).
edge(56, 121).
edge(69, 134).
edge(38, 94).
edge(70, 83).
edge(21, 45).
edge(97, 135).
edge(20, 77).
edge(10, 68).
edge(18, 68).
edge(52, 100).
edge(56, 142).
edge(115, 144).
edge(7, 84).
edge(43, 108).
edge(27, 92).
edge(113, 132).
edge(12, 114).
edge(8, 79).
edge(50, 115).
edge(4, 96).
edge(24, 53).
edge(5, 22).
edge(26, 65).
edge(27, 47).
edge(55, 96).
edge(73, 105).
edge(109, 113).
edge(66, 137).
edge(21, 97).
edge(110, 128).
edge(89, 125).
edge(21, 28).
edge(53, 123).
edge(95, 118).
edge(32, 140).
edge(28, 57).
edge(105, 144).
edge(67, 69).
edge(97, 98).
edge(60, 115).
edge(33, 86).
edge(23, 49).
edge(16, 139).
edge(85, 87).
edge(85, 86).
edge(27, 60).
edge(41, 112).
edge(30, 109).
edge(79, 123).
edge(33, 125).
edge(9, 139).
edge(60, 90).
edge(72, 134).
edge(113, 130).
edge(23, 139).
edge(2, 9).
edge(102, 114).
edge(19, 31).
edge(58, 123).
edge(82, 88).
edge(12, 61).
edge(1, 14).
edge(87, 92).
edge(80, 101).
edge(89, 126).
edge(45, 144).
edge(7, 65).
edge(95, 128).
edge(2, 84).
edge(35, 108).
edge(16, 61).
edge(0, 61).
edge(62, 126).
edge(33, 79).
edge(2, 101).
edge(22, 70).
edge(27, 29).
edge(92, 129).
edge(91, 131).
edge(37, 50).
edge(65, 144).
edge(67, 93).
edge(85, 99).
edge(107, 141).
edge(95, 131).
edge(55, 61).
edge(10, 56).
edge(53, 126).
edge(23, 124).
edge(18, 76).
edge(16, 83).
edge(47, 64).
edge(22, 35).
edge(78, 110).
edge(52, 103).
edge(55, 60).
edge(79, 128).
edge(35, 117).
edge(35, 64).
edge(59, 114).
edge(81, 138).
edge(23, 45).
edge(7, 51).
edge(8, 10).
edge(62, 63).
edge(14, 137).
edge(3, 77).
edge(8, 137).
edge(93, 141).
edge(4, 84).
edge(26, 38).
edge(111, 137).
edge(107, 139).
edge(100, 126).
edge(69, 115).
edge(120, 122).
edge(45, 85).
edge(0, 116).
edge(82, 99).
edge(88, 142).
edge(76, 122).
edge(0, 124).
edge(29, 136).
edge(46, 83).
edge(48, 78).
edge(17, 109).
edge(120, 125).
edge(21, 109).
edge(3, 32).
edge(82, 96).
edge(24, 37).
edge(29, 97).
edge(102, 110).
edge(7, 120).
edge(6, 47).
edge(16, 67).
edge(84, 86).
edge(46, 128).
edge(49, 128).
edge(22, 132).
edge(11, 60).
edge(26, 113).
edge(57, 141).
edge(39, 73).
edge(0, 17).
edge(49, 76).
edge(66, 89).
edge(77, 144).
edge(9, 125).
edge(35, 81).
edge(110, 143).
edge(66, 129).
edge(83, 90).
edge(52, 120).
edge(71, 128).
edge(25, 90).
edge(1, 105).
edge(38, 131).
edge(44, 83).
edge(5, 119).
edge(38, 114).
edge(78, 84).
edge(40, 97).
edge(27, 45).
edge(6, 23).
edge(73, 101).
edge(27, 108).
edge(5, 113).
edge(91, 141).
edge(7, 16).
edge(38, 71).
edge(33, 84).
edge(25, 106).
edge(6, 88).
edge(48, 116).
edge(37, 48).
edge(34, 69).
edge(22, 93).
edge(87, 116).
edge(64, 120).
edge(44, 99).
edge(42, 132).
edge(23, 94).
edge(55, 99).
edge(57, 90).
edge(77, 78).
edge(76, 109).
edge(16, 55).
edge(26, 101).
edge(56, 85).
edge(29, 108).
edge(87, 121).
edge(12, 126).
edge(54, 112).
edge(50, 111).
edge(48, 105).
edge(51, 78).
edge(18, 131).
edge(57, 83).
edge(36, 131).
edge(116, 135).
edge(77, 98).
edge(3, 45).
edge(95, 112).
edge(46, 79).
edge(48, 51).
edge(76, 90).
edge(71, 121).
edge(90, 138).
edge(33, 88).
edge(63, 82).
edge(7, 26).
edge(14, 36).
edge(3, 128).
edge(5, 142).
edge(31, 139).
edge(70, 124).
edge(58, 67).
edge(28, 83).
edge(10, 77).
edge(65, 85).
edge(33, 37).
edge(26, 30).
edge(13, 77).
edge(83, 93).
edge(9, 12).
edge(69, 144).
edge(24, 83).
edge(44, 127).
edge(15, 117).
edge(41, 106).
edge(5, 97).
edge(54, 126).
edge(17, 57).
edge(49, 97).
edge(73, 124).
edge(53, 139).
edge(8, 74).
edge(11, 68).
edge(112, 133).
edge(17, 74).
edge(94, 117).
edge(20, 143).
edge(60, 80).
edge(33, 98).
edge(1, 83).
edge(46, 73).
edge(28, 44).
edge(80, 120).
edge(2, 12).
edge(71, 107).
edge(17, 34).
edge(92, 138).
edge(42, 111).
edge(88, 102).
edge(64, 94).
edge(40, 78).
edge(30, 78).
edge(101, 113).
edge(73, 120).
edge(35, 112).
edge(91, 133).
edge(55, 56).
edge(58, 68).
edge(32, 46).
edge(78, 128).
edge(53, 128).
edge(11, 118).
edge(27, 137).
edge(51, 57).
edge(69, 121).
edge(14, 83).
edge(97, 100).
edge(10, 66).
edge(71, 108).
edge(57, 81).
edge(8, 25).
edge(90, 107).
edge(45, 60).
edge(40, 130).
edge(4, 82).
edge(29, 53).
edge(11, 115).
edge(93, 136).
edge(21, 117).
edge(27, 114).
edge(12, 71).
edge(42, 57).
edge(16, 109).
edge(18, 112).
edge(8, 110).
edge(3, 19).
edge(74, 123).
edge(25, 131).
edge(77, 106).
edge(27, 143).
edge(49, 92).
edge(34, 50).
edge(24, 107).
edge(29, 98).
edge(25, 121).
edge(77, 115).
edge(108, 127).
edge(53, 106).
edge(42, 46).
edge(10, 13).
edge(41, 127).
edge(115, 128).
edge(15, 98).
edge(36, 112).
edge(10, 58).
edge(89, 139).
edge(11, 13).
edge(33, 105).
edge(45, 133).
edge(8, 38).
edge(44, 58).
edge(85, 134).
edge(41, 92).
edge(131, 135).
edge(50, 112).
edge(131, 136).
edge(10, 95).
edge(5, 80).
edge(47, 81).
edge(17, 131).
edge(40, 66).
edge(11, 37).
edge(57, 86).
edge(35, 109).
edge(77, 95).
edge(130, 144).
edge(29, 141).
edge(18, 108).
edge(78, 100).
edge(6, 112).
edge(21, 44).
edge(5, 120).
edge(5, 138).
edge(44, 64).
edge(50, 125).
edge(116, 136).
edge(60, 114).
edge(26, 130).
edge(128, 132).
edge(81, 123).
edge(54, 120).
edge(36, 69).
edge(83, 86).
edge(73, 80).
edge(87, 113).
edge(43, 91).
edge(16, 75).
edge(2, 144).
edge(48, 98).
edge(98, 105).
edge(52, 126).
edge(102, 119).
edge(46, 64).
edge(47, 82).
edge(115, 133).
edge(37, 58).
edge(84, 131).
edge(84, 107).
edge(1, 26).
edge(41, 89).
edge(3, 127).
edge(20, 94).
edge(42, 49).
edge(71, 101).
edge(123, 133).
edge(0, 31).
edge(38, 101).
edge(24, 78).
edge(85, 144).
edge(17, 127).
edge(80, 128).
edge(32, 110).
edge(44, 116).
edge(9, 63).
edge(8, 35).
edge(38, 87).
edge(63, 68).
edge(55, 59).
edge(7, 132).
edge(35, 102).
edge(71, 106).
edge(3, 76).
edge(1, 9).
edge(26, 90).
edge(104, 144).
edge(47, 74).
edge(6, 43).
edge(49, 53).
edge(69, 97).
edge(4, 50).
edge(12, 48).
edge(14, 22).
edge(115, 123).
edge(22, 52).
edge(24, 134).
edge(81, 107).
edge(23, 78).
edge(22, 122).
edge(57, 95).
edge(56, 122).
edge(24, 36).
edge(123, 141).
edge(138, 143).
edge(40, 59).
edge(48, 134).
edge(9, 81).
edge(12, 134).
edge(39, 108).
edge(78, 79).
edge(94, 137).
edge(37, 49).
edge(31, 32).
edge(75, 91).
edge(37, 125).
edge(57, 138).
edge(5, 25).
edge(30, 106).
edge(50, 81).
edge(44, 117).
edge(45, 75).
edge(54, 121).
edge(57, 111).
edge(6, 58).
edge(95, 126).
edge(11, 54).
edge(82, 90).
edge(7, 112).
edge(65, 116).
edge(52, 115).
edge(49, 117).
edge(15, 64).
edge(2, 50).
edge(48, 71).
edge(58, 70).
edge(58, 142).
edge(114, 139).
edge(73, 118).
edge(97, 101).
edge(84, 126).
edge(107, 111).
edge(41, 111).
edge(75, 123).
edge(81, 89).
edge(30, 116).
edge(14, 127).
edge(55, 137).
edge(7, 97).
edge(4, 72).
edge(48, 107).
edge(17, 137).
edge(49, 82).
edge(67, 85).
edge(32, 73).
edge(89, 129).
edge(78, 141).
edge(3, 90).
edge(3, 71).
edge(4, 33).
edge(3, 74).
edge(16, 82).
edge(55, 101).
edge(9, 113).
edge(48, 90).
edge(1, 56).
edge(19, 84).
edge(68, 95).
edge(24, 68).
edge(46, 49).
edge(89, 117).
edge(32, 123).
edge(26, 99).
edge(24, 144).
edge(24, 124).
edge(91, 100).
edge(30, 136).
edge(47, 122).
edge(10, 31).
edge(53, 125).
edge(3, 8).
edge(103, 127).
edge(123, 136).
edge(47, 105).
edge(4, 127).
edge(8, 23).
edge(142, 144).
edge(12, 97).
edge(10, 86).
edge(113, 135).
edge(43, 48).
edge(0, 4).
edge(87, 88).
edge(125, 142).
edge(3, 105).
edge(99, 137).
edge(27, 119).
edge(93, 119).
edge(13, 27).
edge(58, 97).
edge(39, 135).
edge(48, 58).
edge(22, 85).
edge(94, 115).
edge(21, 47).
edge(106, 124).
edge(12, 141).
edge(26, 127).
edge(17, 29).
edge(1, 21).
edge(11, 144).
edge(131, 139).
edge(7, 44).
edge(4, 23).
edge(20, 132).
edge(19, 109).
edge(1, 57).
edge(56, 87).
edge(11, 31).
edge(80, 114).
edge(33, 89).
edge(46, 131).
edge(16, 86).
edge(57, 137).
edge(109, 124).
edge(97, 117).
edge(36, 50).
edge(65, 131).
edge(9, 109).
edge(83, 88).
edge(15, 125).
edge(85, 128).
edge(86, 88).
edge(5, 132).
edge(0, 58).
edge(10, 115).
edge(37, 72).
edge(98, 103).
edge(100, 133).
edge(77, 92).
edge(9, 140).
edge(5, 144).
edge(4, 89).
edge(32, 129).
edge(28, 48).
edge(30, 73).
edge(20, 99).
edge(40, 131).
edge(46, 52).
edge(13, 124).
edge(20, 52).
edge(66, 142).
edge(6, 103).
edge(38, 79).
edge(26, 88).
edge(23, 32).
edge(43, 82).
edge(24, 133).
edge(52, 94).
edge(37, 143).
edge(86, 122).
edge(81, 100).
edge(10, 85).
edge(74, 109).
edge(12, 22).
edge(51, 58).
edge(125, 128).
edge(20, 141).
edge(93, 109).
edge(55, 103).
edge(54, 98).
edge(48, 140).
edge(53, 96).
edge(48, 137).
edge(17, 141).
edge(58, 139).
edge(63, 96).
edge(123, 124).
edge(48, 87).
edge(87, 136).
edge(17, 93).
edge(27, 89).
edge(43, 85).
edge(43, 69).
edge(30, 118).
edge(33, 90).
edge(62, 80).
edge(43, 139).
edge(36, 139).
edge(61, 75).
edge(34, 140).
edge(129, 130).
edge(44, 84).
edge(19, 124).
edge(50, 72).
edge(1, 81).
edge(140, 144).
edge(61, 97).
edge(2, 104).
edge(49, 50).
edge(134, 140).
edge(88, 94).
edge(109, 128).
edge(13, 33).
edge(58, 141).
edge(2, 77).
edge(17, 125).
edge(16, 42).
edge(56, 126).
edge(8, 53).
edge(95, 122).
edge(24, 26).
edge(67, 70).
edge(23, 43).
edge(7, 101).
edge(109, 139).
edge(45, 80).
edge(20, 88).
edge(44, 86).
edge(32, 71).
edge(17, 80).
edge(94, 123).
edge(77, 116).
edge(2, 76).
edge(32, 92).
edge(14, 55).
edge(88, 103).
edge(72, 116).
edge(21, 46).
edge(137, 138).
edge(115, 141).
edge(90, 98).
edge(64, 126).
edge(34, 45).
edge(67, 120).
edge(66, 141).
edge(48, 77).
edge(18, 38).
edge(62, 120).
edge(43, 54).
edge(34, 95).
edge(38, 72).
edge(16, 137).
edge(32, 99).
edge(61, 139).
edge(77, 125).
edge(47, 137).
edge(3, 27).
edge(83, 129).
edge(36, 105).
edge(61, 69).
edge(5, 109).
edge(52, 106).
edge(17, 129).
edge(4, 46).
edge(40, 142).
edge(61, 116).
edge(86, 136).
edge(22, 113).
edge(120, 140).
edge(125, 144).
edge(59, 62).
edge(50, 140).
edge(31, 33).
edge(114, 136).
edge(105, 128).
edge(26, 58).
edge(49, 143).
edge(31, 70).
edge(72, 102).
edge(38, 39).
edge(45, 117).
edge(86, 89).
edge(130, 140).
edge(14, 105).
edge(34, 94).
edge(36, 123).
edge(35, 110).
edge(14, 82).
edge(39, 106).
edge(63, 119).
edge(96, 120).
edge(49, 55).
edge(51, 106).
edge(18, 104).
edge(14, 52).
edge(10, 34).
edge(5, 87).
edge(9, 111).
edge(47, 52).
edge(103, 110).
edge(64, 105).
edge(39, 63).
edge(91, 117).
edge(6, 57).
edge(119, 139).
edge(41, 71).
edge(13, 138).
edge(34, 113).
edge(65, 132).
edge(39, 82).
edge(3, 114).
edge(45, 103).
edge(7, 33).
edge(59, 90).
edge(15, 110).
edge(114, 130).
edge(57, 78).
edge(62, 93).
edge(117, 140).
edge(33, 113).
edge(105, 117).
edge(15, 109).
edge(11, 64).
edge(13, 136).
edge(58, 77).
edge(97, 142).
edge(99, 134).
edge(63, 69).
edge(105, 114).
edge(17, 58).
edge(7, 50).
edge(26, 80).
edge(20, 78).
edge(9, 102).
edge(30, 113).
edge(122, 123).
edge(48, 67).
edge(46, 94).
edge(36, 122).
edge(96, 137).
edge(9, 21).
edge(23, 54).
edge(63, 97).
edge(72, 142).
edge(15, 107).
edge(1, 34).
edge(24, 46).
edge(19, 75).
edge(114, 118).
edge(34, 107).
edge(133, 142).
edge(52, 73).
edge(27, 86).
edge(10, 101).
edge(15, 75).
edge(81, 102).
edge(58, 107).
edge(12, 70).
edge(57, 70).
edge(9, 30).
edge(77, 105).
edge(68, 78).
edge(68, 129).
edge(43, 47).
edge(87, 111).
edge(15, 97).
edge(71, 131).
edge(84, 115).
edge(2, 140).
edge(104, 106).
edge(29, 32).
edge(100, 125).
edge(70, 73).
edge(60, 109).
edge(31, 134).
edge(42, 104).
edge(24, 125).
edge(13, 140).
edge(17, 92).
edge(106, 117).
edge(69, 72).
edge(48, 115).
edge(60, 84).
edge(63, 64).
edge(31, 93).
edge(30, 72).
edge(117, 129).
edge(5, 61).
edge(79, 117).
edge(58, 84).
edge(16, 144).
edge(66, 134).
edge(104, 125).
edge(88, 91).
edge(23, 75).
edge(91, 114).
edge(23, 114).
edge(133, 141).
edge(19, 106).
edge(47, 121).
edge(63, 123).
edge(39, 47).
edge(83, 117).
edge(25, 31).
edge(102, 135).
edge(4, 60).
edge(14, 76).
edge(26, 141).
edge(39, 119).
edge(78, 143).
edge(38, 48).
edge(37, 103).
edge(4, 114).
edge(36, 95).
edge(16, 108).
edge(42, 126).
edge(107, 130).
edge(128, 131).
edge(6, 115).
edge(45, 142).
edge(85, 100).
edge(38, 93).
edge(3, 107).
edge(106, 138).
edge(80, 110).
edge(28, 93).
edge(24, 25).
edge(20, 49).
edge(52, 117).
edge(28, 106).
edge(24, 77).
edge(34, 130).
edge(19, 52).
edge(75, 117).
edge(83, 125).
edge(15, 50).
edge(111, 132).
edge(118, 140).
edge(46, 55).
edge(21, 126).
edge(90, 108).
edge(100, 119).
edge(12, 102).
edge(5, 23).
edge(35, 136).
edge(28, 49).
edge(56, 88).
edge(67, 72).
edge(43, 133).
edge(80, 130).
edge(11, 77).
edge(32, 59).
edge(52, 122).
edge(22, 41).
edge(38, 43).
edge(26, 139).
edge(41, 132).
edge(19, 26).
edge(37, 57).
edge(66, 90).
edge(3, 13).
edge(106, 140).
edge(25, 52).
edge(41, 104).
edge(4, 115).
edge(43, 128).
edge(4, 44).
edge(15, 33).
edge(0, 141).
edge(1, 71).
edge(67, 73).
edge(1, 82).
edge(11, 140).
edge(8, 86).
edge(56, 72).
edge(16, 120).
edge(17, 51).
edge(77, 126).
edge(18, 61).
edge(16, 85).
edge(93, 126).
edge(7, 40).
edge(84, 125).
edge(106, 108).
edge(98, 99).
edge(29, 140).
edge(53, 64).
edge(42, 61).
edge(37, 134).
edge(54, 59).
edge(118, 122).
edge(12, 46).
edge(49, 101).
edge(39, 61).
edge(60, 77).
edge(38, 63).
edge(96, 144).
edge(88, 118).
edge(71, 102).
edge(51, 97).
edge(0, 113).
edge(112, 130).
edge(18, 59).
edge(28, 43).
edge(30, 43).
edge(49, 88).
edge(26, 84).
edge(68, 108).
edge(104, 135).
edge(90, 122).
edge(14, 44).
edge(27, 42).
edge(37, 92).
edge(48, 138).
edge(101, 110).
edge(53, 114).
edge(67, 77).
edge(108, 137).
edge(9, 46).
edge(95, 106).
edge(47, 65).
edge(5, 121).
edge(30, 44).
edge(72, 140).
edge(38, 60).
edge(25, 117).
edge(108, 124).
edge(44, 69).
edge(13, 106).
edge(25, 79).
edge(124, 134).
edge(70, 93).
edge(29, 101).
edge(2, 98).
edge(53, 118).
edge(44, 131).
edge(112, 135).
edge(15, 32).
edge(52, 98).
edge(51, 120).
edge(66, 84).
edge(48, 52).
edge(64, 84).
edge(0, 81).
edge(36, 91).
edge(19, 88).
edge(42, 100).
edge(49, 71).
edge(21, 131).
edge(137, 144).
edge(41, 57).
edge(5, 78).
edge(56, 78).
edge(25, 76).
edge(20, 69).
edge(81, 116).
edge(121, 126).
edge(9, 103).
edge(83, 127).
edge(61, 88).
edge(62, 131).
edge(104, 120).
edge(51, 84).
edge(19, 129).
edge(63, 114).
edge(24, 119).
edge(59, 105).
edge(109, 114).
edge(50, 137).
edge(73, 93).
edge(117, 136).
edge(55, 111).
edge(96, 140).
edge(92, 135).
edge(38, 74).
edge(46, 143).
edge(20, 138).
edge(16, 97).
edge(14, 104).
edge(80, 108).
edge(7, 48).
edge(14, 34).
edge(6, 99).
edge(60, 72).
edge(53, 57).
edge(5, 130).
edge(33, 121).
edge(41, 83).
edge(31, 120).
edge(115, 142).
edge(100, 110).
edge(25, 74).
edge(45, 136).
edge(91, 126).
edge(75, 119).
edge(58, 112).
edge(19, 35).
edge(49, 63).
edge(133, 138).
edge(65, 136).
edge(61, 127).
edge(67, 128).
edge(51, 99).
edge(51, 105).
edge(54, 94).
edge(112, 120).
edge(99, 113).
edge(28, 90).
edge(36, 89).
edge(21, 89).
edge(8, 65).
edge(31, 78).
edge(21, 26).
edge(36, 113).
edge(47, 57).
edge(69, 89).
edge(3, 144).
edge(22, 26).
edge(9, 141).
edge(0, 68).
edge(97, 123).
edge(66, 103).
edge(54, 128).
edge(18, 122).
edge(8, 83).
edge(75, 109).
edge(25, 143).
edge(53, 140).
edge(15, 94).
edge(68, 70).
edge(73, 75).
edge(50, 51).
edge(52, 83).
edge(85, 115).
edge(1, 6).
edge(16, 53).
edge(125, 136).
edge(83, 143).
edge(53, 77).
edge(118, 141).
edge(21, 95).
edge(14, 89).
edge(1, 22).
edge(40, 64).
edge(141, 144).
edge(13, 81).
edge(57, 126).
edge(69, 100).
edge(94, 120).
edge(69, 123).
edge(38, 67).
edge(105, 110).
edge(41, 116).
edge(63, 94).
edge(13, 107).
edge(60, 137).
edge(98, 134).
edge(33, 87).
edge(28, 76).
edge(55, 127).
edge(46, 99).
edge(11, 143).
edge(11, 36).
edge(25, 136).
edge(15, 35).
edge(101, 135).
edge(42, 130).
edge(128, 140).
edge(44, 62).
edge(19, 22).
edge(50, 130).
edge(43, 97).
edge(30, 68).
edge(26, 29).
edge(56, 81).
edge(104, 119).
edge(101, 141).
edge(75, 133).
edge(53, 88).
edge(103, 104).
edge(54, 78).
edge(12, 94).
edge(111, 124).
edge(79, 136).
edge(123, 140).
edge(70, 138).
edge(28, 73).
edge(6, 116).
edge(24, 54).
edge(54, 130).
edge(61, 142).
edge(83, 89).
edge(24, 30).
edge(47, 110).
edge(118, 142).
edge(10, 126).
edge(14, 66).
edge(97, 106).
edge(19, 66).
edge(70, 101).
edge(10, 22).
edge(36, 137).
edge(51, 98).
edge(116, 141).
edge(3, 20).
edge(34, 136).
edge(42, 89).
edge(28, 62).
edge(113, 123).
edge(50, 142).
edge(42, 136).
edge(32, 108).
edge(14, 124).
edge(4, 110).
edge(7, 144).
edge(35, 43).
edge(0, 24).
edge(110, 134).
edge(27, 35).
edge(107, 144).
edge(98, 113).
edge(53, 103).
edge(17, 136).
edge(3, 84).
edge(61, 113).
edge(69, 139).
edge(66, 101).
edge(104, 114).
edge(41, 76).
edge(52, 87).
edge(80, 118).
edge(94, 102).
edge(46, 136).
edge(2, 105).
edge(7, 20).
edge(6, 90).
edge(48, 75).
edge(34, 121).
edge(50, 67).
edge(48, 103).
edge(1, 52).
edge(50, 113).
edge(51, 100).
edge(53, 72).
edge(18, 67).
edge(8, 88).
edge(50, 141).
edge(47, 68).
edge(52, 130).
edge(30, 32).
edge(23, 24).
edge(83, 137).
edge(61, 89).
edge(65, 140).
edge(13, 41).
edge(9, 61).
edge(19, 81).
edge(19, 39).
edge(36, 106).
edge(100, 123).
edge(65, 83).
edge(5, 68).
edge(35, 65).
edge(83, 122).
edge(78, 106).
edge(6, 36).
edge(14, 113).
edge(76, 135).
edge(0, 22).
edge(56, 66).
edge(35, 122).
edge(67, 132).
edge(84, 121).
edge(60, 66).
edge(13, 35).
edge(22, 29).
edge(94, 130).
edge(21, 60).
edge(56, 82).
edge(43, 99).
edge(110, 117).
edge(113, 144).
edge(47, 73).
edge(121, 124).
edge(117, 143).
edge(0, 53).
edge(97, 103).
edge(55, 88).
edge(27, 93).
edge(27, 68).
edge(61, 62).
edge(1, 28).
edge(11, 136).
edge(31, 87).
edge(105, 130).
edge(29, 126).
edge(6, 118).
edge(19, 27).
edge(25, 139).
edge(49, 130).
edge(22, 119).
edge(2, 45).
edge(49, 102).
edge(39, 77).
edge(88, 112).
edge(91, 111).
edge(72, 77).
edge(11, 21).
edge(49, 68).
edge(23, 33).
edge(26, 72).
edge(23, 119).
edge(88, 129).
edge(47, 66).
edge(49, 129).
edge(19, 104).
edge(38, 85).
edge(125, 137).
edge(137, 143).
edge(63, 127).
edge(21, 103).
edge(40, 136).
edge(70, 130).
edge(26, 121).
edge(58, 78).
edge(55, 120).
edge(79, 115).
edge(70, 141).
edge(43, 76).
edge(26, 105).
edge(15, 130).
edge(18, 80).
edge(57, 102).
edge(100, 115).
edge(25, 38).
edge(50, 135).
edge(73, 89).
edge(45, 48).
edge(49, 90).
edge(54, 89).
edge(85, 106).
edge(51, 93).
edge(100, 122).
edge(28, 117).
edge(43, 58).
edge(58, 105).
edge(72, 138).
edge(75, 83).
edge(45, 64).
edge(52, 125).
edge(49, 73).
edge(130, 137).
edge(133, 134).
edge(9, 135).
edge(90, 116).
edge(44, 76).
edge(42, 105).
edge(12, 81).
edge(71, 141).
edge(29, 44).
edge(4, 129).
edge(75, 143).
edge(21, 50).
edge(41, 142).
edge(13, 111).
edge(13, 64).
edge(98, 124).
edge(28, 60).
edge(59, 78).
edge(48, 118).
edge(77, 97).
edge(27, 87).
edge(47, 48).
edge(20, 34).
edge(4, 67).
edge(83, 124).
edge(31, 144).
edge(136, 140).
edge(3, 40).
edge(84, 135).
edge(91, 121).
edge(102, 138).
edge(48, 110).
edge(23, 140).
edge(87, 97).
edge(30, 36).
edge(10, 79).
edge(25, 39).
edge(90, 96).
edge(88, 122).
edge(46, 86).
edge(109, 123).
edge(18, 79).
edge(29, 70).
edge(72, 135).
edge(15, 28).
edge(33, 120).
edge(22, 65).
edge(86, 111).
edge(120, 121).
edge(14, 19).
edge(45, 134).
edge(26, 102).
edge(18, 98).
edge(23, 67).
edge(0, 78).
edge(90, 135).
edge(44, 125).
edge(16, 114).
edge(17, 95).
edge(74, 103).
edge(77, 127).
edge(18, 57).
edge(28, 32).
edge(83, 110).
edge(5, 75).
edge(73, 90).
edge(100, 138).
edge(86, 121).
edge(140, 141).
edge(62, 139).
edge(115, 136).
edge(60, 143).
edge(111, 125).
edge(58, 104).
edge(73, 115).
edge(70, 121).
edge(3, 103).
edge(63, 83).
edge(18, 137).
edge(8, 41).
edge(19, 48).
edge(18, 19).
edge(13, 93).
edge(55, 58).
edge(0, 49).
edge(77, 134).
edge(49, 87).
edge(4, 8).
edge(32, 103).
edge(23, 82).
edge(25, 37).
edge(35, 52).
edge(6, 15).
edge(21, 125).
edge(76, 81).
edge(72, 136).
edge(3, 29).
edge(31, 80).
edge(41, 42).
edge(49, 140).
edge(90, 102).
edge(45, 100).
edge(21, 76).
edge(16, 128).
edge(102, 130).
edge(61, 123).
edge(49, 135).
edge(12, 138).
edge(100, 120).
edge(118, 128).
edge(110, 114).
edge(26, 31).
edge(18, 63).
edge(36, 39).
edge(14, 133).
edge(84, 133).
edge(85, 142).
edge(14, 112).
edge(46, 69).
edge(115, 127).
edge(23, 34).
edge(58, 128).
edge(36, 114).
edge(13, 28).
edge(68, 91).
edge(107, 137).
edge(21, 43).
edge(23, 30).
edge(82, 84).
edge(85, 112).
edge(30, 133).
edge(23, 98).
edge(24, 132).
edge(36, 63).
edge(14, 21).
edge(95, 130).
edge(47, 109).
edge(92, 132).
edge(30, 87).
edge(24, 65).
edge(2, 32).
edge(131, 144).
edge(45, 139).
edge(18, 143).
edge(57, 60).
edge(45, 46).
edge(96, 125).
edge(61, 118).
edge(6, 98).
edge(58, 132).
edge(20, 135).
edge(31, 61).
edge(108, 133).
edge(13, 15).
edge(54, 102).
edge(86, 104).
edge(40, 42).
edge(87, 104).
edge(7, 100).
edge(68, 118).
edge(37, 96).
edge(30, 95).
edge(59, 67).
edge(101, 125).
edge(4, 126).
edge(83, 128).
edge(53, 78).
edge(12, 110).
edge(54, 77).
edge(24, 103).
edge(0, 105).
edge(26, 124).
edge(47, 126).
edge(30, 107).
edge(42, 140).
edge(70, 123).
edge(19, 91).
edge(70, 98).
edge(23, 122).
edge(34, 41).
edge(42, 102).
edge(30, 34).
edge(87, 98).
edge(23, 91).
edge(58, 131).
edge(72, 109).
edge(38, 64).
edge(20, 108).
edge(43, 52).
edge(73, 143).
edge(117, 135).
edge(26, 96).
edge(5, 134).
edge(13, 82).
edge(45, 63).
edge(45, 76).
edge(0, 8).
edge(24, 43).
edge(53, 122).
edge(8, 64).
edge(138, 141).
edge(16, 91).
edge(117, 121).
edge(106, 133).
edge(49, 57).
edge(60, 68).
edge(79, 83).
edge(3, 4).
edge(108, 136).
edge(6, 40).
edge(71, 133).
edge(32, 81).
edge(9, 52).
edge(65, 98).
edge(19, 30).
edge(100, 142).
edge(54, 85).
edge(20, 87).
edge(56, 70).
edge(101, 140).
edge(93, 113).
edge(29, 48).
edge(81, 128).
edge(36, 120).
edge(56, 128).
edge(36, 87).
edge(6, 18).
edge(33, 136).
edge(34, 103).
edge(9, 131).
edge(32, 115).
edge(28, 68).
edge(26, 125).
edge(14, 29).
edge(10, 107).
edge(99, 128).
edge(16, 58).
edge(3, 33).
edge(41, 139).
edge(23, 84).
edge(94, 143).
edge(58, 87).
edge(45, 95).
edge(32, 106).
edge(121, 132).
edge(76, 87).
edge(79, 133).
edge(16, 62).
edge(84, 104).
edge(88, 119).
edge(70, 106).
edge(22, 104).
edge(5, 39).
edge(54, 90).
edge(58, 121).
edge(0, 19).
edge(48, 55).
edge(40, 72).
edge(14, 31).
edge(123, 143).
edge(47, 114).
edge(139, 140).
edge(70, 140).
edge(4, 68).
edge(127, 128).
edge(64, 85).
edge(27, 62).
edge(81, 111).
edge(77, 131).
edge(26, 51).
edge(10, 123).
edge(33, 115).
edge(17, 48).
edge(99, 111).
edge(77, 122).
edge(9, 107).
edge(16, 134).
edge(5, 114).
edge(17, 86).
edge(47, 133).
edge(122, 129).
edge(16, 87).
edge(56, 116).
edge(118, 136).
edge(53, 141).
edge(84, 100).
edge(65, 142).
edge(9, 32).
edge(60, 131).
edge(23, 68).
edge(8, 14).
edge(36, 97).
edge(29, 92).
edge(15, 79).
edge(54, 107).
edge(43, 120).
edge(30, 58).
edge(24, 91).
edge(28, 113).
edge(103, 109).
edge(28, 36).
edge(38, 46).
edge(46, 72).
edge(54, 65).
edge(12, 51).
edge(0, 131).
edge(97, 113).
edge(26, 93).
edge(83, 140).
edge(29, 40).
edge(34, 49).
edge(100, 131).
edge(32, 104).
edge(108, 131).
edge(29, 100).
edge(37, 76).
edge(66, 122).
edge(48, 124).
edge(78, 131).
edge(55, 141).
edge(120, 138).
edge(119, 121).
edge(40, 113).
edge(11, 35).
edge(65, 122).
edge(81, 129).
edge(29, 76).
edge(27, 132).
edge(33, 91).
edge(45, 121).
edge(120, 130).
edge(100, 109).
edge(36, 75).
edge(0, 41).
edge(82, 111).
edge(20, 90).
edge(44, 93).
edge(99, 116).
edge(3, 23).
edge(7, 17).
edge(64, 70).
edge(121, 122).
edge(18, 127).
edge(10, 71).
edge(81, 127).
edge(31, 115).
edge(15, 131).
edge(132, 134).
edge(21, 107).
edge(23, 70).
edge(36, 101).
edge(29, 74).
edge(103, 122).
edge(18, 52).
edge(68, 102).
edge(89, 97).
edge(22, 135).
edge(75, 84).
edge(48, 97).
edge(1, 120).
edge(127, 130).
edge(20, 67).
edge(18, 35).
edge(59, 139).
edge(41, 138).
edge(54, 63).
edge(19, 95).
edge(37, 51).
edge(11, 126).
edge(10, 78).
edge(2, 99).
edge(26, 60).
edge(60, 140).
edge(39, 79).
edge(57, 98).
edge(38, 109).
edge(13, 115).
edge(100, 132).
edge(9, 53).
edge(71, 112).
edge(107, 112).
edge(0, 135).
edge(10, 91).
edge(42, 142).
edge(35, 133).
edge(116, 120).
edge(45, 111).
edge(77, 81).
edge(27, 129).
edge(33, 104).
edge(52, 97).
edge(52, 112).
edge(127, 137).
edge(44, 109).
edge(3, 65).
edge(39, 55).
edge(11, 111).
edge(26, 98).
edge(16, 56).
edge(71, 110).
edge(42, 135).
edge(73, 123).
edge(22, 42).
edge(10, 102).
edge(48, 133).
edge(14, 120).
edge(27, 105).
edge(2, 127).
edge(57, 104).
edge(64, 123).
edge(11, 80).
edge(41, 103).
edge(83, 114).
edge(131, 133).
edge(27, 54).
edge(19, 87).
edge(84, 108).
edge(22, 92).
edge(28, 69).
edge(79, 139).
edge(28, 134).
edge(46, 110).
edge(81, 91).
edge(70, 139).
edge(115, 134).
edge(3, 138).
edge(11, 89).
edge(4, 19).
edge(123, 137).
edge(120, 131).
edge(36, 77).
edge(85, 132).
edge(18, 42).
edge(40, 119).
edge(87, 143).
edge(20, 113).
edge(17, 24).
edge(73, 91).
edge(118, 137).
edge(57, 142).
edge(50, 129).
edge(4, 14).
edge(26, 77).
edge(107, 133).
edge(38, 92).
edge(44, 124).
edge(33, 78).
edge(37, 65).
edge(12, 39).
edge(55, 142).
edge(44, 77).
edge(93, 142).
edge(39, 52).
edge(34, 126).
edge(64, 110).
edge(84, 113).
edge(116, 130).
edge(90, 103).
edge(62, 117).
edge(40, 137).
edge(38, 132).
edge(23, 51).
edge(40, 47).
edge(37, 68).
edge(112, 123).
edge(14, 27).
edge(21, 22).
edge(6, 25).
edge(46, 63).
edge(9, 51).
edge(78, 144).
edge(37, 128).
edge(82, 97).
edge(16, 76).
edge(94, 99).
edge(32, 38).
edge(63, 89).
edge(4, 47).
edge(88, 124).
edge(9, 22).
edge(16, 119).
edge(52, 137).
edge(40, 70).
edge(23, 37).
edge(100, 116).
edge(62, 136).
edge(34, 109).
edge(6, 132).
edge(36, 67).
edge(62, 64).
edge(47, 116).
edge(114, 120).
edge(15, 119).
edge(132, 139).
edge(0, 127).
edge(55, 128).
edge(20, 127).
edge(68, 110).
edge(26, 79).
edge(26, 68).
edge(7, 104).
edge(38, 45).
edge(57, 62).
edge(22, 105).
edge(18, 99).
edge(116, 144).
edge(41, 105).
edge(120, 128).
edge(43, 124).
edge(3, 85).
edge(55, 140).
edge(73, 103).
edge(78, 109).
edge(123, 135).
edge(54, 67).
edge(66, 86).
edge(4, 27).
edge(112, 141).
edge(9, 116).
edge(63, 134).
edge(12, 34).
edge(64, 114).
edge(6, 9).
edge(37, 121).
edge(59, 68).
edge(38, 110).
edge(24, 64).
edge(55, 110).
edge(83, 99).
edge(41, 77).
edge(35, 49).
edge(27, 83).
edge(79, 98).
edge(34, 97).
edge(73, 104).
edge(23, 90).
edge(96, 97).
edge(57, 130).
edge(102, 122).
edge(64, 100).
edge(0, 46).
edge(1, 20).
edge(54, 141).
edge(27, 58).
edge(17, 103).
edge(18, 48).
edge(52, 53).
edge(16, 20).
edge(67, 136).
edge(23, 95).
edge(44, 122).
edge(26, 42).
edge(31, 58).
edge(60, 88).
edge(8, 69).
edge(36, 71).
edge(62, 66).
edge(13, 56).
edge(109, 138).
edge(1, 80).
edge(48, 106).
edge(2, 82).
edge(33, 116).
edge(30, 97).
edge(10, 43).
edge(11, 116).
edge(8, 132).
edge(81, 122).
edge(78, 112).
edge(67, 121).
edge(34, 134).
edge(4, 73).
edge(15, 132).
edge(5, 6).
edge(66, 85).
edge(15, 95).
edge(18, 43).
edge(76, 88).
edge(67, 111).
edge(70, 118).
edge(62, 140).
edge(20, 124).
edge(72, 73).
edge(4, 109).
edge(81, 83).
edge(44, 102).
edge(86, 87).
edge(50, 62).
edge(24, 113).
edge(82, 86).
edge(4, 117).
edge(84, 118).
edge(131, 137).
edge(14, 115).
edge(2, 113).
edge(15, 23).
edge(87, 118).
edge(13, 128).
edge(28, 141).
edge(54, 58).
edge(28, 109).
edge(74, 126).
edge(33, 142).
edge(28, 130).
edge(41, 48).
edge(138, 142).
edge(63, 102).
edge(39, 51).
edge(42, 91).
edge(25, 53).
edge(53, 132).
edge(53, 112).
edge(28, 99).
edge(62, 108).
edge(64, 102).
edge(51, 128).
edge(114, 123).
edge(118, 119).
edge(12, 103).
edge(62, 106).
edge(74, 144).
edge(38, 125).
edge(11, 85).
edge(5, 104).
edge(20, 21).
edge(20, 110).
edge(62, 77).
edge(15, 57).
edge(47, 131).
edge(43, 105).
edge(68, 139).
edge(10, 20).
edge(51, 72).
edge(13, 74).
edge(44, 139).
edge(23, 120).
edge(38, 102).
edge(9, 20).
edge(9, 43).
edge(12, 118).
edge(62, 71).
edge(62, 88).
edge(26, 136).
edge(79, 93).
edge(90, 137).
edge(78, 113).
edge(15, 88).
edge(83, 103).
edge(30, 93).
edge(76, 79).
edge(9, 100).
edge(67, 110).
edge(11, 82).
edge(43, 100).
edge(27, 53).
edge(96, 117).
edge(79, 80).
edge(56, 141).
edge(92, 118).
edge(81, 124).
edge(116, 134).
edge(51, 52).
edge(60, 106).
edge(42, 69).
edge(46, 106).
edge(103, 119).
edge(96, 141).
edge(51, 126).
edge(61, 92).
edge(47, 124).
edge(75, 118).
edge(69, 98).
edge(70, 114).
edge(51, 111).
edge(13, 99).
edge(67, 123).
edge(40, 101).
edge(46, 53).
edge(46, 66).
edge(37, 75).
edge(28, 119).
edge(109, 110).
edge(20, 91).
edge(6, 8).
edge(51, 88).
edge(68, 106).
edge(100, 117).
edge(1, 127).
edge(17, 31).
edge(17, 81).
edge(21, 65).
edge(65, 128).
edge(5, 118).
edge(48, 50).
edge(67, 112).
edge(47, 83).
edge(4, 143).
edge(79, 140).
edge(78, 137).
edge(4, 138).
edge(73, 107).
edge(82, 83).
edge(5, 133).
edge(3, 59).
edge(83, 105).
edge(19, 60).
edge(65, 110).
edge(10, 49).
edge(15, 48).
edge(0, 85).
edge(61, 109).
edge(83, 108).
edge(31, 121).
edge(121, 128).
edge(27, 50).
edge(12, 133).
edge(3, 53).
edge(24, 58).
edge(16, 81).
edge(49, 125).
edge(17, 87).
edge(63, 107).
edge(2, 89).
edge(56, 129).
edge(81, 92).
edge(52, 144).
edge(5, 11).
edge(10, 74).
edge(36, 108).
edge(13, 144).
edge(13, 97).
edge(1, 74).
edge(5, 51).
edge(6, 142).
edge(87, 107).
edge(54, 132).
edge(14, 92).
edge(45, 122).
edge(75, 85).
edge(33, 44).
edge(53, 107).
edge(20, 45).
edge(41, 82).
edge(101, 123).
edge(8, 81).
edge(8, 40).
edge(80, 138).
edge(66, 120).
edge(13, 87).
edge(18, 39).
edge(22, 27).
edge(85, 104).
edge(5, 74).
edge(7, 109).
edge(82, 100).
edge(95, 132).
edge(81, 135).
edge(8, 51).
edge(60, 125).
edge(100, 135).
edge(135, 142).
edge(40, 56).
edge(19, 113).
edge(88, 143).
edge(86, 109).
edge(29, 122).
edge(10, 80).
edge(35, 61).
edge(19, 86).
edge(18, 81).
edge(74, 92).
edge(55, 130).
edge(4, 30).
edge(70, 126).
edge(49, 67).
edge(76, 144).
edge(97, 108).
edge(33, 118).
edge(87, 112).
edge(31, 109).
edge(92, 144).
edge(1, 55).
edge(63, 140).
edge(65, 79).
edge(86, 105).
edge(5, 73).
edge(25, 118).
edge(20, 107).
edge(8, 34).
edge(37, 98).
edge(26, 86).
edge(67, 131).
edge(26, 106).
edge(13, 61).
edge(46, 85).
edge(121, 139).
edge(56, 112).
edge(12, 116).
edge(112, 142).
edge(85, 131).
edge(27, 103).
edge(49, 132).
edge(15, 139).
edge(54, 92).
edge(69, 103).
edge(40, 62).
edge(10, 134).
edge(1, 69).
edge(2, 61).
edge(10, 118).
edge(5, 72).
edge(34, 96).
edge(21, 62).
edge(65, 106).
edge(128, 139).
edge(77, 87).
edge(48, 83).
edge(111, 133).
edge(9, 25).
edge(34, 117).
edge(14, 117).
edge(33, 114).
edge(57, 92).
edge(76, 107).
edge(77, 118).
edge(69, 120).
edge(25, 43).
edge(65, 72).
edge(14, 51).
edge(36, 44).
edge(42, 75).
edge(86, 142).
edge(44, 88).
edge(13, 125).
edge(92, 127).
edge(89, 135).
edge(46, 81).
edge(91, 95).
edge(26, 69).
edge(63, 70).
edge(7, 79).
edge(45, 68).
edge(15, 111).
edge(22, 87).
edge(20, 28).
edge(19, 111).
edge(103, 112).
edge(40, 52).
edge(57, 118).
edge(96, 128).
edge(97, 126).
edge(37, 102).
edge(44, 130).
edge(45, 115).
edge(77, 82).
edge(15, 106).
edge(52, 113).
edge(19, 64).
edge(26, 119).
edge(29, 134).
edge(137, 142).
edge(10, 116).
edge(33, 133).
edge(28, 126).
edge(51, 70).
edge(60, 98).
edge(25, 61).
edge(57, 133).
edge(79, 125).
edge(12, 98).
edge(52, 55).
edge(16, 38).
edge(65, 124).
edge(33, 110).
edge(72, 97).
edge(97, 132).
edge(9, 87).
edge(8, 70).
edge(81, 126).
edge(0, 64).
edge(50, 143).
edge(107, 123).
edge(26, 36).
edge(27, 96).
edge(107, 108).
edge(83, 120).
edge(49, 118).
edge(72, 106).
edge(36, 49).
edge(73, 109).
edge(4, 91).
edge(132, 140).
edge(38, 59).
edge(60, 135).
edge(36, 143).
edge(26, 87).
edge(101, 139).
edge(13, 30).
edge(19, 142).
edge(15, 68).
edge(80, 144).
edge(35, 118).
edge(25, 138).
edge(117, 124).
edge(101, 104).
edge(15, 122).
edge(66, 125).
edge(44, 123).
edge(12, 117).
edge(24, 120).
edge(48, 96).
edge(13, 45).
edge(27, 88).
edge(49, 131).
edge(66, 95).
edge(47, 67).
edge(38, 68).
edge(55, 72).
edge(7, 47).
edge(51, 60).
edge(41, 133).
edge(74, 98).
edge(71, 136).
edge(43, 84).
edge(39, 69).
edge(73, 144).
edge(106, 120).
edge(9, 136).
edge(63, 74).
edge(7, 49).
edge(108, 126).
edge(16, 104).
edge(69, 79).
edge(40, 109).
edge(76, 114).
edge(44, 138).
edge(90, 125).
edge(18, 65).
edge(79, 118).
edge(101, 103).
edge(43, 101).
edge(63, 116).
edge(11, 94).
edge(30, 51).
edge(113, 140).
edge(6, 93).
edge(1, 42).
edge(54, 124).
edge(31, 88).
edge(61, 85).
edge(3, 44).
edge(35, 75).
edge(30, 60).
edge(17, 98).
edge(32, 54).
edge(60, 141).
edge(50, 77).
edge(41, 54).
edge(117, 138).
edge(21, 90).
edge(13, 121).
edge(35, 38).
edge(7, 115).
edge(12, 40).
edge(139, 144).
edge(0, 37).
edge(59, 138).
edge(42, 44).
edge(21, 38).
edge(9, 11).
edge(5, 82).
edge(41, 97).
edge(45, 94).
edge(45, 73).
edge(74, 101).
edge(2, 27).
edge(9, 16).
edge(16, 80).
edge(3, 123).
edge(49, 100).
edge(6, 135).
edge(38, 139).
edge(88, 137).
edge(76, 103).
edge(22, 79).
edge(116, 140).
edge(2, 34).
edge(9, 118).
edge(17, 143).
edge(49, 62).
edge(65, 121).
edge(9, 15).
edge(90, 100).
edge(18, 71).
edge(124, 130).
edge(130, 133).
edge(77, 123).
edge(105, 131).
edge(91, 127).
edge(74, 138).
edge(44, 60).
edge(8, 122).
edge(35, 91).
edge(109, 130).
edge(105, 137).
edge(6, 83).
edge(48, 123).
edge(1, 128).
edge(11, 73).
edge(17, 107).
edge(30, 130).
edge(32, 119).
edge(34, 137).
edge(25, 105).
edge(3, 82).
edge(71, 80).
edge(12, 66).
edge(19, 24).
edge(84, 138).
edge(16, 122).
edge(131, 142).
edge(20, 104).
edge(61, 66).
edge(20, 122).
edge(46, 123).
edge(99, 100).
edge(28, 56).
edge(67, 119).
edge(9, 56).
edge(4, 58).
edge(72, 108).
edge(40, 53).
edge(60, 76).
edge(46, 56).
edge(57, 65).
edge(72, 114).
edge(21, 54).
edge(11, 51).
edge(53, 83).
edge(19, 44).
edge(37, 133).
edge(30, 42).
edge(49, 111).
edge(10, 88).
edge(12, 27).
edge(56, 104).
edge(59, 106).
edge(65, 130).
edge(58, 120).
edge(44, 141).
edge(96, 104).
edge(49, 115).
edge(110, 138).
edge(31, 34).
edge(36, 140).
edge(25, 82).
edge(47, 85).
edge(34, 82).
edge(66, 79).
edge(28, 98).
edge(76, 116).
edge(6, 96).
edge(93, 116).
edge(30, 141).
edge(23, 66).
edge(40, 127).
edge(6, 105).
edge(37, 56).
edge(32, 107).
edge(21, 127).
edge(13, 62).
edge(50, 55).
edge(41, 47).
edge(101, 117).
edge(4, 9).
edge(65, 141).
edge(14, 45).
edge(56, 89).
edge(62, 76).
edge(82, 121).
edge(56, 143).
edge(35, 73).
edge(73, 92).
edge(23, 137).
edge(68, 136).
edge(7, 137).
edge(125, 131).
edge(125, 135).
edge(1, 46).
edge(17, 85).
edge(65, 114).
edge(20, 61).
edge(60, 78).
edge(52, 92).
edge(98, 143).
edge(41, 78).
edge(5, 128).
edge(77, 89).
edge(11, 109).
edge(1, 64).
edge(104, 132).
edge(24, 128).
edge(76, 139).
edge(57, 122).
edge(16, 31).
edge(30, 81).
edge(110, 144).
edge(6, 129).
edge(3, 140).
edge(55, 107).
edge(124, 141).
edge(66, 116).
edge(67, 87).
edge(54, 142).
edge(86, 108).
edge(107, 114).
edge(72, 90).
edge(28, 59).
edge(59, 117).
edge(0, 57).
edge(7, 11).
edge(54, 87).
edge(20, 37).
edge(24, 74).
edge(0, 60).
edge(4, 64).
edge(15, 53).
edge(25, 66).
edge(52, 124).
edge(5, 33).
edge(25, 113).
edge(114, 126).
edge(58, 122).
edge(84, 88).
edge(75, 79).
edge(40, 117).
edge(74, 131).
edge(97, 105).
edge(38, 41).
edge(11, 30).
edge(82, 101).
edge(22, 40).
edge(58, 96).
edge(13, 52).
edge(15, 40).
edge(5, 47).
edge(80, 141).
edge(8, 93).
edge(56, 60).
edge(0, 76).
edge(120, 132).
edge(32, 75).
edge(107, 140).
edge(4, 28).
edge(28, 120).
edge(119, 143).
edge(3, 131).
edge(94, 100).
edge(127, 129).
edge(109, 112).
edge(76, 136).
edge(82, 126).
edge(12, 30).
edge(76, 104).
edge(77, 94).
edge(0, 52).
edge(33, 57).
edge(83, 107).
edge(4, 97).
edge(59, 123).
edge(4, 12).
edge(72, 121).
edge(61, 143).
edge(38, 95).
edge(4, 48).
edge(42, 97).
edge(32, 134).
edge(97, 133).
edge(82, 93).
edge(45, 67).
edge(74, 86).
edge(42, 73).
edge(39, 86).
edge(57, 132).
edge(54, 113).
edge(86, 118).
edge(61, 72).
edge(93, 117).
edge(99, 102).
edge(0, 2).
edge(27, 80).
edge(4, 26).
edge(14, 47).
edge(38, 99).
edge(55, 144).
edge(0, 25).
edge(18, 121).
edge(92, 141).
edge(11, 84).
edge(55, 93).
edge(4, 76).
edge(111, 140).
edge(85, 98).
edge(100, 144).
edge(50, 122).
edge(19, 72).
edge(79, 107).
edge(90, 133).
edge(28, 95).
edge(111, 142).
edge(45, 84).
edge(50, 102).
edge(95, 125).
edge(10, 121).
edge(103, 121).
edge(68, 134).
edge(52, 104).
edge(85, 121).
edge(39, 109).
edge(104, 121).
edge(39, 129).
edge(53, 85).
edge(27, 125).
edge(13, 17).
edge(94, 121).
edge(49, 114).
edge(38, 119).
edge(22, 90).
edge(31, 95).
edge(46, 100).
edge(5, 96).
edge(98, 110).
edge(31, 67).
edge(16, 141).
edge(36, 38).
edge(103, 116).
edge(57, 127).
edge(14, 132).
edge(19, 54).
edge(94, 127).
edge(53, 76).
edge(27, 134).
edge(79, 113).
edge(35, 121).
edge(1, 16).
edge(48, 80).
edge(87, 139).
edge(23, 55).
edge(31, 89).
edge(22, 123).
edge(50, 97).
edge(51, 67).
edge(44, 67).
edge(43, 81).
edge(6, 120).
edge(37, 43).
edge(2, 58).
edge(1, 70).
edge(89, 90).
edge(39, 59).
edge(40, 86).
edge(4, 43).
edge(5, 64).
edge(75, 137).
edge(51, 132).
edge(84, 119).
edge(68, 94).
edge(122, 124).
edge(18, 64).
edge(34, 46).
edge(112, 113).
edge(25, 81).
edge(61, 67).
edge(52, 133).
edge(7, 119).
edge(7, 121).
edge(28, 143).
edge(92, 143).
edge(68, 77).
edge(15, 87).
edge(51, 95).
edge(74, 115).
edge(59, 70).
edge(21, 77).
edge(93, 97).
edge(70, 87).
edge(97, 130).
edge(0, 142).
edge(66, 81).
edge(37, 129).
edge(135, 141).
edge(48, 61).
edge(0, 112).
edge(56, 58).
edge(22, 54).
edge(14, 121).
edge(72, 89).
edge(52, 139).
edge(14, 136).
edge(68, 120).
edge(2, 8).
edge(87, 144).
edge(25, 130).
edge(37, 42).
edge(6, 95).
edge(71, 120).
edge(30, 98).
edge(59, 74).
edge(31, 142).
edge(76, 98).
edge(47, 56).
edge(104, 116).
edge(8, 106).
edge(124, 126).
edge(21, 80).
edge(52, 78).
edge(57, 124).
edge(40, 48).
edge(8, 54).
edge(79, 111).
edge(27, 116).
edge(64, 90).
edge(20, 84).
edge(46, 96).
edge(35, 46).
edge(84, 112).
edge(34, 119).
edge(26, 110).
edge(130, 135).
edge(39, 102).
edge(67, 91).
edge(111, 112).
edge(23, 71).
edge(53, 108).
edge(4, 15).
edge(88, 115).
edge(119, 132).
edge(131, 132).
edge(48, 94).
edge(81, 120).
edge(15, 69).
edge(58, 90).
edge(46, 126).
edge(122, 143).
edge(38, 57).
edge(102, 121).
edge(108, 134).
edge(87, 142).
edge(38, 51).
edge(2, 110).
edge(104, 124).
edge(75, 97).
edge(9, 72).
edge(76, 80).
edge(89, 122).
edge(82, 133).
edge(24, 105).
edge(45, 56).
edge(99, 139).
edge(42, 78).
edge(141, 143).
edge(75, 93).
edge(56, 127).
edge(8, 109).
edge(3, 102).
edge(57, 140).
edge(74, 87).
edge(0, 107).
edge(61, 140).
edge(58, 115).
edge(132, 136).
edge(7, 72).
edge(110, 140).
edge(34, 112).
edge(6, 32).
edge(17, 49).
edge(92, 128).
edge(99, 106).
edge(123, 131).
edge(7, 28).
edge(31, 102).
edge(17, 84).
edge(106, 126).
edge(110, 125).
edge(16, 59).
edge(23, 46).
edge(10, 103).
edge(38, 126).
edge(72, 113).
edge(129, 142).
edge(12, 92).
edge(51, 82).
edge(52, 127).
edge(16, 36).
edge(58, 130).
edge(48, 73).
edge(4, 7).
edge(68, 125).
edge(30, 121).
edge(49, 136).
edge(41, 129).
edge(27, 142).
edge(19, 46).
edge(69, 126).
edge(38, 108).
edge(8, 49).
edge(6, 137).
edge(121, 135).
edge(5, 135).
edge(26, 118).
edge(22, 57).
edge(39, 141).
edge(85, 90).
edge(81, 85).
edge(94, 105).
edge(71, 98).
edge(31, 41).
edge(85, 113).
edge(96, 139).
edge(76, 77).
edge(54, 140).
edge(103, 105).
edge(56, 109).
edge(20, 27).
edge(2, 17).
edge(19, 90).
edge(18, 85).
edge(22, 124).
edge(47, 135).
edge(49, 95).
edge(14, 100).
edge(45, 52).
edge(40, 87).
edge(81, 106).
edge(68, 92).
edge(74, 121).
edge(97, 111).
edge(84, 97).
edge(97, 136).
edge(69, 73).
edge(3, 133).
edge(5, 91).
edge(81, 104).
edge(6, 108).
edge(92, 137).
edge(65, 137).
edge(51, 130).
edge(99, 108).
edge(109, 136).
edge(0, 83).
edge(37, 131).
edge(33, 85).
edge(96, 130).
edge(59, 129).
edge(69, 71).
edge(29, 83).
edge(7, 136).
edge(34, 77).
edge(2, 20).
edge(86, 126).
edge(82, 127).
edge(111, 127).
edge(73, 84).
edge(15, 63).
edge(20, 93).
edge(27, 41).
edge(69, 83).
edge(67, 97).
edge(83, 130).
edge(17, 126).
edge(21, 68).
edge(5, 100).
edge(22, 62).
edge(54, 134).
edge(66, 133).
edge(54, 135).
edge(13, 22).
edge(5, 89).
edge(21, 56).
edge(31, 35).
edge(129, 137).
edge(42, 43).
edge(22, 126).
edge(62, 79).
edge(0, 119).
edge(82, 107).
edge(96, 122).
edge(80, 136).
edge(8, 129).
edge(31, 104).
edge(15, 143).
edge(39, 93).
edge(46, 111).
edge(120, 133).
edge(65, 135).
edge(53, 111).
edge(80, 86).
edge(34, 39).
edge(50, 124).
edge(30, 47).
edge(11, 142).
edge(25, 134).
edge(53, 87).
edge(34, 91).
edge(69, 122).
edge(91, 138).
edge(9, 40).
edge(11, 123).
edge(67, 95).
edge(82, 112).
edge(42, 85).
edge(115, 130).
edge(8, 11).
edge(41, 113).
edge(50, 120).
edge(20, 46).
edge(48, 84).
edge(43, 123).
edge(90, 114).
edge(91, 128).
edge(28, 142).
edge(46, 107).
edge(23, 47).
edge(27, 48).
edge(31, 57).
edge(31, 143).
edge(25, 56).
edge(91, 113).
edge(6, 77).
edge(33, 55).
edge(106, 110).
edge(47, 50).
edge(103, 107).
edge(32, 142).
edge(127, 141).
edge(27, 33).
edge(68, 90).
edge(7, 90).
edge(47, 49).
edge(86, 120).
edge(29, 130).
edge(42, 47).
edge(69, 104).
edge(29, 123).
edge(22, 43).
edge(32, 89).
edge(3, 87).
edge(28, 54).
edge(0, 28).
edge(22, 99).
edge(87, 135).
edge(46, 54).
edge(15, 18).
edge(3, 9).
edge(23, 29).
edge(99, 104).
edge(21, 40).
edge(74, 118).
edge(82, 109).
edge(128, 130).
edge(13, 70).
edge(115, 137).
edge(98, 142).
edge(13, 57).
edge(33, 67).
edge(3, 100).
edge(55, 73).
edge(94, 131).
edge(40, 120).
edge(33, 95).
edge(109, 132).
edge(8, 48).
edge(50, 54).
edge(3, 17).
edge(63, 139).
edge(31, 106).
edge(10, 18).
edge(13, 83).
edge(30, 63).
edge(69, 143).
edge(67, 115).
edge(40, 61).
edge(20, 71).
edge(80, 116).
edge(36, 100).
edge(9, 104).
edge(38, 76).
edge(109, 120).
edge(53, 142).
edge(6, 33).
edge(71, 127).
edge(65, 74).
edge(64, 133).
edge(1, 78).
edge(121, 137).
edge(75, 124).
edge(78, 108).
edge(57, 69).
edge(4, 16).
edge(37, 106).
edge(37, 45).
edge(67, 130).
edge(60, 67).
edge(12, 115).
edge(45, 81).
edge(18, 27).
edge(1, 76).
edge(86, 134).
edge(6, 125).
edge(10, 98).
edge(11, 62).
edge(2, 66).
edge(51, 103).
edge(43, 75).
edge(69, 113).
edge(25, 63).
edge(40, 91).
edge(12, 137).
edge(19, 38).
edge(11, 24).
edge(1, 77).
edge(75, 77).
edge(7, 15).
edge(33, 103).
edge(0, 5).
edge(74, 130).
edge(47, 95).
edge(73, 87).
edge(32, 64).
edge(1, 93).
edge(81, 133).
edge(10, 54).
edge(32, 124).
edge(51, 118).
edge(39, 56).
edge(8, 135).
edge(28, 33).
edge(3, 46).
edge(39, 113).
edge(1, 38).
edge(89, 144).
edge(129, 136).
edge(10, 129).
edge(25, 55).
edge(17, 69).
edge(122, 134).
edge(51, 138).
edge(77, 120).
edge(105, 123).
edge(4, 59).
edge(23, 85).
edge(44, 115).
edge(31, 107).
edge(8, 104).
edge(21, 86).
edge(29, 45).
edge(93, 94).
edge(84, 142).
edge(26, 111).
edge(55, 116).
edge(74, 141).
edge(25, 125).
edge(68, 141).
edge(115, 126).
edge(51, 137).
edge(7, 46).
edge(59, 143).
edge(24, 121).
edge(31, 53).
edge(55, 74).
edge(75, 129).
edge(43, 106).
edge(1, 23).
edge(16, 35).
edge(23, 110).
edge(22, 60).
edge(16, 118).
edge(117, 125).
edge(46, 127).
edge(68, 82).
edge(17, 27).
edge(25, 142).
edge(114, 143).
edge(11, 32).
edge(15, 16).
edge(37, 79).
edge(70, 132).
edge(42, 65).
edge(8, 52).
edge(16, 52).
edge(4, 133).
edge(80, 119).
edge(132, 137).
edge(7, 108).
edge(33, 96).
edge(1, 58).
edge(43, 45).
edge(105, 139).
edge(64, 137).
edge(40, 54).
edge(104, 109).
edge(55, 84).
edge(60, 75).
edge(33, 122).
edge(60, 82).
edge(75, 138).
edge(134, 136).
edge(78, 116).
edge(30, 69).
edge(58, 125).
edge(40, 77).
edge(99, 123).
edge(128, 141).
edge(78, 135).
edge(15, 114).
edge(6, 11).
edge(14, 134).
edge(69, 138).
edge(90, 95).
edge(24, 109).
edge(4, 5).
edge(11, 12).
edge(103, 136).
edge(66, 109).
edge(41, 117).
edge(58, 133).
edge(4, 131).
edge(51, 65).
edge(24, 61).
edge(59, 130).
edge(38, 50).
edge(4, 136).
edge(24, 45).
edge(73, 78).
edge(8, 43).
edge(48, 119).
edge(86, 135).
edge(39, 132).
edge(78, 125).
edge(66, 139).
edge(30, 111).
edge(24, 55).
edge(56, 140).
edge(58, 143).
edge(52, 69).
edge(110, 111).
edge(22, 144).
edge(42, 52).
edge(45, 102).
edge(107, 124).
edge(34, 127).
edge(36, 68).
edge(43, 117).
edge(29, 91).
edge(39, 70).
edge(8, 78).
edge(61, 121).
edge(52, 59).
edge(8, 37).
edge(97, 112).
edge(25, 72).
edge(104, 112).
edge(27, 104).
edge(54, 101).
edge(66, 127).
edge(47, 130).
edge(28, 127).
edge(56, 103).
edge(69, 87).
edge(50, 108).
edge(38, 133).
edge(43, 88).
edge(30, 61).
edge(34, 81).
edge(3, 117).
edge(76, 138).
edge(81, 117).
edge(111, 138).
edge(23, 130).
edge(13, 131).
edge(44, 129).
edge(32, 135).
edge(117, 123).
edge(56, 113).
edge(110, 127).
edge(43, 60).
edge(18, 51).
edge(29, 81).
edge(81, 103).
edge(57, 72).
edge(30, 41).
edge(23, 40).
edge(56, 83).
edge(97, 144).
edge(22, 114).
edge(74, 111).
edge(46, 65).
edge(96, 118).
edge(82, 128).
edge(14, 125).
edge(21, 94).
edge(59, 69).
edge(13, 19).
edge(5, 98).
edge(78, 133).
edge(76, 130).
edge(105, 120).
edge(5, 106).
edge(51, 107).
edge(28, 64).
edge(24, 81).
edge(26, 56).
edge(65, 115).
edge(32, 80).
edge(37, 144).
edge(59, 98).
edge(84, 90).
edge(63, 138).
edge(61, 131).
edge(5, 24).
edge(40, 81).
edge(22, 82).
edge(39, 101).
edge(7, 103).
edge(30, 45).
edge(67, 90).
edge(8, 71).
edge(53, 67).
edge(46, 62).
edge(96, 109).
edge(28, 42).
edge(32, 56).
edge(39, 42).
edge(53, 59).
edge(81, 113).
edge(61, 76).
edge(59, 115).
edge(62, 135).
edge(89, 92).
edge(44, 106).
edge(65, 119).
edge(77, 119).
edge(4, 24).
edge(110, 136).
edge(2, 19).
edge(46, 109).
edge(83, 101).
edge(104, 141).
edge(50, 121).
edge(59, 86).
edge(88, 105).
edge(70, 88).
edge(31, 127).
edge(124, 125).
edge(59, 81).
edge(53, 130).
edge(28, 139).
edge(9, 24).
edge(1, 84).
edge(82, 110).
edge(31, 55).
edge(53, 66).
edge(11, 137).
edge(30, 139).
edge(18, 140).
edge(136, 138).
edge(7, 34).
edge(59, 133).
edge(43, 46).
edge(57, 100).
edge(35, 135).
edge(25, 126).
edge(26, 53).
edge(34, 83).
edge(81, 140).
edge(18, 50).
edge(30, 35).
edge(20, 54).
edge(119, 142).
edge(73, 96).
edge(4, 102).
edge(49, 58).
edge(43, 53).
edge(105, 126).
edge(98, 122).
edge(4, 98).
edge(88, 93).
edge(5, 42).
edge(54, 133).
edge(52, 88).
edge(48, 126).
edge(44, 94).
edge(32, 76).
edge(53, 56).
edge(38, 118).
edge(89, 116).
edge(38, 117).
edge(17, 70).
edge(83, 109).
edge(49, 119).
edge(4, 52).
edge(68, 99).
edge(29, 39).
edge(131, 143).
edge(34, 88).
edge(21, 66).
edge(24, 60).
edge(64, 92).
edge(136, 142).
edge(39, 130).
edge(23, 106).
edge(58, 72).
edge(50, 123).
edge(43, 111).
edge(36, 61).
edge(14, 64).
edge(32, 60).
edge(73, 74).
edge(79, 86).
edge(20, 98).
edge(130, 134).
edge(44, 72).
edge(99, 112).
edge(90, 123).
edge(16, 66).
edge(52, 108).
edge(2, 92).
edge(101, 138).
edge(67, 117).
edge(5, 50).
edge(1, 63).
edge(98, 125).
edge(106, 113).
edge(8, 139).
edge(44, 78).
edge(133, 137).
edge(21, 35).
edge(41, 59).
edge(9, 13).
edge(57, 135).
edge(71, 97).
edge(105, 119).
edge(73, 97).
edge(56, 124).
edge(27, 98).
edge(32, 50).
edge(50, 76).
edge(5, 70).
edge(96, 136).
edge(27, 55).
edge(23, 50).
edge(10, 64).
edge(23, 129).
edge(18, 135).
edge(1, 133).
edge(6, 130).
edge(45, 55).
edge(117, 127).
edge(19, 112).
edge(17, 18).
edge(25, 85).
edge(37, 99).
edge(88, 121).
edge(2, 142).
edge(4, 94).
edge(28, 116).
edge(37, 88).
edge(30, 76).
edge(99, 136).
edge(23, 116).
edge(61, 98).
edge(25, 103).
edge(1, 30).
edge(87, 96).
edge(51, 71).
edge(86, 103).
edge(61, 100).
edge(136, 137).
edge(30, 144).
edge(11, 58).
edge(75, 105).
edge(37, 73).
edge(16, 71).
edge(17, 23).
edge(54, 115).
edge(22, 47).
edge(56, 108).
edge(18, 144).
edge(129, 141).
edge(87, 140).
edge(65, 84).
edge(82, 104).
edge(15, 116).
edge(65, 133).
edge(6, 30).
edge(39, 49).
edge(89, 109).
edge(45, 53).
edge(19, 65).
edge(18, 133).
edge(34, 138).
edge(21, 119).
edge(50, 59).
edge(42, 72).
edge(110, 131).
edge(5, 131).
edge(11, 93).
edge(32, 133).
edge(23, 41).
edge(32, 68).
edge(126, 135).
edge(10, 57).
edge(56, 133).
edge(19, 41).
edge(55, 133).
edge(70, 82).
edge(9, 48).
edge(52, 90).
edge(42, 98).
edge(30, 49).
edge(45, 71).
edge(69, 109).
edge(87, 130).
edge(4, 113).
edge(85, 139).
edge(118, 134).
edge(42, 77).
edge(60, 130).
edge(44, 101).
edge(2, 25).
edge(23, 136).
edge(52, 141).
edge(27, 90).
edge(121, 138).
edge(26, 135).
edge(29, 67).
edge(68, 122).
edge(25, 124).
edge(6, 41).
edge(55, 90).
edge(90, 131).
edge(76, 86).
edge(110, 112).
edge(45, 138).
edge(105, 116).
edge(121, 144).
edge(112, 139).
edge(120, 123).
edge(113, 115).
edge(112, 121).
edge(66, 128).
edge(15, 54).
edge(29, 38).
edge(118, 126).
edge(97, 102).
edge(2, 54).
edge(96, 106).
edge(14, 48).
edge(24, 38).
edge(119, 136).
edge(78, 117).
edge(71, 81).
edge(8, 24).
edge(3, 112).
edge(95, 105).
edge(51, 136).
edge(143, 144).
edge(42, 93).
edge(2, 14).
edge(10, 141).
edge(46, 93).
edge(92, 123).
edge(40, 73).
edge(11, 56).
edge(114, 137).
edge(57, 144).
edge(53, 79).
edge(99, 132).
edge(94, 133).
edge(28, 115).
edge(8, 76).
edge(98, 114).
edge(12, 121).
edge(41, 114).
edge(21, 104).
edge(6, 134).
edge(73, 129).
edge(0, 15).
edge(58, 61).
edge(31, 137).
edge(62, 127).
edge(56, 120).
edge(28, 75).
edge(69, 90).
edge(102, 137).
edge(0, 98).
edge(41, 60).
edge(9, 76).
edge(98, 121).
edge(28, 72).
edge(15, 113).
edge(103, 140).
edge(41, 108).
edge(1, 65).
edge(16, 90).
edge(2, 15).
edge(36, 141).
edge(31, 98).
edge(56, 138).
edge(25, 57).
edge(3, 92).
edge(23, 25).
edge(26, 37).
edge(95, 114).
edge(81, 115).
edge(47, 115).
edge(98, 128).
edge(62, 130).
edge(6, 94).
edge(90, 105).
edge(17, 25).
edge(56, 93).
edge(123, 138).
edge(75, 86).
edge(33, 92).
edge(11, 28).
edge(15, 36).
edge(8, 68).
edge(18, 87).
edge(80, 124).
edge(4, 141).
edge(80, 83).
edge(2, 96).
edge(18, 138).
edge(66, 87).
edge(49, 69).
edge(65, 134).
edge(63, 110).
edge(29, 89).
edge(12, 76).
edge(3, 94).
edge(25, 50).
edge(29, 88).
edge(75, 140).
edge(2, 7).
edge(5, 44).
edge(6, 107).
edge(33, 69).
edge(9, 86).
edge(13, 18).
edge(80, 139).
edge(6, 119).
edge(20, 118).
edge(7, 77).
edge(5, 37).
edge(83, 141).
edge(50, 119).
edge(42, 113).
edge(73, 140).
edge(38, 90).
edge(31, 97).
edge(72, 115).
edge(26, 133).
edge(75, 92).
edge(73, 137).
edge(16, 125).
edge(75, 115).
edge(32, 132).
edge(35, 68).
edge(5, 32).
edge(28, 101).
edge(9, 33).
edge(37, 140).
edge(46, 75).
edge(21, 139).
edge(26, 94).
edge(129, 131).
edge(36, 73).
edge(27, 65).
edge(109, 141).
edge(41, 66).
edge(100, 137).
edge(45, 72).
edge(30, 77).
edge(56, 106).
edge(74, 129).
edge(16, 117).
edge(95, 129).
edge(117, 122).
edge(103, 144).
edge(103, 131).
edge(79, 121).
edge(69, 127).
edge(68, 123).
edge(76, 89).
edge(84, 101).
edge(78, 98).
edge(19, 76).
edge(58, 65).
edge(72, 119).
edge(50, 105).
edge(43, 86).
edge(12, 41).
edge(102, 120).
edge(20, 100).
edge(88, 128).
edge(42, 117).
edge(22, 127).
edge(2, 116).
edge(97, 138).
edge(5, 69).
edge(37, 108).
edge(57, 93).
edge(5, 124).
edge(17, 91).
edge(42, 127).
edge(27, 112).
edge(31, 45).
edge(108, 122).
edge(77, 113).
edge(49, 52).
edge(66, 126).
edge(98, 139).
edge(86, 106).
edge(21, 112).
edge(0, 18).
edge(29, 102).
edge(106, 132).
edge(34, 63).
edge(26, 142).
edge(37, 66).
edge(110, 116).
edge(65, 91).
edge(110, 139).
edge(122, 139).
edge(15, 103).
edge(10, 24).
edge(30, 105).
edge(19, 99).
edge(0, 50).
edge(90, 127).
edge(87, 105).
edge(41, 90).
edge(51, 122).
edge(70, 143).
edge(1, 104).
edge(62, 112).
edge(21, 133).
edge(11, 45).
edge(27, 32).
edge(0, 109).
edge(82, 95).
edge(29, 132).
edge(97, 141).
edge(44, 112).
edge(2, 75).
edge(40, 41).
edge(112, 114).
edge(123, 127).
edge(31, 43).
edge(16, 18).
edge(71, 79).
edge(95, 100).
edge(58, 135).
edge(0, 133).
edge(62, 104).
edge(11, 55).
edge(64, 77).
edge(44, 114).
edge(4, 80).
edge(72, 110).
edge(70, 102).
edge(7, 142).
edge(14, 62).
edge(38, 49).
edge(59, 95).
edge(34, 62).
edge(37, 90).
edge(65, 87).
edge(122, 132).
edge(2, 37).
edge(85, 116).
edge(66, 74).
edge(24, 52).
edge(59, 116).
edge(4, 88).
edge(110, 141).
edge(47, 98).
edge(7, 128).
edge(8, 17).
edge(96, 126).
edge(67, 74).
edge(26, 59).
edge(20, 53).
edge(45, 108).
edge(19, 51).
edge(94, 122).
edge(42, 114).
edge(19, 140).
edge(19, 61).
edge(37, 111).
edge(65, 123).
edge(66, 110).
edge(16, 135).
edge(11, 129).
edge(55, 65).
edge(14, 53).
edge(12, 15).
edge(108, 129).
edge(21, 96).
edge(120, 124).
edge(81, 141).
edge(15, 127).
edge(0, 6).
edge(102, 128).
edge(43, 136).
edge(43, 80).
edge(13, 114).
edge(3, 97).
edge(21, 129).
edge(31, 81).
edge(24, 90).
edge(12, 57).
edge(46, 138).
edge(0, 102).
edge(8, 138).
edge(18, 83).
edge(48, 111).
edge(7, 82).
edge(17, 121).
edge(31, 38).
edge(10, 39).
edge(21, 49).
edge(69, 116).
edge(2, 118).
edge(7, 30).
edge(100, 113).
edge(16, 48).
edge(39, 123).
edge(38, 83).
edge(27, 121).
edge(89, 118).
edge(14, 28).
edge(12, 77).
edge(27, 82).
edge(117, 142).
edge(32, 122).
edge(22, 139).
edge(51, 117).
edge(20, 136).
edge(35, 131).
edge(116, 123).
edge(52, 140).
edge(8, 33).
edge(46, 95).
edge(1, 119).
edge(48, 64).
edge(7, 94).
edge(23, 134).
edge(42, 109).
edge(20, 82).
edge(72, 85).
edge(104, 110).
edge(64, 80).
edge(4, 104).
edge(118, 127).
edge(62, 125).
edge(55, 89).
edge(64, 67).
edge(22, 71).
edge(139, 143).
edge(0, 139).
edge(13, 58).
edge(45, 120).
edge(13, 101).
edge(100, 111).
edge(54, 55).
edge(28, 123).
edge(80, 140).
edge(29, 109).
edge(46, 59).
edge(16, 126).
edge(7, 116).
edge(7, 62).
edge(26, 41).
edge(32, 34).
edge(8, 77).
edge(62, 118).
edge(0, 94).
edge(51, 63).
edge(50, 85).
edge(22, 131).
edge(13, 51).
edge(26, 138).
edge(92, 126).
edge(47, 106).
edge(90, 92).
edge(31, 92).
edge(16, 131).
edge(43, 126).
edge(14, 138).
edge(24, 94).
edge(11, 131).
edge(43, 94).
edge(58, 75).
edge(0, 117).
edge(94, 132).
edge(16, 51).
edge(38, 81).
edge(7, 36).
edge(114, 142).
edge(61, 122).
edge(32, 88).
edge(72, 78).
edge(56, 59).
edge(61, 126).
edge(59, 82).
edge(5, 139).
edge(34, 68).
edge(92, 98).
edge(20, 30).
edge(9, 67).
edge(2, 39).
edge(123, 125).
edge(20, 144).
edge(17, 100).
edge(67, 94).
edge(45, 86).
edge(55, 131).
edge(61, 95).
edge(51, 86).
edge(30, 142).
edge(90, 132).
edge(25, 100).
edge(48, 113).
edge(5, 66).
edge(79, 101).
edge(14, 107).
edge(63, 113).
edge(33, 54).
edge(29, 113).
edge(23, 100).
edge(8, 97).
edge(45, 118).
edge(34, 132).
edge(74, 133).
edge(2, 62).
edge(0, 91).
edge(56, 99).
edge(56, 75).
edge(59, 118).
edge(83, 87).
edge(18, 49).
edge(3, 130).
edge(23, 35).
edge(34, 67).
edge(30, 96).
edge(54, 74).
edge(23, 135).
edge(42, 99).
edge(7, 23).
edge(50, 71).
edge(64, 76).
edge(36, 88).
edge(93, 121).
edge(12, 59).
edge(60, 103).
edge(1, 143).
edge(97, 134).
edge(7, 83).
edge(10, 67).
edge(14, 18).
edge(127, 135).
edge(11, 15).
edge(18, 116).
edge(7, 91).
edge(7, 113).
edge(20, 51).
edge(68, 101).
edge(3, 49).
edge(93, 135).
edge(40, 122).
edge(70, 129).
edge(47, 123).
edge(37, 61).
edge(48, 144).
edge(2, 59).
edge(17, 117).
edge(47, 55).
edge(127, 139).
edge(37, 83).
edge(74, 91).
edge(59, 102).
edge(6, 22).
edge(12, 96).
edge(2, 103).
edge(29, 106).
edge(82, 118).
edge(23, 80).
edge(53, 117).
edge(30, 89).
edge(88, 139).
edge(48, 127).
edge(53, 89).
edge(3, 47).
edge(64, 135).
edge(63, 120).
edge(64, 83).
edge(2, 46).
edge(13, 24).
edge(108, 142).
edge(42, 133).
edge(32, 41).
edge(61, 96).
edge(33, 140).
edge(88, 110).
edge(107, 134).
edge(86, 96).
edge(86, 141).
edge(58, 91).
edge(16, 127).
edge(18, 41).
edge(69, 125).
edge(9, 114).
edge(78, 118).
edge(55, 135).
edge(6, 89).
edge(74, 89).
edge(56, 84).
edge(1, 41).
edge(116, 133).
edge(34, 58).
edge(83, 123).
edge(81, 90).
edge(13, 90).
edge(0, 9).
edge(35, 99).
edge(51, 77).
edge(18, 90).
edge(10, 113).
edge(67, 79).
edge(19, 105).
edge(75, 110).
edge(32, 98).
edge(29, 124).
edge(44, 54).
edge(109, 137).
edge(36, 111).
edge(3, 50).
edge(24, 76).
edge(21, 130).
edge(69, 81).
edge(24, 142).
edge(0, 13).
edge(20, 139).
edge(7, 13).
edge(94, 104).
edge(89, 141).
edge(18, 77).
edge(11, 40).
edge(112, 143).
edge(51, 123).
edge(94, 110).
edge(134, 142).
edge(17, 53).
edge(54, 66).
edge(8, 121).
edge(21, 63).
edge(54, 125).
edge(29, 86).
edge(37, 120).
edge(12, 84).
edge(85, 141).
edge(68, 132).
edge(8, 103).
edge(62, 73).
edge(5, 9).
edge(8, 30).
edge(38, 142).
edge(63, 85).
edge(108, 111).
edge(39, 91).
edge(103, 126).
edge(31, 111).
edge(71, 105).
edge(10, 45).
edge(85, 110).
edge(3, 104).
edge(132, 135).
edge(40, 94).
edge(34, 115).
edge(14, 68).
edge(65, 68).
edge(25, 40).
edge(48, 91).
edge(63, 136).
edge(15, 34).
edge(97, 115).
edge(51, 73).
edge(71, 83).
edge(38, 40).
edge(74, 110).
edge(11, 107).
edge(103, 120).
edge(30, 59).
edge(39, 143).
edge(0, 35).
edge(91, 136).
edge(28, 89).
edge(80, 129).
edge(92, 133).
edge(44, 92).
edge(15, 74).
edge(21, 144).
edge(61, 65).
edge(7, 125).
edge(68, 138).
edge(124, 131).
edge(32, 114).
edge(20, 70).
edge(7, 117).
edge(27, 72).
edge(105, 138).
edge(11, 52).
edge(22, 74).
edge(84, 122).
edge(64, 122).
edge(72, 118).
edge(2, 51).
edge(7, 123).
edge(35, 63).
edge(39, 90).
edge(72, 79).
edge(27, 99).
edge(126, 136).
edge(4, 86).
edge(44, 91).
edge(119, 135).
edge(27, 74).
edge(74, 85).
edge(0, 66).
edge(64, 132).
edge(48, 99).
edge(81, 119).
edge(29, 65).
edge(31, 48).
edge(69, 96).
edge(22, 69).
edge(22, 64).
edge(70, 77).
edge(70, 111).
edge(46, 103).
edge(126, 128).
edge(25, 127).
edge(109, 116).
edge(48, 112).
edge(86, 91).
edge(94, 140).
edge(129, 139).
edge(48, 88).
edge(88, 89).
edge(30, 138).
edge(122, 144).
edge(48, 74).
edge(38, 58).
edge(76, 119).
edge(27, 107).
edge(68, 73).
edge(74, 96).
edge(35, 37).
edge(61, 130).
edge(56, 115).
edge(3, 113).
edge(43, 51).
edge(52, 132).
edge(52, 110).
edge(118, 131).
edge(39, 64).
edge(113, 139).
edge(4, 108).
edge(40, 132).
edge(46, 104).
edge(12, 72).
edge(73, 85).
edge(22, 125).
edge(37, 81).
edge(33, 134).
edge(108, 120).
edge(59, 120).
edge(29, 127).
edge(97, 137).
edge(109, 129).
edge(62, 89).
edge(15, 112).
edge(0, 99).
edge(73, 136).
edge(5, 58).
edge(42, 108).
edge(76, 99).
edge(76, 105).
edge(54, 88).
edge(17, 60).
edge(34, 118).
edge(80, 103).
edge(86, 131).
edge(115, 119).
edge(10, 97).
edge(9, 75).
edge(3, 66).
edge(0, 36).
edge(52, 62).
edge(98, 120).
edge(62, 137).
edge(13, 143).
edge(23, 93).
edge(63, 106).
edge(53, 129).
edge(83, 102).
edge(74, 136).
edge(5, 14).
edge(33, 76).
edge(2, 86).
edge(26, 48).
edge(11, 98).
edge(36, 45).
edge(15, 24).
edge(75, 102).
edge(12, 100).
edge(19, 28).
edge(25, 129).
edge(11, 14).
edge(26, 95).
edge(51, 121).
edge(31, 90).
edge(42, 107).
edge(39, 67).
edge(11, 74).
edge(79, 91).
edge(20, 121).
edge(21, 36).
edge(55, 123).
edge(70, 79).
edge(124, 137).
edge(47, 100).
edge(23, 105).
edge(46, 92).
edge(94, 126).
edge(44, 71).
edge(46, 82).
edge(3, 21).
edge(28, 104).
edge(61, 77).
edge(36, 64).
edge(104, 143).
edge(45, 96).
edge(10, 42).
edge(94, 112).
edge(62, 114).
edge(21, 134).
edge(8, 26).
edge(0, 71).
edge(6, 62).
edge(97, 120).
edge(89, 106).
edge(21, 73).
edge(84, 99).
edge(12, 106).
edge(26, 128).
edge(11, 108).
edge(75, 139).
edge(91, 104).
edge(80, 107).
edge(19, 53).
edge(92, 130).
edge(8, 42).
edge(12, 78).
edge(7, 58).
edge(10, 93).
edge(43, 134).
edge(113, 131).
edge(46, 115).
edge(29, 116).
edge(62, 70).
edge(28, 37).
edge(50, 139).
edge(42, 90).
edge(38, 89).
edge(11, 128).
edge(66, 73).
edge(45, 98).
edge(65, 76).
edge(19, 118).
edge(82, 130).
edge(65, 71).
edge(11, 117).
edge(21, 71).
edge(71, 137).
edge(17, 59).
edge(37, 114).
edge(73, 130).
edge(39, 80).
edge(37, 105).
edge(65, 138).
edge(3, 119).
edge(101, 137).
edge(82, 129).
edge(31, 73).
edge(59, 103).
edge(74, 100).
edge(28, 67).
edge(23, 83).
edge(24, 29).
edge(41, 86).
edge(12, 132).
edge(35, 138).
edge(61, 120).
edge(57, 76).
edge(1, 4).
edge(30, 120).
edge(61, 125).
edge(15, 120).
edge(65, 108).
edge(17, 111).
edge(39, 126).
edge(12, 53).
edge(1, 44).
edge(20, 29).
edge(73, 132).
edge(56, 134).
edge(11, 102).
edge(27, 84).
edge(86, 124).
edge(70, 112).
edge(106, 123).
edge(1, 61).
edge(44, 65).
edge(76, 132).
edge(42, 66).
edge(45, 61).
edge(35, 71).
edge(55, 71).
edge(66, 138).
edge(24, 100).
edge(44, 108).
edge(48, 142).
edge(37, 67).
edge(28, 94).
edge(60, 87).
edge(91, 98).
edge(55, 126).
edge(93, 114).
edge(2, 35).
edge(44, 82).
edge(24, 123).
edge(41, 85).
edge(31, 130).
edge(17, 40).
edge(66, 107).
edge(105, 125).
edge(9, 14).
edge(78, 82).
edge(19, 80).
edge(95, 109).
edge(27, 94).
edge(2, 11).
edge(17, 99).
edge(25, 122).
edge(60, 101).
edge(119, 125).
edge(15, 39).
edge(114, 125).
edge(83, 118).
edge(7, 78).
edge(99, 121).
edge(18, 103).
edge(71, 85).
edge(35, 51).
edge(44, 100).
edge(29, 144).
edge(79, 92).
edge(22, 137).
edge(16, 30).
edge(82, 132).
edge(46, 108).
edge(0, 104).
edge(71, 142).
edge(126, 140).
edge(34, 65).
edge(74, 80).
edge(7, 37).
edge(93, 95).
edge(30, 90).
edge(59, 141).
edge(67, 118).
edge(24, 122).
edge(21, 69).
edge(78, 99).
edge(65, 104).
edge(78, 80).
edge(9, 99).
edge(66, 140).
edge(21, 115).
edge(69, 75).
edge(61, 91).
edge(90, 113).
edge(64, 129).
edge(64, 130).
edge(19, 141).
edge(15, 20).
edge(24, 116).
edge(10, 144).
edge(113, 124).
edge(48, 129).
edge(62, 113).
edge(114, 124).
edge(78, 102).
edge(46, 89).
edge(26, 120).
edge(104, 108).
edge(26, 63).
edge(44, 119).
edge(12, 36).
edge(24, 57).
edge(140, 143).
edge(26, 44).
edge(49, 108).
edge(71, 88).
edge(61, 86).
edge(42, 106).
edge(30, 82).
edge(2, 122).
edge(93, 128).
edge(3, 89).
edge(66, 124).
edge(43, 104).
edge(1, 132).
edge(65, 126).
edge(38, 134).
edge(43, 67).
edge(62, 132).
edge(60, 99).
edge(3, 110).
edge(2, 68).
edge(109, 117).
edge(34, 59).
edge(75, 128).
edge(68, 142).
edge(12, 33).
edge(26, 92).
edge(71, 138).
edge(15, 78).
edge(45, 126).
edge(52, 58).
edge(76, 142).
edge(79, 112).
edge(75, 144).
edge(12, 129).
edge(76, 118).
edge(68, 93).
edge(60, 104).
edge(55, 112).
edge(118, 121).
edge(27, 97).
edge(44, 75).
edge(55, 100).
edge(12, 67).
edge(11, 103).
edge(16, 21).
edge(28, 85).
edge(16, 133).
edge(77, 110).
edge(30, 92).
edge(74, 134).
edge(112, 125).
edge(24, 63).
edge(32, 45).
edge(86, 113).
edge(69, 70).
edge(20, 81).
edge(16, 103).
edge(63, 108).
edge(26, 85).
edge(41, 102).
edge(1, 47).
edge(31, 135).
edge(42, 123).
edge(125, 132).
edge(46, 77).
edge(78, 132).
edge(113, 114).
edge(72, 83).
edge(11, 22).
edge(6, 109).
edge(43, 96).
edge(13, 110).
edge(56, 117).
edge(51, 134).
edge(20, 57).
edge(92, 119).
edge(89, 93).
edge(67, 141).
edge(47, 140).
edge(25, 114).
edge(37, 86).
edge(51, 102).
edge(75, 122).
edge(43, 114).
edge(100, 114).
edge(36, 98).
edge(71, 93).
edge(73, 86).
edge(28, 105).
edge(71, 130).
edge(3, 68).
edge(65, 127).
edge(63, 100).
edge(28, 135).
edge(65, 73).
edge(129, 132).
edge(56, 111).
edge(76, 137).
edge(5, 53).
edge(34, 44).
edge(53, 137).
edge(78, 97).
edge(55, 132).
edge(35, 78).
edge(47, 72).
edge(123, 128).
edge(95, 116).
edge(3, 91).
edge(59, 113).
edge(118, 124).
edge(81, 130).
edge(101, 115).
edge(126, 130).
edge(49, 81).
edge(33, 124).
edge(86, 143).
edge(48, 120).
edge(22, 140).
edge(0, 77).
edge(59, 64).
edge(22, 25).
edge(10, 135).
edge(17, 32).
edge(66, 88).
edge(83, 106).
edge(4, 39).
edge(73, 113).
edge(105, 121).
edge(79, 144).
edge(76, 108).
edge(97, 99).
edge(21, 141).
edge(38, 122).
edge(51, 115).
edge(22, 96).
edge(66, 70).
edge(45, 123).
edge(100, 141).
edge(108, 132).
edge(51, 113).
edge(19, 71).
edge(74, 94).
edge(89, 137).
edge(49, 86).
edge(127, 138).
edge(32, 42).
edge(19, 119).
edge(33, 74).
edge(20, 42).
edge(41, 100).
edge(108, 121).
edge(69, 136).
edge(11, 124).
edge(36, 90).
edge(62, 123).
edge(26, 35).
edge(16, 115).
edge(53, 113).
edge(137, 139).
edge(4, 18).
edge(63, 135).
edge(65, 103).
edge(22, 30).
edge(118, 143).
edge(122, 130).
edge(71, 75).
edge(57, 108).
edge(96, 111).
edge(11, 19).
edge(18, 129).
edge(54, 138).
edge(1, 126).
edge(88, 120).
edge(39, 87).
edge(60, 61).
edge(2, 130).
edge(24, 82).
edge(27, 52).
edge(21, 27).
edge(7, 92).
edge(136, 144).
edge(74, 127).
edge(96, 133).
edge(80, 94).
edge(11, 86).
edge(127, 133).
edge(48, 122).
edge(10, 132).
edge(18, 100).
edge(54, 116).
edge(41, 107).
edge(88, 113).
edge(25, 33).
edge(45, 143).
edge(47, 142).
edge(39, 105).
edge(53, 116).
edge(10, 69).
edge(7, 131).
edge(17, 96).
edge(5, 48).
edge(36, 109).
edge(17, 104).
edge(42, 53).
edge(9, 60).
edge(1, 33).
edge(4, 57).
edge(56, 136).
edge(40, 63).
edge(52, 82).
edge(33, 56).
edge(0, 93).
edge(2, 79).
edge(71, 94).
edge(29, 87).
edge(78, 130).
edge(36, 42).
edge(79, 100).
edge(13, 132).
edge(83, 97).
edge(9, 97).
edge(29, 107).
edge(58, 140).
edge(24, 115).
edge(5, 77).
edge(62, 141).
edge(32, 69).
edge(96, 101).
edge(18, 107).
edge(45, 59).
edge(114, 140).
edge(7, 18).
edge(42, 64).
edge(32, 44).
edge(63, 104).
edge(73, 99).
edge(88, 100).
edge(34, 111).
edge(87, 132).
edge(32, 63).
edge(49, 56).
edge(24, 143).
edge(67, 89).
edge(95, 104).
edge(36, 54).
edge(92, 113).
edge(6, 45).
edge(114, 119).
edge(86, 125).
edge(8, 96).
edge(9, 36).
edge(29, 61).
edge(35, 69).
edge(45, 78).
edge(7, 85).
edge(32, 128).
edge(54, 62).
edge(3, 79).
edge(15, 135).
edge(94, 128).
edge(98, 102).
edge(66, 67).
edge(82, 113).
edge(95, 141).
edge(9, 112).
edge(78, 124).
edge(27, 69).
edge(14, 140).
edge(74, 105).
edge(115, 125).
edge(114, 129).
edge(79, 137).
edge(35, 119).
edge(48, 79).
edge(130, 143).
edge(52, 75).
edge(115, 118).
edge(76, 82).
edge(79, 97).
edge(22, 109).
edge(54, 129).
edge(51, 129).
edge(74, 132).
edge(27, 61).
edge(66, 97).
edge(39, 99).
edge(33, 128).
edge(50, 118).
edge(23, 131).
edge(13, 126).
edge(50, 92).
edge(15, 129).
edge(25, 28).
edge(126, 131).
edge(50, 99).
edge(60, 116).
edge(68, 74).
edge(72, 98).
edge(8, 85).
edge(87, 120).
edge(44, 133).
edge(85, 135).
edge(41, 131).
edge(36, 132).
edge(107, 143).
edge(85, 122).
edge(4, 69).
edge(35, 142).
edge(53, 99).
edge(54, 118).
edge(70, 107).
edge(2, 48).
edge(57, 89).
edge(4, 101).
edge(48, 57).
edge(55, 75).
edge(26, 91).
edge(66, 100).
edge(31, 56).
edge(91, 109).
edge(10, 84).
edge(6, 63).
edge(107, 122).
edge(54, 111).
edge(23, 118).
edge(18, 119).
edge(27, 71).
edge(25, 111).
edge(20, 24).
edge(20, 125).
edge(88, 104).
edge(105, 118).
edge(22, 120).
edge(13, 16).
edge(44, 70).
edge(40, 83).
edge(37, 41).
edge(63, 128).
edge(111, 126).
edge(12, 89).
edge(108, 139).
edge(36, 99).
edge(99, 126).
edge(39, 115).
edge(103, 124).
edge(27, 66).
edge(12, 91).
edge(31, 117).
edge(35, 57).
edge(51, 139).
edge(73, 116).
edge(34, 76).
edge(58, 66).
edge(70, 110).
edge(20, 59).
edge(72, 94).
edge(96, 103).
edge(133, 136).
edge(47, 141).
edge(20, 137).
edge(31, 113).
edge(18, 111).
edge(99, 140).
edge(33, 47).
edge(100, 118).
edge(44, 132).
edge(55, 124).
edge(6, 140).
edge(45, 62).
edge(13, 133).
edge(76, 131).
edge(23, 97).
edge(8, 118).
edge(45, 92).
edge(17, 106).
edge(98, 107).
edge(4, 66).
edge(55, 121).
edge(24, 47).
edge(52, 131).
edge(14, 122).
edge(39, 76).
edge(70, 115).
edge(81, 144).
edge(3, 34).
edge(7, 95).
edge(14, 37).
edge(78, 123).
edge(87, 102).
edge(73, 114).
edge(42, 120).
edge(43, 130).
edge(21, 102).
edge(1, 39).
edge(101, 108).
edge(82, 92).
edge(69, 124).
edge(49, 110).
edge(56, 137).
edge(86, 129).
edge(6, 79).
edge(73, 142).
edge(63, 84).
edge(20, 76).
edge(51, 83).
edge(31, 108).
edge(24, 111).
edge(102, 107).
edge(108, 117).
edge(107, 119).
weight(0, 11).
weight(1, 2).
weight(2, 5).
weight(3, 15).
weight(4, 6).
weight(5, 12).
weight(6, 19).
weight(7, 8).
weight(8, 20).
weight(9, 3).
weight(10, 9).
weight(11, 8).
weight(12, 9).
weight(13, 11).
weight(14, 7).
weight(15, 4).
weight(16, 13).
weight(17, 5).
weight(18, 9).
weight(19, 2).
weight(20, 15).
weight(21, 17).
weight(22, 18).
weight(23, 1).
weight(24, 13).
weight(25, 5).
weight(26, 14).
weight(27, 20).
weight(28, 11).
weight(29, 18).
weight(30, 7).
weight(31, 19).
weight(32, 18).
weight(33, 16).
weight(34, 5).
weight(35, 12).
weight(36, 20).
weight(37, 10).
weight(38, 3).
weight(39, 18).
weight(40, 18).
weight(41, 9).
weight(42, 7).
weight(43, 19).
weight(44, 10).
weight(45, 4).
weight(46, 6).
weight(47, 4).
weight(48, 10).
weight(49, 17).
weight(50, 1).
weight(51, 19).
weight(52, 17).
weight(53, 13).
weight(54, 7).
weight(55, 6).
weight(56, 16).
weight(57, 3).
weight(58, 11).
weight(59, 14).
weight(60, 17).
weight(61, 4).
weight(62, 13).
weight(63, 18).
weight(64, 14).
weight(65, 19).
weight(66, 18).
weight(67, 14).
weight(68, 16).
weight(69, 4).
weight(70, 15).
weight(71, 9).
weight(72, 15).
weight(73, 20).
weight(74, 16).
weight(75, 10).
weight(76, 14).
weight(77, 8).
weight(78, 4).
weight(79, 14).
weight(80, 10).
weight(81, 3).
weight(82, 19).
weight(83, 2).
weight(84, 19).
weight(85, 17).
weight(86, 14).
weight(87, 8).
weight(88, 6).
weight(89, 5).
weight(90, 7).
weight(91, 2).
weight(92, 2).
weight(93, 15).
weight(94, 5).
weight(95, 14).
weight(96, 16).
weight(97, 9).
weight(98, 15).
weight(99, 3).
weight(100, 10).
weight(101, 19).
weight(102, 20).
weight(103, 8).
weight(104, 13).
weight(105, 1).
weight(106, 6).
weight(107, 10).
weight(108, 10).
weight(109, 7).
weight(110, 14).
weight(111, 12).
weight(112, 15).
weight(113, 10).
weight(114, 9).
weight(115, 5).
weight(116, 8).
weight(117, 11).
weight(118, 16).
weight(119, 20).
weight(120, 19).
weight(121, 13).
weight(122, 9).
weight(123, 6).
weight(124, 8).
weight(125, 17).
weight(126, 10).
weight(127, 15).
weight(128, 11).
weight(129, 16).
weight(130, 14).
weight(131, 9).
weight(132, 9).
weight(133, 14).
weight(134, 8).
weight(135, 14).
weight(136, 2).
weight(137, 13).
weight(138, 11).
weight(139, 14).
weight(140, 15).
weight(141, 8).
weight(142, 15).
weight(143, 4).
weight(144, 9).

{in(V)} :- node(V).
:- in(U), in(V), U < V, not edge(U,V).
:~ not in(V), weight(V,W). [W@1,V]
