node(0..144).
edge(27, 121).
edge(44, 59).
edge(13, 15).
edge(15, 35).
edge(50, 56).
edge(43, 134).
edge(25, 37).
edge(33, 46).
edge(9, 70).
edge(30, 130).
edge(10, 16).
edge(24, 44).
edge(101, 113).
edge(108, 121).
edge(17, 34).
edge(30, 124).
edge(102, 129).
edge(10, 76).
edge(7, 27).
edge(34, 85).
edge(15, 30).
edge(19, 77).
edge(55, 90).
edge(12, 128).
edge(19, 112).
edge(3, 15).
edge(130, 136).
edge(49, 139).
edge(17, 23).
edge(45, 126).
edge(35, 144).
edge(24, 25).
edge(111, 140).
edge(115, 133).
edge(63, 109).
edge(82, 94).
edge(109, 124).
edge(103, 104).
edge(64, 110).
edge(70, 87).
edge(137, 139).
edge(66, 95).
edge(3, 31).
edge(12, 66).
edge(45, 73).
edge(81, 119).
edge(58, 60).
edge(26, 111).
edge(55, 140).
edge(31, 101).
edge(58, 108).
edge(72, 100).
edge(7, 73).
edge(99, 137).
edge(102, 103).
edge(4, 53).
edge(65, 135).
edge(98, 105).
edge(36, 63).
edge(96, 101).
edge(29, 48).
edge(39, 56).
edge(34, 95).
edge(52, 120).
edge(7, 103).
edge(45, 118).
edge(27, 107).
edge(75, 90).
edge(22, 126).
edge(24, 98).
edge(34, 93).
edge(11, 74).
edge(21, 76).
edge(56, 64).
edge(100, 122).
edge(14, 111).
edge(4, 75).
edge(15, 60).
edge(65, 117).
edge(27, 135).
edge(77, 91).
edge(59, 99).
edge(125, 134).
edge(1, 65).
edge(110, 113).
edge(28, 144).
edge(9, 41).
edge(73, 86).
edge(18, 83).
edge(33, 41).
edge(62, 143).
edge(128, 131).
edge(9, 142).
edge(24, 63).
edge(19, 58).
edge(47, 105).
edge(29, 92).
edge(27, 93).
edge(89, 139).
edge(23, 39).
edge(46, 103).
edge(23, 116).
edge(83, 92).
edge(13, 113).
edge(1, 137).
edge(57, 100).
edge(46, 134).
edge(39, 65).
edge(41, 102).
edge(48, 125).
edge(35, 139).
edge(19, 76).
edge(115, 119).
edge(99, 128).
edge(88, 144).
edge(21, 39).
edge(86, 91).
edge(78, 80).
edge(67, 117).
edge(71, 141).
edge(43, 121).
edge(68, 110).
edge(87, 130).
edge(63, 111).
edge(50, 144).
edge(11, 15).
edge(77, 88).
edge(80, 117).
edge(64, 66).
edge(81, 102).
edge(4, 74).
edge(87, 127).
edge(59, 72).
edge(68, 74).
edge(9, 108).
edge(11, 93).
edge(104, 116).
edge(60, 131).
edge(38, 113).
edge(44, 61).
edge(67, 118).
edge(57, 93).
edge(92, 99).
edge(73, 79).
edge(20, 30).
edge(20, 136).
edge(127, 140).
edge(22, 127).
edge(101, 115).
edge(56, 109).
edge(31, 32).
edge(44, 73).
edge(79, 92).
edge(32, 136).
edge(29, 121).
edge(30, 82).
edge(80, 124).
edge(75, 79).
edge(90, 113).
edge(24, 96).
edge(6, 107).
edge(82, 140).
edge(70, 74).
edge(6, 86).
edge(58, 138).
edge(59, 81).
edge(13, 25).
edge(26, 57).
edge(7, 135).
edge(106, 135).
edge(103, 119).
edge(26, 109).
edge(40, 86).
edge(95, 108).
edge(37, 107).
edge(11, 130).
edge(91, 111).
edge(19, 36).
edge(6, 104).
edge(33, 128).
edge(36, 128).
edge(110, 123).
edge(75, 88).
edge(138, 142).
edge(59, 64).
edge(28, 52).
edge(44, 49).
edge(38, 119).
edge(59, 96).
edge(48, 108).
edge(42, 100).
edge(8, 96).
edge(22, 52).
edge(64, 68).
edge(7, 128).
edge(72, 129).
edge(52, 72).
edge(47, 64).
edge(72, 99).
edge(41, 116).
edge(69, 86).
edge(44, 119).
edge(106, 129).
edge(35, 83).
edge(68, 122).
edge(112, 113).
edge(31, 40).
edge(52, 143).
edge(71, 105).
edge(16, 88).
edge(28, 78).
edge(96, 117).
edge(86, 117).
edge(54, 55).
edge(18, 75).
edge(76, 135).
edge(69, 118).
edge(51, 109).
edge(35, 62).
edge(28, 41).
edge(12, 116).
edge(80, 141).
edge(7, 98).
edge(6, 88).
edge(20, 93).
edge(15, 133).
edge(70, 111).
edge(25, 46).
edge(48, 107).
edge(3, 77).
edge(77, 120).
edge(89, 144).
edge(113, 127).
edge(81, 83).
edge(41, 76).
edge(68, 100).
edge(59, 89).
edge(73, 127).
edge(22, 27).
edge(42, 43).
edge(37, 85).
edge(113, 141).
edge(61, 71).
edge(64, 129).
edge(9, 19).
edge(60, 104).
edge(5, 109).
edge(48, 70).
edge(50, 67).
edge(43, 62).
edge(3, 136).
edge(41, 105).
edge(12, 22).
edge(68, 112).
edge(27, 131).
edge(0, 119).
edge(56, 106).
edge(29, 63).
edge(76, 116).
edge(124, 129).
edge(60, 123).
edge(74, 140).
edge(72, 122).
edge(26, 39).
edge(96, 108).
edge(50, 139).
edge(75, 104).
edge(35, 39).
edge(88, 138).
edge(3, 70).
edge(15, 131).
edge(96, 132).
edge(9, 40).
edge(38, 104).
edge(102, 110).
edge(86, 132).
edge(124, 133).
edge(8, 62).
edge(65, 131).
edge(88, 89).
edge(45, 70).
edge(15, 58).
edge(65, 94).
edge(6, 139).
edge(11, 114).
edge(8, 98).
edge(79, 105).
edge(2, 75).
edge(121, 139).
edge(52, 112).
edge(9, 16).
edge(33, 88).
edge(48, 52).
edge(70, 75).
edge(26, 78).
edge(60, 88).
edge(92, 121).
edge(24, 68).
edge(34, 96).
edge(52, 127).
edge(7, 77).
edge(21, 101).
edge(14, 106).
edge(117, 128).
edge(92, 133).
edge(66, 68).
edge(29, 114).
edge(25, 56).
edge(32, 125).
edge(38, 42).
edge(35, 137).
edge(32, 36).
edge(101, 131).
edge(36, 79).
edge(39, 63).
edge(26, 69).
edge(41, 115).
edge(19, 82).
edge(51, 140).
edge(25, 27).
edge(6, 64).
edge(101, 122).
edge(13, 26).
edge(45, 48).
edge(52, 54).
edge(120, 124).
edge(37, 79).
edge(42, 64).
edge(14, 24).
edge(19, 39).
edge(67, 97).
edge(70, 86).
edge(48, 87).
edge(97, 137).
edge(86, 94).
edge(37, 121).
edge(8, 128).
edge(23, 110).
edge(92, 98).
edge(108, 113).
edge(62, 84).
edge(16, 72).
edge(13, 114).
edge(46, 47).
edge(18, 43).
edge(68, 121).
edge(35, 136).
edge(2, 94).
edge(0, 49).
edge(37, 99).
edge(114, 126).
edge(48, 114).
edge(42, 113).
edge(82, 116).
edge(64, 121).
edge(26, 93).
edge(30, 135).
edge(28, 122).
edge(75, 98).
edge(39, 95).
edge(53, 68).
edge(6, 24).
edge(58, 107).
edge(26, 45).
edge(43, 56).
edge(14, 79).
edge(12, 129).
edge(25, 90).
edge(15, 17).
edge(82, 144).
edge(18, 107).
edge(51, 134).
edge(24, 71).
edge(79, 118).
edge(18, 32).
edge(98, 122).
edge(30, 134).
edge(60, 65).
edge(16, 65).
edge(44, 135).
edge(1, 128).
edge(49, 79).
edge(51, 52).
edge(28, 141).
edge(4, 103).
edge(100, 124).
edge(12, 67).
edge(37, 76).
edge(2, 121).
edge(38, 78).
edge(94, 119).
edge(92, 108).
edge(3, 20).
edge(24, 72).
edge(65, 119).
edge(0, 57).
edge(80, 108).
edge(5, 143).
edge(5, 20).
edge(43, 49).
edge(56, 78).
edge(130, 134).
edge(1, 109).
edge(4, 129).
edge(117, 131).
edge(40, 71).
edge(89, 99).
edge(6, 15).
edge(11, 85).
edge(88, 115).
edge(110, 119).
edge(21, 103).
edge(57, 97).
edge(125, 130).
edge(41, 126).
edge(102, 112).
edge(25, 60).
edge(30, 104).
edge(13, 93).
edge(32, 104).
edge(4, 38).
edge(95, 140).
edge(78, 103).
edge(35, 48).
edge(105, 139).
edge(7, 58).
edge(8, 20).
edge(26, 99).
edge(72, 106).
edge(9, 29).
edge(78, 130).
edge(63, 71).
edge(4, 117).
edge(98, 119).
edge(1, 141).
edge(33, 54).
edge(22, 70).
edge(7, 82).
edge(40, 141).
edge(78, 132).
edge(0, 127).
edge(3, 76).
edge(53, 117).
edge(18, 30).
edge(97, 127).
edge(8, 52).
edge(20, 75).
edge(52, 74).
edge(51, 114).
edge(29, 111).
edge(32, 142).
edge(74, 138).
edge(14, 38).
edge(77, 94).
edge(83, 111).
edge(39, 90).
edge(23, 126).
edge(45, 87).
edge(47, 65).
edge(45, 95).
edge(112, 119).
edge(26, 116).
edge(30, 61).
edge(102, 140).
edge(47, 71).
edge(74, 91).
edge(77, 126).
edge(84, 118).
edge(68, 106).
edge(85, 116).
edge(9, 128).
edge(67, 123).
edge(17, 137).
edge(14, 75).
edge(10, 100).
edge(2, 126).
edge(9, 78).
edge(93, 104).
edge(10, 37).
edge(51, 58).
edge(54, 66).
edge(95, 117).
edge(62, 104).
edge(91, 109).
edge(22, 67).
edge(64, 116).
edge(117, 120).
edge(37, 109).
edge(74, 83).
edge(0, 107).
edge(11, 64).
edge(47, 86).
edge(70, 136).
edge(44, 97).
edge(109, 136).
edge(15, 137).
edge(71, 128).
edge(61, 89).
edge(25, 138).
edge(41, 78).
edge(31, 73).
edge(39, 124).
edge(42, 85).
edge(118, 120).
edge(120, 121).
edge(96, 103).
edge(64, 140).
edge(73, 97).
edge(8, 93).
edge(68, 111).
edge(133, 137).
edge(12, 73).
edge(57, 77).
edge(37, 113).
edge(11, 137).
edge(104, 128).
edge(18, 63).
edge(21, 109).
edge(1, 79).
edge(52, 69).
edge(71, 126).
edge(1, 51).
edge(41, 128).
edge(92, 130).
edge(49, 89).
edge(63, 125).
edge(72, 117).
edge(53, 135).
edge(113, 140).
edge(43, 104).
edge(5, 68).
edge(4, 47).
edge(105, 122).
edge(67, 95).
edge(75, 106).
edge(133, 142).
edge(66, 138).
edge(15, 98).
edge(6, 27).
edge(77, 130).
edge(30, 36).
edge(48, 88).
edge(20, 129).
edge(23, 59).
edge(36, 78).
edge(118, 142).
edge(37, 80).
edge(29, 119).
edge(17, 62).
edge(118, 128).
edge(14, 45).
edge(46, 64).
edge(64, 98).
edge(40, 123).
edge(64, 71).
edge(70, 120).
edge(47, 53).
edge(49, 53).
edge(9, 133).
edge(33, 107).
edge(5, 140).
edge(77, 132).
edge(6, 58).
edge(16, 66).
edge(37, 104).
edge(54, 136).
edge(94, 128).
edge(21, 31).
edge(7, 46).
edge(47, 124).
edge(54, 65).
edge(47, 96).
edge(76, 132).
edge(72, 138).
edge(20, 94).
edge(31, 56).
edge(60, 86).
edge(7, 45).
edge(27, 64).
edge(70, 95).
edge(12, 25).
edge(21, 132).
edge(88, 118).
edge(34, 114).
edge(2, 137).
edge(132, 137).
edge(16, 118).
edge(11, 43).
edge(55, 107).
edge(110, 128).
edge(30, 32).
edge(22, 54).
edge(12, 108).
edge(74, 124).
edge(78, 137).
edge(60, 124).
edge(30, 129).
edge(103, 133).
edge(13, 99).
edge(80, 113).
edge(91, 120).
edge(59, 130).
edge(33, 109).
edge(50, 143).
edge(61, 141).
edge(35, 142).
edge(34, 134).
edge(24, 111).
edge(112, 142).
edge(1, 112).
edge(78, 107).
edge(59, 94).
edge(114, 139).
edge(35, 111).
edge(38, 107).
edge(133, 144).
edge(6, 60).
edge(41, 138).
edge(78, 121).
edge(74, 112).
edge(42, 79).
edge(19, 119).
edge(33, 62).
edge(60, 120).
edge(11, 67).
edge(63, 137).
edge(24, 108).
edge(17, 21).
edge(9, 76).
edge(97, 121).
edge(41, 74).
edge(21, 97).
edge(89, 127).
edge(42, 68).
edge(37, 73).
edge(42, 141).
edge(2, 36).
edge(34, 81).
edge(30, 127).
edge(23, 89).
edge(76, 89).
edge(64, 128).
edge(11, 133).
edge(0, 61).
edge(132, 134).
edge(11, 70).
edge(3, 61).
edge(48, 72).
edge(92, 110).
edge(31, 142).
edge(20, 35).
edge(17, 96).
edge(2, 84).
edge(48, 135).
edge(50, 54).
edge(46, 77).
edge(52, 104).
edge(60, 83).
edge(65, 74).
edge(40, 85).
edge(2, 60).
edge(50, 111).
edge(37, 127).
edge(61, 128).
edge(52, 58).
edge(74, 139).
edge(11, 62).
edge(54, 93).
edge(16, 104).
edge(17, 106).
edge(47, 89).
edge(40, 46).
edge(26, 79).
edge(103, 124).
edge(15, 27).
edge(103, 121).
edge(1, 71).
edge(60, 74).
edge(54, 80).
edge(86, 88).
edge(92, 125).
edge(8, 50).
edge(84, 113).
edge(48, 126).
edge(34, 39).
edge(39, 141).
edge(75, 94).
edge(6, 138).
edge(6, 69).
edge(64, 113).
edge(13, 130).
edge(55, 92).
edge(8, 144).
edge(73, 75).
edge(28, 42).
edge(113, 129).
edge(5, 136).
edge(36, 56).
edge(1, 125).
edge(69, 81).
edge(11, 90).
edge(87, 96).
edge(35, 141).
edge(128, 132).
edge(37, 125).
edge(4, 139).
edge(56, 113).
edge(22, 47).
edge(94, 144).
edge(35, 79).
edge(25, 141).
edge(54, 83).
edge(2, 115).
edge(103, 108).
edge(55, 114).
edge(68, 114).
edge(13, 95).
edge(38, 86).
edge(47, 61).
edge(46, 122).
edge(8, 38).
edge(53, 56).
edge(82, 87).
edge(69, 123).
edge(57, 117).
edge(8, 19).
edge(87, 141).
edge(120, 136).
edge(100, 129).
edge(80, 136).
edge(79, 143).
edge(15, 44).
edge(21, 114).
edge(10, 73).
edge(40, 125).
edge(21, 47).
edge(66, 118).
edge(53, 84).
edge(3, 102).
edge(5, 63).
edge(80, 111).
edge(13, 96).
edge(109, 129).
edge(35, 128).
edge(93, 100).
edge(80, 97).
edge(18, 53).
edge(40, 83).
edge(105, 120).
edge(8, 17).
edge(67, 116).
edge(112, 137).
edge(102, 111).
edge(43, 126).
edge(56, 70).
edge(96, 107).
edge(51, 54).
edge(11, 91).
edge(67, 87).
edge(35, 49).
edge(3, 96).
edge(11, 28).
edge(42, 116).
edge(95, 114).
edge(76, 131).
edge(91, 110).
edge(75, 77).
edge(23, 115).
edge(70, 77).
edge(75, 131).
edge(85, 120).
edge(14, 105).
edge(135, 137).
edge(106, 127).
edge(5, 18).
edge(91, 100).
edge(76, 91).
edge(55, 123).
edge(62, 94).
edge(75, 132).
edge(78, 84).
edge(12, 49).
edge(33, 66).
edge(23, 122).
edge(2, 55).
edge(25, 92).
edge(20, 36).
edge(108, 137).
edge(67, 92).
edge(92, 96).
edge(42, 139).
edge(60, 78).
edge(11, 69).
edge(36, 88).
edge(110, 125).
edge(35, 73).
edge(38, 96).
edge(51, 103).
edge(56, 124).
edge(73, 93).
edge(54, 85).
edge(32, 99).
edge(0, 5).
edge(93, 115).
edge(44, 63).
edge(82, 126).
edge(19, 64).
edge(46, 138).
edge(5, 106).
edge(108, 112).
edge(70, 115).
edge(61, 98).
edge(79, 107).
edge(76, 77).
edge(114, 119).
edge(71, 94).
edge(37, 105).
edge(52, 123).
edge(117, 144).
edge(78, 108).
edge(19, 34).
edge(39, 61).
edge(37, 67).
edge(18, 51).
edge(14, 27).
edge(56, 67).
edge(25, 81).
edge(120, 126).
edge(66, 105).
edge(8, 94).
edge(83, 95).
edge(24, 107).
edge(68, 71).
edge(17, 78).
edge(20, 44).
edge(88, 136).
edge(5, 131).
edge(18, 65).
edge(45, 51).
edge(67, 135).
edge(19, 85).
edge(29, 113).
edge(49, 87).
edge(24, 114).
edge(61, 99).
edge(32, 139).
edge(60, 94).
edge(15, 90).
edge(48, 59).
edge(108, 111).
edge(18, 76).
edge(55, 136).
edge(13, 42).
edge(27, 112).
edge(87, 99).
edge(25, 120).
edge(32, 38).
edge(47, 143).
edge(87, 102).
edge(2, 90).
edge(0, 144).
edge(14, 61).
edge(92, 111).
edge(32, 85).
edge(29, 60).
edge(69, 129).
edge(17, 144).
edge(56, 120).
edge(38, 48).
edge(24, 136).
edge(1, 26).
edge(31, 128).
edge(9, 36).
edge(89, 113).
edge(98, 140).
edge(31, 129).
edge(88, 132).
edge(1, 33).
edge(21, 90).
edge(71, 100).
edge(23, 35).
edge(58, 85).
edge(36, 54).
edge(55, 57).
edge(61, 95).
edge(2, 43).
edge(41, 69).
edge(22, 36).
edge(24, 112).
edge(91, 113).
edge(37, 87).
edge(1, 35).
edge(6, 100).
edge(34, 98).
edge(2, 97).
edge(32, 98).
edge(100, 121).
edge(46, 112).
edge(66, 113).
edge(26, 95).
edge(73, 133).
edge(6, 19).
edge(90, 96).
edge(12, 122).
edge(51, 133).
edge(100, 115).
edge(21, 127).
edge(5, 58).
edge(28, 32).
edge(65, 82).
edge(35, 99).
edge(104, 121).
edge(82, 108).
edge(58, 103).
edge(123, 143).
edge(21, 41).
edge(17, 54).
edge(52, 125).
edge(3, 81).
edge(32, 53).
edge(77, 135).
edge(55, 116).
edge(37, 58).
edge(33, 136).
edge(17, 138).
edge(77, 87).
edge(121, 137).
edge(11, 60).
edge(107, 114).
edge(61, 96).
edge(58, 141).
edge(15, 28).
edge(33, 51).
edge(27, 91).
edge(20, 73).
edge(18, 21).
edge(3, 5).
edge(66, 99).
edge(76, 102).
edge(1, 48).
edge(89, 91).
edge(33, 76).
edge(16, 56).
edge(91, 137).
edge(61, 117).
edge(112, 129).
edge(81, 101).
edge(7, 42).
edge(28, 62).
edge(56, 100).
edge(11, 68).
edge(6, 46).
edge(7, 107).
edge(73, 115).
edge(35, 81).
edge(33, 69).
edge(57, 59).
edge(0, 36).
edge(72, 93).
edge(39, 62).
edge(87, 105).
edge(40, 48).
edge(14, 119).
edge(126, 142).
edge(25, 140).
edge(52, 119).
edge(101, 142).
edge(21, 91).
edge(5, 55).
edge(51, 141).
edge(91, 105).
edge(108, 114).
edge(6, 79).
edge(86, 118).
edge(7, 83).
edge(6, 111).
edge(34, 139).
edge(7, 63).
edge(15, 66).
edge(129, 144).
edge(55, 130).
edge(122, 135).
edge(72, 101).
edge(13, 19).
edge(24, 39).
edge(33, 84).
edge(66, 94).
edge(41, 100).
edge(3, 16).
edge(25, 67).
edge(8, 102).
edge(44, 143).
edge(9, 46).
edge(70, 93).
edge(29, 56).
edge(37, 50).
edge(8, 99).
edge(102, 126).
edge(40, 44).
edge(43, 120).
edge(49, 124).
edge(20, 110).
edge(108, 127).
edge(38, 110).
edge(94, 139).
edge(105, 140).
edge(96, 122).
edge(58, 72).
edge(67, 76).
edge(26, 83).
edge(59, 92).
edge(37, 82).
edge(43, 110).
edge(1, 133).
edge(73, 91).
edge(57, 72).
edge(55, 83).
edge(22, 110).
edge(63, 113).
edge(74, 80).
edge(15, 59).
edge(38, 98).
edge(9, 104).
edge(41, 85).
edge(32, 61).
edge(109, 119).
edge(24, 133).
edge(38, 53).
edge(103, 106).
edge(91, 95).
edge(60, 134).
edge(93, 126).
edge(65, 127).
edge(34, 110).
edge(25, 43).
edge(72, 107).
edge(97, 113).
edge(62, 120).
edge(102, 114).
edge(111, 144).
edge(91, 144).
edge(15, 140).
edge(44, 134).
edge(54, 77).
edge(51, 126).
edge(17, 30).
edge(17, 80).
edge(124, 136).
edge(84, 94).
edge(51, 64).
edge(74, 114).
edge(118, 135).
edge(51, 89).
edge(20, 140).
edge(83, 93).
edge(119, 143).
edge(57, 132).
edge(12, 85).
edge(22, 120).
edge(17, 131).
edge(33, 96).
edge(9, 95).
edge(27, 95).
edge(31, 136).
edge(41, 57).
edge(25, 75).
edge(84, 92).
edge(71, 122).
edge(18, 19).
edge(10, 29).
edge(31, 97).
edge(26, 100).
edge(5, 72).
edge(21, 140).
edge(24, 40).
edge(71, 132).
edge(60, 75).
edge(17, 109).
edge(47, 50).
edge(67, 144).
edge(109, 140).
edge(66, 125).
edge(104, 109).
edge(21, 28).
edge(41, 82).
edge(50, 125).
edge(64, 123).
edge(58, 90).
edge(15, 143).
edge(74, 86).
edge(48, 101).
edge(31, 134).
edge(140, 143).
edge(11, 119).
edge(74, 108).
edge(50, 76).
edge(1, 45).
edge(4, 56).
edge(52, 102).
edge(43, 89).
edge(17, 75).
edge(29, 131).
edge(0, 93).
edge(107, 140).
edge(54, 139).
edge(40, 50).
edge(72, 131).
edge(45, 58).
edge(108, 131).
edge(50, 61).
edge(26, 65).
edge(25, 41).
edge(33, 60).
edge(79, 138).
edge(17, 36).
edge(5, 54).
edge(6, 59).
edge(65, 72).
edge(67, 91).
edge(42, 105).
edge(54, 129).
edge(84, 131).
edge(22, 71).
edge(97, 98).
edge(7, 23).
edge(16, 96).
edge(39, 40).
edge(18, 93).
edge(42, 80).
edge(27, 141).
edge(74, 132).
edge(20, 113).
edge(101, 120).
edge(74, 126).
edge(25, 123).
edge(13, 52).
edge(49, 66).
edge(38, 89).
edge(127, 136).
edge(31, 65).
edge(9, 103).
edge(66, 124).
edge(59, 117).
edge(49, 55).
edge(0, 54).
edge(85, 94).
edge(27, 39).
edge(34, 97).
edge(24, 62).
edge(9, 64).
edge(83, 113).
edge(46, 121).
edge(8, 116).
edge(44, 66).
edge(12, 132).
edge(19, 131).
edge(69, 94).
edge(47, 116).
edge(65, 101).
edge(87, 120).
edge(20, 119).
edge(68, 116).
edge(7, 30).
edge(2, 3).
edge(21, 60).
edge(92, 115).
edge(32, 123).
edge(22, 61).
edge(84, 100).
edge(91, 129).
edge(41, 90).
edge(52, 68).
edge(43, 123).
edge(58, 84).
edge(74, 92).
edge(1, 114).
edge(41, 64).
edge(85, 125).
edge(66, 102).
edge(92, 118).
edge(37, 42).
edge(85, 127).
edge(45, 103).
edge(93, 140).
edge(37, 103).
edge(71, 116).
edge(14, 30).
edge(20, 141).
edge(49, 100).
edge(19, 24).
edge(35, 107).
edge(1, 14).
edge(40, 138).
edge(48, 78).
edge(65, 143).
edge(28, 114).
edge(86, 140).
edge(74, 88).
edge(106, 132).
edge(44, 142).
edge(20, 117).
edge(2, 31).
edge(95, 138).
edge(72, 119).
edge(65, 108).
edge(24, 26).
edge(44, 131).
edge(52, 101).
edge(13, 142).
edge(19, 83).
edge(23, 26).
edge(66, 144).
edge(79, 134).
edge(50, 133).
edge(51, 79).
edge(0, 19).
edge(58, 121).
edge(62, 125).
edge(37, 137).
edge(21, 29).
edge(25, 50).
edge(53, 82).
edge(19, 109).
edge(63, 69).
edge(19, 140).
edge(91, 141).
edge(49, 85).
edge(12, 71).
edge(77, 110).
edge(14, 117).
edge(27, 100).
edge(5, 133).
edge(107, 143).
edge(41, 137).
edge(63, 127).
edge(20, 78).
edge(15, 86).
edge(35, 61).
edge(79, 82).
edge(16, 92).
edge(18, 92).
edge(96, 128).
edge(35, 123).
edge(45, 99).
edge(28, 72).
edge(91, 125).
edge(59, 124).
edge(108, 109).
edge(58, 70).
edge(47, 81).
edge(47, 119).
edge(7, 129).
edge(23, 71).
edge(65, 142).
edge(104, 124).
edge(8, 121).
edge(69, 100).
edge(76, 112).
edge(31, 37).
edge(45, 123).
edge(3, 94).
edge(50, 100).
edge(56, 85).
edge(26, 108).
edge(1, 113).
edge(15, 89).
edge(65, 96).
edge(104, 106).
edge(55, 137).
edge(8, 114).
edge(22, 33).
edge(93, 129).
edge(13, 29).
edge(72, 108).
edge(99, 115).
edge(15, 46).
edge(30, 100).
edge(11, 47).
edge(5, 32).
edge(66, 96).
edge(108, 132).
edge(78, 135).
edge(19, 108).
edge(38, 74).
edge(29, 75).
edge(41, 132).
edge(79, 122).
edge(36, 125).
edge(4, 45).
edge(53, 102).
edge(68, 82).
edge(0, 97).
edge(8, 91).
edge(46, 135).
edge(95, 130).
edge(1, 5).
edge(40, 129).
edge(12, 20).
edge(19, 113).
edge(53, 70).
edge(38, 140).
edge(52, 91).
edge(57, 90).
edge(64, 92).
edge(111, 122).
edge(29, 86).
edge(101, 126).
edge(103, 123).
edge(82, 89).
edge(26, 106).
edge(40, 110).
edge(62, 75).
edge(90, 133).
edge(29, 120).
edge(81, 133).
edge(13, 128).
edge(5, 19).
edge(45, 117).
edge(36, 112).
edge(60, 105).
edge(33, 49).
edge(7, 133).
edge(37, 45).
edge(7, 74).
edge(99, 135).
edge(7, 67).
edge(6, 80).
edge(53, 54).
edge(58, 80).
edge(32, 75).
edge(57, 135).
edge(2, 64).
edge(49, 116).
edge(21, 67).
edge(45, 108).
edge(66, 134).
edge(52, 140).
edge(38, 130).
edge(91, 131).
edge(40, 139).
edge(63, 66).
edge(49, 74).
edge(18, 105).
edge(88, 106).
edge(0, 14).
edge(80, 96).
edge(29, 51).
edge(20, 105).
edge(83, 143).
edge(77, 97).
edge(15, 99).
edge(31, 52).
edge(54, 87).
edge(26, 48).
edge(100, 119).
edge(15, 62).
edge(47, 75).
edge(106, 136).
edge(51, 74).
edge(82, 106).
edge(58, 62).
edge(54, 61).
edge(31, 90).
edge(45, 52).
edge(28, 104).
edge(77, 99).
edge(50, 71).
edge(51, 131).
edge(121, 131).
edge(104, 143).
edge(5, 94).
edge(80, 128).
edge(0, 130).
edge(98, 114).
edge(9, 56).
edge(20, 102).
edge(10, 123).
edge(55, 135).
edge(33, 130).
edge(93, 119).
edge(79, 113).
edge(35, 89).
edge(28, 119).
edge(67, 94).
edge(98, 113).
edge(93, 138).
edge(62, 101).
edge(47, 66).
edge(79, 130).
edge(2, 6).
edge(34, 55).
edge(68, 73).
edge(67, 143).
edge(43, 75).
edge(11, 12).
edge(66, 142).
edge(77, 141).
edge(13, 64).
edge(42, 142).
edge(5, 103).
edge(88, 112).
edge(80, 140).
edge(26, 123).
edge(2, 28).
edge(9, 114).
edge(21, 106).
edge(53, 110).
edge(29, 68).
edge(73, 112).
edge(0, 80).
edge(128, 138).
edge(13, 137).
edge(10, 89).
edge(34, 60).
edge(87, 93).
edge(24, 125).
edge(36, 44).
edge(58, 99).
edge(47, 78).
edge(31, 114).
edge(74, 143).
edge(63, 108).
edge(13, 65).
edge(30, 81).
edge(19, 90).
edge(70, 99).
edge(58, 139).
edge(1, 40).
edge(80, 133).
edge(139, 143).
edge(103, 143).
edge(56, 58).
edge(94, 99).
edge(28, 73).
edge(36, 48).
edge(59, 128).
edge(12, 103).
edge(24, 57).
edge(11, 122).
edge(98, 139).
edge(2, 56).
edge(39, 109).
edge(31, 135).
edge(3, 43).
edge(35, 50).
edge(8, 26).
edge(113, 137).
edge(7, 111).
edge(88, 143).
edge(64, 81).
edge(96, 111).
edge(8, 143).
edge(6, 142).
edge(93, 109).
edge(29, 102).
edge(79, 128).
edge(33, 112).
edge(31, 104).
edge(74, 122).
edge(55, 78).
edge(37, 138).
edge(47, 128).
edge(35, 66).
edge(83, 118).
edge(85, 89).
edge(46, 80).
edge(2, 12).
edge(27, 69).
edge(97, 134).
edge(37, 48).
edge(86, 105).
edge(3, 63).
edge(49, 108).
edge(73, 99).
edge(35, 58).
edge(57, 109).
edge(20, 77).
edge(72, 113).
edge(24, 84).
edge(92, 116).
edge(24, 87).
edge(11, 96).
edge(33, 131).
edge(36, 140).
edge(13, 88).
edge(91, 103).
edge(6, 38).
edge(82, 86).
edge(94, 97).
edge(72, 116).
edge(28, 53).
edge(53, 104).
edge(101, 139).
edge(8, 57).
edge(55, 64).
edge(129, 142).
edge(68, 140).
edge(22, 132).
edge(80, 116).
edge(76, 143).
edge(110, 129).
edge(2, 79).
edge(19, 45).
edge(18, 36).
edge(97, 104).
edge(49, 106).
edge(112, 144).
edge(54, 109).
edge(37, 124).
edge(59, 98).
edge(119, 130).
edge(55, 103).
edge(16, 133).
edge(36, 60).
edge(3, 32).
edge(98, 142).
edge(26, 121).
edge(4, 55).
edge(56, 69).
edge(49, 84).
edge(29, 41).
edge(58, 89).
edge(67, 128).
edge(89, 100).
edge(28, 103).
edge(38, 81).
edge(9, 27).
edge(21, 99).
edge(58, 122).
edge(0, 52).
edge(127, 135).
edge(36, 124).
edge(31, 69).
edge(59, 95).
edge(21, 83).
edge(45, 127).
edge(27, 138).
edge(32, 89).
edge(36, 142).
edge(21, 53).
edge(55, 88).
edge(46, 108).
edge(98, 110).
edge(119, 135).
edge(79, 114).
edge(15, 54).
edge(23, 87).
edge(69, 133).
edge(36, 144).
edge(48, 69).
edge(45, 50).
edge(98, 100).
edge(31, 80).
edge(36, 89).
edge(127, 144).
edge(16, 49).
edge(82, 101).
edge(124, 128).
edge(1, 43).
edge(33, 113).
edge(85, 88).
edge(98, 103).
edge(130, 133).
edge(22, 48).
edge(95, 100).
edge(34, 115).
edge(98, 144).
edge(20, 121).
edge(54, 142).
edge(19, 111).
edge(1, 17).
edge(6, 77).
edge(40, 134).
edge(16, 95).
edge(59, 114).
edge(106, 130).
edge(29, 142).
edge(113, 136).
edge(39, 105).
edge(6, 128).
edge(78, 90).
edge(92, 131).
edge(3, 88).
edge(16, 69).
edge(102, 144).
edge(19, 102).
edge(32, 124).
edge(58, 143).
edge(34, 138).
edge(132, 138).
edge(13, 75).
edge(55, 110).
edge(27, 97).
edge(26, 36).
edge(62, 77).
edge(28, 125).
edge(26, 73).
edge(37, 57).
edge(55, 143).
edge(9, 67).
edge(47, 140).
edge(58, 130).
edge(27, 132).
edge(64, 88).
edge(92, 100).
edge(93, 135).
edge(46, 75).
edge(78, 142).
edge(127, 131).
edge(6, 94).
edge(17, 134).
edge(22, 55).
edge(9, 91).
edge(20, 23).
edge(38, 106).
edge(4, 123).
edge(14, 72).
edge(18, 120).
edge(10, 13).
edge(41, 87).
edge(109, 127).
edge(78, 114).
edge(125, 128).
edge(36, 46).
edge(24, 49).
edge(18, 78).
edge(91, 130).
edge(55, 100).
edge(54, 140).
edge(93, 122).
edge(12, 30).
edge(62, 96).
edge(114, 143).
edge(15, 22).
edge(1, 64).
edge(2, 35).
edge(66, 75).
edge(131, 140).
edge(46, 132).
edge(4, 35).
edge(66, 128).
edge(8, 24).
edge(20, 112).
edge(3, 121).
edge(45, 65).
edge(3, 109).
edge(106, 128).
edge(18, 127).
edge(32, 41).
edge(20, 97).
edge(0, 29).
edge(37, 100).
edge(116, 118).
edge(77, 124).
edge(14, 59).
edge(109, 137).
edge(116, 129).
edge(51, 115).
edge(17, 128).
edge(14, 49).
edge(84, 85).
edge(135, 136).
edge(93, 142).
edge(40, 60).
edge(95, 125).
edge(21, 70).
edge(35, 100).
edge(12, 42).
edge(113, 114).
edge(2, 51).
edge(60, 116).
edge(48, 54).
edge(42, 50).
edge(60, 111).
edge(88, 119).
edge(45, 93).
edge(98, 112).
edge(50, 84).
edge(26, 89).
edge(40, 130).
edge(51, 81).
edge(17, 41).
edge(55, 126).
edge(28, 55).
edge(29, 97).
edge(57, 96).
edge(107, 139).
edge(44, 107).
edge(28, 124).
edge(102, 113).
edge(106, 112).
edge(67, 90).
edge(13, 36).
edge(23, 144).
edge(98, 126).
edge(40, 62).
edge(5, 89).
edge(48, 142).
edge(35, 102).
edge(74, 107).
edge(41, 66).
edge(48, 106).
edge(26, 110).
edge(75, 109).
edge(4, 97).
edge(81, 138).
edge(25, 36).
edge(38, 85).
edge(90, 114).
edge(97, 142).
edge(30, 73).
edge(19, 117).
edge(109, 141).
edge(40, 133).
edge(30, 119).
edge(5, 118).
edge(106, 117).
edge(33, 95).
edge(9, 72).
edge(10, 109).
edge(48, 121).
edge(4, 20).
edge(7, 114).
edge(50, 77).
edge(50, 103).
edge(24, 88).
edge(0, 138).
edge(81, 84).
edge(121, 128).
edge(32, 48).
edge(61, 118).
edge(126, 139).
edge(46, 128).
edge(92, 106).
edge(100, 128).
edge(82, 118).
edge(1, 53).
edge(23, 97).
edge(73, 143).
edge(51, 75).
edge(68, 118).
edge(7, 34).
edge(3, 80).
edge(25, 79).
edge(110, 114).
edge(76, 98).
edge(26, 43).
edge(62, 92).
edge(109, 111).
edge(16, 36).
edge(34, 57).
edge(77, 81).
edge(78, 101).
edge(80, 82).
edge(5, 104).
edge(79, 123).
edge(62, 98).
edge(34, 131).
edge(128, 134).
edge(12, 41).
edge(11, 61).
edge(19, 67).
edge(7, 38).
edge(132, 142).
edge(3, 143).
edge(24, 77).
edge(33, 111).
edge(49, 56).
edge(1, 32).
edge(27, 88).
edge(0, 133).
edge(29, 58).
edge(78, 112).
edge(28, 94).
edge(32, 93).
edge(11, 66).
edge(71, 113).
edge(81, 116).
edge(115, 135).
edge(85, 142).
edge(17, 18).
edge(19, 68).
edge(48, 97).
edge(30, 49).
edge(16, 80).
edge(82, 142).
edge(121, 134).
edge(24, 95).
edge(61, 91).
edge(17, 89).
edge(94, 140).
edge(51, 124).
edge(28, 95).
edge(7, 132).
edge(23, 24).
edge(34, 76).
edge(36, 71).
edge(21, 143).
edge(1, 12).
edge(73, 129).
edge(85, 87).
edge(43, 118).
edge(73, 82).
edge(30, 44).
edge(28, 46).
edge(44, 91).
edge(44, 122).
edge(11, 97).
edge(55, 89).
edge(13, 56).
edge(67, 107).
edge(18, 129).
edge(4, 133).
edge(17, 124).
edge(16, 105).
edge(29, 52).
edge(5, 14).
edge(13, 109).
edge(29, 85).
edge(110, 131).
edge(20, 120).
edge(55, 84).
edge(39, 104).
edge(37, 133).
edge(24, 55).
edge(46, 94).
edge(43, 63).
edge(30, 60).
edge(7, 144).
edge(73, 100).
edge(14, 77).
edge(29, 104).
edge(29, 125).
edge(4, 60).
edge(41, 52).
edge(13, 131).
edge(13, 80).
edge(2, 89).
edge(6, 26).
edge(38, 93).
edge(112, 134).
edge(83, 129).
edge(107, 127).
edge(87, 94).
edge(64, 139).
edge(40, 77).
edge(140, 144).
edge(48, 86).
edge(2, 107).
edge(17, 105).
edge(11, 132).
edge(39, 51).
edge(63, 96).
edge(41, 43).
edge(19, 115).
edge(55, 56).
edge(6, 70).
edge(38, 57).
edge(14, 122).
edge(46, 102).
edge(137, 141).
edge(8, 80).
edge(56, 92).
edge(33, 77).
edge(72, 79).
edge(6, 32).
edge(6, 68).
edge(3, 106).
edge(17, 69).
edge(69, 74).
edge(84, 124).
edge(124, 132).
edge(14, 54).
edge(94, 125).
edge(14, 43).
edge(27, 109).
edge(42, 138).
edge(53, 77).
edge(34, 64).
edge(116, 128).
edge(91, 126).
edge(67, 140).
edge(44, 50).
edge(39, 92).
edge(54, 92).
edge(53, 99).
edge(62, 102).
edge(50, 102).
edge(61, 107).
edge(110, 144).
edge(52, 77).
edge(73, 137).
edge(64, 134).
edge(19, 71).
edge(26, 136).
edge(42, 48).
edge(0, 6).
edge(25, 95).
edge(4, 106).
edge(109, 126).
edge(83, 125).
edge(101, 118).
edge(61, 62).
edge(22, 89).
edge(70, 81).
edge(56, 72).
edge(57, 64).
edge(59, 111).
edge(17, 35).
edge(66, 82).
edge(85, 109).
edge(74, 113).
edge(5, 38).
edge(64, 84).
edge(33, 40).
edge(74, 142).
edge(36, 113).
edge(73, 98).
edge(22, 108).
edge(32, 60).
edge(38, 138).
edge(6, 48).
edge(6, 73).
edge(6, 8).
edge(74, 134).
edge(43, 74).
edge(28, 120).
edge(29, 72).
edge(31, 113).
edge(22, 57).
edge(64, 141).
edge(4, 58).
edge(35, 76).
edge(90, 128).
edge(34, 68).
edge(79, 101).
edge(17, 50).
edge(55, 76).
edge(13, 138).
edge(72, 78).
edge(0, 78).
edge(6, 135).
edge(45, 74).
edge(74, 117).
edge(83, 101).
edge(102, 123).
edge(24, 134).
edge(94, 114).
edge(23, 138).
edge(49, 93).
edge(129, 135).
edge(39, 115).
edge(18, 41).
edge(88, 101).
edge(15, 71).
edge(46, 99).
edge(8, 15).
edge(39, 129).
edge(53, 65).
edge(61, 129).
edge(104, 113).
edge(62, 124).
edge(32, 137).
edge(9, 93).
edge(20, 54).
edge(30, 137).
edge(136, 141).
edge(16, 74).
edge(122, 132).
edge(27, 113).
edge(49, 120).
edge(16, 59).
edge(64, 90).
edge(58, 65).
edge(115, 141).
edge(41, 135).
edge(110, 140).
edge(14, 144).
edge(40, 96).
edge(117, 137).
edge(9, 25).
edge(0, 113).
edge(82, 102).
edge(0, 28).
edge(76, 110).
edge(91, 108).
edge(1, 142).
edge(1, 86).
edge(17, 76).
edge(62, 74).
edge(27, 49).
edge(71, 114).
edge(15, 56).
edge(29, 90).
edge(105, 117).
edge(45, 107).
edge(46, 104).
edge(53, 125).
edge(26, 98).
edge(11, 77).
edge(28, 97).
edge(60, 137).
edge(104, 140).
edge(27, 144).
edge(54, 134).
edge(48, 136).
edge(6, 115).
edge(63, 140).
edge(44, 79).
edge(4, 41).
edge(9, 82).
edge(6, 35).
edge(5, 90).
edge(50, 73).
edge(44, 141).
edge(43, 80).
edge(12, 136).
edge(46, 141).
edge(0, 71).
edge(16, 43).
edge(77, 128).
edge(2, 83).
edge(18, 144).
edge(12, 141).
edge(102, 106).
edge(12, 98).
edge(15, 95).
edge(25, 65).
edge(7, 110).
edge(52, 129).
edge(15, 48).
edge(71, 124).
edge(81, 134).
edge(19, 43).
edge(51, 132).
edge(50, 89).
edge(52, 115).
edge(75, 118).
edge(13, 90).
edge(18, 55).
edge(44, 45).
edge(83, 122).
edge(32, 40).
edge(69, 99).
edge(29, 62).
edge(64, 70).
edge(127, 129).
edge(66, 87).
edge(22, 44).
edge(52, 80).
edge(34, 82).
edge(41, 127).
edge(34, 58).
edge(13, 48).
edge(49, 88).
edge(20, 69).
edge(0, 114).
edge(13, 119).
edge(81, 93).
edge(13, 77).
edge(53, 132).
edge(12, 120).
edge(122, 130).
edge(46, 131).
edge(102, 107).
edge(44, 124).
edge(67, 109).
edge(45, 91).
edge(79, 103).
edge(53, 131).
edge(31, 55).
edge(107, 141).
edge(7, 96).
edge(78, 102).
edge(75, 81).
edge(14, 102).
edge(87, 138).
edge(79, 142).
edge(78, 86).
edge(30, 85).
edge(8, 111).
edge(49, 112).
edge(2, 27).
edge(73, 90).
edge(21, 56).
edge(55, 111).
edge(49, 69).
edge(116, 122).
edge(56, 116).
edge(18, 44).
edge(63, 116).
edge(41, 106).
edge(22, 121).
edge(13, 116).
edge(66, 117).
edge(35, 45).
edge(15, 18).
edge(50, 121).
edge(31, 130).
edge(63, 90).
edge(5, 121).
edge(68, 101).
edge(70, 83).
edge(9, 92).
edge(12, 89).
edge(15, 115).
edge(40, 108).
edge(39, 83).
edge(109, 116).
edge(66, 100).
edge(40, 114).
edge(58, 88).
edge(26, 61).
edge(79, 112).
edge(71, 111).
edge(135, 142).
edge(44, 118).
edge(109, 121).
edge(24, 74).
edge(91, 117).
edge(10, 137).
edge(8, 43).
edge(32, 37).
edge(6, 103).
edge(48, 55).
edge(11, 140).
edge(38, 142).
edge(67, 79).
edge(106, 111).
edge(2, 66).
edge(61, 123).
edge(11, 22).
edge(33, 70).
edge(7, 86).
edge(38, 121).
edge(76, 128).
edge(87, 116).
edge(58, 110).
edge(75, 100).
edge(9, 124).
edge(19, 130).
edge(57, 139).
edge(96, 129).
edge(71, 81).
edge(52, 139).
edge(42, 53).
edge(3, 7).
edge(35, 125).
edge(28, 89).
edge(117, 118).
edge(13, 98).
edge(53, 122).
edge(9, 49).
edge(51, 91).
edge(38, 76).
edge(66, 78).
edge(77, 102).
edge(13, 68).
edge(45, 94).
edge(31, 59).
edge(35, 101).
edge(69, 97).
edge(27, 28).
edge(53, 96).
edge(16, 64).
edge(9, 57).
edge(106, 115).
edge(54, 64).
edge(27, 77).
edge(120, 122).
edge(22, 106).
edge(8, 107).
edge(77, 134).
edge(78, 97).
edge(78, 116).
edge(0, 17).
edge(14, 28).
edge(65, 103).
edge(51, 87).
edge(6, 18).
edge(42, 130).
edge(36, 110).
edge(48, 51).
edge(33, 74).
edge(32, 70).
edge(83, 89).
edge(31, 47).
edge(55, 72).
edge(5, 99).
edge(58, 124).
edge(49, 102).
edge(110, 111).
edge(25, 69).
edge(22, 125).
edge(110, 120).
edge(23, 79).
edge(6, 130).
edge(42, 89).
edge(29, 128).
edge(45, 78).
edge(9, 63).
edge(71, 107).
edge(27, 78).
edge(92, 95).
edge(18, 38).
edge(65, 130).
edge(49, 95).
edge(105, 127).
edge(40, 43).
edge(13, 118).
edge(78, 128).
edge(87, 100).
edge(44, 67).
edge(3, 9).
edge(46, 101).
edge(17, 85).
edge(23, 93).
edge(85, 106).
edge(110, 127).
edge(27, 82).
edge(13, 83).
edge(8, 85).
edge(47, 144).
edge(40, 95).
edge(110, 122).
edge(84, 135).
edge(1, 100).
edge(51, 138).
edge(4, 143).
edge(32, 82).
edge(125, 129).
edge(56, 140).
edge(15, 68).
edge(26, 42).
edge(2, 41).
edge(126, 132).
edge(41, 144).
edge(40, 89).
edge(44, 94).
edge(75, 96).
edge(70, 113).
edge(15, 100).
edge(27, 41).
edge(52, 90).
edge(3, 38).
edge(77, 114).
edge(93, 134).
edge(8, 122).
edge(49, 142).
edge(34, 119).
edge(8, 16).
edge(32, 122).
edge(2, 85).
edge(64, 102).
edge(37, 94).
edge(9, 55).
edge(107, 135).
edge(44, 62).
edge(71, 112).
edge(3, 22).
edge(33, 53).
edge(19, 47).
edge(78, 138).
edge(81, 125).
edge(28, 71).
edge(41, 122).
edge(33, 121).
edge(102, 122).
edge(16, 103).
edge(59, 79).
edge(70, 134).
edge(50, 91).
edge(60, 110).
edge(22, 112).
edge(27, 44).
edge(9, 113).
edge(32, 115).
edge(9, 86).
edge(83, 96).
edge(54, 89).
edge(60, 107).
edge(83, 127).
edge(75, 105).
edge(18, 47).
edge(8, 138).
edge(64, 131).
edge(49, 58).
edge(12, 74).
edge(27, 79).
edge(30, 74).
edge(29, 93).
edge(16, 67).
edge(116, 137).
edge(73, 106).
edge(33, 93).
edge(4, 40).
edge(94, 117).
edge(42, 72).
edge(23, 127).
edge(21, 54).
edge(92, 122).
edge(36, 137).
edge(10, 78).
edge(1, 15).
edge(9, 109).
edge(65, 84).
edge(0, 131).
edge(8, 58).
edge(30, 114).
edge(48, 64).
edge(75, 78).
edge(7, 54).
edge(68, 108).
edge(10, 135).
edge(72, 126).
edge(57, 105).
edge(116, 126).
edge(0, 42).
edge(18, 90).
edge(81, 100).
edge(54, 90).
edge(0, 106).
edge(86, 96).
edge(96, 126).
edge(48, 110).
edge(41, 54).
edge(124, 140).
edge(76, 96).
edge(27, 68).
edge(56, 136).
edge(94, 129).
edge(36, 102).
edge(46, 139).
edge(7, 126).
edge(81, 96).
edge(61, 113).
edge(68, 79).
edge(12, 33).
edge(15, 135).
edge(57, 116).
edge(68, 133).
edge(98, 99).
edge(84, 99).
edge(54, 119).
edge(52, 109).
edge(15, 119).
edge(125, 137).
edge(50, 78).
edge(3, 52).
edge(85, 108).
edge(84, 97).
edge(1, 130).
edge(44, 70).
edge(67, 138).
edge(2, 69).
edge(41, 83).
edge(42, 115).
edge(82, 121).
edge(43, 85).
edge(42, 66).
edge(25, 127).
edge(8, 71).
edge(3, 86).
edge(125, 133).
edge(45, 62).
edge(122, 126).
edge(91, 133).
edge(107, 120).
edge(100, 101).
edge(41, 49).
edge(68, 96).
edge(40, 137).
edge(31, 115).
edge(15, 43).
edge(62, 140).
edge(41, 46).
edge(4, 6).
edge(77, 142).
edge(3, 112).
edge(111, 114).
edge(59, 70).
edge(27, 62).
edge(10, 83).
edge(58, 101).
edge(106, 142).
edge(15, 19).
edge(86, 135).
edge(26, 129).
edge(31, 88).
edge(98, 130).
edge(9, 100).
edge(114, 136).
edge(43, 131).
edge(20, 25).
edge(46, 87).
edge(86, 120).
edge(49, 72).
edge(88, 128).
edge(54, 111).
edge(14, 50).
edge(2, 91).
edge(28, 140).
edge(23, 76).
edge(38, 99).
edge(77, 85).
edge(28, 29).
edge(28, 79).
edge(52, 110).
edge(26, 94).
edge(1, 123).
edge(12, 140).
edge(1, 111).
edge(41, 103).
edge(29, 115).
edge(39, 102).
edge(19, 72).
edge(53, 90).
edge(77, 100).
edge(9, 48).
edge(12, 52).
edge(29, 98).
edge(0, 60).
edge(90, 108).
edge(42, 49).
edge(19, 128).
edge(10, 67).
edge(17, 29).
edge(3, 91).
edge(44, 110).
edge(5, 119).
edge(56, 71).
edge(18, 56).
edge(10, 112).
edge(53, 66).
edge(29, 124).
edge(17, 24).
edge(77, 82).
edge(106, 114).
edge(36, 107).
edge(6, 34).
edge(28, 118).
edge(23, 82).
edge(14, 73).
edge(102, 143).
edge(40, 112).
edge(18, 117).
edge(51, 71).
edge(115, 118).
edge(9, 83).
edge(37, 74).
edge(24, 48).
edge(43, 141).
edge(16, 33).
edge(51, 135).
edge(23, 77).
edge(50, 138).
edge(55, 91).
edge(88, 129).
edge(15, 77).
edge(124, 125).
edge(26, 82).
edge(62, 95).
edge(69, 131).
edge(48, 104).
edge(3, 68).
edge(10, 54).
edge(64, 122).
edge(25, 54).
edge(83, 132).
edge(0, 126).
edge(56, 94).
edge(27, 134).
edge(48, 139).
edge(44, 133).
edge(58, 136).
edge(77, 129).
edge(15, 134).
edge(90, 130).
edge(62, 137).
edge(13, 31).
edge(52, 128).
edge(5, 36).
edge(68, 103).
edge(124, 143).
edge(66, 141).
edge(15, 32).
edge(120, 123).
edge(46, 69).
edge(92, 104).
edge(35, 71).
edge(23, 81).
edge(23, 88).
edge(40, 115).
edge(10, 114).
edge(28, 128).
edge(78, 95).
edge(11, 144).
edge(8, 63).
edge(18, 142).
edge(38, 132).
edge(47, 91).
edge(1, 19).
edge(23, 73).
edge(83, 107).
edge(76, 130).
edge(33, 117).
edge(25, 30).
edge(35, 97).
edge(14, 56).
edge(81, 90).
edge(103, 142).
edge(27, 90).
edge(57, 129).
edge(16, 19).
edge(11, 19).
edge(110, 143).
edge(48, 103).
edge(95, 112).
edge(65, 90).
edge(10, 116).
edge(74, 125).
edge(109, 134).
edge(33, 47).
edge(44, 106).
edge(106, 139).
edge(75, 121).
edge(32, 127).
edge(71, 83).
edge(103, 117).
edge(73, 140).
edge(25, 64).
edge(85, 141).
edge(12, 53).
edge(42, 135).
edge(23, 52).
edge(117, 124).
edge(31, 110).
edge(97, 131).
edge(40, 57).
edge(5, 7).
edge(124, 135).
edge(28, 36).
edge(39, 86).
edge(79, 115).
edge(34, 41).
edge(53, 78).
edge(15, 128).
edge(57, 74).
edge(1, 83).
edge(111, 121).
edge(38, 84).
edge(93, 120).
edge(24, 83).
edge(76, 129).
edge(54, 106).
edge(20, 66).
edge(85, 90).
edge(43, 86).
edge(39, 84).
edge(17, 114).
edge(6, 95).
edge(95, 98).
edge(70, 129).
edge(1, 139).
edge(101, 108).
edge(42, 106).
edge(8, 25).
edge(106, 133).
edge(21, 129).
edge(92, 109).
edge(1, 55).
edge(21, 45).
edge(27, 104).
edge(83, 100).
edge(16, 114).
edge(52, 135).
edge(80, 132).
edge(56, 89).
edge(23, 43).
edge(81, 120).
edge(126, 134).
edge(13, 33).
edge(53, 139).
edge(23, 141).
edge(140, 142).
edge(42, 78).
edge(71, 129).
edge(60, 102).
edge(9, 141).
edge(0, 139).
edge(85, 136).
edge(27, 105).
edge(31, 71).
edge(14, 126).
edge(87, 103).
edge(50, 107).
edge(0, 40).
edge(54, 76).
edge(27, 136).
edge(13, 107).
edge(122, 140).
edge(52, 83).
edge(112, 130).
edge(69, 85).
edge(133, 136).
edge(15, 91).
edge(100, 107).
edge(72, 132).
edge(39, 143).
edge(113, 119).
edge(54, 104).
edge(79, 117).
edge(36, 52).
edge(15, 84).
edge(69, 79).
edge(41, 121).
edge(18, 23).
edge(45, 114).
edge(123, 131).
edge(41, 68).
edge(3, 98).
edge(40, 128).
edge(49, 94).
edge(121, 133).
edge(27, 92).
edge(119, 134).
edge(40, 97).
edge(9, 102).
edge(3, 65).
edge(60, 99).
edge(133, 143).
edge(35, 96).
edge(44, 95).
edge(39, 64).
edge(85, 122).
edge(107, 129).
edge(104, 129).
edge(29, 89).
edge(47, 54).
edge(3, 93).
edge(30, 34).
edge(4, 85).
edge(68, 93).
edge(34, 121).
edge(36, 123).
edge(99, 106).
edge(6, 40).
edge(27, 57).
edge(67, 89).
edge(28, 142).
edge(58, 142).
edge(81, 109).
edge(67, 68).
edge(61, 142).
edge(12, 125).
edge(1, 101).
edge(90, 91).
edge(43, 114).
edge(15, 26).
edge(115, 128).
edge(68, 129).
edge(48, 132).
edge(30, 78).
edge(45, 130).
edge(32, 62).
edge(82, 122).
edge(106, 144).
edge(30, 93).
edge(34, 53).
edge(22, 76).
edge(2, 71).
edge(59, 127).
edge(8, 105).
edge(39, 108).
edge(3, 10).
edge(16, 34).
edge(58, 92).
edge(81, 82).
edge(51, 96).
edge(75, 83).
edge(17, 82).
edge(76, 115).
edge(61, 140).
edge(35, 120).
edge(57, 85).
edge(37, 143).
edge(35, 37).
edge(62, 85).
edge(78, 141).
edge(5, 88).
edge(134, 142).
edge(8, 60).
edge(10, 19).
edge(26, 84).
edge(58, 93).
edge(12, 88).
edge(107, 119).
edge(51, 120).
edge(56, 117).
edge(13, 21).
edge(100, 104).
edge(23, 40).
edge(19, 69).
edge(3, 14).
edge(26, 81).
edge(99, 108).
edge(8, 74).
edge(119, 132).
edge(120, 134).
edge(49, 119).
edge(26, 35).
edge(60, 97).
edge(18, 134).
edge(74, 136).
edge(52, 94).
edge(30, 39).
edge(73, 130).
edge(0, 115).
edge(11, 76).
edge(102, 120).
edge(127, 139).
edge(69, 127).
edge(58, 129).
edge(94, 124).
edge(71, 108).
edge(12, 38).
edge(62, 128).
edge(18, 61).
edge(3, 24).
edge(15, 75).
edge(111, 134).
edge(28, 86).
edge(38, 134).
edge(77, 119).
edge(22, 26).
edge(19, 70).
edge(80, 95).
edge(71, 121).
edge(116, 133).
edge(19, 97).
edge(15, 69).
edge(14, 91).
edge(62, 114).
edge(97, 138).
edge(107, 126).
edge(84, 89).
edge(38, 59).
edge(5, 81).
edge(53, 67).
edge(83, 106).
edge(19, 55).
edge(80, 130).
edge(14, 129).
edge(32, 118).
edge(25, 124).
edge(38, 95).
edge(54, 124).
edge(36, 133).
edge(95, 119).
edge(89, 103).
edge(32, 67).
edge(30, 98).
edge(64, 73).
edge(23, 85).
edge(52, 99).
edge(22, 49).
edge(3, 128).
edge(69, 88).
edge(117, 130).
edge(22, 102).
edge(15, 142).
edge(71, 138).
edge(51, 121).
edge(32, 50).
edge(17, 136).
edge(5, 28).
edge(22, 134).
edge(66, 77).
edge(95, 133).
edge(23, 31).
edge(2, 78).
edge(38, 101).
edge(65, 141).
edge(9, 52).
edge(5, 69).
edge(114, 130).
edge(128, 130).
edge(0, 120).
edge(99, 100).
edge(32, 120).
edge(42, 136).
edge(105, 121).
edge(31, 107).
edge(39, 132).
edge(7, 61).
edge(39, 47).
edge(59, 139).
edge(25, 102).
edge(17, 40).
edge(43, 83).
edge(51, 83).
edge(75, 144).
edge(134, 136).
edge(44, 105).
edge(29, 78).
edge(87, 135).
edge(41, 101).
edge(55, 124).
edge(95, 126).
edge(117, 122).
edge(88, 100).
edge(62, 82).
edge(50, 79).
edge(99, 119).
edge(33, 64).
edge(53, 138).
edge(71, 102).
edge(93, 118).
edge(85, 98).
edge(93, 143).
edge(46, 73).
edge(48, 61).
edge(9, 116).
edge(59, 132).
edge(81, 98).
edge(130, 141).
edge(114, 124).
edge(23, 112).
edge(90, 123).
edge(31, 74).
edge(47, 115).
edge(26, 97).
edge(130, 135).
edge(28, 130).
edge(23, 63).
edge(70, 89).
edge(5, 30).
edge(83, 112).
edge(17, 51).
edge(20, 98).
edge(15, 63).
edge(36, 50).
edge(17, 86).
edge(39, 42).
edge(126, 130).
edge(34, 124).
edge(21, 78).
edge(24, 53).
edge(62, 126).
edge(19, 86).
edge(25, 28).
edge(3, 124).
edge(14, 39).
edge(28, 30).
edge(21, 82).
edge(41, 123).
edge(60, 132).
edge(14, 130).
edge(32, 91).
edge(72, 137).
edge(29, 34).
edge(70, 108).
edge(19, 66).
edge(46, 70).
edge(112, 139).
edge(5, 27).
edge(19, 114).
edge(103, 138).
edge(1, 143).
edge(107, 144).
edge(6, 113).
edge(15, 21).
edge(16, 91).
edge(0, 86).
edge(40, 143).
edge(28, 92).
edge(22, 104).
edge(113, 120).
edge(95, 144).
edge(128, 139).
edge(71, 136).
edge(9, 20).
edge(58, 75).
edge(61, 130).
edge(57, 58).
edge(4, 42).
edge(76, 97).
edge(67, 112).
edge(37, 102).
edge(29, 44).
edge(22, 115).
edge(3, 104).
edge(95, 142).
edge(24, 139).
edge(18, 80).
edge(47, 132).
edge(115, 131).
edge(124, 130).
edge(80, 125).
edge(99, 102).
edge(44, 125).
edge(36, 96).
edge(78, 125).
edge(64, 96).
edge(36, 99).
edge(8, 108).
edge(66, 135).
edge(18, 73).
edge(53, 137).
edge(62, 127).
edge(2, 49).
edge(6, 91).
edge(75, 128).
edge(84, 102).
edge(35, 91).
edge(30, 94).
edge(6, 54).
edge(67, 103).
edge(6, 10).
edge(123, 139).
edge(106, 124).
edge(63, 84).
edge(18, 66).
edge(41, 62).
edge(64, 75).
edge(49, 131).
edge(16, 97).
edge(3, 56).
edge(31, 92).
edge(0, 90).
edge(41, 51).
edge(67, 102).
edge(44, 75).
edge(62, 90).
edge(69, 114).
edge(66, 122).
edge(82, 125).
edge(34, 40).
edge(70, 73).
edge(2, 138).
edge(90, 131).
edge(6, 72).
edge(5, 65).
edge(9, 144).
edge(48, 95).
edge(53, 127).
edge(91, 94).
edge(34, 87).
edge(23, 36).
edge(67, 105).
edge(34, 86).
edge(49, 50).
edge(24, 32).
edge(16, 85).
edge(56, 135).
edge(65, 93).
edge(60, 89).
edge(31, 51).
edge(20, 33).
edge(68, 139).
edge(17, 102).
edge(44, 114).
edge(76, 126).
edge(74, 89).
edge(44, 126).
edge(63, 100).
edge(92, 143).
edge(26, 102).
edge(114, 122).
edge(44, 123).
edge(61, 108).
edge(25, 51).
edge(58, 100).
edge(99, 125).
edge(17, 126).
edge(3, 99).
edge(72, 81).
edge(120, 127).
edge(98, 136).
edge(33, 81).
edge(51, 65).
edge(31, 127).
edge(61, 134).
edge(48, 102).
edge(74, 99).
edge(97, 144).
edge(35, 74).
edge(42, 83).
edge(89, 143).
edge(94, 122).
edge(82, 132).
edge(56, 129).
edge(80, 86).
edge(93, 101).
edge(1, 138).
edge(46, 130).
edge(42, 97).
edge(26, 140).
edge(26, 37).
edge(59, 61).
edge(118, 122).
edge(73, 125).
edge(4, 93).
edge(19, 92).
edge(34, 116).
edge(85, 112).
edge(17, 104).
edge(42, 63).
edge(3, 19).
edge(43, 81).
edge(78, 117).
edge(89, 121).
edge(41, 110).
edge(15, 51).
edge(25, 110).
edge(97, 126).
edge(93, 124).
edge(32, 121).
edge(68, 132).
edge(79, 116).
edge(51, 119).
edge(24, 37).
edge(118, 133).
edge(47, 92).
edge(93, 103).
edge(73, 141).
edge(109, 143).
edge(81, 135).
edge(34, 42).
edge(25, 131).
edge(31, 44).
edge(32, 102).
edge(5, 83).
edge(27, 133).
edge(12, 36).
edge(12, 56).
edge(96, 99).
edge(95, 129).
edge(128, 144).
edge(24, 118).
edge(88, 140).
edge(51, 107).
edge(17, 66).
edge(25, 84).
edge(30, 62).
edge(5, 60).
edge(6, 96).
edge(18, 108).
edge(31, 103).
edge(29, 116).
edge(88, 110).
edge(79, 91).
edge(66, 104).
edge(123, 126).
edge(27, 40).
edge(5, 24).
edge(98, 132).
edge(0, 128).
edge(67, 111).
edge(28, 117).
edge(57, 124).
edge(94, 100).
edge(53, 97).
edge(30, 101).
edge(3, 53).
edge(111, 113).
edge(17, 95).
edge(96, 138).
edge(53, 121).
edge(54, 82).
edge(86, 95).
edge(2, 81).
edge(52, 70).
edge(90, 144).
edge(97, 129).
edge(7, 50).
edge(102, 141).
edge(26, 144).
edge(17, 94).
edge(99, 130).
edge(45, 67).
edge(34, 141).
edge(4, 114).
edge(1, 97).
edge(38, 50).
edge(19, 46).
edge(132, 143).
edge(107, 123).
edge(84, 138).
edge(1, 68).
edge(68, 95).
edge(54, 100).
edge(53, 94).
edge(27, 116).
edge(89, 94).
edge(71, 97).
edge(77, 90).
edge(105, 143).
edge(41, 130).
edge(28, 102).
edge(24, 97).
edge(20, 60).
edge(85, 92).
edge(120, 144).
edge(33, 89).
edge(25, 35).
edge(41, 117).
edge(16, 62).
edge(36, 62).
edge(27, 67).
edge(54, 81).
edge(68, 109).
edge(96, 141).
edge(30, 57).
edge(61, 100).
edge(7, 44).
edge(27, 128).
edge(2, 118).
edge(36, 39).
edge(85, 138).
edge(45, 144).
edge(11, 25).
edge(52, 137).
edge(71, 90).
edge(40, 55).
edge(57, 66).
edge(103, 127).
edge(20, 47).
edge(39, 120).
edge(111, 135).
edge(12, 109).
edge(112, 127).
edge(112, 122).
edge(85, 130).
edge(2, 13).
edge(106, 107).
edge(22, 95).
edge(25, 143).
edge(80, 92).
edge(21, 57).
edge(94, 115).
edge(58, 66).
edge(13, 66).
edge(38, 137).
edge(25, 86).
edge(59, 131).
edge(0, 122).
edge(80, 98).
edge(39, 96).
edge(5, 84).
edge(6, 120).
edge(54, 113).
edge(4, 50).
edge(36, 106).
edge(89, 117).
edge(28, 134).
edge(133, 134).
edge(72, 87).
edge(29, 139).
edge(39, 140).
edge(9, 130).
edge(111, 116).
edge(5, 17).
edge(46, 49).
edge(14, 78).
edge(26, 85).
edge(10, 108).
edge(14, 37).
edge(117, 141).
edge(71, 125).
edge(23, 114).
edge(40, 103).
edge(99, 114).
edge(34, 104).
edge(47, 131).
edge(0, 105).
edge(28, 85).
edge(61, 110).
edge(65, 124).
edge(55, 99).
edge(27, 114).
edge(39, 81).
edge(65, 128).
edge(71, 79).
edge(86, 101).
edge(1, 34).
edge(19, 116).
edge(118, 124).
edge(26, 87).
edge(20, 131).
edge(6, 110).
edge(131, 144).
edge(50, 134).
edge(21, 94).
edge(48, 85).
edge(68, 102).
edge(39, 138).
edge(70, 141).
edge(51, 92).
edge(38, 102).
edge(50, 112).
edge(73, 142).
edge(107, 138).
edge(52, 92).
edge(106, 137).
edge(48, 83).
edge(23, 83).
edge(49, 73).
edge(44, 69).
edge(52, 89).
edge(73, 118).
edge(86, 107).
edge(1, 81).
edge(76, 114).
edge(7, 125).
edge(15, 67).
edge(110, 137).
edge(14, 132).
edge(8, 87).
edge(8, 11).
edge(7, 65).
edge(110, 124).
edge(23, 128).
edge(27, 81).
edge(39, 43).
edge(103, 118).
edge(9, 132).
edge(76, 144).
edge(62, 133).
edge(24, 109).
edge(50, 87).
edge(12, 18).
edge(2, 112).
edge(21, 58).
edge(112, 133).
edge(65, 87).
edge(127, 130).
edge(61, 112).
edge(63, 133).
edge(7, 40).
edge(16, 47).
edge(51, 101).
edge(30, 92).
edge(41, 94).
edge(21, 118).
edge(102, 115).
edge(19, 93).
edge(3, 26).
edge(7, 91).
edge(15, 141).
edge(20, 88).
edge(45, 66).
edge(9, 53).
edge(81, 113).
edge(69, 108).
edge(49, 110).
edge(2, 10).
edge(4, 128).
edge(12, 26).
edge(25, 130).
edge(43, 112).
edge(25, 59).
edge(129, 134).
edge(47, 51).
edge(77, 101).
edge(87, 98).
edge(12, 100).
edge(70, 128).
edge(14, 109).
edge(26, 130).
edge(60, 121).
edge(9, 62).
edge(104, 131).
edge(61, 88).
edge(29, 130).
edge(26, 112).
edge(20, 86).
edge(111, 119).
edge(25, 49).
edge(15, 31).
edge(85, 135).
edge(77, 95).
edge(129, 139).
edge(114, 132).
edge(92, 136).
edge(69, 91).
edge(8, 115).
edge(103, 116).
edge(48, 50).
edge(16, 127).
edge(7, 99).
edge(30, 38).
edge(18, 54).
edge(18, 59).
edge(129, 140).
edge(51, 56).
edge(39, 106).
edge(92, 93).
edge(18, 88).
edge(43, 144).
edge(57, 94).
edge(56, 133).
edge(57, 81).
edge(40, 82).
edge(111, 129).
edge(47, 121).
edge(23, 105).
edge(4, 107).
edge(48, 116).
edge(55, 117).
edge(9, 24).
edge(41, 140).
edge(62, 67).
edge(55, 82).
edge(38, 67).
edge(38, 46).
edge(10, 38).
edge(11, 24).
edge(20, 34).
edge(18, 140).
edge(65, 78).
edge(47, 109).
edge(44, 51).
edge(32, 92).
edge(17, 71).
edge(95, 105).
edge(70, 110).
edge(79, 106).
edge(22, 111).
edge(2, 124).
edge(34, 100).
edge(31, 95).
edge(38, 55).
edge(107, 125).
edge(74, 94).
edge(99, 132).
edge(70, 105).
edge(65, 98).
edge(15, 76).
edge(70, 140).
edge(62, 108).
edge(26, 126).
edge(62, 118).
edge(8, 123).
edge(52, 98).
edge(47, 72).
edge(23, 33).
edge(46, 52).
edge(14, 127).
edge(21, 84).
edge(30, 45).
edge(25, 116).
edge(71, 80).
edge(27, 56).
edge(17, 58).
edge(26, 132).
edge(50, 75).
edge(105, 136).
edge(83, 85).
edge(75, 116).
edge(27, 83).
edge(44, 132).
edge(32, 133).
edge(48, 138).
edge(19, 99).
edge(48, 63).
edge(7, 52).
edge(85, 93).
edge(101, 138).
edge(40, 102).
edge(4, 13).
edge(34, 135).
edge(11, 108).
edge(21, 128).
edge(23, 135).
edge(45, 105).
edge(2, 15).
edge(17, 120).
edge(36, 77).
edge(19, 103).
edge(15, 113).
edge(11, 54).
edge(69, 90).
edge(85, 132).
edge(0, 123).
edge(54, 105).
edge(97, 116).
edge(115, 132).
edge(0, 125).
edge(124, 138).
edge(16, 17).
edge(46, 107).
edge(82, 84).
edge(13, 91).
edge(33, 44).
edge(36, 87).
edge(7, 59).
edge(58, 95).
edge(7, 112).
edge(1, 117).
edge(54, 73).
edge(59, 73).
edge(60, 122).
edge(103, 131).
edge(88, 107).
edge(77, 123).
edge(29, 46).
edge(42, 77).
edge(83, 86).
edge(73, 83).
edge(77, 80).
edge(0, 44).
edge(129, 131).
edge(21, 142).
edge(6, 116).
edge(10, 92).
edge(2, 53).
edge(126, 133).
edge(76, 86).
edge(8, 92).
edge(34, 72).
edge(46, 88).
edge(62, 86).
edge(7, 106).
edge(83, 117).
edge(32, 47).
edge(21, 144).
edge(5, 144).
edge(40, 93).
edge(57, 73).
edge(22, 72).
edge(59, 107).
edge(25, 82).
edge(113, 116).
edge(103, 113).
edge(99, 138).
edge(29, 136).
edge(30, 43).
edge(10, 139).
edge(32, 129).
edge(4, 142).
edge(47, 118).
edge(29, 66).
edge(32, 74).
edge(53, 69).
edge(32, 94).
edge(80, 131).
edge(72, 110).
edge(113, 123).
edge(25, 112).
edge(25, 104).
edge(18, 64).
edge(8, 133).
edge(19, 107).
edge(114, 137).
edge(107, 130).
edge(22, 51).
edge(10, 44).
edge(56, 121).
edge(28, 109).
edge(45, 98).
edge(26, 75).
edge(11, 79).
edge(91, 114).
edge(31, 41).
edge(3, 54).
edge(2, 114).
edge(12, 114).
edge(22, 86).
edge(66, 72).
edge(71, 95).
edge(11, 50).
edge(58, 94).
edge(42, 137).
edge(5, 92).
edge(65, 138).
edge(88, 124).
edge(31, 91).
edge(65, 112).
edge(47, 130).
edge(38, 141).
edge(62, 76).
edge(8, 119).
edge(107, 122).
edge(96, 127).
edge(42, 108).
edge(24, 78).
edge(89, 101).
edge(6, 98).
edge(17, 139).
edge(92, 128).
edge(74, 118).
edge(34, 71).
edge(31, 36).
edge(33, 63).
edge(43, 72).
edge(90, 110).
edge(52, 66).
edge(10, 90).
edge(73, 113).
edge(13, 143).
edge(63, 83).
edge(48, 75).
edge(105, 110).
edge(58, 131).
edge(30, 40).
edge(88, 99).
edge(60, 128).
edge(80, 109).
edge(31, 112).
edge(28, 40).
edge(6, 75).
edge(40, 122).
edge(50, 51).
edge(36, 58).
edge(80, 144).
edge(34, 70).
edge(40, 144).
edge(49, 64).
edge(51, 104).
edge(61, 67).
edge(75, 99).
edge(5, 102).
edge(47, 69).
edge(52, 87).
edge(104, 108).
edge(69, 120).
edge(56, 118).
edge(29, 67).
edge(3, 92).
edge(21, 141).
edge(56, 132).
edge(18, 106).
edge(10, 121).
edge(134, 135).
edge(5, 23).
edge(116, 139).
edge(73, 103).
edge(75, 95).
edge(33, 72).
edge(38, 131).
edge(1, 13).
edge(113, 124).
edge(76, 82).
edge(20, 96).
edge(43, 117).
edge(42, 55).
edge(25, 85).
edge(80, 142).
edge(105, 107).
edge(46, 83).
edge(31, 117).
edge(78, 144).
edge(14, 114).
edge(30, 99).
edge(69, 72).
edge(20, 118).
edge(84, 134).
edge(90, 102).
edge(99, 143).
edge(83, 105).
edge(99, 140).
edge(97, 115).
edge(44, 96).
edge(0, 72).
edge(85, 126).
edge(10, 77).
edge(30, 131).
edge(2, 128).
edge(55, 118).
edge(67, 83).
edge(28, 47).
edge(51, 99).
edge(115, 120).
edge(55, 134).
edge(81, 121).
edge(44, 72).
edge(15, 92).
edge(50, 131).
edge(41, 96).
edge(33, 119).
edge(1, 77).
edge(27, 34).
edge(32, 64).
edge(70, 101).
edge(95, 143).
edge(141, 144).
edge(14, 20).
edge(122, 123).
edge(48, 71).
edge(2, 17).
edge(5, 78).
edge(4, 144).
edge(77, 78).
edge(10, 26).
edge(46, 54).
edge(17, 52).
edge(13, 38).
edge(86, 143).
edge(92, 97).
edge(47, 74).
edge(13, 37).
edge(43, 68).
edge(40, 120).
edge(5, 41).
edge(28, 57).
edge(102, 109).
edge(53, 62).
edge(18, 26).
edge(91, 102).
edge(32, 140).
edge(19, 105).
edge(65, 129).
edge(56, 84).
edge(75, 122).
edge(104, 119).
edge(95, 124).
edge(6, 143).
edge(102, 121).
edge(28, 66).
edge(33, 110).
edge(33, 43).
edge(22, 136).
edge(14, 103).
edge(52, 122).
edge(27, 29).
edge(89, 124).
edge(19, 134).
edge(3, 139).
edge(10, 63).
edge(95, 136).
edge(45, 75).
edge(3, 72).
edge(42, 91).
edge(93, 110).
edge(71, 110).
edge(38, 139).
edge(103, 141).
edge(5, 13).
edge(77, 106).
edge(42, 98).
edge(37, 123).
edge(75, 111).
edge(14, 138).
edge(105, 118).
edge(89, 106).
edge(18, 112).
edge(54, 97).
edge(56, 128).
edge(5, 130).
edge(61, 136).
edge(81, 140).
edge(93, 105).
edge(8, 56).
edge(4, 21).
edge(80, 137).
edge(45, 47).
edge(93, 131).
edge(39, 49).
edge(3, 116).
edge(35, 113).
edge(90, 139).
edge(1, 4).
edge(68, 81).
edge(90, 127).
edge(61, 78).
edge(47, 82).
edge(41, 97).
edge(19, 37).
edge(136, 138).
edge(8, 37).
edge(72, 73).
edge(49, 143).
edge(43, 113).
edge(63, 132).
edge(35, 68).
edge(11, 17).
edge(42, 95).
edge(27, 110).
edge(18, 48).
edge(32, 58).
edge(49, 70).
edge(10, 107).
edge(39, 60).
edge(6, 12).
edge(135, 139).
edge(33, 143).
edge(57, 62).
edge(69, 112).
edge(48, 144).
edge(6, 29).
edge(21, 80).
edge(89, 108).
edge(12, 77).
edge(51, 139).
edge(33, 105).
edge(42, 133).
edge(25, 55).
edge(21, 26).
edge(96, 116).
edge(78, 93).
edge(41, 47).
edge(42, 59).
edge(14, 143).
edge(96, 125).
edge(20, 115).
edge(97, 132).
edge(100, 138).
edge(46, 84).
edge(131, 138).
edge(63, 130).
edge(34, 144).
edge(34, 80).
edge(22, 123).
edge(25, 39).
edge(24, 101).
edge(41, 139).
edge(16, 25).
edge(34, 78).
edge(50, 66).
edge(16, 71).
edge(10, 87).
edge(23, 132).
edge(63, 129).
edge(82, 91).
edge(75, 137).
edge(13, 133).
edge(22, 114).
edge(43, 136).
edge(10, 34).
edge(2, 52).
edge(17, 118).
edge(1, 72).
edge(62, 136).
edge(35, 60).
edge(0, 3).
edge(33, 142).
edge(89, 118).
edge(22, 31).
edge(66, 132).
edge(11, 57).
edge(22, 118).
edge(94, 118).
edge(40, 142).
edge(14, 140).
edge(13, 87).
edge(62, 63).
edge(17, 37).
edge(17, 108).
edge(55, 74).
edge(5, 42).
edge(105, 134).
edge(12, 55).
edge(62, 97).
edge(26, 127).
edge(65, 118).
edge(14, 23).
edge(53, 106).
edge(12, 96).
edge(125, 144).
edge(43, 69).
edge(104, 134).
edge(18, 91).
edge(13, 111).
edge(70, 137).
edge(12, 48).
edge(80, 114).
edge(12, 133).
edge(68, 123).
edge(36, 43).
edge(53, 55).
edge(4, 44).
edge(25, 40).
edge(48, 68).
edge(32, 119).
edge(36, 91).
edge(43, 109).
edge(3, 127).
edge(68, 77).
edge(0, 56).
edge(27, 85).
edge(41, 98).
edge(5, 39).
edge(51, 69).
edge(21, 88).
edge(37, 108).
edge(93, 127).
edge(32, 109).
edge(67, 72).
edge(30, 96).
edge(79, 88).
edge(94, 137).
edge(34, 102).
edge(5, 48).
edge(80, 106).
edge(42, 131).
edge(66, 120).
edge(85, 100).
edge(37, 111).
edge(70, 112).
edge(130, 132).
edge(92, 94).
edge(26, 134).
edge(4, 89).
edge(18, 20).
edge(3, 78).
edge(91, 115).
edge(18, 25).
edge(14, 18).
edge(79, 132).
edge(27, 35).
edge(39, 71).
edge(123, 130).
edge(74, 78).
edge(12, 142).
edge(4, 138).
edge(58, 128).
edge(70, 79).
edge(74, 90).
edge(51, 86).
edge(3, 46).
edge(28, 111).
edge(42, 128).
edge(12, 123).
edge(99, 120).
edge(8, 83).
edge(65, 121).
edge(40, 56).
edge(46, 91).
edge(24, 59).
edge(10, 138).
edge(44, 83).
edge(82, 123).
edge(10, 117).
edge(5, 59).
edge(22, 64).
edge(21, 63).
edge(67, 113).
edge(26, 124).
edge(61, 90).
edge(35, 80).
edge(52, 88).
edge(63, 143).
edge(29, 141).
edge(23, 98).
edge(70, 116).
edge(57, 114).
edge(18, 115).
edge(20, 62).
edge(22, 68).
edge(35, 42).
edge(88, 122).
edge(34, 133).
edge(33, 126).
edge(5, 62).
edge(20, 90).
edge(123, 142).
edge(50, 135).
edge(55, 69).
edge(18, 57).
edge(53, 129).
edge(51, 95).
edge(18, 94).
edge(63, 79).
edge(10, 141).
edge(24, 34).
edge(71, 87).
edge(45, 128).
edge(64, 136).
edge(37, 75).
edge(75, 87).
edge(43, 101).
edge(61, 84).
edge(95, 121).
edge(55, 70).
edge(25, 61).
edge(57, 76).
edge(70, 103).
edge(16, 99).
edge(21, 65).
edge(88, 111).
edge(28, 121).
edge(17, 116).
edge(42, 126).
edge(21, 73).
edge(16, 140).
edge(5, 107).
edge(74, 137).
edge(89, 119).
edge(12, 91).
edge(50, 80).
edge(18, 116).
edge(17, 130).
edge(21, 133).
edge(20, 50).
edge(47, 106).
edge(7, 48).
edge(25, 89).
edge(99, 101).
edge(88, 98).
edge(102, 138).
edge(20, 68).
edge(9, 101).
edge(73, 92).
edge(27, 111).
edge(9, 90).
edge(51, 62).
edge(7, 123).
edge(36, 49).
edge(22, 66).
edge(7, 51).
edge(92, 142).
edge(100, 112).
edge(19, 44).
edge(51, 123).
edge(74, 75).
edge(11, 21).
edge(92, 119).
edge(47, 100).
edge(107, 132).
edge(128, 137).
edge(33, 123).
edge(9, 89).
edge(121, 125).
edge(49, 103).
edge(5, 25).
edge(42, 132).
edge(36, 42).
edge(76, 118).
edge(44, 93).
edge(9, 87).
edge(52, 108).
edge(64, 74).
edge(39, 75).
edge(73, 135).
edge(94, 135).
edge(0, 34).
edge(21, 71).
edge(28, 67).
edge(75, 134).
edge(36, 143).
edge(117, 143).
edge(22, 109).
edge(105, 132).
edge(116, 140).
edge(19, 127).
edge(20, 137).
edge(8, 131).
edge(75, 84).
edge(9, 96).
edge(39, 98).
edge(79, 131).
edge(118, 139).
edge(36, 92).
edge(3, 135).
edge(0, 59).
edge(127, 142).
edge(71, 134).
edge(59, 71).
edge(7, 53).
edge(21, 131).
edge(6, 17).
edge(7, 141).
edge(96, 124).
edge(24, 142).
edge(46, 113).
edge(62, 141).
edge(24, 28).
edge(20, 24).
edge(113, 118).
edge(3, 85).
edge(19, 21).
edge(124, 134).
edge(0, 63).
edge(29, 35).
edge(58, 61).
edge(52, 114).
edge(22, 29).
edge(35, 92).
edge(37, 141).
edge(72, 133).
edge(32, 103).
edge(17, 44).
edge(30, 103).
edge(22, 105).
edge(13, 67).
edge(4, 8).
edge(90, 103).
edge(87, 126).
edge(17, 28).
edge(17, 53).
edge(85, 124).
edge(20, 85).
edge(57, 128).
edge(53, 112).
edge(25, 96).
edge(87, 140).
edge(11, 126).
edge(48, 109).
edge(8, 110).
edge(19, 88).
edge(28, 135).
edge(56, 107).
edge(7, 94).
edge(134, 143).
edge(22, 69).
edge(10, 66).
edge(49, 109).
edge(60, 118).
edge(46, 53).
edge(51, 118).
edge(48, 123).
edge(114, 120).
edge(7, 35).
edge(137, 142).
edge(50, 95).
edge(6, 129).
edge(59, 126).
edge(2, 38).
edge(37, 115).
edge(87, 134).
edge(39, 79).
edge(44, 144).
edge(90, 104).
edge(26, 80).
edge(60, 69).
edge(13, 97).
edge(81, 137).
edge(76, 105).
edge(27, 59).
edge(5, 26).
edge(52, 84).
edge(24, 86).
edge(0, 137).
edge(114, 125).
edge(61, 104).
edge(13, 82).
edge(39, 114).
edge(5, 116).
edge(28, 77).
edge(77, 122).
edge(13, 74).
edge(43, 107).
edge(11, 84).
edge(71, 84).
edge(41, 55).
edge(90, 100).
edge(11, 123).
edge(20, 70).
edge(34, 92).
edge(9, 97).
edge(90, 116).
edge(11, 142).
edge(95, 101).
edge(16, 32).
edge(28, 61).
edge(14, 87).
edge(31, 86).
edge(89, 104).
edge(47, 90).
edge(68, 107).
edge(72, 115).
edge(12, 107).
edge(56, 59).
edge(28, 106).
edge(72, 142).
edge(111, 112).
edge(108, 124).
edge(34, 111).
edge(81, 89).
edge(43, 58).
edge(75, 82).
edge(7, 70).
edge(53, 88).
edge(41, 114).
edge(7, 116).
edge(19, 126).
edge(20, 108).
edge(64, 97).
edge(24, 60).
edge(90, 136).
edge(29, 144).
edge(121, 141).
edge(7, 78).
edge(98, 123).
edge(55, 67).
edge(67, 78).
edge(61, 144).
edge(73, 108).
edge(69, 89).
edge(6, 21).
edge(43, 82).
edge(26, 113).
edge(52, 67).
edge(7, 117).
edge(47, 76).
edge(131, 132).
edge(17, 26).
edge(2, 132).
edge(79, 97).
edge(43, 88).
edge(1, 57).
edge(103, 130).
edge(1, 73).
edge(114, 115).
edge(96, 104).
edge(7, 85).
edge(15, 25).
edge(46, 115).
edge(97, 118).
edge(13, 89).
edge(9, 139).
edge(20, 51).
edge(93, 99).
edge(64, 135).
edge(37, 52).
edge(12, 111).
edge(99, 104).
edge(65, 144).
edge(62, 91).
edge(105, 114).
edge(47, 57).
edge(53, 59).
edge(98, 118).
edge(113, 125).
edge(7, 49).
edge(0, 112).
edge(53, 95).
edge(48, 80).
edge(123, 140).
edge(2, 19).
edge(115, 140).
edge(87, 121).
edge(71, 103).
edge(37, 54).
edge(37, 114).
edge(67, 80).
edge(2, 113).
edge(6, 137).
edge(55, 60).
edge(80, 126).
edge(55, 133).
edge(13, 30).
edge(75, 85).
edge(9, 73).
edge(2, 48).
edge(44, 116).
edge(121, 144).
edge(83, 131).
edge(9, 137).
edge(69, 84).
edge(56, 86).
edge(48, 74).
edge(78, 133).
edge(90, 112).
edge(43, 137).
edge(0, 43).
edge(50, 106).
edge(41, 89).
edge(36, 83).
edge(51, 85).
edge(134, 144).
edge(65, 79).
edge(39, 116).
edge(16, 78).
edge(7, 57).
edge(43, 102).
edge(111, 137).
edge(43, 48).
edge(12, 82).
edge(17, 99).
edge(46, 119).
edge(60, 133).
edge(1, 104).
edge(17, 46).
edge(92, 144).
edge(28, 54).
edge(42, 87).
edge(73, 132).
edge(78, 91).
edge(112, 115).
edge(30, 91).
edge(36, 120).
edge(122, 134).
edge(54, 88).
edge(15, 80).
edge(67, 134).
edge(21, 105).
edge(89, 107).
edge(22, 75).
edge(95, 134).
edge(75, 130).
edge(7, 68).
edge(43, 97).
edge(101, 106).
edge(10, 101).
edge(69, 96).
edge(7, 87).
edge(40, 59).
edge(15, 105).
edge(88, 133).
edge(70, 80).
edge(20, 38).
edge(71, 98).
edge(26, 32).
edge(0, 69).
edge(67, 74).
edge(29, 37).
edge(21, 50).
edge(66, 143).
edge(49, 128).
edge(63, 123).
edge(9, 26).
edge(17, 77).
edge(2, 74).
edge(84, 132).
edge(121, 136).
edge(26, 68).
edge(11, 27).
edge(4, 15).
edge(1, 122).
edge(90, 142).
edge(59, 102).
edge(39, 69).
edge(86, 109).
edge(4, 5).
edge(37, 40).
edge(22, 113).
edge(62, 132).
edge(62, 65).
edge(24, 127).
edge(75, 140).
edge(2, 101).
edge(8, 55).
edge(25, 58).
edge(10, 81).
edge(14, 137).
edge(34, 46).
edge(28, 110).
edge(18, 52).
edge(21, 44).
edge(104, 133).
edge(45, 97).
edge(56, 99).
edge(55, 96).
edge(47, 59).
edge(86, 139).
edge(58, 123).
edge(123, 135).
edge(48, 120).
edge(15, 107).
edge(16, 94).
edge(2, 86).
edge(93, 96).
edge(142, 143).
edge(101, 137).
edge(57, 99).
edge(58, 82).
edge(57, 82).
edge(16, 130).
edge(9, 35).
edge(13, 136).
edge(45, 80).
edge(19, 135).
edge(3, 47).
edge(1, 80).
edge(104, 132).
edge(13, 54).
edge(68, 137).
edge(120, 125).
edge(21, 86).
edge(5, 35).
edge(121, 130).
edge(38, 60).
edge(84, 110).
edge(36, 116).
edge(110, 142).
edge(64, 137).
edge(102, 125).
edge(67, 108).
edge(66, 80).
edge(9, 131).
edge(12, 110).
edge(9, 50).
edge(47, 84).
edge(115, 123).
edge(3, 118).
edge(17, 81).
edge(122, 136).
edge(14, 62).
edge(17, 74).
edge(8, 112).
edge(18, 69).
edge(116, 124).
edge(61, 115).
edge(72, 134).
edge(104, 123).
edge(5, 10).
edge(48, 77).
edge(113, 143).
edge(28, 56).
edge(48, 79).
edge(51, 142).
edge(29, 110).
edge(45, 83).
edge(4, 34).
edge(36, 101).
edge(126, 144).
edge(41, 125).
edge(40, 88).
edge(143, 144).
edge(25, 128).
edge(11, 42).
edge(78, 87).
edge(6, 106).
edge(40, 126).
edge(54, 67).
edge(15, 72).
edge(40, 41).
edge(4, 10).
edge(23, 91).
edge(84, 123).
edge(106, 122).
edge(21, 92).
edge(48, 90).
edge(59, 78).
edge(22, 32).
edge(7, 108).
edge(104, 107).
edge(120, 128).
edge(61, 122).
edge(118, 132).
edge(96, 123).
edge(39, 89).
edge(54, 132).
edge(53, 93).
edge(5, 34).
edge(17, 42).
edge(95, 137).
edge(14, 133).
edge(8, 45).
edge(67, 120).
edge(50, 110).
edge(56, 73).
edge(54, 115).
edge(46, 92).
edge(7, 41).
edge(28, 44).
edge(57, 91).
edge(56, 110).
edge(12, 27).
edge(5, 129).
edge(27, 94).
edge(42, 124).
edge(109, 133).
edge(64, 143).
edge(38, 79).
edge(63, 74).
edge(99, 116).
edge(21, 117).
edge(33, 86).
edge(25, 136).
edge(25, 74).
edge(6, 47).
edge(30, 115).
edge(29, 59).
edge(48, 133).
edge(14, 26).
edge(0, 142).
edge(86, 90).
edge(91, 118).
edge(38, 82).
edge(39, 101).
edge(99, 139).
edge(22, 37).
edge(95, 99).
edge(39, 78).
edge(114, 133).
edge(31, 89).
edge(6, 84).
edge(6, 9).
edge(57, 61).
edge(23, 120).
edge(41, 44).
edge(23, 134).
edge(57, 115).
edge(34, 123).
edge(30, 65).
edge(8, 39).
edge(45, 92).
edge(8, 64).
edge(43, 93).
edge(3, 74).
edge(27, 119).
edge(1, 108).
edge(5, 123).
edge(83, 141).
edge(91, 98).
edge(31, 64).
edge(5, 11).
edge(4, 73).
edge(14, 21).
edge(30, 133).
edge(6, 33).
edge(31, 125).
edge(33, 82).
edge(69, 141).
edge(9, 117).
edge(45, 76).
edge(0, 77).
edge(16, 107).
edge(9, 120).
edge(46, 61).
edge(7, 79).
edge(37, 140).
edge(82, 113).
edge(116, 134).
edge(13, 124).
edge(47, 136).
edge(63, 80).
edge(10, 122).
edge(77, 144).
edge(65, 76).
edge(94, 106).
edge(71, 85).
edge(6, 22).
edge(35, 105).
edge(30, 69).
edge(54, 68).
edge(11, 78).
edge(102, 108).
edge(10, 134).
edge(90, 125).
edge(44, 140).
edge(47, 125).
edge(24, 58).
edge(80, 103).
edge(17, 101).
edge(13, 69).
edge(91, 136).
edge(87, 132).
edge(55, 105).
edge(45, 82).
edge(36, 45).
edge(29, 132).
edge(8, 34).
edge(69, 70).
edge(24, 141).
edge(22, 73).
edge(13, 141).
edge(1, 29).
edge(3, 125).
edge(52, 57).
edge(27, 74).
edge(53, 103).
edge(12, 34).
edge(47, 129).
edge(30, 138).
edge(23, 25).
edge(2, 122).
edge(17, 129).
edge(77, 103).
edge(62, 103).
edge(97, 102).
edge(27, 75).
edge(123, 125).
edge(35, 94).
edge(82, 96).
edge(26, 38).
edge(38, 144).
edge(26, 58).
edge(56, 61).
edge(12, 40).
edge(116, 119).
edge(22, 84).
edge(23, 125).
edge(52, 106).
edge(126, 143).
edge(34, 126).
edge(11, 18).
edge(62, 111).
edge(10, 17).
edge(11, 92).
edge(58, 77).
edge(78, 120).
edge(19, 75).
edge(29, 118).
edge(56, 97).
edge(26, 51).
edge(64, 132).
edge(103, 137).
edge(4, 54).
edge(51, 53).
edge(9, 43).
edge(24, 122).
edge(9, 51).
edge(23, 67).
edge(13, 45).
edge(17, 64).
edge(43, 106).
edge(24, 56).
edge(4, 43).
edge(54, 121).
edge(31, 108).
edge(27, 51).
edge(119, 139).
edge(31, 120).
edge(109, 128).
edge(38, 70).
edge(13, 86).
edge(2, 61).
edge(29, 99).
edge(11, 49).
edge(1, 87).
edge(67, 142).
edge(42, 94).
edge(53, 133).
edge(36, 115).
edge(26, 139).
edge(30, 95).
edge(37, 65).
edge(103, 114).
edge(16, 102).
edge(24, 144).
edge(71, 88).
edge(33, 38).
edge(117, 129).
edge(7, 47).
edge(10, 40).
edge(71, 77).
edge(13, 100).
edge(129, 143).
edge(87, 97).
edge(56, 119).
edge(83, 84).
edge(117, 127).
edge(37, 56).
edge(23, 42).
edge(87, 142).
edge(93, 128).
edge(24, 35).
edge(60, 73).
edge(17, 49).
edge(57, 121).
edge(15, 136).
edge(26, 128).
edge(16, 89).
edge(0, 55).
edge(24, 91).
edge(26, 101).
edge(30, 110).
edge(37, 91).
edge(49, 134).
edge(76, 101).
edge(3, 51).
edge(49, 105).
edge(88, 97).
edge(99, 110).
edge(11, 59).
edge(4, 29).
edge(77, 125).
edge(122, 143).
edge(28, 39).
edge(87, 107).
edge(65, 81).
edge(42, 60).
edge(25, 91).
edge(26, 92).
edge(59, 133).
edge(31, 67).
edge(77, 136).
edge(0, 7).
edge(25, 101).
edge(6, 43).
edge(41, 60).
edge(96, 140).
edge(66, 89).
edge(14, 70).
edge(12, 115).
edge(32, 42).
edge(74, 144).
edge(74, 119).
edge(37, 77).
edge(1, 106).
edge(91, 99).
edge(32, 83).
edge(1, 127).
edge(37, 132).
edge(19, 100).
edge(104, 122).
edge(12, 121).
edge(8, 109).
edge(31, 141).
edge(62, 116).
edge(3, 71).
edge(11, 44).
edge(19, 59).
edge(4, 120).
edge(48, 105).
edge(67, 125).
edge(4, 131).
edge(6, 57).
edge(59, 103).
edge(98, 109).
edge(109, 110).
edge(89, 130).
edge(85, 129).
edge(76, 87).
edge(87, 129).
edge(6, 126).
edge(54, 70).
edge(23, 64).
edge(21, 52).
edge(30, 120).
edge(46, 60).
edge(76, 80).
edge(72, 74).
edge(4, 90).
edge(10, 97).
edge(89, 137).
edge(65, 139).
edge(59, 113).
edge(22, 65).
edge(2, 142).
edge(20, 56).
edge(48, 76).
edge(105, 106).
edge(13, 110).
edge(39, 100).
edge(139, 141).
edge(18, 124).
edge(41, 77).
edge(13, 70).
edge(18, 143).
edge(50, 117).
edge(25, 126).
edge(21, 113).
edge(20, 138).
edge(30, 86).
edge(36, 67).
edge(141, 143).
edge(3, 141).
edge(59, 63).
edge(46, 81).
edge(73, 126).
edge(39, 67).
edge(123, 138).
edge(4, 17).
edge(33, 100).
edge(84, 114).
edge(94, 113).
edge(2, 7).
edge(56, 63).
edge(18, 24).
edge(11, 14).
edge(35, 86).
edge(36, 81).
edge(47, 73).
edge(88, 91).
edge(72, 98).
edge(79, 137).
edge(16, 48).
edge(15, 126).
edge(35, 127).
edge(103, 111).
edge(48, 98).
edge(74, 106).
edge(4, 88).
edge(118, 127).
edge(67, 75).
edge(103, 109).
edge(62, 134).
edge(69, 140).
edge(23, 47).
edge(94, 143).
edge(59, 88).
edge(76, 90).
edge(34, 132).
edge(17, 22).
edge(47, 93).
edge(15, 81).
edge(16, 55).
edge(30, 142).
edge(39, 66).
edge(71, 120).
edge(42, 120).
edge(25, 118).
edge(6, 85).
edge(6, 102).
edge(2, 46).
edge(15, 108).
edge(73, 109).
edge(61, 124).
edge(20, 76).
edge(68, 141).
edge(111, 131).
edge(16, 106).
edge(7, 43).
edge(88, 108).
edge(3, 140).
edge(40, 52).
edge(16, 52).
edge(45, 109).
edge(11, 99).
edge(71, 99).
edge(25, 94).
edge(49, 60).
edge(24, 43).
edge(75, 113).
edge(27, 98).
edge(118, 136).
edge(34, 107).
edge(26, 50).
edge(42, 121).
edge(75, 101).
edge(10, 130).
edge(2, 57).
edge(3, 79).
edge(65, 99).
edge(27, 137).
edge(63, 91).
edge(29, 91).
edge(8, 65).
edge(13, 27).
edge(44, 68).
edge(79, 84).
edge(39, 107).
edge(83, 134).
edge(17, 107).
edge(7, 140).
edge(121, 142).
edge(55, 94).
edge(68, 119).
edge(41, 120).
edge(9, 71).
edge(1, 115).
edge(115, 127).
edge(65, 71).
edge(70, 71).
weight(0, 17).
weight(1, 6).
weight(2, 15).
weight(3, 16).
weight(4, 4).
weight(5, 8).
weight(6, 9).
weight(7, 9).
weight(8, 10).
weight(9, 6).
weight(10, 19).
weight(11, 1).
weight(12, 9).
weight(13, 10).
weight(14, 17).
weight(15, 16).
weight(16, 17).
weight(17, 19).
weight(18, 1).
weight(19, 5).
weight(20, 2).
weight(21, 5).
weight(22, 17).
weight(23, 12).
weight(24, 14).
weight(25, 6).
weight(26, 2).
weight(27, 7).
weight(28, 14).
weight(29, 20).
weight(30, 6).
weight(31, 18).
weight(32, 14).
weight(33, 13).
weight(34, 9).
weight(35, 2).
weight(36, 9).
weight(37, 3).
weight(38, 3).
weight(39, 1).
weight(40, 1).
weight(41, 5).
weight(42, 20).
weight(43, 12).
weight(44, 3).
weight(45, 1).
weight(46, 17).
weight(47, 3).
weight(48, 8).
weight(49, 10).
weight(50, 13).
weight(51, 2).
weight(52, 2).
weight(53, 1).
weight(54, 13).
weight(55, 4).
weight(56, 12).
weight(57, 11).
weight(58, 7).
weight(59, 3).
weight(60, 20).
weight(61, 18).
weight(62, 19).
weight(63, 4).
weight(64, 17).
weight(65, 10).
weight(66, 3).
weight(67, 20).
weight(68, 9).
weight(69, 11).
weight(70, 12).
weight(71, 9).
weight(72, 17).
weight(73, 16).
weight(74, 3).
weight(75, 8).
weight(76, 2).
weight(77, 12).
weight(78, 11).
weight(79, 8).
weight(80, 3).
weight(81, 13).
weight(82, 19).
weight(83, 4).
weight(84, 3).
weight(85, 17).
weight(86, 15).
weight(87, 4).
weight(88, 1).
weight(89, 7).
weight(90, 13).
weight(91, 13).
weight(92, 3).
weight(93, 14).
weight(94, 1).
weight(95, 6).
weight(96, 8).
weight(97, 6).
weight(98, 17).
weight(99, 9).
weight(100, 19).
weight(101, 13).
weight(102, 3).
weight(103, 1).
weight(104, 10).
weight(105, 12).
weight(106, 8).
weight(107, 4).
weight(108, 9).
weight(109, 12).
weight(110, 9).
weight(111, 18).
weight(112, 1).
weight(113, 15).
weight(114, 4).
weight(115, 18).
weight(116, 19).
weight(117, 1).
weight(118, 18).
weight(119, 10).
weight(120, 20).
weight(121, 3).
weight(122, 10).
weight(123, 4).
weight(124, 8).
weight(125, 8).
weight(126, 3).
weight(127, 5).
weight(128, 11).
weight(129, 7).
weight(130, 6).
weight(131, 9).
weight(132, 17).
weight(133, 11).
weight(134, 20).
weight(135, 20).
weight(136, 15).
weight(137, 18).
weight(138, 6).
weight(139, 10).
weight(140, 8).
weight(141, 13).
weight(142, 1).
weight(143, 16).
weight(144, 16).

{in(V)} :- node(V).
:- in(U), in(V), U < V, not edge(U,V).
:~ not in(V), weight(V,W). [W@1,V]
