node(0..135).
edge(4, 126).
edge(52, 61).
edge(70, 71).
edge(8, 63).
edge(65, 66).
edge(68, 78).
edge(79, 87).
edge(35, 41).
edge(2, 24).
edge(10, 92).
edge(13, 56).
edge(13, 33).
edge(14, 119).
edge(7, 38).
edge(34, 93).
edge(50, 120).
edge(32, 49).
edge(18, 21).
edge(98, 125).
edge(129, 132).
edge(41, 109).
edge(16, 20).
edge(49, 73).
edge(44, 122).
edge(12, 89).
edge(79, 89).
edge(26, 36).
edge(125, 134).
edge(81, 102).
edge(1, 88).
edge(36, 76).
edge(27, 97).
edge(8, 107).
edge(60, 121).
edge(7, 121).
edge(56, 114).
edge(43, 121).
edge(29, 134).
edge(89, 131).
edge(29, 130).
edge(70, 83).
edge(5, 66).
edge(89, 100).
edge(16, 78).
edge(62, 108).
edge(18, 64).
edge(60, 103).
edge(102, 108).
edge(12, 63).
edge(9, 74).
edge(26, 132).
edge(9, 27).
edge(68, 117).
edge(13, 67).
edge(6, 93).
edge(40, 59).
edge(33, 89).
edge(90, 91).
edge(2, 112).
edge(2, 27).
edge(24, 70).
edge(11, 29).
edge(18, 66).
edge(0, 35).
edge(48, 134).
edge(22, 97).
edge(24, 129).
edge(37, 122).
edge(38, 95).
edge(92, 124).
edge(0, 41).
edge(71, 97).
edge(96, 97).
edge(73, 74).
edge(39, 108).
edge(17, 75).
edge(15, 19).
edge(4, 95).
edge(24, 55).
edge(110, 119).
edge(45, 55).
edge(4, 56).
edge(19, 25).
edge(31, 102).
edge(62, 107).
edge(6, 109).
edge(14, 115).
edge(9, 104).
edge(40, 127).
edge(51, 86).
edge(52, 72).
edge(54, 104).
edge(40, 109).
edge(72, 78).
edge(11, 21).
edge(74, 87).
edge(45, 63).
edge(11, 102).
edge(0, 86).
edge(22, 106).
edge(35, 46).
edge(32, 68).
edge(45, 59).
edge(59, 93).
edge(26, 102).
edge(109, 126).
edge(76, 113).
edge(104, 119).
edge(73, 75).
edge(8, 28).
edge(31, 132).
edge(13, 15).
edge(78, 103).
edge(6, 131).
edge(13, 128).
edge(54, 96).
edge(31, 108).
edge(90, 114).
edge(6, 76).
edge(85, 116).
edge(41, 80).
edge(86, 131).
edge(31, 125).
edge(73, 94).
edge(63, 64).
edge(53, 135).
edge(71, 93).
edge(79, 100).
edge(6, 61).
edge(14, 24).
edge(108, 120).
edge(9, 118).
edge(63, 114).
edge(75, 93).
edge(58, 128).
edge(3, 10).
edge(43, 94).
edge(12, 93).
edge(43, 72).
edge(17, 53).
edge(4, 119).
edge(97, 114).
edge(128, 130).
edge(53, 118).
edge(79, 96).
edge(31, 135).
edge(17, 59).
edge(12, 119).
edge(40, 105).
edge(29, 88).
edge(12, 17).
edge(4, 22).
edge(57, 75).
edge(48, 66).
edge(40, 118).
edge(9, 123).
edge(54, 95).
edge(2, 60).
edge(50, 130).
edge(28, 87).
edge(45, 85).
edge(16, 67).
edge(55, 132).
edge(22, 133).
edge(56, 98).
edge(4, 27).
edge(2, 99).
edge(82, 121).
edge(9, 92).
edge(11, 28).
edge(52, 64).
edge(77, 122).
edge(73, 120).
edge(8, 30).
edge(36, 41).
edge(24, 98).
edge(62, 97).
edge(23, 128).
edge(56, 85).
edge(14, 100).
edge(0, 16).
edge(21, 115).
edge(5, 60).
edge(11, 25).
edge(0, 18).
edge(88, 97).
edge(1, 21).
edge(2, 73).
edge(48, 56).
edge(57, 106).
edge(29, 102).
edge(41, 93).
edge(10, 24).
edge(56, 82).
edge(117, 133).
edge(4, 131).
edge(107, 110).
edge(97, 101).
edge(26, 92).
edge(3, 61).
edge(75, 84).
edge(61, 87).
edge(25, 112).
edge(21, 74).
edge(20, 94).
edge(95, 101).
edge(117, 127).
edge(107, 111).
edge(79, 131).
edge(8, 109).
edge(21, 96).
edge(57, 62).
edge(24, 41).
edge(69, 118).
edge(19, 117).
edge(70, 120).
edge(67, 110).
edge(8, 29).
edge(30, 84).
edge(21, 72).
edge(18, 46).
edge(9, 134).
edge(97, 135).
edge(71, 116).
edge(30, 56).
edge(29, 61).
edge(50, 77).
edge(48, 71).
edge(56, 87).
edge(68, 128).
edge(35, 105).
edge(83, 128).
edge(44, 50).
edge(25, 75).
edge(30, 124).
edge(79, 105).
edge(117, 126).
edge(34, 44).
edge(68, 77).
edge(31, 52).
edge(33, 46).
edge(81, 107).
edge(46, 102).
edge(68, 90).
edge(33, 35).
edge(41, 62).
edge(10, 111).
edge(4, 63).
edge(56, 115).
edge(19, 45).
edge(17, 40).
edge(42, 96).
edge(87, 112).
edge(3, 9).
edge(50, 83).
edge(76, 135).
edge(6, 15).
edge(81, 88).
edge(20, 117).
edge(19, 47).
edge(16, 112).
edge(7, 13).
edge(29, 58).
edge(63, 118).
edge(2, 118).
edge(28, 82).
edge(17, 100).
edge(25, 111).
edge(5, 55).
edge(48, 81).
edge(55, 104).
edge(53, 100).
edge(52, 54).
edge(87, 115).
edge(38, 48).
edge(79, 98).
edge(101, 109).
edge(126, 132).
edge(17, 93).
edge(6, 102).
edge(16, 50).
edge(78, 79).
edge(105, 106).
edge(47, 101).
edge(38, 116).
edge(70, 103).
edge(4, 128).
edge(60, 117).
edge(37, 106).
edge(45, 92).
edge(29, 73).
edge(78, 134).
edge(83, 89).
edge(51, 58).
edge(1, 92).
edge(103, 124).
edge(9, 109).
edge(28, 117).
edge(24, 105).
edge(111, 120).
edge(29, 95).
edge(33, 88).
edge(119, 133).
edge(15, 76).
edge(37, 63).
edge(58, 92).
edge(29, 70).
edge(11, 110).
edge(46, 91).
edge(35, 42).
edge(0, 116).
edge(33, 113).
edge(30, 85).
edge(48, 92).
edge(25, 41).
edge(73, 106).
edge(55, 112).
edge(55, 81).
edge(31, 133).
edge(127, 130).
edge(27, 33).
edge(2, 64).
edge(90, 119).
edge(52, 77).
edge(23, 67).
edge(8, 78).
edge(25, 118).
edge(4, 120).
edge(14, 32).
edge(85, 110).
edge(130, 133).
edge(62, 70).
edge(100, 105).
edge(25, 88).
edge(21, 65).
edge(75, 120).
edge(38, 69).
edge(16, 110).
edge(26, 120).
edge(21, 33).
edge(105, 115).
edge(78, 122).
edge(116, 133).
edge(56, 73).
edge(19, 82).
edge(29, 33).
edge(33, 36).
edge(101, 114).
edge(6, 27).
edge(38, 104).
edge(68, 96).
edge(126, 127).
edge(93, 105).
edge(12, 22).
edge(1, 31).
edge(25, 72).
edge(36, 83).
edge(42, 85).
edge(63, 95).
edge(36, 98).
edge(56, 107).
edge(12, 120).
edge(92, 117).
edge(25, 59).
edge(113, 131).
edge(85, 124).
edge(27, 51).
edge(15, 30).
edge(55, 66).
edge(24, 34).
edge(10, 11).
edge(62, 86).
edge(110, 127).
edge(59, 120).
edge(11, 46).
edge(8, 106).
edge(118, 131).
edge(0, 13).
edge(101, 133).
edge(39, 120).
edge(97, 132).
edge(63, 106).
edge(60, 78).
edge(12, 82).
edge(62, 82).
edge(44, 130).
edge(77, 84).
edge(43, 54).
edge(74, 105).
edge(22, 124).
edge(22, 79).
edge(8, 44).
edge(119, 121).
edge(2, 110).
edge(12, 74).
edge(5, 76).
edge(24, 36).
edge(56, 110).
edge(0, 33).
edge(59, 66).
edge(19, 40).
edge(45, 48).
edge(28, 84).
edge(28, 32).
edge(104, 128).
edge(23, 123).
edge(40, 97).
edge(78, 102).
edge(25, 26).
edge(58, 132).
edge(57, 134).
edge(5, 68).
edge(75, 131).
edge(15, 38).
edge(73, 88).
edge(102, 118).
edge(45, 89).
edge(7, 81).
edge(45, 77).
edge(84, 125).
edge(1, 68).
edge(10, 129).
edge(15, 55).
edge(4, 55).
edge(10, 89).
edge(22, 85).
edge(25, 126).
edge(59, 92).
edge(55, 94).
edge(62, 87).
edge(85, 96).
edge(59, 103).
edge(5, 114).
edge(11, 134).
edge(32, 133).
edge(52, 57).
edge(18, 54).
edge(39, 47).
edge(87, 90).
edge(11, 35).
edge(21, 52).
edge(44, 63).
edge(6, 54).
edge(67, 93).
edge(5, 10).
edge(19, 88).
edge(111, 127).
edge(63, 126).
edge(64, 66).
edge(40, 128).
edge(31, 112).
edge(82, 84).
edge(13, 133).
edge(61, 103).
edge(105, 119).
edge(76, 126).
edge(72, 83).
edge(77, 81).
edge(71, 108).
edge(41, 106).
edge(13, 83).
edge(75, 133).
edge(82, 86).
edge(83, 133).
edge(78, 119).
edge(82, 87).
edge(90, 129).
edge(16, 26).
edge(4, 71).
edge(1, 24).
edge(81, 101).
edge(85, 98).
edge(75, 114).
edge(102, 112).
edge(114, 116).
edge(27, 116).
edge(58, 106).
edge(10, 113).
edge(41, 91).
edge(12, 68).
edge(50, 110).
edge(37, 53).
edge(43, 92).
edge(118, 133).
edge(4, 49).
edge(15, 87).
edge(11, 121).
edge(42, 71).
edge(47, 118).
edge(66, 99).
edge(9, 35).
edge(33, 65).
edge(8, 83).
edge(33, 56).
edge(11, 68).
edge(37, 87).
edge(75, 125).
edge(43, 80).
edge(26, 47).
edge(82, 83).
edge(41, 121).
edge(32, 48).
edge(37, 107).
edge(130, 132).
edge(52, 122).
edge(10, 107).
edge(76, 84).
edge(57, 71).
edge(17, 112).
edge(99, 119).
edge(2, 84).
edge(54, 78).
edge(92, 123).
edge(97, 106).
edge(48, 132).
edge(37, 134).
edge(83, 102).
edge(70, 112).
edge(49, 130).
edge(129, 130).
edge(90, 108).
edge(2, 85).
edge(97, 127).
edge(0, 79).
edge(21, 55).
edge(38, 49).
edge(20, 99).
edge(46, 86).
edge(70, 92).
edge(1, 43).
edge(8, 38).
edge(110, 118).
edge(17, 25).
edge(65, 75).
edge(38, 106).
edge(54, 115).
edge(50, 101).
edge(46, 81).
edge(6, 35).
edge(59, 81).
edge(14, 21).
edge(42, 109).
edge(51, 118).
edge(47, 51).
edge(32, 123).
edge(18, 130).
edge(27, 36).
edge(31, 66).
edge(32, 128).
edge(58, 95).
edge(4, 26).
edge(2, 36).
edge(103, 121).
edge(32, 69).
edge(13, 113).
edge(30, 32).
edge(30, 116).
edge(20, 43).
edge(71, 77).
edge(69, 103).
edge(15, 118).
edge(0, 44).
edge(16, 95).
edge(82, 91).
edge(99, 100).
edge(20, 96).
edge(43, 115).
edge(3, 7).
edge(55, 56).
edge(113, 128).
edge(29, 31).
edge(48, 99).
edge(3, 82).
edge(89, 109).
edge(27, 87).
edge(109, 131).
edge(84, 92).
edge(55, 64).
edge(9, 53).
edge(14, 34).
edge(87, 128).
edge(20, 100).
edge(62, 109).
edge(96, 113).
edge(69, 91).
edge(54, 132).
edge(71, 128).
edge(96, 122).
edge(67, 123).
edge(9, 69).
edge(9, 131).
edge(94, 126).
edge(70, 76).
edge(54, 76).
edge(81, 123).
edge(0, 126).
edge(18, 129).
edge(83, 111).
edge(86, 117).
edge(53, 129).
edge(12, 95).
edge(56, 64).
edge(3, 103).
edge(13, 31).
edge(36, 102).
edge(7, 111).
edge(74, 90).
edge(113, 123).
edge(10, 103).
edge(22, 104).
edge(118, 125).
edge(48, 130).
edge(92, 100).
edge(10, 99).
edge(6, 9).
edge(49, 105).
edge(40, 82).
edge(62, 93).
edge(15, 116).
edge(83, 84).
edge(19, 100).
edge(71, 133).
edge(10, 112).
edge(20, 91).
edge(27, 53).
edge(56, 86).
edge(67, 69).
edge(36, 100).
edge(14, 92).
edge(51, 88).
edge(6, 60).
edge(56, 130).
edge(26, 84).
edge(61, 121).
edge(88, 122).
edge(27, 61).
edge(86, 88).
edge(97, 104).
edge(59, 99).
edge(36, 97).
edge(94, 108).
edge(52, 120).
edge(48, 96).
edge(118, 123).
edge(36, 122).
edge(18, 101).
edge(71, 103).
edge(5, 87).
edge(3, 87).
edge(64, 84).
edge(9, 45).
edge(84, 113).
edge(71, 113).
edge(109, 135).
edge(30, 110).
edge(8, 24).
edge(63, 94).
edge(12, 97).
edge(5, 104).
edge(44, 106).
edge(106, 131).
edge(23, 27).
edge(31, 101).
edge(46, 116).
edge(8, 10).
edge(54, 66).
edge(93, 104).
edge(27, 73).
edge(2, 117).
edge(72, 127).
edge(25, 52).
edge(22, 135).
edge(33, 54).
edge(53, 86).
edge(100, 120).
edge(60, 65).
edge(3, 19).
edge(58, 123).
edge(69, 89).
edge(73, 101).
edge(29, 86).
edge(57, 123).
edge(44, 62).
edge(45, 90).
edge(83, 134).
edge(44, 92).
edge(18, 118).
edge(98, 100).
edge(85, 129).
edge(22, 35).
edge(57, 113).
edge(25, 49).
edge(3, 55).
edge(52, 103).
edge(5, 47).
edge(55, 128).
edge(86, 106).
edge(5, 90).
edge(102, 116).
edge(21, 127).
edge(84, 115).
edge(78, 83).
edge(24, 107).
edge(70, 107).
edge(52, 98).
edge(37, 44).
edge(11, 94).
edge(60, 110).
edge(51, 99).
edge(47, 92).
edge(59, 110).
edge(59, 69).
edge(83, 131).
edge(44, 69).
edge(50, 53).
edge(43, 50).
edge(10, 65).
edge(9, 40).
edge(35, 55).
edge(49, 119).
edge(5, 9).
edge(38, 108).
edge(53, 91).
edge(51, 87).
edge(86, 122).
edge(39, 130).
edge(28, 60).
edge(8, 57).
edge(3, 96).
edge(85, 130).
edge(75, 81).
edge(70, 77).
edge(32, 94).
edge(103, 117).
edge(88, 95).
edge(75, 97).
edge(14, 91).
edge(36, 56).
edge(40, 123).
edge(64, 71).
edge(49, 112).
edge(68, 106).
edge(56, 69).
edge(18, 43).
edge(8, 117).
edge(16, 39).
edge(83, 132).
edge(84, 108).
edge(6, 80).
edge(86, 127).
edge(30, 57).
edge(6, 22).
edge(103, 113).
edge(47, 107).
edge(45, 113).
edge(15, 92).
edge(6, 20).
edge(111, 133).
edge(54, 61).
edge(65, 120).
edge(56, 93).
edge(88, 109).
edge(64, 111).
edge(12, 110).
edge(18, 20).
edge(36, 96).
edge(120, 134).
edge(73, 122).
edge(104, 126).
edge(71, 112).
edge(36, 87).
edge(30, 80).
edge(22, 40).
edge(51, 56).
edge(13, 42).
edge(91, 117).
edge(93, 100).
edge(52, 63).
edge(2, 58).
edge(5, 34).
edge(22, 83).
edge(40, 51).
edge(20, 105).
edge(34, 46).
edge(114, 130).
edge(47, 59).
edge(54, 131).
edge(54, 80).
edge(27, 29).
edge(54, 63).
edge(66, 127).
edge(0, 98).
edge(91, 118).
edge(40, 71).
edge(40, 112).
edge(44, 93).
edge(53, 114).
edge(18, 133).
edge(29, 74).
edge(0, 103).
edge(56, 95).
edge(71, 83).
edge(60, 116).
edge(83, 114).
edge(17, 74).
edge(8, 53).
edge(13, 48).
edge(92, 104).
edge(10, 77).
edge(64, 76).
edge(22, 132).
edge(20, 45).
edge(53, 125).
edge(33, 133).
edge(65, 117).
edge(22, 116).
edge(31, 131).
edge(15, 129).
edge(36, 135).
edge(103, 120).
edge(80, 118).
edge(108, 110).
edge(7, 72).
edge(16, 55).
edge(43, 84).
edge(2, 35).
edge(32, 100).
edge(8, 124).
edge(16, 46).
edge(123, 129).
edge(7, 92).
edge(67, 127).
edge(53, 126).
edge(73, 98).
edge(1, 9).
edge(30, 133).
edge(45, 66).
edge(54, 110).
edge(94, 107).
edge(29, 75).
edge(53, 107).
edge(57, 135).
edge(20, 102).
edge(118, 122).
edge(104, 125).
edge(5, 31).
edge(11, 127).
edge(31, 83).
edge(4, 16).
edge(66, 118).
edge(31, 36).
edge(80, 95).
edge(8, 101).
edge(37, 101).
edge(46, 70).
edge(105, 127).
edge(42, 86).
edge(6, 94).
edge(5, 125).
edge(46, 73).
edge(32, 135).
edge(18, 79).
edge(47, 94).
edge(57, 58).
edge(11, 105).
edge(76, 128).
edge(1, 63).
edge(7, 44).
edge(35, 71).
edge(12, 111).
edge(8, 73).
edge(78, 131).
edge(65, 71).
edge(3, 42).
edge(52, 78).
edge(40, 44).
edge(49, 103).
edge(2, 77).
edge(51, 105).
edge(75, 118).
edge(36, 88).
edge(64, 122).
edge(90, 118).
edge(66, 123).
edge(58, 135).
edge(4, 92).
edge(32, 71).
edge(13, 75).
edge(109, 118).
edge(1, 32).
edge(20, 36).
edge(37, 38).
edge(44, 76).
edge(32, 73).
edge(107, 131).
edge(10, 47).
edge(30, 88).
edge(7, 16).
edge(14, 46).
edge(7, 112).
edge(57, 65).
edge(43, 83).
edge(85, 103).
edge(22, 112).
edge(27, 41).
edge(2, 39).
edge(25, 130).
edge(2, 108).
edge(39, 113).
edge(59, 63).
edge(2, 78).
edge(54, 90).
edge(57, 67).
edge(114, 120).
edge(49, 135).
edge(5, 65).
edge(80, 108).
edge(58, 111).
edge(90, 97).
edge(42, 117).
edge(86, 114).
edge(113, 133).
edge(56, 63).
edge(13, 86).
edge(9, 107).
edge(32, 47).
edge(37, 91).
edge(87, 97).
edge(68, 126).
edge(55, 78).
edge(30, 68).
edge(5, 59).
edge(64, 115).
edge(46, 58).
edge(116, 126).
edge(43, 125).
edge(10, 127).
edge(62, 74).
edge(78, 88).
edge(14, 97).
edge(27, 112).
edge(13, 17).
edge(40, 85).
edge(12, 25).
edge(49, 64).
edge(77, 115).
edge(13, 114).
edge(8, 31).
edge(44, 65).
edge(91, 135).
edge(111, 129).
edge(124, 133).
edge(33, 126).
edge(92, 131).
edge(77, 121).
edge(35, 107).
edge(16, 52).
edge(11, 128).
edge(13, 109).
edge(32, 57).
edge(102, 107).
edge(52, 106).
edge(2, 65).
edge(17, 32).
edge(36, 106).
edge(21, 63).
edge(73, 119).
edge(26, 28).
edge(17, 62).
edge(27, 130).
edge(117, 122).
edge(19, 46).
edge(95, 97).
edge(9, 127).
edge(65, 87).
edge(17, 80).
edge(58, 61).
edge(85, 91).
edge(27, 65).
edge(14, 55).
edge(9, 72).
edge(32, 92).
edge(76, 124).
edge(5, 24).
edge(52, 87).
edge(32, 85).
edge(123, 125).
edge(39, 105).
edge(56, 133).
edge(16, 58).
edge(76, 111).
edge(7, 33).
edge(69, 134).
edge(4, 100).
edge(33, 96).
edge(2, 68).
edge(14, 132).
edge(37, 39).
edge(30, 47).
edge(112, 119).
edge(83, 96).
edge(75, 101).
edge(96, 126).
edge(1, 58).
edge(28, 103).
edge(23, 133).
edge(33, 61).
edge(7, 98).
edge(0, 111).
edge(29, 93).
edge(56, 92).
edge(116, 129).
edge(8, 113).
edge(3, 28).
edge(52, 92).
edge(62, 133).
edge(30, 105).
edge(124, 127).
edge(44, 70).
edge(43, 98).
edge(7, 68).
edge(39, 133).
edge(53, 117).
edge(81, 99).
edge(50, 81).
edge(57, 127).
edge(25, 58).
edge(3, 99).
edge(13, 45).
edge(31, 56).
edge(107, 108).
edge(79, 95).
edge(16, 81).
edge(7, 80).
edge(1, 99).
edge(49, 83).
edge(77, 88).
edge(1, 78).
edge(35, 45).
edge(64, 83).
edge(90, 99).
edge(38, 90).
edge(82, 100).
edge(55, 102).
edge(17, 30).
edge(60, 111).
edge(62, 65).
edge(7, 116).
edge(29, 50).
edge(72, 84).
edge(19, 135).
edge(17, 87).
edge(67, 132).
edge(21, 118).
edge(53, 97).
edge(16, 49).
edge(116, 122).
edge(4, 43).
edge(1, 28).
edge(85, 133).
edge(7, 105).
edge(53, 127).
edge(27, 126).
edge(19, 93).
edge(1, 119).
edge(31, 118).
edge(6, 116).
edge(67, 72).
edge(59, 84).
edge(68, 86).
edge(22, 107).
edge(26, 89).
edge(1, 132).
edge(14, 39).
edge(33, 104).
edge(1, 127).
edge(55, 125).
edge(8, 47).
edge(113, 125).
edge(113, 119).
edge(1, 60).
edge(2, 7).
edge(20, 47).
edge(13, 73).
edge(96, 119).
edge(29, 108).
edge(50, 94).
edge(23, 53).
edge(29, 51).
edge(51, 67).
edge(58, 120).
edge(58, 112).
edge(32, 44).
edge(52, 95).
edge(61, 100).
edge(19, 32).
edge(116, 123).
edge(55, 122).
edge(74, 114).
edge(59, 60).
edge(106, 115).
edge(71, 130).
edge(17, 126).
edge(47, 63).
edge(67, 128).
edge(16, 102).
edge(82, 123).
edge(8, 52).
edge(30, 87).
edge(22, 77).
edge(19, 85).
edge(11, 95).
edge(5, 103).
edge(41, 99).
edge(10, 124).
edge(41, 48).
edge(97, 131).
edge(36, 44).
edge(47, 124).
edge(76, 86).
edge(35, 119).
edge(44, 101).
edge(7, 84).
edge(17, 24).
edge(41, 124).
edge(10, 27).
edge(133, 134).
edge(21, 41).
edge(25, 47).
edge(41, 79).
edge(11, 122).
edge(72, 97).
edge(43, 128).
edge(84, 99).
edge(25, 86).
edge(19, 44).
edge(58, 82).
edge(19, 71).
edge(9, 62).
edge(30, 111).
edge(23, 60).
edge(60, 123).
edge(65, 126).
edge(26, 67).
edge(82, 133).
edge(1, 76).
edge(29, 63).
edge(28, 125).
edge(101, 129).
edge(33, 39).
edge(19, 128).
edge(10, 118).
edge(14, 110).
edge(68, 111).
edge(94, 116).
edge(9, 48).
edge(61, 70).
edge(53, 93).
edge(86, 108).
edge(31, 33).
edge(59, 102).
edge(30, 44).
edge(10, 43).
edge(23, 134).
edge(23, 130).
edge(28, 65).
edge(2, 100).
edge(38, 115).
edge(35, 130).
edge(16, 133).
edge(115, 119).
edge(16, 108).
edge(90, 93).
edge(11, 118).
edge(36, 42).
edge(5, 109).
edge(2, 76).
edge(62, 92).
edge(10, 25).
edge(9, 16).
edge(115, 133).
edge(7, 69).
edge(27, 78).
edge(15, 123).
edge(57, 117).
edge(100, 121).
edge(43, 81).
edge(17, 111).
edge(42, 106).
edge(3, 64).
edge(84, 90).
edge(31, 82).
edge(119, 125).
edge(25, 32).
edge(17, 27).
edge(19, 123).
edge(10, 60).
edge(59, 111).
edge(33, 69).
edge(16, 57).
edge(29, 76).
edge(44, 78).
edge(16, 23).
edge(10, 35).
edge(94, 121).
edge(21, 39).
edge(8, 98).
edge(115, 134).
edge(78, 112).
edge(48, 53).
edge(100, 112).
edge(62, 102).
edge(5, 22).
edge(48, 102).
edge(26, 71).
edge(78, 87).
edge(23, 47).
edge(33, 115).
edge(18, 53).
edge(7, 41).
edge(58, 125).
edge(38, 76).
edge(67, 90).
edge(3, 22).
edge(11, 80).
edge(0, 14).
edge(80, 104).
edge(39, 56).
edge(3, 26).
edge(14, 78).
edge(19, 58).
edge(43, 105).
edge(10, 101).
edge(22, 72).
edge(74, 85).
edge(51, 104).
edge(31, 77).
edge(29, 43).
edge(123, 131).
edge(31, 81).
edge(48, 95).
edge(63, 69).
edge(13, 84).
edge(6, 62).
edge(11, 135).
edge(34, 43).
edge(98, 101).
edge(38, 121).
edge(25, 134).
edge(5, 8).
edge(122, 123).
edge(5, 35).
edge(30, 100).
edge(34, 128).
edge(48, 127).
edge(84, 110).
edge(125, 132).
edge(37, 123).
edge(5, 92).
edge(77, 134).
edge(14, 108).
edge(103, 125).
edge(76, 100).
edge(4, 125).
edge(42, 134).
edge(47, 106).
edge(110, 116).
edge(15, 78).
edge(30, 78).
edge(55, 90).
edge(101, 102).
edge(66, 98).
edge(23, 76).
edge(42, 115).
edge(80, 83).
edge(9, 18).
edge(28, 91).
edge(37, 55).
edge(51, 73).
edge(47, 121).
edge(93, 109).
edge(44, 117).
edge(54, 107).
edge(41, 71).
edge(66, 126).
edge(49, 72).
edge(66, 114).
edge(52, 111).
edge(24, 117).
edge(97, 105).
edge(52, 108).
edge(1, 89).
edge(115, 128).
edge(36, 49).
edge(33, 99).
edge(21, 101).
edge(10, 22).
edge(21, 87).
edge(62, 79).
edge(26, 122).
edge(13, 101).
edge(45, 131).
edge(1, 81).
edge(97, 134).
edge(79, 135).
edge(34, 110).
edge(15, 114).
edge(21, 71).
edge(27, 39).
edge(1, 84).
edge(42, 107).
edge(74, 127).
edge(0, 108).
edge(60, 94).
edge(7, 73).
edge(49, 90).
edge(93, 99).
edge(12, 31).
edge(37, 46).
edge(71, 107).
edge(26, 133).
edge(23, 69).
edge(14, 129).
edge(17, 18).
edge(41, 47).
edge(47, 131).
edge(10, 38).
edge(10, 115).
edge(14, 96).
edge(20, 97).
edge(76, 80).
edge(53, 121).
edge(12, 126).
edge(90, 116).
edge(45, 52).
edge(14, 118).
edge(10, 82).
edge(14, 127).
edge(47, 58).
edge(3, 77).
edge(117, 120).
edge(7, 71).
edge(71, 84).
edge(48, 109).
edge(45, 75).
edge(4, 70).
edge(1, 27).
edge(90, 100).
edge(39, 70).
edge(96, 117).
edge(26, 110).
edge(4, 39).
edge(21, 120).
edge(29, 101).
edge(63, 125).
edge(85, 125).
edge(2, 115).
edge(91, 108).
edge(8, 36).
edge(40, 83).
edge(29, 60).
edge(4, 24).
edge(18, 114).
edge(76, 110).
edge(23, 42).
edge(50, 75).
edge(25, 43).
edge(63, 90).
edge(31, 84).
edge(9, 58).
edge(58, 72).
edge(81, 116).
edge(51, 94).
edge(35, 90).
edge(105, 135).
edge(77, 78).
edge(55, 63).
edge(76, 96).
edge(40, 126).
edge(51, 52).
edge(24, 51).
edge(83, 95).
edge(42, 45).
edge(76, 129).
edge(57, 109).
edge(6, 57).
edge(36, 120).
edge(63, 120).
edge(100, 131).
edge(13, 78).
edge(4, 23).
edge(71, 99).
edge(32, 45).
edge(0, 91).
edge(36, 73).
edge(11, 18).
edge(87, 135).
edge(22, 121).
edge(57, 112).
edge(17, 113).
edge(30, 117).
edge(74, 132).
edge(43, 123).
edge(29, 87).
edge(9, 100).
edge(6, 119).
edge(65, 109).
edge(76, 87).
edge(27, 60).
edge(49, 95).
edge(2, 47).
edge(16, 130).
edge(42, 101).
edge(106, 112).
edge(37, 115).
edge(84, 130).
edge(24, 53).
edge(52, 134).
edge(62, 125).
edge(8, 70).
edge(17, 66).
edge(22, 23).
edge(99, 125).
edge(24, 131).
edge(22, 28).
edge(2, 42).
edge(58, 110).
edge(3, 63).
edge(29, 91).
edge(73, 107).
edge(85, 89).
edge(105, 132).
edge(46, 109).
edge(112, 123).
edge(16, 120).
edge(5, 94).
edge(79, 113).
edge(77, 99).
edge(11, 112).
edge(8, 90).
edge(93, 121).
edge(100, 107).
edge(44, 47).
edge(69, 130).
edge(121, 125).
edge(61, 124).
edge(29, 77).
edge(89, 129).
edge(8, 56).
edge(56, 123).
edge(16, 117).
edge(13, 32).
edge(21, 99).
edge(56, 118).
edge(17, 52).
edge(81, 125).
edge(1, 4).
edge(117, 125).
edge(81, 100).
edge(0, 51).
edge(12, 67).
edge(49, 134).
edge(66, 77).
edge(78, 115).
edge(93, 126).
edge(17, 92).
edge(43, 90).
edge(89, 134).
edge(112, 120).
edge(124, 131).
edge(50, 131).
edge(63, 96).
edge(6, 67).
edge(12, 46).
edge(85, 122).
edge(2, 107).
edge(34, 62).
edge(13, 57).
edge(101, 116).
edge(6, 91).
edge(18, 108).
edge(77, 118).
edge(96, 112).
edge(35, 100).
edge(18, 49).
edge(47, 99).
edge(4, 7).
edge(65, 94).
edge(46, 122).
edge(45, 79).
edge(26, 31).
edge(53, 106).
edge(118, 126).
edge(88, 112).
edge(72, 94).
edge(81, 128).
edge(68, 94).
edge(32, 102).
edge(72, 90).
edge(56, 131).
edge(76, 106).
edge(31, 97).
edge(26, 135).
edge(89, 132).
edge(52, 86).
edge(84, 127).
edge(22, 71).
edge(40, 111).
edge(2, 127).
edge(3, 75).
edge(13, 36).
edge(8, 65).
edge(60, 90).
edge(13, 55).
edge(22, 120).
edge(125, 128).
edge(66, 135).
edge(70, 132).
edge(35, 77).
edge(7, 110).
edge(91, 107).
edge(4, 65).
edge(12, 29).
edge(37, 61).
edge(72, 81).
edge(110, 125).
edge(86, 107).
edge(43, 56).
edge(70, 134).
edge(10, 53).
edge(4, 59).
edge(69, 81).
edge(2, 20).
edge(94, 100).
edge(53, 57).
edge(81, 93).
edge(33, 128).
edge(53, 78).
edge(42, 69).
edge(39, 117).
edge(18, 89).
edge(48, 52).
edge(36, 117).
edge(18, 81).
edge(96, 115).
edge(6, 21).
edge(55, 68).
edge(46, 85).
edge(119, 122).
edge(15, 58).
edge(80, 98).
edge(94, 117).
edge(67, 75).
edge(36, 115).
edge(76, 78).
edge(40, 50).
edge(32, 43).
edge(65, 80).
edge(46, 108).
edge(17, 26).
edge(31, 113).
edge(23, 74).
edge(37, 49).
edge(94, 110).
edge(41, 94).
edge(38, 43).
edge(1, 44).
edge(54, 87).
edge(2, 6).
edge(40, 53).
edge(46, 123).
edge(60, 104).
edge(55, 116).
edge(100, 101).
edge(33, 63).
edge(98, 106).
edge(108, 129).
edge(44, 103).
edge(16, 122).
edge(9, 60).
edge(24, 111).
edge(53, 58).
edge(43, 76).
edge(67, 92).
edge(58, 118).
edge(50, 90).
edge(43, 57).
edge(2, 83).
edge(28, 88).
edge(5, 122).
edge(70, 108).
edge(21, 135).
edge(109, 116).
edge(66, 79).
edge(15, 115).
edge(52, 99).
edge(6, 108).
edge(30, 126).
edge(19, 63).
edge(110, 133).
edge(7, 114).
edge(12, 73).
edge(94, 123).
edge(19, 51).
edge(46, 106).
edge(76, 112).
edge(60, 74).
edge(0, 135).
edge(51, 110).
edge(114, 122).
edge(28, 42).
edge(70, 106).
edge(73, 77).
edge(31, 67).
edge(57, 94).
edge(33, 116).
edge(0, 107).
edge(110, 117).
edge(77, 92).
edge(25, 102).
edge(107, 112).
edge(9, 116).
edge(41, 107).
edge(68, 132).
edge(85, 88).
edge(20, 118).
edge(63, 127).
edge(82, 134).
edge(96, 100).
edge(38, 91).
edge(4, 112).
edge(79, 126).
edge(42, 48).
edge(3, 85).
edge(21, 108).
edge(112, 122).
edge(71, 82).
edge(67, 104).
edge(17, 81).
edge(8, 61).
edge(28, 130).
edge(32, 74).
edge(115, 129).
edge(61, 130).
edge(73, 117).
edge(115, 123).
edge(55, 89).
edge(95, 119).
edge(121, 129).
edge(9, 29).
edge(33, 37).
edge(16, 84).
edge(71, 76).
edge(35, 37).
edge(57, 103).
edge(47, 73).
edge(1, 118).
edge(25, 71).
edge(68, 105).
edge(53, 67).
edge(19, 89).
edge(19, 38).
edge(17, 49).
edge(34, 71).
edge(74, 115).
edge(62, 100).
edge(46, 55).
edge(50, 88).
edge(48, 133).
edge(32, 86).
edge(35, 134).
edge(30, 43).
edge(29, 56).
edge(22, 102).
edge(37, 80).
edge(2, 34).
edge(28, 121).
edge(56, 74).
edge(43, 77).
edge(37, 47).
edge(9, 42).
edge(54, 124).
edge(11, 24).
edge(4, 132).
edge(34, 130).
edge(66, 128).
edge(23, 103).
edge(86, 111).
edge(64, 101).
edge(39, 124).
edge(0, 70).
edge(85, 132).
edge(43, 62).
edge(70, 115).
edge(27, 98).
edge(112, 113).
edge(24, 123).
edge(72, 74).
edge(105, 126).
edge(38, 50).
edge(36, 80).
edge(44, 105).
edge(41, 44).
edge(2, 92).
edge(29, 103).
edge(35, 65).
edge(13, 79).
edge(28, 59).
edge(5, 99).
edge(21, 38).
edge(13, 123).
edge(111, 134).
edge(10, 42).
edge(86, 97).
edge(31, 100).
edge(32, 97).
edge(43, 49).
edge(17, 91).
edge(59, 122).
edge(11, 42).
edge(77, 94).
edge(34, 104).
edge(82, 97).
edge(17, 44).
edge(61, 132).
edge(25, 27).
edge(41, 90).
edge(10, 100).
edge(34, 107).
edge(9, 10).
edge(56, 121).
edge(55, 60).
edge(25, 33).
edge(32, 62).
edge(4, 113).
edge(25, 62).
edge(26, 42).
edge(62, 127).
edge(30, 95).
edge(62, 101).
edge(95, 102).
edge(103, 109).
edge(37, 97).
edge(101, 124).
edge(7, 133).
edge(34, 84).
edge(0, 124).
edge(53, 81).
edge(14, 105).
edge(8, 89).
edge(29, 82).
edge(49, 117).
edge(81, 97).
edge(4, 54).
edge(23, 66).
edge(100, 113).
edge(28, 38).
edge(90, 134).
edge(46, 131).
edge(31, 50).
edge(38, 85).
edge(94, 134).
edge(111, 125).
edge(31, 48).
edge(33, 62).
edge(77, 101).
edge(84, 87).
edge(70, 96).
edge(27, 37).
edge(2, 91).
edge(38, 80).
edge(28, 114).
edge(76, 81).
edge(24, 106).
edge(4, 88).
edge(83, 105).
edge(39, 62).
edge(122, 126).
edge(63, 81).
edge(18, 107).
edge(13, 124).
edge(31, 107).
edge(3, 69).
edge(1, 35).
edge(93, 111).
edge(68, 72).
edge(31, 105).
edge(15, 54).
edge(1, 67).
edge(22, 45).
edge(51, 109).
edge(94, 102).
edge(18, 71).
edge(9, 63).
edge(66, 72).
edge(47, 52).
edge(71, 86).
edge(100, 124).
edge(112, 135).
edge(23, 106).
edge(68, 109).
edge(66, 82).
edge(74, 81).
edge(77, 135).
edge(11, 43).
edge(16, 92).
edge(55, 118).
edge(49, 110).
edge(42, 77).
edge(16, 105).
edge(26, 34).
edge(93, 116).
edge(50, 104).
edge(106, 108).
edge(48, 75).
edge(39, 51).
edge(5, 88).
edge(0, 97).
edge(8, 14).
edge(43, 59).
edge(18, 91).
edge(48, 90).
edge(38, 93).
edge(97, 115).
edge(37, 95).
edge(76, 105).
edge(62, 114).
edge(53, 75).
edge(23, 135).
edge(41, 132).
edge(8, 40).
edge(9, 55).
edge(73, 76).
edge(18, 117).
edge(11, 40).
edge(59, 77).
edge(51, 114).
edge(43, 100).
edge(61, 67).
edge(26, 106).
edge(89, 107).
edge(60, 101).
edge(10, 110).
edge(23, 109).
edge(55, 59).
edge(69, 72).
edge(28, 102).
edge(12, 80).
edge(95, 126).
edge(19, 75).
edge(85, 118).
edge(39, 122).
edge(105, 112).
edge(5, 83).
edge(14, 20).
edge(27, 113).
edge(11, 108).
edge(48, 114).
edge(19, 70).
edge(32, 125).
edge(7, 28).
edge(9, 30).
edge(11, 69).
edge(83, 123).
edge(90, 111).
edge(42, 91).
edge(61, 134).
edge(51, 90).
edge(79, 114).
edge(27, 102).
edge(23, 59).
edge(13, 43).
edge(54, 57).
edge(88, 118).
edge(66, 94).
edge(75, 134).
edge(16, 33).
edge(83, 124).
edge(1, 66).
edge(68, 79).
edge(78, 106).
edge(93, 130).
edge(17, 104).
edge(38, 129).
edge(3, 5).
edge(85, 123).
edge(39, 78).
edge(64, 86).
edge(25, 87).
edge(112, 114).
edge(10, 44).
edge(108, 126).
edge(79, 99).
edge(95, 122).
edge(8, 127).
edge(54, 97).
edge(19, 115).
edge(10, 62).
edge(0, 30).
edge(14, 54).
edge(84, 116).
edge(37, 81).
edge(12, 14).
edge(34, 120).
edge(36, 125).
edge(57, 126).
edge(83, 126).
edge(39, 84).
edge(5, 12).
edge(102, 104).
edge(32, 117).
edge(15, 46).
edge(59, 73).
edge(42, 65).
edge(31, 57).
edge(40, 43).
edge(105, 124).
edge(11, 62).
edge(4, 18).
edge(84, 124).
edge(106, 130).
edge(25, 83).
edge(64, 93).
edge(61, 107).
edge(16, 107).
edge(59, 64).
edge(95, 130).
edge(100, 118).
edge(20, 129).
edge(29, 106).
edge(63, 108).
edge(62, 81).
edge(63, 85).
edge(90, 104).
edge(79, 116).
edge(40, 76).
edge(43, 122).
edge(10, 40).
edge(55, 121).
edge(75, 113).
edge(98, 122).
edge(97, 116).
edge(48, 122).
edge(97, 130).
edge(49, 74).
edge(4, 123).
edge(47, 123).
edge(15, 80).
edge(2, 10).
edge(37, 103).
edge(71, 135).
edge(62, 103).
edge(48, 49).
edge(3, 76).
edge(61, 123).
edge(38, 135).
edge(41, 96).
edge(87, 117).
edge(69, 74).
edge(77, 128).
edge(49, 75).
edge(25, 64).
edge(42, 74).
edge(21, 122).
edge(38, 83).
edge(70, 80).
edge(43, 104).
edge(66, 87).
edge(84, 85).
edge(14, 29).
edge(54, 81).
edge(107, 132).
edge(75, 130).
edge(15, 95).
edge(12, 72).
edge(7, 91).
edge(67, 112).
edge(0, 4).
edge(107, 120).
edge(26, 62).
edge(39, 115).
edge(82, 122).
edge(21, 107).
edge(108, 127).
edge(29, 62).
edge(35, 135).
edge(64, 74).
edge(29, 126).
edge(20, 29).
edge(24, 89).
edge(4, 25).
edge(101, 120).
edge(8, 79).
edge(58, 87).
edge(52, 113).
edge(17, 116).
edge(6, 82).
edge(79, 103).
edge(77, 113).
edge(43, 95).
edge(66, 125).
edge(43, 116).
edge(35, 127).
edge(113, 116).
edge(70, 74).
edge(20, 30).
edge(26, 90).
edge(25, 80).
edge(74, 102).
edge(4, 109).
edge(25, 128).
edge(93, 129).
edge(32, 65).
edge(24, 46).
edge(45, 115).
edge(40, 124).
edge(29, 117).
edge(71, 75).
edge(46, 112).
edge(23, 54).
edge(16, 94).
edge(28, 33).
edge(16, 115).
edge(26, 87).
edge(21, 88).
edge(9, 121).
edge(49, 52).
edge(29, 127).
edge(21, 29).
edge(45, 61).
edge(28, 77).
edge(82, 113).
edge(79, 88).
edge(65, 131).
edge(84, 93).
edge(18, 28).
edge(18, 44).
edge(12, 115).
edge(109, 128).
edge(21, 123).
edge(48, 85).
edge(62, 123).
edge(41, 59).
edge(62, 69).
edge(8, 126).
edge(23, 31).
edge(56, 135).
edge(58, 83).
edge(49, 79).
edge(56, 72).
edge(19, 105).
edge(51, 71).
edge(28, 101).
edge(33, 134).
edge(42, 76).
edge(54, 103).
edge(52, 135).
edge(27, 38).
edge(67, 115).
edge(10, 73).
edge(2, 33).
edge(65, 82).
edge(77, 133).
edge(106, 122).
edge(43, 126).
edge(27, 129).
edge(53, 123).
edge(72, 75).
edge(107, 134).
edge(58, 75).
edge(66, 113).
edge(3, 126).
edge(51, 75).
edge(5, 91).
edge(74, 106).
edge(26, 55).
edge(27, 125).
edge(66, 71).
edge(6, 128).
edge(7, 56).
edge(66, 122).
edge(65, 83).
edge(1, 7).
edge(41, 57).
edge(32, 118).
edge(49, 98).
edge(21, 50).
edge(23, 64).
edge(79, 122).
edge(10, 51).
edge(103, 116).
edge(31, 64).
edge(28, 116).
edge(24, 64).
edge(70, 127).
edge(25, 106).
edge(35, 57).
edge(0, 133).
edge(96, 132).
edge(44, 99).
edge(38, 58).
edge(26, 40).
edge(0, 82).
edge(44, 97).
edge(36, 78).
edge(16, 104).
edge(114, 118).
edge(82, 88).
edge(15, 120).
edge(17, 78).
edge(68, 121).
edge(61, 65).
edge(32, 107).
edge(33, 101).
edge(68, 107).
edge(18, 52).
edge(7, 20).
edge(30, 38).
edge(93, 97).
edge(50, 122).
edge(18, 122).
edge(26, 81).
edge(14, 121).
edge(1, 46).
edge(15, 62).
edge(32, 61).
edge(56, 84).
edge(44, 68).
edge(11, 107).
edge(3, 46).
edge(38, 39).
edge(54, 55).
edge(12, 38).
edge(21, 126).
edge(25, 56).
edge(23, 83).
edge(7, 93).
edge(42, 103).
edge(30, 93).
edge(88, 119).
edge(23, 33).
edge(100, 116).
edge(38, 67).
edge(35, 120).
edge(112, 115).
edge(43, 88).
edge(29, 112).
edge(103, 114).
edge(15, 44).
edge(41, 46).
edge(45, 60).
edge(14, 102).
edge(3, 39).
edge(61, 102).
edge(22, 114).
edge(73, 126).
edge(4, 37).
edge(34, 103).
edge(1, 40).
edge(49, 50).
edge(86, 118).
edge(19, 49).
edge(21, 47).
edge(85, 135).
edge(22, 94).
edge(91, 100).
edge(47, 88).
edge(65, 108).
edge(51, 97).
edge(90, 115).
edge(27, 68).
edge(32, 75).
edge(92, 132).
edge(58, 84).
edge(47, 62).
edge(18, 27).
edge(56, 99).
edge(70, 95).
edge(23, 70).
edge(34, 52).
edge(9, 111).
edge(54, 64).
edge(62, 90).
edge(24, 43).
edge(14, 18).
edge(16, 56).
edge(77, 127).
edge(12, 59).
edge(24, 62).
edge(18, 69).
edge(12, 84).
edge(34, 83).
edge(69, 131).
edge(14, 116).
edge(20, 133).
edge(8, 118).
edge(55, 134).
edge(24, 54).
edge(42, 52).
edge(13, 34).
edge(48, 57).
edge(46, 61).
edge(3, 16).
edge(6, 69).
edge(76, 131).
edge(39, 45).
edge(97, 118).
edge(77, 86).
edge(61, 68).
edge(9, 110).
edge(117, 124).
edge(29, 109).
edge(116, 118).
edge(28, 90).
edge(1, 5).
edge(25, 51).
edge(26, 123).
edge(52, 73).
edge(97, 102).
edge(7, 131).
edge(58, 98).
edge(38, 114).
edge(57, 116).
edge(66, 130).
edge(86, 120).
edge(86, 98).
edge(63, 77).
edge(9, 67).
edge(45, 134).
edge(29, 81).
edge(52, 112).
edge(20, 50).
edge(0, 32).
edge(88, 124).
edge(51, 53).
edge(1, 61).
edge(122, 129).
edge(29, 39).
edge(9, 99).
edge(20, 71).
edge(87, 89).
edge(26, 111).
edge(52, 114).
edge(47, 89).
edge(33, 86).
edge(27, 128).
edge(6, 95).
edge(45, 74).
edge(17, 22).
edge(56, 106).
edge(79, 123).
edge(4, 58).
edge(41, 92).
edge(7, 14).
edge(21, 48).
edge(65, 122).
edge(40, 64).
edge(55, 87).
edge(78, 133).
edge(16, 66).
edge(16, 43).
edge(39, 101).
edge(14, 59).
edge(106, 135).
edge(66, 132).
edge(73, 79).
edge(1, 45).
edge(29, 46).
edge(95, 107).
edge(127, 134).
edge(10, 106).
edge(4, 107).
edge(22, 34).
edge(4, 36).
edge(18, 126).
edge(10, 19).
edge(20, 104).
edge(88, 111).
edge(15, 112).
edge(38, 120).
edge(20, 63).
edge(41, 88).
edge(41, 119).
edge(71, 104).
edge(30, 41).
edge(12, 109).
edge(21, 89).
edge(48, 76).
edge(15, 100).
edge(59, 129).
edge(99, 129).
edge(89, 90).
edge(81, 110).
edge(34, 108).
edge(39, 95).
edge(84, 104).
edge(75, 112).
edge(31, 54).
edge(74, 91).
edge(24, 27).
edge(33, 92).
edge(35, 113).
edge(18, 23).
edge(17, 46).
edge(100, 114).
edge(113, 129).
edge(24, 69).
edge(40, 119).
edge(22, 75).
edge(59, 70).
edge(42, 92).
edge(59, 107).
edge(25, 28).
edge(71, 87).
edge(88, 127).
edge(22, 29).
edge(75, 104).
edge(8, 69).
edge(55, 110).
edge(17, 109).
edge(37, 58).
edge(53, 128).
edge(5, 135).
edge(88, 96).
edge(76, 93).
edge(69, 106).
edge(34, 92).
edge(3, 44).
edge(38, 103).
edge(78, 105).
edge(81, 131).
edge(113, 135).
edge(73, 124).
edge(36, 51).
edge(22, 54).
edge(78, 93).
edge(79, 107).
edge(2, 38).
edge(5, 46).
edge(61, 120).
edge(51, 76).
edge(14, 125).
edge(120, 121).
edge(26, 37).
edge(48, 89).
edge(70, 113).
edge(40, 69).
edge(6, 47).
edge(112, 126).
edge(67, 118).
edge(10, 16).
edge(23, 104).
edge(6, 106).
edge(105, 128).
edge(100, 128).
edge(44, 51).
edge(5, 23).
edge(83, 115).
edge(60, 127).
edge(119, 134).
edge(77, 112).
edge(64, 129).
edge(11, 120).
edge(37, 113).
edge(77, 97).
edge(49, 131).
edge(34, 99).
edge(3, 100).
edge(0, 117).
edge(37, 114).
edge(47, 67).
edge(48, 82).
edge(34, 127).
edge(30, 123).
edge(3, 134).
edge(69, 77).
edge(14, 71).
edge(37, 125).
edge(74, 126).
edge(79, 109).
edge(30, 109).
edge(91, 134).
edge(12, 121).
edge(16, 119).
edge(16, 74).
edge(50, 93).
edge(42, 68).
edge(58, 113).
edge(29, 57).
edge(37, 40).
edge(19, 101).
edge(18, 115).
edge(17, 97).
edge(74, 78).
edge(17, 99).
edge(59, 109).
edge(0, 115).
edge(0, 88).
edge(0, 76).
edge(16, 82).
edge(60, 68).
edge(1, 112).
edge(18, 83).
edge(11, 113).
edge(15, 16).
edge(6, 48).
edge(95, 124).
edge(25, 133).
edge(50, 78).
edge(22, 111).
edge(59, 127).
edge(81, 90).
edge(52, 104).
edge(67, 117).
edge(85, 105).
edge(36, 38).
edge(45, 100).
edge(58, 78).
edge(66, 92).
edge(17, 71).
edge(84, 106).
edge(70, 99).
edge(6, 117).
edge(7, 45).
edge(49, 101).
edge(24, 28).
edge(71, 98).
edge(72, 93).
edge(0, 134).
edge(4, 93).
edge(64, 107).
edge(61, 88).
edge(51, 85).
edge(58, 102).
edge(13, 26).
edge(41, 128).
edge(30, 37).
edge(37, 121).
edge(13, 47).
edge(12, 42).
edge(70, 122).
edge(94, 130).
edge(36, 81).
edge(30, 65).
edge(51, 132).
edge(113, 134).
edge(24, 76).
edge(63, 88).
edge(52, 79).
edge(13, 58).
edge(71, 79).
edge(23, 125).
edge(108, 116).
edge(39, 77).
edge(7, 96).
edge(65, 129).
edge(102, 115).
edge(59, 87).
edge(31, 46).
edge(24, 120).
edge(3, 127).
edge(93, 106).
edge(77, 107).
edge(24, 59).
edge(49, 55).
edge(83, 125).
edge(19, 134).
edge(42, 97).
edge(74, 108).
edge(44, 58).
edge(13, 41).
edge(22, 78).
edge(7, 88).
edge(0, 11).
edge(112, 124).
edge(23, 62).
edge(0, 69).
edge(19, 110).
edge(87, 94).
edge(49, 120).
edge(69, 111).
edge(11, 47).
edge(26, 115).
edge(7, 18).
edge(0, 128).
edge(91, 119).
edge(51, 117).
edge(19, 43).
edge(49, 126).
edge(78, 82).
edge(109, 123).
edge(49, 94).
edge(19, 92).
edge(15, 50).
edge(22, 103).
edge(0, 6).
edge(20, 112).
edge(38, 82).
edge(44, 104).
edge(78, 96).
edge(2, 75).
edge(57, 130).
edge(86, 135).
edge(23, 43).
edge(14, 130).
edge(70, 123).
edge(28, 83).
edge(69, 100).
edge(111, 117).
edge(63, 128).
edge(16, 45).
edge(24, 90).
edge(34, 86).
edge(66, 100).
edge(88, 126).
edge(87, 93).
edge(30, 82).
edge(72, 121).
edge(35, 43).
edge(37, 105).
edge(115, 118).
edge(10, 120).
edge(46, 57).
edge(2, 119).
edge(36, 61).
edge(68, 108).
edge(57, 93).
edge(52, 124).
edge(24, 73).
edge(44, 80).
edge(1, 33).
edge(4, 47).
edge(2, 49).
edge(127, 129).
edge(70, 117).
edge(76, 89).
edge(15, 109).
edge(16, 65).
edge(14, 80).
edge(49, 69).
edge(41, 75).
edge(103, 119).
edge(117, 131).
edge(39, 49).
edge(75, 91).
edge(16, 101).
edge(65, 104).
edge(35, 132).
edge(79, 127).
edge(33, 75).
edge(17, 19).
edge(114, 123).
edge(43, 75).
edge(42, 80).
edge(53, 55).
edge(46, 113).
edge(22, 134).
edge(33, 95).
edge(21, 35).
edge(53, 94).
edge(61, 109).
edge(14, 112).
edge(1, 126).
edge(37, 129).
edge(89, 101).
edge(4, 78).
edge(14, 89).
edge(42, 135).
edge(67, 88).
edge(110, 135).
edge(0, 94).
edge(70, 86).
edge(1, 50).
edge(10, 45).
edge(81, 86).
edge(64, 70).
edge(32, 91).
edge(100, 110).
edge(24, 26).
edge(20, 125).
edge(12, 44).
edge(24, 91).
edge(72, 133).
edge(8, 134).
edge(55, 70).
edge(51, 92).
edge(11, 33).
edge(16, 72).
edge(1, 74).
edge(67, 73).
edge(116, 117).
edge(0, 29).
edge(117, 118).
edge(86, 100).
edge(28, 105).
edge(20, 21).
edge(48, 103).
edge(19, 20).
edge(30, 104).
edge(34, 79).
edge(48, 129).
edge(38, 59).
edge(102, 119).
edge(52, 59).
edge(13, 69).
edge(49, 78).
edge(122, 133).
edge(15, 101).
edge(0, 73).
edge(9, 66).
edge(23, 89).
edge(6, 44).
edge(67, 120).
edge(15, 125).
edge(19, 84).
edge(13, 134).
edge(48, 58).
edge(34, 38).
edge(64, 99).
edge(10, 84).
edge(43, 48).
edge(18, 39).
edge(16, 77).
edge(12, 23).
edge(23, 97).
edge(66, 102).
edge(67, 80).
edge(25, 94).
edge(15, 69).
edge(11, 85).
edge(75, 129).
edge(23, 75).
edge(64, 108).
edge(24, 29).
edge(104, 118).
edge(17, 79).
edge(5, 106).
edge(17, 82).
edge(3, 57).
edge(7, 55).
edge(61, 92).
edge(1, 101).
edge(16, 96).
edge(18, 84).
edge(50, 74).
edge(47, 69).
edge(3, 79).
edge(1, 120).
edge(3, 109).
edge(92, 116).
edge(81, 121).
edge(29, 125).
edge(5, 17).
edge(43, 127).
edge(108, 128).
edge(4, 83).
edge(49, 87).
edge(13, 53).
edge(110, 114).
edge(102, 111).
edge(23, 102).
edge(43, 134).
edge(91, 121).
edge(79, 112).
edge(46, 80).
edge(10, 98).
edge(3, 66).
edge(110, 126).
edge(37, 132).
edge(77, 87).
edge(15, 51).
edge(68, 130).
edge(40, 63).
edge(20, 109).
edge(67, 97).
edge(42, 64).
edge(114, 126).
edge(32, 36).
edge(10, 68).
edge(38, 79).
edge(33, 135).
edge(4, 15).
edge(30, 33).
edge(22, 87).
edge(61, 74).
edge(9, 124).
edge(45, 81).
edge(37, 124).
edge(74, 98).
edge(12, 20).
edge(49, 60).
edge(36, 123).
edge(21, 53).
edge(107, 109).
edge(104, 124).
edge(24, 45).
edge(51, 60).
edge(23, 77).
edge(43, 103).
edge(92, 115).
edge(29, 83).
edge(27, 94).
edge(32, 124).
edge(51, 95).
edge(6, 32).
edge(9, 132).
edge(99, 124).
edge(113, 122).
edge(47, 108).
edge(28, 134).
edge(87, 111).
edge(102, 109).
edge(50, 68).
edge(89, 121).
edge(80, 129).
edge(104, 110).
edge(24, 38).
edge(102, 117).
edge(0, 12).
edge(7, 122).
edge(42, 133).
edge(51, 119).
edge(91, 131).
edge(54, 116).
edge(91, 125).
edge(84, 122).
edge(15, 33).
edge(23, 129).
edge(28, 41).
edge(69, 75).
edge(0, 23).
edge(34, 126).
edge(39, 119).
edge(32, 70).
edge(81, 113).
edge(15, 99).
edge(52, 101).
edge(16, 31).
edge(66, 74).
edge(121, 130).
edge(83, 103).
edge(6, 129).
edge(6, 56).
edge(107, 124).
edge(37, 88).
edge(25, 73).
edge(65, 68).
edge(72, 76).
edge(54, 109).
edge(13, 93).
edge(3, 60).
edge(27, 119).
edge(96, 121).
edge(1, 56).
edge(7, 109).
edge(13, 30).
edge(3, 91).
edge(12, 30).
edge(10, 17).
edge(26, 51).
edge(43, 129).
edge(85, 131).
edge(55, 108).
edge(73, 93).
edge(65, 76).
edge(42, 67).
edge(53, 72).
edge(58, 114).
edge(1, 77).
edge(99, 113).
edge(34, 48).
edge(39, 79).
edge(124, 129).
edge(114, 128).
edge(97, 111).
edge(19, 24).
edge(17, 50).
edge(26, 86).
edge(87, 107).
edge(22, 90).
edge(40, 52).
edge(55, 117).
edge(43, 101).
edge(20, 101).
edge(73, 115).
edge(14, 43).
edge(61, 95).
edge(55, 107).
edge(4, 57).
edge(75, 83).
edge(56, 134).
edge(28, 126).
edge(1, 110).
edge(56, 112).
edge(9, 61).
edge(2, 131).
edge(19, 27).
edge(46, 94).
edge(19, 74).
edge(93, 117).
edge(46, 65).
edge(7, 79).
edge(23, 84).
edge(76, 95).
edge(22, 128).
edge(14, 113).
edge(28, 100).
edge(88, 131).
edge(17, 88).
edge(31, 109).
edge(38, 53).
edge(44, 134).
edge(83, 119).
edge(66, 121).
edge(12, 118).
edge(57, 110).
edge(66, 109).
edge(10, 128).
edge(61, 89).
edge(125, 127).
edge(22, 62).
edge(25, 90).
edge(25, 48).
edge(0, 66).
edge(1, 124).
edge(98, 111).
edge(17, 67).
edge(96, 116).
edge(21, 131).
edge(83, 90).
edge(25, 101).
edge(6, 77).
edge(69, 116).
edge(54, 118).
edge(14, 82).
edge(10, 13).
edge(44, 52).
edge(31, 63).
edge(33, 67).
edge(104, 132).
edge(92, 121).
edge(58, 124).
edge(5, 102).
edge(62, 76).
edge(12, 36).
edge(56, 129).
edge(17, 130).
edge(8, 128).
edge(18, 58).
edge(115, 120).
edge(4, 8).
edge(21, 95).
edge(43, 102).
edge(45, 82).
edge(59, 114).
edge(93, 132).
edge(109, 127).
edge(12, 62).
edge(74, 128).
edge(127, 128).
edge(50, 134).
edge(89, 104).
edge(90, 101).
edge(79, 85).
edge(81, 89).
edge(28, 62).
edge(34, 89).
edge(88, 102).
edge(18, 128).
edge(48, 67).
edge(69, 70).
edge(35, 68).
edge(2, 103).
edge(96, 99).
edge(69, 109).
edge(41, 104).
edge(84, 102).
edge(36, 46).
edge(122, 132).
edge(57, 132).
edge(86, 115).
edge(20, 31).
edge(65, 127).
edge(36, 112).
edge(4, 124).
edge(70, 89).
edge(29, 55).
edge(12, 28).
edge(7, 22).
edge(59, 131).
edge(3, 18).
edge(52, 89).
edge(92, 133).
edge(95, 114).
edge(1, 133).
edge(50, 60).
edge(65, 78).
edge(99, 114).
edge(7, 17).
edge(10, 54).
edge(47, 57).
edge(96, 105).
edge(25, 79).
edge(47, 50).
edge(91, 110).
edge(57, 101).
edge(17, 108).
edge(6, 40).
edge(75, 80).
edge(99, 110).
edge(17, 106).
edge(10, 123).
edge(86, 125).
edge(23, 119).
edge(78, 117).
edge(52, 88).
edge(5, 101).
edge(15, 111).
edge(2, 61).
edge(46, 75).
edge(41, 66).
edge(69, 107).
edge(36, 111).
edge(92, 108).
edge(74, 113).
edge(73, 111).
edge(36, 113).
edge(13, 92).
edge(81, 120).
edge(40, 100).
edge(12, 35).
edge(19, 28).
edge(14, 94).
edge(22, 58).
edge(28, 67).
edge(81, 117).
edge(107, 114).
edge(22, 89).
edge(20, 124).
edge(28, 37).
edge(26, 39).
edge(58, 73).
edge(90, 113).
edge(63, 74).
edge(79, 124).
edge(28, 79).
edge(24, 92).
edge(34, 57).
edge(53, 131).
edge(18, 86).
edge(32, 110).
edge(46, 129).
edge(50, 124).
edge(1, 49).
edge(2, 32).
edge(75, 127).
edge(19, 87).
edge(68, 103).
edge(73, 86).
edge(59, 134).
edge(15, 73).
edge(49, 54).
edge(71, 95).
edge(55, 97).
edge(30, 62).
edge(50, 91).
edge(29, 34).
edge(40, 106).
edge(49, 56).
edge(16, 27).
edge(71, 115).
edge(31, 73).
edge(56, 76).
edge(95, 100).
edge(35, 97).
edge(5, 131).
edge(2, 70).
edge(40, 87).
edge(32, 116).
edge(34, 114).
edge(12, 56).
edge(83, 110).
edge(47, 75).
edge(18, 41).
edge(99, 116).
edge(28, 52).
edge(0, 87).
edge(74, 119).
edge(75, 77).
edge(33, 50).
edge(100, 133).
edge(69, 132).
edge(80, 96).
edge(5, 48).
edge(92, 110).
edge(62, 119).
edge(26, 98).
edge(70, 126).
edge(2, 79).
edge(4, 91).
edge(95, 132).
edge(40, 134).
edge(69, 125).
edge(42, 53).
edge(34, 59).
edge(25, 124).
edge(64, 82).
edge(15, 21).
edge(37, 48).
edge(62, 128).
edge(16, 111).
edge(20, 22).
edge(22, 93).
edge(42, 72).
edge(46, 52).
edge(4, 94).
edge(20, 54).
edge(17, 69).
edge(0, 19).
edge(108, 112).
edge(100, 109).
edge(98, 109).
edge(101, 121).
edge(26, 125).
edge(30, 71).
edge(73, 100).
edge(46, 68).
edge(70, 88).
edge(23, 36).
edge(11, 116).
edge(38, 112).
edge(15, 133).
edge(14, 107).
edge(13, 85).
edge(68, 82).
edge(3, 120).
edge(52, 83).
edge(44, 79).
edge(6, 45).
edge(69, 92).
edge(108, 117).
edge(31, 70).
edge(123, 135).
edge(57, 129).
edge(44, 124).
edge(42, 104).
edge(79, 120).
edge(67, 95).
edge(26, 100).
edge(14, 73).
edge(35, 78).
edge(39, 135).
edge(92, 126).
edge(27, 30).
edge(11, 16).
edge(56, 66).
edge(99, 128).
edge(42, 93).
edge(5, 27).
edge(35, 40).
edge(5, 33).
edge(37, 108).
edge(65, 124).
edge(37, 60).
edge(125, 135).
edge(63, 105).
edge(9, 94).
edge(27, 90).
edge(32, 96).
edge(38, 111).
edge(90, 106).
edge(66, 88).
edge(129, 134).
edge(52, 56).
edge(40, 57).
edge(1, 116).
edge(11, 89).
edge(37, 73).
edge(23, 29).
edge(68, 76).
edge(5, 26).
edge(20, 107).
edge(95, 116).
edge(30, 99).
edge(43, 132).
edge(2, 21).
edge(67, 103).
edge(6, 84).
edge(27, 88).
edge(51, 113).
edge(26, 118).
edge(61, 91).
edge(28, 30).
edge(39, 107).
edge(19, 94).
edge(12, 18).
edge(34, 102).
edge(24, 37).
edge(112, 121).
edge(8, 112).
edge(95, 131).
edge(43, 79).
edge(42, 51).
edge(7, 64).
edge(54, 123).
edge(6, 52).
edge(87, 134).
edge(14, 77).
edge(7, 86).
edge(11, 32).
edge(21, 79).
edge(55, 103).
edge(84, 119).
edge(54, 68).
edge(92, 112).
edge(12, 96).
edge(80, 107).
edge(58, 115).
edge(72, 86).
edge(6, 8).
edge(25, 114).
edge(14, 124).
edge(37, 135).
edge(52, 66).
edge(7, 87).
edge(21, 83).
edge(2, 29).
edge(46, 54).
edge(11, 131).
edge(34, 111).
edge(33, 98).
edge(29, 71).
edge(8, 121).
edge(35, 69).
edge(40, 115).
edge(42, 127).
edge(46, 121).
edge(20, 32).
edge(119, 131).
edge(4, 48).
edge(63, 101).
edge(0, 40).
edge(4, 76).
edge(68, 81).
edge(101, 108).
edge(77, 105).
edge(66, 134).
edge(35, 47).
edge(29, 35).
edge(83, 91).
edge(39, 80).
edge(3, 47).
edge(25, 113).
edge(55, 120).
edge(24, 52).
edge(15, 89).
edge(36, 66).
edge(39, 103).
edge(22, 81).
edge(106, 128).
edge(28, 57).
edge(22, 100).
edge(39, 67).
edge(18, 75).
edge(0, 65).
edge(23, 113).
edge(95, 120).
edge(10, 126).
edge(38, 40).
edge(49, 70).
edge(5, 50).
edge(21, 98).
edge(31, 115).
edge(19, 68).
edge(25, 93).
edge(52, 102).
edge(36, 69).
edge(72, 107).
edge(1, 20).
edge(15, 27).
edge(34, 58).
edge(68, 115).
edge(118, 127).
edge(69, 98).
edge(19, 118).
edge(43, 119).
edge(41, 58).
edge(12, 104).
edge(49, 77).
edge(82, 111).
edge(76, 79).
edge(68, 129).
edge(33, 43).
edge(75, 124).
edge(13, 28).
edge(18, 57).
edge(108, 135).
edge(77, 130).
edge(11, 74).
edge(79, 121).
edge(10, 57).
edge(8, 12).
edge(34, 135).
edge(52, 115).
edge(45, 120).
edge(52, 80).
edge(21, 110).
edge(43, 109).
edge(44, 110).
edge(68, 102).
edge(8, 54).
edge(21, 44).
edge(1, 129).
edge(39, 59).
edge(73, 110).
edge(97, 124).
edge(41, 65).
edge(32, 50).
edge(34, 67).
edge(21, 81).
edge(13, 21).
edge(63, 130).
edge(24, 118).
edge(44, 112).
edge(17, 48).
edge(40, 130).
edge(26, 27).
edge(92, 98).
edge(72, 79).
edge(21, 121).
edge(59, 62).
edge(49, 76).
edge(84, 100).
edge(3, 50).
edge(10, 61).
edge(35, 89).
edge(53, 88).
edge(33, 111).
edge(18, 104).
edge(30, 31).
edge(35, 103).
edge(8, 37).
edge(34, 113).
edge(121, 133).
edge(10, 132).
edge(40, 78).
edge(81, 109).
edge(32, 84).
edge(46, 107).
edge(10, 87).
edge(67, 131).
edge(22, 53).
edge(38, 109).
edge(43, 69).
edge(0, 63).
edge(24, 88).
edge(8, 17).
edge(73, 116).
edge(55, 135).
edge(25, 31).
edge(49, 114).
edge(49, 99).
edge(12, 102).
edge(21, 68).
edge(2, 66).
edge(27, 118).
edge(70, 93).
edge(30, 103).
edge(58, 117).
edge(19, 67).
edge(14, 16).
edge(14, 88).
edge(23, 124).
edge(86, 96).
edge(32, 35).
edge(14, 131).
edge(7, 119).
edge(17, 114).
edge(69, 102).
edge(80, 81).
edge(25, 30).
edge(21, 119).
edge(61, 82).
edge(19, 95).
edge(7, 21).
edge(20, 28).
edge(18, 55).
edge(15, 85).
edge(31, 45).
edge(0, 22).
edge(63, 86).
edge(96, 124).
edge(99, 111).
edge(79, 133).
edge(88, 116).
edge(54, 69).
edge(120, 132).
edge(8, 131).
edge(70, 90).
edge(28, 109).
edge(27, 28).
edge(82, 115).
edge(38, 87).
edge(55, 62).
edge(41, 78).
edge(52, 81).
edge(101, 127).
edge(40, 42).
edge(3, 24).
edge(20, 115).
edge(2, 11).
edge(60, 86).
edge(9, 23).
edge(24, 49).
edge(57, 90).
edge(83, 88).
edge(9, 129).
edge(11, 83).
edge(75, 111).
edge(73, 105).
edge(4, 14).
edge(4, 80).
edge(63, 97).
edge(62, 121).
edge(90, 133).
edge(31, 38).
edge(67, 129).
edge(78, 80).
edge(24, 95).
edge(118, 128).
edge(38, 44).
edge(66, 73).
edge(12, 66).
edge(13, 65).
edge(54, 114).
edge(18, 62).
edge(51, 102).
edge(54, 99).
edge(22, 27).
edge(90, 92).
edge(20, 111).
edge(103, 110).
edge(8, 55).
edge(101, 123).
edge(101, 125).
edge(21, 31).
edge(25, 119).
edge(77, 89).
edge(48, 123).
edge(64, 132).
edge(40, 75).
edge(53, 108).
edge(22, 125).
edge(77, 108).
edge(82, 117).
edge(11, 65).
edge(69, 88).
edge(20, 51).
edge(129, 133).
edge(1, 131).
edge(0, 58).
edge(44, 128).
edge(1, 34).
edge(18, 31).
edge(62, 131).
edge(75, 102).
edge(13, 90).
edge(82, 102).
edge(106, 126).
edge(16, 69).
edge(88, 114).
edge(66, 81).
edge(41, 130).
edge(73, 125).
edge(5, 116).
edge(1, 47).
edge(86, 89).
edge(117, 135).
edge(23, 107).
edge(10, 23).
edge(31, 51).
edge(17, 89).
edge(39, 111).
edge(23, 122).
edge(46, 76).
edge(63, 112).
edge(60, 84).
edge(79, 132).
edge(40, 98).
edge(19, 36).
edge(11, 78).
edge(87, 114).
edge(9, 12).
edge(59, 104).
edge(17, 86).
edge(63, 115).
edge(69, 96).
edge(30, 106).
edge(86, 112).
edge(5, 84).
edge(23, 58).
edge(49, 58).
edge(2, 105).
edge(80, 86).
edge(121, 132).
edge(25, 78).
edge(71, 72).
edge(51, 106).
edge(18, 109).
edge(83, 118).
edge(39, 50).
edge(88, 123).
edge(43, 86).
edge(95, 113).
edge(57, 95).
edge(8, 102).
edge(12, 101).
edge(24, 25).
edge(10, 64).
edge(8, 95).
edge(52, 55).
edge(0, 28).
edge(129, 135).
edge(53, 79).
edge(20, 66).
edge(5, 29).
edge(26, 121).
edge(1, 93).
edge(75, 87).
edge(26, 35).
edge(4, 42).
edge(50, 123).
edge(67, 122).
edge(56, 58).
edge(106, 133).
edge(65, 116).
edge(4, 98).
edge(58, 86).
edge(17, 90).
edge(0, 121).
edge(73, 133).
edge(70, 85).
edge(20, 131).
edge(17, 41).
edge(36, 45).
edge(31, 126).
edge(61, 77).
edge(68, 83).
edge(46, 48).
edge(74, 84).
edge(103, 104).
edge(23, 99).
edge(5, 51).
edge(73, 123).
edge(68, 75).
edge(6, 126).
edge(74, 117).
edge(1, 11).
edge(13, 107).
edge(19, 98).
edge(7, 120).
edge(90, 124).
edge(15, 70).
edge(2, 120).
edge(35, 85).
edge(92, 102).
edge(65, 77).
edge(16, 24).
edge(18, 82).
edge(48, 79).
edge(100, 106).
edge(5, 105).
edge(123, 127).
edge(47, 110).
edge(106, 119).
edge(74, 96).
edge(95, 103).
edge(81, 129).
edge(71, 106).
edge(43, 110).
edge(29, 104).
edge(25, 115).
edge(31, 128).
edge(92, 94).
edge(91, 127).
edge(51, 74).
edge(9, 76).
edge(14, 44).
edge(68, 101).
edge(3, 25).
edge(10, 75).
edge(52, 71).
edge(64, 91).
edge(22, 44).
edge(63, 80).
edge(22, 42).
edge(22, 98).
edge(48, 94).
edge(21, 106).
edge(74, 76).
edge(130, 134).
edge(53, 120).
edge(45, 58).
edge(64, 68).
edge(57, 87).
edge(65, 123).
edge(18, 47).
edge(51, 63).
edge(59, 67).
edge(92, 129).
edge(54, 128).
edge(40, 114).
edge(31, 119).
edge(24, 100).
edge(31, 44).
edge(43, 45).
edge(95, 115).
edge(98, 105).
edge(25, 53).
edge(93, 114).
edge(38, 125).
edge(37, 79).
edge(14, 103).
edge(52, 69).
edge(101, 110).
edge(122, 135).
edge(13, 71).
edge(44, 114).
edge(80, 91).
edge(35, 53).
edge(10, 109).
edge(31, 129).
edge(113, 117).
edge(72, 122).
edge(7, 66).
edge(87, 104).
edge(15, 104).
edge(63, 109).
edge(24, 40).
edge(38, 107).
edge(80, 120).
edge(27, 124).
edge(3, 37).
edge(107, 122).
edge(65, 128).
edge(11, 27).
edge(40, 91).
edge(120, 124).
edge(45, 107).
edge(16, 21).
edge(10, 58).
edge(5, 89).
edge(96, 110).
edge(47, 74).
edge(32, 46).
edge(2, 113).
edge(4, 52).
edge(3, 27).
edge(60, 134).
edge(56, 105).
edge(88, 94).
edge(103, 135).
edge(26, 93).
edge(52, 107).
edge(128, 133).
edge(12, 114).
edge(6, 88).
edge(42, 94).
edge(92, 122).
edge(60, 99).
edge(53, 134).
edge(64, 133).
edge(17, 110).
edge(51, 100).
edge(92, 127).
edge(31, 95).
edge(51, 91).
edge(36, 110).
edge(59, 126).
edge(61, 81).
edge(5, 42).
edge(73, 90).
edge(84, 117).
edge(15, 59).
edge(91, 113).
edge(99, 118).
edge(19, 57).
edge(19, 116).
edge(33, 48).
edge(91, 98).
edge(16, 38).
edge(30, 60).
edge(35, 39).
edge(107, 115).
edge(13, 50).
edge(30, 63).
edge(10, 29).
edge(60, 133).
edge(29, 41).
edge(115, 131).
edge(21, 40).
edge(44, 77).
edge(27, 77).
edge(49, 86).
edge(0, 122).
edge(11, 117).
edge(44, 55).
edge(12, 75).
edge(2, 98).
edge(78, 84).
edge(46, 71).
edge(47, 86).
edge(55, 77).
edge(31, 80).
edge(28, 119).
edge(38, 96).
edge(45, 88).
edge(62, 135).
edge(40, 48).
edge(33, 59).
edge(33, 112).
edge(0, 10).
edge(87, 106).
edge(71, 89).
edge(14, 109).
edge(0, 84).
edge(79, 106).
edge(92, 95).
edge(1, 79).
edge(16, 51).
edge(69, 87).
edge(38, 47).
edge(24, 68).
edge(49, 122).
edge(94, 99).
edge(44, 48).
edge(35, 129).
edge(66, 69).
edge(6, 110).
edge(45, 122).
edge(108, 123).
edge(34, 91).
edge(14, 50).
edge(39, 129).
edge(58, 134).
edge(22, 41).
edge(46, 95).
edge(10, 105).
edge(2, 40).
edge(61, 125).
edge(9, 133).
edge(15, 96).
edge(60, 80).
edge(21, 113).
edge(110, 134).
edge(28, 81).
edge(25, 109).
edge(34, 85).
edge(59, 106).
edge(99, 104).
edge(42, 58).
edge(82, 92).
edge(10, 133).
edge(89, 102).
edge(22, 51).
edge(9, 128).
edge(9, 82).
edge(44, 59).
edge(64, 126).
edge(34, 132).
edge(13, 66).
edge(58, 94).
edge(17, 119).
edge(55, 79).
edge(44, 125).
edge(46, 69).
edge(18, 121).
edge(25, 103).
edge(55, 95).
edge(0, 81).
edge(20, 123).
edge(33, 108).
edge(46, 60).
edge(7, 35).
edge(69, 112).
edge(35, 38).
edge(30, 91).
edge(80, 97).
edge(9, 11).
edge(43, 114).
edge(8, 86).
edge(30, 79).
edge(33, 44).
edge(37, 133).
edge(69, 82).
edge(7, 26).
edge(29, 115).
edge(82, 101).
edge(49, 88).
edge(78, 124).
edge(29, 97).
edge(8, 13).
edge(16, 116).
edge(34, 42).
edge(68, 69).
edge(44, 85).
edge(75, 94).
edge(94, 111).
edge(48, 91).
edge(13, 70).
edge(13, 118).
edge(103, 123).
edge(129, 131).
edge(104, 105).
edge(43, 71).
edge(27, 40).
edge(32, 37).
edge(116, 124).
edge(25, 45).
edge(40, 116).
edge(31, 91).
edge(69, 121).
edge(73, 118).
edge(29, 119).
edge(16, 48).
edge(43, 53).
edge(16, 73).
edge(1, 6).
edge(81, 119).
edge(48, 78).
edge(15, 67).
edge(12, 81).
edge(41, 103).
edge(97, 100).
edge(3, 89).
edge(24, 63).
edge(73, 84).
edge(56, 96).
edge(48, 125).
edge(41, 63).
edge(16, 109).
edge(1, 103).
edge(84, 91).
edge(44, 135).
edge(75, 110).
edge(5, 117).
edge(54, 105).
edge(17, 37).
edge(47, 132).
edge(45, 102).
edge(9, 38).
edge(13, 97).
edge(5, 39).
edge(59, 119).
edge(0, 101).
edge(15, 94).
edge(87, 101).
edge(41, 135).
edge(59, 76).
edge(23, 57).
edge(17, 95).
edge(33, 132).
edge(87, 100).
edge(48, 116).
edge(2, 22).
edge(85, 109).
edge(37, 104).
edge(42, 78).
edge(29, 52).
edge(7, 49).
edge(33, 64).
edge(51, 84).
edge(18, 29).
edge(21, 86).
edge(101, 113).
edge(43, 89).
edge(65, 100).
edge(122, 131).
edge(15, 113).
edge(98, 114).
edge(74, 116).
edge(55, 106).
edge(6, 133).
edge(10, 108).
edge(29, 89).
edge(46, 134).
edge(105, 120).
edge(47, 129).
edge(102, 121).
edge(15, 34).
edge(14, 69).
edge(94, 96).
edge(51, 133).
edge(67, 116).
edge(0, 2).
edge(57, 82).
edge(58, 122).
edge(57, 96).
edge(45, 101).
edge(40, 103).
edge(34, 35).
edge(34, 53).
edge(86, 99).
edge(0, 34).
edge(12, 135).
edge(66, 67).
edge(89, 94).
edge(32, 66).
edge(30, 114).
edge(50, 135).
edge(18, 96).
edge(50, 56).
edge(9, 119).
edge(11, 38).
edge(73, 91).
edge(19, 114).
edge(4, 53).
edge(39, 73).
edge(27, 59).
edge(53, 103).
edge(9, 57).
edge(25, 98).
edge(51, 107).
edge(54, 113).
edge(60, 126).
edge(65, 101).
edge(83, 127).
edge(41, 73).
edge(8, 77).
edge(64, 85).
edge(3, 67).
edge(48, 119).
edge(62, 67).
edge(89, 111).
edge(38, 94).
edge(18, 116).
edge(16, 127).
edge(36, 109).
edge(20, 108).
edge(57, 80).
edge(54, 88).
edge(77, 131).
edge(20, 24).
edge(22, 109).
edge(45, 72).
edge(45, 111).
edge(57, 131).
edge(41, 64).
edge(47, 100).
edge(73, 129).
edge(117, 132).
edge(31, 130).
edge(23, 35).
edge(48, 87).
edge(40, 107).
edge(57, 68).
edge(29, 64).
edge(116, 132).
edge(50, 118).
edge(119, 120).
edge(77, 91).
edge(9, 106).
edge(120, 123).
edge(62, 96).
edge(32, 108).
edge(6, 51).
edge(82, 129).
edge(9, 135).
edge(57, 89).
edge(22, 31).
edge(7, 65).
edge(47, 111).
edge(53, 104).
edge(71, 88).
edge(5, 73).
edge(26, 56).
edge(56, 127).
edge(41, 68).
edge(42, 132).
edge(43, 55).
edge(126, 133).
edge(9, 88).
edge(94, 125).
edge(55, 85).
edge(17, 31).
edge(54, 73).
edge(47, 114).
edge(3, 108).
edge(61, 78).
edge(12, 106).
edge(35, 125).
edge(44, 95).
edge(63, 76).
edge(64, 130).
edge(93, 98).
edge(77, 111).
edge(15, 31).
edge(9, 112).
edge(81, 87).
edge(51, 79).
edge(7, 89).
edge(14, 26).
edge(46, 118).
edge(73, 128).
edge(6, 86).
edge(50, 52).
edge(16, 25).
edge(47, 76).
edge(34, 75).
edge(52, 53).
edge(97, 121).
edge(60, 125).
edge(30, 125).
edge(3, 34).
edge(92, 105).
edge(33, 41).
edge(112, 133).
edge(119, 126).
edge(85, 102).
edge(38, 52).
edge(83, 92).
edge(51, 112).
edge(4, 11).
edge(106, 117).
edge(28, 94).
edge(128, 135).
edge(115, 132).
edge(48, 112).
edge(37, 111).
edge(19, 90).
edge(40, 96).
edge(79, 80).
edge(18, 124).
edge(55, 101).
edge(91, 122).
edge(82, 89).
edge(30, 118).
edge(10, 80).
edge(8, 75).
edge(29, 44).
edge(22, 69).
edge(32, 55).
edge(119, 129).
edge(30, 77).
edge(37, 90).
edge(47, 64).
edge(2, 57).
edge(8, 58).
edge(76, 130).
edge(15, 108).
edge(4, 33).
edge(45, 114).
edge(9, 108).
edge(8, 114).
edge(23, 46).
edge(1, 105).
edge(35, 108).
edge(84, 133).
edge(75, 123).
edge(13, 81).
edge(0, 96).
edge(30, 73).
edge(40, 135).
edge(2, 71).
edge(86, 121).
edge(87, 99).
edge(27, 35).
edge(21, 30).
edge(37, 85).
edge(114, 124).
edge(20, 38).
edge(85, 113).
edge(33, 57).
edge(40, 72).
edge(35, 80).
edge(48, 135).
edge(24, 30).
edge(21, 45).
edge(41, 126).
edge(16, 91).
edge(63, 87).
edge(31, 121).
edge(83, 100).
edge(4, 61).
edge(45, 119).
edge(22, 46).
edge(56, 116).
edge(39, 68).
edge(19, 55).
edge(11, 133).
edge(2, 106).
edge(5, 82).
edge(27, 66).
edge(10, 21).
edge(114, 129).
edge(39, 127).
edge(92, 106).
edge(54, 101).
edge(71, 114).
edge(11, 88).
edge(72, 118).
edge(21, 129).
edge(29, 80).
edge(48, 117).
edge(25, 63).
edge(54, 92).
edge(57, 63).
edge(122, 124).
edge(127, 132).
edge(65, 134).
edge(85, 90).
edge(89, 95).
edge(41, 100).
edge(67, 108).
edge(13, 91).
edge(106, 127).
edge(1, 13).
edge(24, 94).
edge(19, 78).
edge(70, 119).
edge(38, 131).
edge(67, 121).
edge(53, 116).
edge(48, 61).
edge(102, 110).
edge(30, 49).
edge(55, 80).
edge(63, 72).
edge(41, 133).
edge(32, 63).
edge(36, 68).
edge(30, 129).
edge(12, 55).
edge(39, 134).
edge(92, 120).
edge(113, 118).
edge(65, 118).
edge(70, 118).
edge(106, 111).
edge(5, 74).
edge(119, 132).
edge(5, 15).
edge(87, 108).
edge(36, 101).
edge(38, 54).
edge(44, 74).
edge(4, 17).
edge(20, 27).
edge(61, 117).
edge(110, 124).
edge(73, 83).
edge(35, 67).
edge(32, 129).
edge(47, 102).
edge(10, 78).
edge(77, 114).
edge(11, 41).
edge(61, 122).
edge(35, 104).
edge(12, 87).
edge(58, 90).
edge(2, 69).
edge(18, 30).
edge(13, 111).
edge(41, 134).
edge(104, 112).
edge(83, 120).
edge(49, 68).
edge(27, 70).
edge(36, 114).
edge(39, 86).
edge(70, 114).
edge(78, 129).
edge(11, 119).
edge(3, 72).
edge(48, 106).
edge(43, 124).
edge(22, 115).
edge(89, 112).
edge(65, 74).
edge(23, 72).
edge(5, 57).
edge(115, 121).
edge(32, 67).
edge(41, 116).
edge(51, 124).
edge(4, 41).
edge(26, 129).
edge(21, 36).
edge(3, 122).
edge(71, 73).
edge(16, 83).
edge(28, 70).
edge(34, 50).
edge(7, 132).
edge(96, 135).
edge(24, 33).
edge(27, 81).
edge(18, 98).
edge(13, 127).
edge(87, 120).
edge(19, 56).
edge(37, 100).
edge(17, 63).
edge(58, 81).
edge(54, 71).
edge(23, 117).
edge(16, 71).
edge(48, 118).
edge(50, 76).
edge(69, 83).
edge(97, 103).
edge(36, 92).
edge(44, 119).
edge(29, 30).
edge(48, 60).
edge(64, 72).
edge(74, 94).
edge(112, 118).
edge(2, 50).
edge(23, 93).
edge(45, 96).
edge(27, 95).
edge(119, 135).
edge(20, 61).
edge(0, 20).
edge(7, 124).
edge(104, 121).
edge(0, 112).
edge(66, 131).
edge(3, 56).
edge(61, 115).
edge(66, 116).
edge(96, 103).
edge(45, 125).
edge(30, 69).
edge(38, 77).
edge(0, 57).
edge(19, 39).
edge(43, 108).
edge(45, 126).
edge(64, 124).
edge(12, 78).
edge(31, 72).
edge(67, 99).
edge(69, 84).
edge(6, 90).
edge(29, 114).
edge(23, 110).
edge(16, 132).
edge(61, 135).
edge(58, 129).
edge(29, 67).
edge(46, 133).
edge(99, 135).
edge(59, 105).
edge(67, 87).
edge(8, 100).
edge(9, 83).
edge(80, 122).
edge(16, 121).
edge(8, 108).
edge(76, 125).
edge(44, 94).
edge(28, 113).
edge(94, 103).
edge(6, 97).
edge(16, 97).
edge(16, 32).
edge(1, 87).
edge(7, 42).
edge(89, 127).
edge(64, 97).
edge(59, 80).
edge(22, 25).
edge(35, 86).
edge(47, 134).
edge(35, 124).
weight(0, 11).
weight(1, 1).
weight(2, 14).
weight(3, 2).
weight(4, 1).
weight(5, 5).
weight(6, 9).
weight(7, 8).
weight(8, 18).
weight(9, 19).
weight(10, 8).
weight(11, 4).
weight(12, 19).
weight(13, 17).
weight(14, 15).
weight(15, 19).
weight(16, 7).
weight(17, 6).
weight(18, 6).
weight(19, 2).
weight(20, 10).
weight(21, 17).
weight(22, 3).
weight(23, 17).
weight(24, 1).
weight(25, 17).
weight(26, 2).
weight(27, 8).
weight(28, 18).
weight(29, 17).
weight(30, 14).
weight(31, 4).
weight(32, 19).
weight(33, 15).
weight(34, 8).
weight(35, 11).
weight(36, 6).
weight(37, 15).
weight(38, 18).
weight(39, 9).
weight(40, 10).
weight(41, 19).
weight(42, 9).
weight(43, 8).
weight(44, 19).
weight(45, 7).
weight(46, 14).
weight(47, 14).
weight(48, 10).
weight(49, 13).
weight(50, 10).
weight(51, 6).
weight(52, 7).
weight(53, 12).
weight(54, 18).
weight(55, 9).
weight(56, 12).
weight(57, 16).
weight(58, 13).
weight(59, 9).
weight(60, 17).
weight(61, 14).
weight(62, 8).
weight(63, 4).
weight(64, 4).
weight(65, 5).
weight(66, 7).
weight(67, 3).
weight(68, 18).
weight(69, 12).
weight(70, 9).
weight(71, 2).
weight(72, 12).
weight(73, 13).
weight(74, 13).
weight(75, 13).
weight(76, 8).
weight(77, 11).
weight(78, 2).
weight(79, 6).
weight(80, 16).
weight(81, 12).
weight(82, 2).
weight(83, 10).
weight(84, 17).
weight(85, 6).
weight(86, 3).
weight(87, 16).
weight(88, 2).
weight(89, 10).
weight(90, 3).
weight(91, 11).
weight(92, 1).
weight(93, 5).
weight(94, 14).
weight(95, 15).
weight(96, 15).
weight(97, 5).
weight(98, 10).
weight(99, 17).
weight(100, 18).
weight(101, 1).
weight(102, 1).
weight(103, 3).
weight(104, 7).
weight(105, 14).
weight(106, 17).
weight(107, 19).
weight(108, 2).
weight(109, 4).
weight(110, 11).
weight(111, 4).
weight(112, 6).
weight(113, 5).
weight(114, 18).
weight(115, 16).
weight(116, 6).
weight(117, 15).
weight(118, 10).
weight(119, 16).
weight(120, 13).
weight(121, 18).
weight(122, 7).
weight(123, 1).
weight(124, 18).
weight(125, 10).
weight(126, 19).
weight(127, 13).
weight(128, 16).
weight(129, 14).
weight(130, 12).
weight(131, 6).
weight(132, 9).
weight(133, 10).
weight(134, 2).
weight(135, 5).

{in(V)} :- node(V).
:- in(U), in(V), U < V, not edge(U,V).
:~ not in(V), weight(V,W). [W@1,V]
