node(0..134).
edge(82, 118).
edge(26, 61).
edge(103, 131).
edge(61, 82).
edge(40, 108).
edge(74, 93).
edge(68, 77).
edge(57, 103).
edge(80, 134).
edge(3, 102).
edge(12, 120).
edge(46, 51).
edge(30, 115).
edge(18, 84).
edge(23, 91).
edge(62, 129).
edge(40, 73).
edge(119, 130).
edge(87, 119).
edge(5, 87).
edge(71, 111).
edge(1, 7).
edge(12, 13).
edge(22, 39).
edge(41, 54).
edge(87, 122).
edge(8, 130).
edge(55, 97).
edge(19, 120).
edge(49, 99).
edge(63, 98).
edge(2, 8).
edge(11, 81).
edge(38, 105).
edge(62, 112).
edge(4, 63).
edge(2, 126).
edge(19, 74).
edge(14, 114).
edge(14, 131).
edge(42, 65).
edge(13, 35).
edge(120, 131).
edge(62, 134).
edge(0, 15).
edge(110, 125).
edge(87, 128).
edge(69, 75).
edge(106, 114).
edge(33, 125).
edge(0, 2).
edge(67, 115).
edge(9, 24).
edge(48, 63).
edge(87, 95).
edge(14, 57).
edge(18, 90).
edge(124, 130).
edge(42, 105).
edge(0, 71).
edge(59, 121).
edge(43, 105).
edge(52, 95).
edge(94, 97).
edge(5, 72).
edge(81, 96).
edge(10, 44).
edge(22, 90).
edge(61, 134).
edge(26, 53).
edge(2, 44).
edge(6, 53).
edge(44, 51).
edge(7, 106).
edge(8, 95).
edge(1, 50).
edge(34, 120).
edge(58, 66).
edge(58, 122).
edge(74, 110).
edge(46, 134).
edge(29, 36).
edge(119, 133).
edge(81, 115).
edge(57, 92).
edge(54, 75).
edge(36, 71).
edge(110, 113).
edge(68, 70).
edge(11, 112).
edge(102, 122).
edge(61, 103).
edge(92, 99).
edge(54, 104).
edge(43, 84).
edge(112, 132).
edge(65, 122).
edge(105, 117).
edge(37, 61).
edge(4, 87).
edge(1, 90).
edge(4, 18).
edge(26, 102).
edge(11, 14).
edge(29, 90).
edge(35, 85).
edge(34, 126).
edge(25, 65).
edge(87, 132).
edge(15, 133).
edge(27, 125).
edge(66, 88).
edge(39, 50).
edge(23, 49).
edge(26, 83).
edge(25, 123).
edge(91, 110).
edge(41, 87).
edge(24, 72).
edge(48, 129).
edge(28, 44).
edge(1, 10).
edge(14, 43).
edge(50, 127).
edge(77, 101).
edge(113, 129).
edge(34, 84).
edge(16, 39).
edge(61, 86).
edge(14, 58).
edge(18, 20).
edge(75, 106).
edge(29, 92).
edge(11, 64).
edge(40, 129).
edge(0, 1).
edge(83, 84).
edge(17, 41).
edge(105, 114).
edge(42, 81).
edge(13, 127).
edge(1, 73).
edge(3, 17).
edge(47, 55).
edge(64, 118).
edge(21, 109).
edge(86, 114).
edge(70, 80).
edge(5, 12).
edge(11, 48).
edge(59, 66).
edge(6, 51).
edge(66, 134).
edge(4, 59).
edge(23, 85).
edge(28, 74).
edge(10, 87).
edge(101, 122).
edge(99, 113).
edge(31, 33).
edge(89, 106).
edge(42, 77).
edge(69, 131).
edge(10, 131).
edge(53, 82).
edge(61, 120).
edge(9, 132).
edge(40, 103).
edge(5, 43).
edge(124, 131).
edge(14, 127).
edge(9, 103).
edge(20, 38).
edge(108, 117).
edge(34, 83).
edge(8, 44).
edge(34, 37).
edge(13, 96).
edge(25, 77).
edge(84, 125).
edge(41, 89).
edge(55, 81).
edge(54, 107).
edge(36, 54).
edge(59, 124).
edge(0, 128).
edge(25, 102).
edge(12, 38).
edge(49, 125).
edge(108, 132).
edge(9, 49).
edge(0, 105).
edge(63, 84).
edge(14, 46).
edge(42, 79).
edge(50, 134).
edge(15, 39).
edge(69, 116).
edge(2, 101).
edge(1, 113).
edge(108, 112).
edge(3, 120).
edge(50, 121).
edge(34, 54).
edge(60, 74).
edge(85, 130).
edge(53, 81).
edge(11, 66).
edge(9, 113).
edge(24, 65).
edge(22, 94).
edge(64, 80).
edge(54, 58).
edge(2, 32).
edge(77, 93).
edge(129, 130).
edge(15, 100).
edge(96, 112).
edge(19, 61).
edge(97, 108).
edge(6, 110).
edge(26, 120).
edge(7, 125).
edge(39, 71).
edge(9, 60).
edge(34, 79).
edge(97, 118).
edge(126, 132).
edge(17, 33).
edge(40, 105).
edge(72, 133).
edge(18, 119).
edge(42, 72).
edge(9, 73).
edge(3, 23).
edge(101, 133).
edge(79, 108).
edge(57, 108).
edge(110, 114).
edge(29, 113).
edge(67, 127).
edge(26, 55).
edge(0, 129).
edge(89, 103).
edge(52, 56).
edge(11, 33).
edge(8, 76).
edge(62, 64).
edge(37, 42).
edge(32, 116).
edge(10, 97).
edge(8, 75).
edge(38, 130).
edge(79, 128).
edge(65, 117).
edge(21, 96).
edge(86, 89).
edge(59, 70).
edge(31, 82).
edge(18, 55).
edge(22, 45).
edge(64, 99).
edge(13, 116).
edge(27, 130).
edge(21, 35).
edge(30, 58).
edge(8, 86).
edge(9, 37).
edge(16, 118).
edge(16, 64).
edge(32, 109).
edge(107, 118).
edge(22, 23).
edge(11, 51).
edge(73, 104).
edge(43, 67).
edge(116, 126).
edge(61, 108).
edge(61, 114).
edge(117, 131).
edge(6, 134).
edge(53, 131).
edge(12, 68).
edge(10, 98).
edge(8, 121).
edge(76, 120).
edge(48, 109).
edge(13, 15).
edge(118, 121).
edge(3, 114).
edge(8, 43).
edge(9, 93).
edge(25, 53).
edge(75, 125).
edge(6, 125).
edge(14, 16).
edge(19, 64).
edge(2, 121).
edge(4, 37).
edge(68, 93).
edge(55, 108).
edge(82, 92).
edge(13, 16).
edge(9, 95).
edge(31, 111).
edge(41, 46).
edge(73, 124).
edge(7, 118).
edge(7, 86).
edge(4, 99).
edge(39, 92).
edge(61, 127).
edge(24, 69).
edge(18, 50).
edge(16, 94).
edge(76, 101).
edge(85, 112).
edge(51, 80).
edge(1, 34).
edge(9, 84).
edge(5, 104).
edge(46, 105).
edge(95, 120).
edge(123, 132).
edge(37, 94).
edge(46, 77).
edge(23, 105).
edge(68, 113).
edge(29, 78).
edge(28, 81).
edge(21, 130).
edge(105, 115).
edge(35, 131).
edge(42, 90).
edge(99, 124).
edge(65, 91).
edge(29, 54).
edge(40, 59).
edge(8, 49).
edge(50, 122).
edge(94, 128).
edge(42, 59).
edge(3, 87).
edge(58, 65).
edge(70, 112).
edge(39, 56).
edge(106, 115).
edge(20, 127).
edge(64, 93).
edge(37, 100).
edge(7, 127).
edge(62, 108).
edge(5, 29).
edge(16, 97).
edge(100, 107).
edge(4, 129).
edge(3, 53).
edge(67, 113).
edge(114, 123).
edge(48, 97).
edge(8, 60).
edge(4, 48).
edge(52, 125).
edge(73, 84).
edge(40, 48).
edge(77, 94).
edge(73, 118).
edge(20, 95).
edge(106, 130).
edge(7, 23).
edge(39, 86).
edge(54, 78).
edge(22, 55).
edge(37, 105).
edge(1, 18).
edge(62, 105).
edge(2, 6).
edge(76, 78).
edge(38, 84).
edge(63, 77).
edge(8, 30).
edge(44, 117).
edge(95, 98).
edge(32, 72).
edge(51, 66).
edge(14, 37).
edge(88, 128).
edge(72, 109).
edge(49, 84).
edge(48, 111).
edge(50, 96).
edge(20, 51).
edge(84, 105).
edge(103, 118).
edge(28, 107).
edge(37, 44).
edge(36, 88).
edge(4, 13).
edge(11, 37).
edge(23, 96).
edge(101, 104).
edge(2, 25).
edge(66, 67).
edge(12, 56).
edge(46, 114).
edge(36, 123).
edge(124, 125).
edge(17, 76).
edge(15, 59).
edge(15, 16).
edge(8, 25).
edge(105, 130).
edge(11, 19).
edge(56, 95).
edge(78, 84).
edge(126, 133).
edge(54, 59).
edge(96, 117).
edge(63, 117).
edge(42, 89).
edge(101, 123).
edge(32, 102).
edge(0, 85).
edge(47, 125).
edge(82, 104).
edge(14, 109).
edge(19, 27).
edge(82, 120).
edge(0, 118).
edge(68, 134).
edge(32, 100).
edge(75, 122).
edge(43, 86).
edge(26, 126).
edge(42, 111).
edge(6, 131).
edge(3, 35).
edge(25, 127).
edge(84, 89).
edge(30, 105).
edge(7, 111).
edge(69, 109).
edge(42, 44).
edge(59, 108).
edge(14, 17).
edge(67, 86).
edge(31, 78).
edge(33, 108).
edge(80, 124).
edge(98, 100).
edge(28, 53).
edge(30, 75).
edge(13, 107).
edge(57, 110).
edge(47, 120).
edge(22, 60).
edge(66, 129).
edge(36, 48).
edge(88, 110).
edge(39, 116).
edge(29, 94).
edge(36, 70).
edge(3, 49).
edge(38, 78).
edge(10, 101).
edge(0, 130).
edge(67, 89).
edge(67, 87).
edge(54, 119).
edge(11, 61).
edge(75, 108).
edge(45, 85).
edge(4, 5).
edge(18, 93).
edge(3, 132).
edge(20, 33).
edge(34, 91).
edge(81, 112).
edge(8, 96).
edge(55, 57).
edge(86, 115).
edge(46, 102).
edge(62, 91).
edge(44, 64).
edge(126, 134).
edge(62, 100).
edge(72, 112).
edge(56, 59).
edge(24, 61).
edge(48, 116).
edge(78, 89).
edge(28, 108).
edge(89, 116).
edge(15, 44).
edge(9, 20).
edge(65, 123).
edge(9, 92).
edge(35, 73).
edge(0, 106).
edge(10, 68).
edge(5, 38).
edge(41, 104).
edge(28, 52).
edge(14, 59).
edge(22, 105).
edge(17, 99).
edge(17, 104).
edge(90, 120).
edge(25, 45).
edge(49, 133).
edge(2, 10).
edge(60, 80).
edge(24, 115).
edge(42, 70).
edge(57, 73).
edge(47, 96).
edge(8, 94).
edge(39, 84).
edge(41, 77).
edge(23, 74).
edge(17, 83).
edge(37, 88).
edge(43, 134).
edge(101, 111).
edge(56, 133).
edge(73, 75).
edge(55, 119).
edge(44, 82).
edge(63, 64).
edge(110, 117).
edge(10, 92).
edge(51, 98).
edge(70, 130).
edge(59, 67).
edge(51, 63).
edge(39, 75).
edge(1, 132).
edge(39, 127).
edge(7, 17).
edge(10, 37).
edge(52, 60).
edge(7, 52).
edge(65, 112).
edge(87, 106).
edge(8, 108).
edge(122, 131).
edge(1, 41).
edge(92, 108).
edge(95, 110).
edge(32, 48).
edge(40, 65).
edge(47, 134).
edge(36, 65).
edge(95, 119).
edge(12, 108).
edge(0, 110).
edge(111, 131).
edge(113, 116).
edge(32, 90).
edge(11, 16).
edge(73, 101).
edge(32, 94).
edge(41, 112).
edge(111, 126).
edge(16, 61).
edge(22, 44).
edge(82, 123).
edge(1, 134).
edge(9, 43).
edge(74, 108).
edge(86, 111).
edge(114, 134).
edge(80, 127).
edge(36, 117).
edge(49, 92).
edge(35, 59).
edge(52, 94).
edge(36, 112).
edge(42, 134).
edge(38, 100).
edge(31, 71).
edge(118, 119).
edge(4, 40).
edge(55, 69).
edge(74, 126).
edge(33, 107).
edge(30, 87).
edge(24, 86).
edge(21, 32).
edge(19, 90).
edge(54, 92).
edge(70, 111).
edge(13, 21).
edge(114, 115).
edge(33, 81).
edge(22, 124).
edge(30, 56).
edge(49, 89).
edge(10, 82).
edge(0, 127).
edge(49, 130).
edge(85, 101).
edge(11, 111).
edge(73, 126).
edge(9, 18).
edge(5, 121).
edge(19, 82).
edge(43, 61).
edge(76, 126).
edge(78, 122).
edge(16, 42).
edge(56, 122).
edge(21, 93).
edge(96, 124).
edge(75, 98).
edge(3, 13).
edge(74, 87).
edge(35, 82).
edge(13, 63).
edge(73, 102).
edge(51, 74).
edge(83, 122).
edge(5, 28).
edge(4, 78).
edge(19, 110).
edge(15, 57).
edge(10, 11).
edge(77, 134).
edge(29, 98).
edge(80, 113).
edge(36, 68).
edge(6, 107).
edge(41, 48).
edge(3, 28).
edge(125, 133).
edge(58, 92).
edge(30, 132).
edge(31, 126).
edge(96, 106).
edge(122, 132).
edge(76, 99).
edge(10, 67).
edge(55, 73).
edge(44, 52).
edge(9, 26).
edge(128, 130).
edge(34, 60).
edge(16, 96).
edge(8, 115).
edge(46, 121).
edge(71, 116).
edge(19, 49).
edge(28, 105).
edge(7, 14).
edge(1, 100).
edge(28, 59).
edge(86, 92).
edge(13, 90).
edge(1, 65).
edge(47, 94).
edge(14, 95).
edge(12, 75).
edge(0, 112).
edge(32, 77).
edge(83, 124).
edge(27, 131).
edge(99, 132).
edge(9, 105).
edge(57, 126).
edge(59, 87).
edge(25, 55).
edge(111, 118).
edge(57, 114).
edge(5, 112).
edge(38, 112).
edge(46, 129).
edge(37, 134).
edge(116, 124).
edge(77, 83).
edge(44, 119).
edge(65, 100).
edge(1, 44).
edge(51, 86).
edge(3, 99).
edge(71, 113).
edge(60, 65).
edge(23, 128).
edge(56, 91).
edge(57, 132).
edge(32, 111).
edge(75, 111).
edge(29, 123).
edge(58, 61).
edge(19, 134).
edge(121, 133).
edge(15, 27).
edge(42, 122).
edge(35, 127).
edge(16, 106).
edge(25, 114).
edge(35, 40).
edge(31, 51).
edge(68, 80).
edge(49, 124).
edge(29, 57).
edge(11, 104).
edge(7, 33).
edge(76, 84).
edge(56, 105).
edge(26, 60).
edge(11, 56).
edge(20, 114).
edge(43, 82).
edge(25, 115).
edge(18, 86).
edge(6, 92).
edge(80, 85).
edge(76, 100).
edge(87, 90).
edge(28, 63).
edge(59, 64).
edge(15, 110).
edge(19, 30).
edge(60, 71).
edge(9, 50).
edge(58, 101).
edge(3, 69).
edge(9, 128).
edge(45, 123).
edge(13, 131).
edge(51, 103).
edge(48, 76).
edge(111, 128).
edge(13, 95).
edge(7, 32).
edge(44, 45).
edge(114, 120).
edge(53, 58).
edge(67, 94).
edge(84, 100).
edge(64, 71).
edge(8, 85).
edge(73, 122).
edge(22, 69).
edge(14, 89).
edge(55, 85).
edge(62, 65).
edge(32, 91).
edge(10, 54).
edge(23, 132).
edge(71, 79).
edge(9, 63).
edge(61, 63).
edge(28, 83).
edge(43, 60).
edge(53, 105).
edge(43, 91).
edge(85, 126).
edge(81, 85).
edge(81, 126).
edge(3, 63).
edge(35, 90).
edge(24, 57).
edge(35, 37).
edge(90, 106).
edge(30, 57).
edge(71, 125).
edge(33, 101).
edge(65, 126).
edge(45, 97).
edge(61, 113).
edge(42, 91).
edge(50, 75).
edge(80, 109).
edge(52, 75).
edge(44, 131).
edge(69, 118).
edge(63, 96).
edge(56, 119).
edge(85, 96).
edge(1, 61).
edge(14, 75).
edge(43, 88).
edge(37, 60).
edge(5, 32).
edge(31, 99).
edge(4, 118).
edge(93, 120).
edge(60, 114).
edge(20, 40).
edge(16, 132).
edge(78, 129).
edge(25, 100).
edge(29, 35).
edge(24, 38).
edge(90, 99).
edge(55, 71).
edge(9, 35).
edge(43, 113).
edge(50, 63).
edge(23, 77).
edge(67, 106).
edge(11, 34).
edge(103, 132).
edge(57, 121).
edge(38, 131).
edge(2, 59).
edge(59, 116).
edge(75, 119).
edge(8, 97).
edge(14, 73).
edge(2, 31).
edge(2, 52).
edge(12, 87).
edge(81, 129).
edge(28, 80).
edge(26, 36).
edge(64, 74).
edge(63, 89).
edge(25, 57).
edge(105, 123).
edge(4, 11).
edge(110, 124).
edge(50, 102).
edge(16, 67).
edge(24, 42).
edge(80, 89).
edge(57, 116).
edge(73, 79).
edge(79, 134).
edge(60, 86).
edge(7, 12).
edge(6, 52).
edge(22, 46).
edge(42, 118).
edge(49, 51).
edge(1, 94).
edge(18, 37).
edge(24, 59).
edge(8, 66).
edge(50, 115).
edge(110, 127).
edge(74, 113).
edge(14, 116).
edge(49, 101).
edge(4, 23).
edge(44, 76).
edge(10, 133).
edge(22, 129).
edge(26, 68).
edge(25, 44).
edge(60, 90).
edge(54, 86).
edge(105, 109).
edge(20, 100).
edge(57, 101).
edge(74, 86).
edge(19, 32).
edge(31, 88).
edge(40, 102).
edge(101, 118).
edge(84, 88).
edge(8, 77).
edge(75, 83).
edge(59, 102).
edge(78, 113).
edge(40, 100).
edge(99, 122).
edge(55, 64).
edge(13, 36).
edge(27, 108).
edge(26, 115).
edge(83, 117).
edge(57, 106).
edge(4, 9).
edge(42, 71).
edge(25, 112).
edge(40, 91).
edge(15, 92).
edge(31, 104).
edge(17, 121).
edge(3, 129).
edge(46, 59).
edge(5, 71).
edge(62, 104).
edge(48, 53).
edge(29, 124).
edge(67, 108).
edge(98, 129).
edge(104, 132).
edge(113, 125).
edge(16, 66).
edge(42, 60).
edge(109, 128).
edge(30, 90).
edge(26, 58).
edge(20, 44).
edge(2, 120).
edge(17, 102).
edge(6, 21).
edge(70, 94).
edge(77, 120).
edge(114, 117).
edge(26, 131).
edge(56, 131).
edge(91, 102).
edge(18, 89).
edge(31, 94).
edge(27, 85).
edge(106, 121).
edge(3, 85).
edge(14, 121).
edge(10, 96).
edge(40, 64).
edge(63, 101).
edge(10, 59).
edge(22, 64).
edge(24, 78).
edge(23, 51).
edge(84, 113).
edge(19, 33).
edge(10, 76).
edge(74, 101).
edge(21, 50).
edge(34, 124).
edge(84, 133).
edge(41, 91).
edge(58, 81).
edge(50, 65).
edge(29, 97).
edge(17, 26).
edge(20, 25).
edge(87, 133).
edge(10, 41).
edge(11, 105).
edge(1, 93).
edge(14, 81).
edge(49, 61).
edge(0, 4).
edge(3, 75).
edge(17, 61).
edge(14, 108).
edge(43, 76).
edge(0, 28).
edge(73, 114).
edge(84, 104).
edge(50, 80).
edge(39, 132).
edge(0, 26).
edge(57, 89).
edge(111, 125).
edge(86, 113).
edge(38, 91).
edge(39, 82).
edge(42, 56).
edge(17, 122).
edge(17, 116).
edge(50, 79).
edge(21, 83).
edge(0, 115).
edge(12, 110).
edge(108, 121).
edge(2, 33).
edge(15, 90).
edge(17, 73).
edge(80, 111).
edge(11, 99).
edge(63, 73).
edge(6, 118).
edge(100, 119).
edge(2, 39).
edge(60, 108).
edge(90, 118).
edge(6, 50).
edge(76, 111).
edge(56, 73).
edge(7, 60).
edge(9, 118).
edge(29, 91).
edge(41, 59).
edge(49, 102).
edge(7, 50).
edge(87, 127).
edge(49, 118).
edge(51, 55).
edge(23, 102).
edge(76, 129).
edge(83, 94).
edge(64, 91).
edge(20, 62).
edge(13, 44).
edge(48, 99).
edge(77, 125).
edge(55, 82).
edge(47, 66).
edge(50, 66).
edge(8, 21).
edge(18, 104).
edge(41, 107).
edge(15, 74).
edge(4, 100).
edge(13, 81).
edge(109, 110).
edge(24, 35).
edge(15, 47).
edge(14, 105).
edge(80, 100).
edge(54, 99).
edge(63, 111).
edge(81, 97).
edge(5, 125).
edge(78, 107).
edge(4, 57).
edge(58, 74).
edge(76, 105).
edge(12, 60).
edge(0, 40).
edge(19, 39).
edge(14, 24).
edge(32, 128).
edge(51, 92).
edge(112, 120).
edge(14, 18).
edge(123, 126).
edge(84, 112).
edge(10, 99).
edge(100, 114).
edge(13, 86).
edge(91, 126).
edge(22, 92).
edge(13, 74).
edge(38, 129).
edge(5, 75).
edge(98, 111).
edge(70, 73).
edge(76, 81).
edge(26, 27).
edge(59, 134).
edge(43, 92).
edge(80, 86).
edge(18, 33).
edge(22, 61).
edge(10, 121).
edge(22, 110).
edge(69, 119).
edge(119, 120).
edge(35, 83).
edge(44, 120).
edge(23, 80).
edge(9, 58).
edge(44, 53).
edge(7, 41).
edge(27, 43).
edge(21, 106).
edge(4, 70).
edge(34, 131).
edge(85, 128).
edge(94, 106).
edge(66, 69).
edge(32, 82).
edge(57, 81).
edge(9, 129).
edge(28, 116).
edge(79, 127).
edge(93, 132).
edge(40, 41).
edge(37, 124).
edge(86, 107).
edge(105, 127).
edge(56, 111).
edge(9, 122).
edge(23, 124).
edge(21, 37).
edge(88, 89).
edge(44, 58).
edge(51, 106).
edge(0, 134).
edge(88, 127).
edge(119, 127).
edge(75, 131).
edge(39, 65).
edge(72, 130).
edge(36, 87).
edge(51, 58).
edge(37, 83).
edge(20, 47).
edge(19, 21).
edge(29, 77).
edge(78, 115).
edge(93, 106).
edge(16, 68).
edge(47, 72).
edge(98, 123).
edge(59, 68).
edge(38, 95).
edge(62, 74).
edge(28, 45).
edge(11, 133).
edge(71, 91).
edge(51, 78).
edge(35, 97).
edge(26, 76).
edge(60, 82).
edge(1, 67).
edge(14, 62).
edge(5, 10).
edge(61, 105).
edge(35, 119).
edge(54, 80).
edge(0, 89).
edge(25, 88).
edge(62, 110).
edge(0, 56).
edge(3, 127).
edge(32, 33).
edge(37, 54).
edge(80, 132).
edge(20, 65).
edge(26, 130).
edge(13, 24).
edge(103, 134).
edge(59, 74).
edge(36, 115).
edge(3, 133).
edge(73, 128).
edge(20, 35).
edge(110, 131).
edge(106, 133).
edge(79, 102).
edge(71, 126).
edge(19, 31).
edge(83, 132).
edge(10, 27).
edge(3, 112).
edge(40, 96).
edge(86, 95).
edge(78, 82).
edge(41, 130).
edge(44, 83).
edge(12, 112).
edge(5, 131).
edge(42, 104).
edge(8, 81).
edge(25, 118).
edge(0, 50).
edge(101, 127).
edge(86, 119).
edge(9, 12).
edge(9, 14).
edge(10, 103).
edge(34, 72).
edge(51, 91).
edge(22, 51).
edge(110, 122).
edge(16, 47).
edge(53, 54).
edge(48, 68).
edge(58, 70).
edge(7, 79).
edge(37, 95).
edge(32, 40).
edge(19, 34).
edge(74, 133).
edge(7, 116).
edge(70, 95).
edge(52, 115).
edge(44, 47).
edge(21, 105).
edge(71, 90).
edge(17, 69).
edge(67, 107).
edge(9, 78).
edge(70, 107).
edge(21, 77).
edge(15, 89).
edge(32, 50).
edge(38, 108).
edge(2, 84).
edge(46, 73).
edge(5, 96).
edge(3, 64).
edge(54, 82).
edge(2, 15).
edge(67, 85).
edge(77, 84).
edge(58, 77).
edge(0, 51).
edge(29, 48).
edge(37, 53).
edge(95, 128).
edge(11, 22).
edge(26, 118).
edge(13, 106).
edge(114, 121).
edge(43, 99).
edge(105, 125).
edge(1, 48).
edge(28, 85).
edge(6, 85).
edge(40, 46).
edge(73, 119).
edge(9, 121).
edge(104, 124).
edge(68, 100).
edge(7, 124).
edge(25, 35).
edge(59, 119).
edge(10, 14).
edge(27, 118).
edge(64, 111).
edge(60, 99).
edge(44, 95).
edge(111, 117).
edge(41, 71).
edge(88, 106).
edge(22, 133).
edge(65, 83).
edge(123, 134).
edge(36, 59).
edge(83, 87).
edge(3, 100).
edge(47, 63).
edge(35, 61).
edge(61, 128).
edge(53, 122).
edge(15, 54).
edge(37, 93).
edge(27, 58).
edge(113, 115).
edge(67, 118).
edge(52, 105).
edge(59, 115).
edge(4, 51).
edge(50, 60).
edge(69, 76).
edge(0, 117).
edge(13, 79).
edge(11, 35).
edge(60, 116).
edge(82, 132).
edge(24, 28).
edge(34, 45).
edge(22, 29).
edge(36, 99).
edge(0, 11).
edge(10, 12).
edge(24, 62).
edge(23, 120).
edge(33, 38).
edge(21, 30).
edge(13, 46).
edge(54, 117).
edge(4, 64).
edge(1, 104).
edge(9, 69).
edge(77, 87).
edge(132, 134).
edge(31, 65).
edge(42, 115).
edge(75, 90).
edge(116, 131).
edge(54, 94).
edge(30, 43).
edge(41, 63).
edge(47, 84).
edge(62, 107).
edge(69, 79).
edge(105, 110).
edge(51, 85).
edge(53, 96).
edge(109, 111).
edge(120, 125).
edge(4, 54).
edge(23, 66).
edge(10, 123).
edge(15, 42).
edge(5, 60).
edge(73, 125).
edge(69, 89).
edge(87, 121).
edge(67, 96).
edge(5, 117).
edge(51, 128).
edge(55, 98).
edge(14, 50).
edge(7, 47).
edge(8, 33).
edge(64, 103).
edge(83, 92).
edge(22, 62).
edge(1, 107).
edge(110, 115).
edge(99, 100).
edge(87, 113).
edge(10, 118).
edge(95, 111).
edge(47, 128).
edge(57, 72).
edge(48, 95).
edge(32, 93).
edge(34, 116).
edge(92, 107).
edge(2, 56).
edge(61, 67).
edge(18, 26).
edge(38, 97).
edge(71, 85).
edge(1, 128).
edge(44, 108).
edge(65, 106).
edge(15, 94).
edge(18, 39).
edge(27, 81).
edge(86, 131).
edge(52, 59).
edge(6, 115).
edge(61, 71).
edge(58, 106).
edge(39, 120).
edge(46, 83).
edge(36, 133).
edge(71, 94).
edge(79, 113).
edge(24, 56).
edge(51, 104).
edge(41, 80).
edge(54, 125).
edge(20, 46).
edge(76, 112).
edge(64, 77).
edge(17, 110).
edge(86, 106).
edge(7, 57).
edge(30, 131).
edge(15, 68).
edge(83, 119).
edge(8, 50).
edge(101, 103).
edge(79, 109).
edge(38, 126).
edge(37, 99).
edge(12, 37).
edge(60, 102).
edge(57, 111).
edge(16, 77).
edge(39, 78).
edge(19, 67).
edge(73, 120).
edge(17, 109).
edge(27, 104).
edge(53, 72).
edge(26, 31).
edge(9, 21).
edge(57, 98).
edge(54, 98).
edge(30, 53).
edge(6, 81).
edge(14, 117).
edge(69, 107).
edge(74, 96).
edge(48, 54).
edge(18, 131).
edge(59, 101).
edge(86, 124).
edge(25, 69).
edge(30, 94).
edge(17, 106).
edge(6, 116).
edge(4, 43).
edge(5, 9).
edge(1, 117).
edge(62, 81).
edge(49, 68).
edge(101, 110).
edge(6, 24).
edge(59, 104).
edge(92, 120).
edge(11, 72).
edge(32, 88).
edge(8, 23).
edge(36, 84).
edge(5, 25).
edge(34, 62).
edge(55, 91).
edge(12, 46).
edge(17, 39).
edge(105, 111).
edge(10, 84).
edge(22, 91).
edge(23, 86).
edge(97, 111).
edge(24, 84).
edge(12, 25).
edge(43, 77).
edge(20, 61).
edge(20, 67).
edge(42, 123).
edge(52, 53).
edge(30, 69).
edge(88, 104).
edge(27, 36).
edge(45, 55).
edge(6, 34).
edge(73, 78).
edge(6, 65).
edge(58, 113).
edge(30, 130).
edge(96, 101).
edge(6, 103).
edge(11, 41).
edge(106, 116).
edge(5, 97).
edge(76, 121).
edge(96, 134).
edge(68, 117).
edge(7, 132).
edge(57, 109).
edge(43, 133).
edge(17, 94).
edge(82, 129).
edge(26, 47).
edge(26, 127).
edge(13, 111).
edge(67, 110).
edge(30, 73).
edge(114, 124).
edge(28, 134).
edge(42, 86).
edge(29, 42).
edge(22, 80).
edge(42, 127).
edge(20, 116).
edge(57, 58).
edge(26, 67).
edge(48, 69).
edge(113, 128).
edge(34, 114).
edge(41, 68).
edge(87, 130).
edge(30, 98).
edge(26, 81).
edge(10, 60).
edge(20, 28).
edge(100, 122).
edge(50, 90).
edge(107, 113).
edge(21, 60).
edge(45, 61).
edge(9, 101).
edge(11, 97).
edge(98, 124).
edge(76, 127).
edge(4, 114).
edge(113, 121).
edge(18, 34).
edge(38, 107).
edge(9, 46).
edge(20, 32).
edge(128, 129).
edge(26, 124).
edge(31, 60).
edge(63, 112).
edge(84, 114).
edge(87, 115).
edge(30, 45).
edge(50, 107).
edge(43, 110).
edge(24, 120).
edge(97, 110).
edge(28, 131).
edge(60, 81).
edge(80, 104).
edge(106, 107).
edge(92, 102).
edge(104, 105).
edge(66, 132).
edge(86, 127).
edge(28, 128).
edge(41, 103).
edge(89, 125).
edge(58, 88).
edge(19, 122).
edge(4, 128).
edge(11, 94).
edge(9, 68).
edge(0, 82).
edge(26, 40).
edge(79, 85).
edge(44, 90).
edge(103, 108).
edge(4, 80).
edge(0, 52).
edge(2, 130).
edge(34, 106).
edge(39, 49).
edge(53, 129).
edge(31, 55).
edge(6, 119).
edge(88, 118).
edge(28, 94).
edge(0, 84).
edge(4, 125).
edge(118, 131).
edge(3, 36).
edge(4, 105).
edge(6, 86).
edge(9, 87).
edge(36, 129).
edge(49, 86).
edge(30, 38).
edge(0, 114).
edge(13, 94).
edge(33, 118).
edge(29, 63).
edge(48, 113).
edge(49, 82).
edge(111, 134).
edge(58, 130).
edge(87, 98).
edge(49, 110).
edge(45, 131).
edge(39, 55).
edge(2, 128).
edge(2, 118).
edge(49, 126).
edge(92, 106).
edge(36, 37).
edge(47, 114).
edge(39, 67).
edge(29, 64).
edge(31, 127).
edge(4, 88).
edge(9, 96).
edge(25, 82).
edge(20, 79).
edge(9, 100).
edge(117, 123).
edge(63, 113).
edge(44, 59).
edge(4, 61).
edge(52, 73).
edge(77, 111).
edge(19, 44).
edge(5, 80).
edge(33, 123).
edge(19, 107).
edge(32, 117).
edge(3, 67).
edge(14, 82).
edge(29, 108).
edge(17, 49).
edge(47, 54).
edge(127, 134).
edge(2, 129).
edge(52, 86).
edge(19, 54).
edge(63, 90).
edge(36, 41).
edge(9, 123).
edge(9, 51).
edge(6, 14).
edge(8, 107).
edge(120, 130).
edge(33, 72).
edge(22, 106).
edge(32, 44).
edge(6, 127).
edge(70, 110).
edge(51, 120).
edge(34, 130).
edge(5, 91).
edge(77, 91).
edge(11, 91).
edge(88, 108).
edge(18, 29).
edge(25, 54).
edge(3, 125).
edge(59, 110).
edge(8, 59).
edge(7, 93).
edge(71, 130).
edge(27, 119).
edge(29, 68).
edge(48, 81).
edge(47, 59).
edge(89, 113).
edge(29, 129).
edge(19, 50).
edge(20, 134).
edge(10, 36).
edge(10, 112).
edge(109, 114).
edge(86, 88).
edge(32, 97).
edge(74, 115).
edge(24, 121).
edge(13, 97).
edge(0, 66).
edge(9, 98).
edge(12, 33).
edge(56, 101).
edge(5, 47).
edge(106, 109).
edge(7, 59).
edge(25, 58).
edge(106, 123).
edge(65, 108).
edge(41, 132).
edge(45, 80).
edge(12, 64).
edge(78, 91).
edge(66, 68).
edge(24, 122).
edge(101, 116).
edge(81, 119).
edge(71, 87).
edge(60, 118).
edge(49, 105).
edge(37, 81).
edge(87, 96).
edge(16, 74).
edge(104, 126).
edge(34, 100).
edge(54, 84).
edge(37, 102).
edge(29, 32).
edge(45, 79).
edge(7, 84).
edge(37, 121).
edge(100, 129).
edge(14, 122).
edge(57, 82).
edge(56, 68).
edge(5, 34).
edge(16, 83).
edge(86, 112).
edge(29, 112).
edge(19, 123).
edge(77, 112).
edge(31, 129).
edge(104, 115).
edge(30, 72).
edge(3, 65).
edge(72, 102).
edge(24, 94).
edge(47, 89).
edge(34, 38).
edge(20, 50).
edge(36, 90).
edge(115, 120).
edge(73, 117).
edge(61, 70).
edge(112, 131).
edge(39, 122).
edge(33, 96).
edge(28, 75).
edge(100, 117).
edge(73, 127).
edge(75, 129).
edge(0, 100).
edge(57, 100).
edge(15, 45).
edge(51, 117).
edge(106, 128).
edge(105, 131).
edge(42, 100).
edge(85, 115).
edge(31, 79).
edge(37, 46).
edge(8, 106).
edge(65, 121).
edge(81, 134).
edge(17, 59).
edge(30, 55).
edge(41, 94).
edge(56, 60).
edge(28, 110).
edge(12, 82).
edge(71, 75).
edge(86, 98).
edge(19, 35).
edge(61, 77).
edge(81, 94).
edge(58, 75).
edge(46, 79).
edge(0, 23).
edge(64, 78).
edge(17, 72).
edge(49, 59).
edge(16, 87).
edge(23, 73).
edge(97, 117).
edge(41, 43).
edge(40, 101).
edge(49, 79).
edge(78, 93).
edge(50, 119).
edge(24, 108).
edge(5, 51).
edge(106, 112).
edge(31, 45).
edge(82, 101).
edge(11, 39).
edge(70, 116).
edge(37, 64).
edge(30, 89).
edge(63, 128).
edge(33, 131).
edge(17, 32).
edge(49, 119).
edge(6, 17).
edge(1, 57).
edge(46, 104).
edge(49, 129).
edge(50, 69).
edge(74, 83).
edge(28, 77).
edge(63, 99).
edge(3, 20).
edge(4, 7).
edge(32, 43).
edge(93, 94).
edge(33, 103).
edge(96, 126).
edge(6, 19).
edge(23, 42).
edge(46, 115).
edge(80, 121).
edge(57, 133).
edge(40, 112).
edge(69, 114).
edge(24, 124).
edge(45, 118).
edge(82, 86).
edge(49, 91).
edge(11, 25).
edge(25, 108).
edge(14, 22).
edge(37, 103).
edge(28, 95).
edge(104, 117).
edge(37, 109).
edge(51, 127).
edge(104, 121).
edge(78, 125).
edge(44, 73).
edge(6, 33).
edge(36, 85).
edge(103, 114).
edge(53, 59).
edge(14, 83).
edge(26, 112).
edge(19, 41).
edge(36, 127).
edge(75, 120).
edge(76, 134).
edge(72, 101).
edge(38, 47).
edge(12, 51).
edge(4, 132).
edge(47, 118).
edge(48, 105).
edge(120, 123).
edge(44, 87).
edge(7, 113).
edge(45, 59).
edge(45, 114).
edge(25, 107).
edge(6, 130).
edge(50, 129).
edge(37, 56).
edge(53, 103).
edge(46, 94).
edge(104, 106).
edge(51, 75).
edge(60, 92).
edge(82, 113).
edge(107, 123).
edge(38, 124).
edge(123, 125).
edge(116, 133).
edge(36, 113).
edge(6, 60).
edge(61, 80).
edge(55, 77).
edge(31, 120).
edge(1, 83).
edge(3, 84).
edge(41, 95).
edge(51, 68).
edge(23, 63).
edge(32, 87).
edge(8, 26).
edge(29, 81).
edge(89, 101).
edge(21, 132).
edge(30, 121).
edge(30, 101).
edge(10, 91).
edge(0, 68).
edge(46, 127).
edge(3, 103).
edge(38, 60).
edge(8, 10).
edge(31, 92).
edge(41, 129).
edge(13, 78).
edge(30, 50).
edge(7, 89).
edge(115, 133).
edge(8, 29).
edge(122, 134).
edge(82, 93).
edge(106, 110).
edge(43, 57).
edge(100, 101).
edge(16, 69).
edge(38, 46).
edge(118, 132).
edge(113, 122).
edge(105, 124).
edge(60, 84).
edge(40, 52).
edge(71, 106).
edge(6, 48).
edge(106, 113).
edge(27, 96).
edge(1, 70).
edge(57, 77).
edge(89, 118).
edge(56, 64).
edge(12, 47).
edge(39, 110).
edge(106, 108).
edge(22, 116).
edge(1, 75).
edge(27, 97).
edge(42, 133).
edge(111, 114).
edge(27, 117).
edge(7, 87).
edge(39, 63).
edge(7, 45).
edge(11, 50).
edge(9, 104).
edge(68, 72).
edge(13, 67).
edge(22, 111).
edge(19, 87).
edge(55, 62).
edge(47, 108).
edge(70, 131).
edge(62, 80).
edge(85, 120).
edge(60, 78).
edge(4, 66).
edge(70, 93).
edge(25, 49).
edge(2, 29).
edge(91, 96).
edge(93, 109).
edge(67, 120).
edge(45, 65).
edge(44, 100).
edge(81, 89).
edge(43, 118).
edge(36, 118).
edge(2, 79).
edge(64, 134).
edge(65, 114).
edge(46, 84).
edge(116, 117).
edge(60, 128).
edge(109, 134).
edge(116, 120).
edge(22, 112).
edge(48, 127).
edge(78, 123).
edge(31, 89).
edge(9, 67).
edge(0, 57).
edge(62, 116).
edge(7, 126).
edge(31, 128).
edge(24, 66).
edge(34, 86).
edge(7, 69).
edge(110, 112).
edge(38, 77).
edge(39, 134).
edge(31, 63).
edge(31, 41).
edge(56, 117).
edge(66, 109).
edge(34, 50).
edge(115, 124).
edge(1, 91).
edge(9, 44).
edge(99, 102).
edge(3, 29).
edge(47, 121).
edge(12, 70).
edge(43, 73).
edge(21, 92).
edge(41, 76).
edge(27, 65).
edge(44, 128).
edge(6, 75).
edge(44, 115).
edge(90, 123).
edge(31, 80).
edge(26, 33).
edge(16, 44).
edge(35, 98).
edge(9, 42).
edge(11, 29).
edge(24, 47).
edge(96, 115).
edge(56, 58).
edge(51, 131).
edge(81, 130).
edge(20, 71).
edge(95, 116).
edge(40, 97).
edge(29, 103).
edge(50, 86).
edge(28, 98).
edge(2, 112).
edge(21, 76).
edge(13, 113).
edge(10, 119).
edge(46, 97).
edge(31, 116).
edge(83, 128).
edge(71, 93).
edge(6, 13).
edge(29, 121).
edge(66, 113).
edge(37, 104).
edge(70, 84).
edge(112, 121).
edge(74, 123).
edge(51, 54).
edge(26, 48).
edge(31, 97).
edge(118, 129).
edge(98, 131).
edge(45, 50).
edge(15, 128).
edge(33, 66).
edge(30, 76).
edge(3, 116).
edge(40, 110).
edge(20, 24).
edge(63, 68).
edge(27, 101).
edge(33, 134).
edge(38, 63).
edge(21, 33).
edge(82, 107).
edge(74, 116).
edge(87, 97).
edge(130, 133).
edge(1, 126).
edge(22, 130).
edge(72, 94).
edge(43, 85).
edge(14, 130).
edge(92, 118).
edge(16, 79).
edge(28, 72).
edge(7, 77).
edge(23, 70).
edge(35, 75).
edge(3, 72).
edge(1, 59).
edge(17, 36).
edge(89, 123).
edge(50, 53).
edge(91, 127).
edge(6, 83).
edge(47, 86).
edge(5, 48).
edge(59, 78).
edge(22, 120).
edge(4, 46).
edge(21, 89).
edge(79, 82).
edge(10, 114).
edge(60, 126).
edge(1, 108).
edge(94, 102).
edge(6, 9).
edge(108, 116).
edge(96, 105).
edge(43, 122).
edge(32, 38).
edge(126, 127).
edge(4, 38).
edge(62, 98).
edge(45, 71).
edge(35, 105).
edge(103, 109).
edge(26, 133).
edge(11, 20).
edge(21, 79).
edge(20, 74).
edge(66, 114).
edge(128, 131).
edge(22, 73).
edge(41, 70).
edge(1, 46).
edge(90, 125).
edge(94, 110).
edge(2, 34).
edge(57, 78).
edge(28, 97).
edge(49, 106).
edge(19, 111).
edge(61, 107).
edge(24, 50).
edge(30, 34).
edge(43, 104).
edge(72, 96).
edge(42, 99).
edge(36, 106).
edge(57, 122).
edge(0, 104).
edge(30, 68).
edge(10, 116).
edge(40, 72).
edge(65, 89).
edge(27, 122).
edge(10, 31).
edge(22, 37).
edge(3, 42).
edge(31, 81).
edge(74, 106).
edge(122, 133).
edge(16, 130).
edge(47, 75).
edge(16, 48).
edge(8, 20).
edge(45, 88).
edge(97, 113).
edge(125, 128).
edge(75, 80).
edge(108, 129).
edge(78, 117).
edge(64, 102).
edge(21, 123).
edge(74, 124).
edge(109, 123).
edge(65, 101).
edge(9, 45).
edge(8, 51).
edge(34, 92).
edge(19, 52).
edge(21, 116).
edge(52, 78).
edge(25, 66).
edge(48, 93).
edge(57, 59).
edge(22, 101).
edge(43, 130).
edge(69, 83).
edge(23, 69).
edge(89, 98).
edge(56, 70).
edge(81, 116).
edge(44, 55).
edge(13, 125).
edge(55, 125).
edge(14, 65).
edge(1, 45).
edge(53, 134).
edge(98, 115).
edge(4, 119).
edge(2, 9).
edge(44, 122).
edge(17, 126).
edge(33, 47).
edge(38, 56).
edge(44, 66).
edge(78, 87).
edge(59, 105).
edge(104, 123).
edge(44, 78).
edge(54, 73).
edge(51, 70).
edge(71, 80).
edge(48, 102).
edge(63, 130).
edge(54, 60).
edge(0, 67).
edge(5, 90).
edge(61, 93).
edge(22, 109).
edge(25, 129).
edge(1, 95).
edge(7, 48).
edge(104, 129).
edge(66, 73).
edge(69, 120).
edge(6, 84).
edge(7, 13).
edge(45, 113).
edge(48, 96).
edge(9, 131).
edge(19, 81).
edge(95, 105).
edge(43, 115).
edge(53, 111).
edge(46, 99).
edge(5, 61).
edge(21, 95).
edge(9, 72).
edge(52, 99).
edge(13, 61).
edge(77, 115).
edge(30, 81).
edge(88, 122).
edge(8, 111).
edge(5, 6).
edge(28, 91).
edge(73, 95).
edge(40, 104).
edge(48, 67).
edge(2, 61).
edge(69, 85).
edge(39, 85).
edge(127, 130).
edge(89, 99).
edge(120, 132).
edge(41, 49).
edge(66, 75).
edge(45, 56).
edge(53, 90).
edge(93, 133).
edge(95, 97).
edge(72, 131).
edge(69, 124).
edge(70, 115).
edge(10, 128).
edge(124, 129).
edge(26, 103).
edge(15, 132).
edge(19, 92).
edge(31, 109).
edge(77, 103).
edge(83, 116).
edge(4, 84).
edge(58, 76).
edge(11, 87).
edge(53, 99).
edge(8, 88).
edge(24, 112).
edge(24, 34).
edge(28, 36).
edge(107, 127).
edge(25, 120).
edge(29, 96).
edge(9, 30).
edge(23, 111).
edge(79, 81).
edge(50, 64).
edge(18, 98).
edge(75, 97).
edge(7, 10).
edge(32, 98).
edge(0, 35).
edge(35, 111).
edge(8, 48).
edge(12, 105).
edge(63, 88).
edge(33, 90).
edge(33, 36).
edge(38, 45).
edge(72, 107).
edge(14, 124).
edge(103, 122).
edge(89, 90).
edge(8, 129).
edge(16, 108).
edge(52, 71).
edge(25, 86).
edge(49, 81).
edge(21, 70).
edge(102, 106).
edge(77, 97).
edge(32, 110).
edge(73, 129).
edge(54, 95).
edge(15, 41).
edge(55, 90).
edge(24, 83).
edge(95, 125).
edge(56, 114).
edge(20, 111).
edge(65, 93).
edge(57, 80).
edge(8, 16).
edge(94, 132).
edge(17, 127).
edge(8, 114).
edge(15, 116).
edge(49, 87).
edge(28, 60).
edge(26, 84).
edge(8, 132).
edge(7, 36).
edge(96, 116).
edge(7, 102).
edge(6, 67).
edge(1, 105).
edge(103, 125).
edge(36, 134).
edge(27, 88).
edge(5, 118).
edge(25, 29).
edge(25, 32).
edge(121, 132).
edge(3, 60).
edge(62, 103).
edge(45, 94).
edge(71, 127).
edge(49, 73).
edge(53, 55).
edge(7, 26).
edge(33, 58).
edge(80, 95).
edge(106, 132).
edge(33, 127).
edge(16, 78).
edge(1, 79).
edge(73, 123).
edge(37, 114).
edge(58, 71).
edge(56, 87).
edge(18, 57).
edge(87, 107).
edge(10, 24).
edge(114, 133).
edge(7, 29).
edge(61, 94).
edge(48, 65).
edge(20, 112).
edge(86, 133).
edge(6, 117).
edge(35, 96).
edge(47, 100).
edge(102, 130).
edge(39, 68).
edge(34, 75).
edge(85, 119).
edge(3, 101).
edge(96, 100).
edge(90, 92).
edge(56, 74).
edge(60, 103).
edge(1, 29).
edge(12, 88).
edge(75, 134).
edge(97, 103).
edge(46, 95).
edge(6, 72).
edge(86, 93).
edge(44, 81).
edge(33, 64).
edge(74, 84).
edge(14, 78).
edge(15, 19).
edge(30, 49).
edge(27, 51).
edge(106, 124).
edge(45, 100).
edge(34, 41).
edge(18, 96).
edge(76, 110).
edge(46, 49).
edge(5, 83).
edge(6, 31).
edge(4, 19).
edge(114, 131).
edge(81, 121).
edge(68, 116).
edge(21, 99).
edge(12, 26).
edge(85, 116).
edge(45, 52).
edge(77, 88).
edge(20, 106).
edge(123, 129).
edge(37, 50).
edge(7, 56).
edge(39, 109).
edge(33, 112).
edge(12, 125).
edge(65, 66).
edge(30, 123).
edge(33, 102).
edge(75, 82).
edge(22, 118).
edge(92, 125).
edge(83, 85).
edge(1, 53).
edge(68, 133).
edge(72, 110).
edge(4, 29).
edge(46, 117).
edge(2, 60).
edge(0, 9).
edge(24, 113).
edge(57, 65).
edge(38, 96).
edge(9, 106).
edge(39, 129).
edge(11, 121).
edge(8, 58).
edge(39, 126).
edge(108, 127).
edge(86, 116).
edge(43, 48).
edge(51, 114).
edge(25, 92).
edge(6, 97).
edge(19, 65).
edge(80, 97).
edge(26, 109).
edge(58, 97).
edge(65, 94).
edge(83, 90).
edge(71, 114).
edge(56, 128).
edge(14, 69).
edge(92, 133).
edge(57, 67).
edge(23, 123).
edge(53, 126).
edge(74, 100).
edge(0, 21).
edge(23, 131).
edge(82, 126).
edge(45, 89).
edge(65, 116).
edge(57, 84).
edge(65, 109).
edge(40, 95).
edge(116, 134).
edge(49, 58).
edge(109, 118).
edge(86, 105).
edge(30, 66).
edge(112, 128).
edge(80, 122).
edge(59, 117).
edge(23, 121).
edge(33, 95).
edge(4, 91).
edge(15, 119).
edge(15, 106).
edge(29, 131).
edge(13, 69).
edge(42, 93).
edge(114, 126).
edge(55, 75).
edge(9, 111).
edge(73, 105).
edge(25, 95).
edge(70, 114).
edge(80, 88).
edge(20, 117).
edge(24, 116).
edge(6, 108).
edge(20, 43).
edge(81, 128).
edge(42, 67).
edge(85, 134).
edge(85, 111).
edge(50, 54).
edge(102, 121).
edge(52, 81).
edge(17, 87).
edge(70, 76).
edge(91, 132).
edge(43, 125).
edge(29, 34).
edge(20, 93).
edge(9, 25).
edge(29, 76).
edge(27, 57).
edge(4, 67).
edge(40, 43).
edge(85, 87).
edge(24, 132).
edge(16, 22).
edge(0, 93).
edge(9, 127).
edge(21, 128).
edge(40, 77).
edge(28, 79).
edge(12, 19).
edge(6, 28).
edge(70, 133).
edge(10, 19).
edge(46, 120).
edge(24, 45).
edge(7, 134).
edge(5, 67).
edge(76, 117).
edge(5, 106).
edge(46, 87).
edge(42, 131).
edge(21, 101).
edge(48, 80).
edge(117, 126).
edge(84, 126).
edge(32, 76).
edge(42, 50).
edge(48, 50).
edge(8, 125).
edge(58, 82).
edge(45, 126).
edge(47, 65).
edge(53, 101).
edge(2, 132).
edge(68, 122).
edge(32, 67).
edge(82, 124).
edge(0, 20).
edge(39, 87).
edge(60, 73).
edge(61, 126).
edge(14, 39).
edge(64, 115).
edge(77, 99).
edge(58, 59).
edge(23, 61).
edge(70, 117).
edge(37, 52).
edge(25, 38).
edge(71, 105).
edge(35, 77).
edge(18, 114).
edge(41, 45).
edge(32, 99).
edge(2, 109).
edge(20, 85).
edge(45, 83).
edge(35, 133).
edge(20, 131).
edge(65, 129).
edge(10, 51).
edge(45, 68).
edge(109, 129).
edge(30, 63).
edge(13, 64).
edge(53, 92).
edge(33, 48).
edge(33, 94).
edge(77, 95).
edge(97, 133).
edge(31, 85).
edge(40, 63).
edge(72, 117).
edge(109, 127).
edge(70, 101).
edge(4, 35).
edge(62, 94).
edge(3, 62).
edge(1, 6).
edge(79, 99).
edge(31, 48).
edge(33, 49).
edge(14, 115).
edge(69, 81).
edge(15, 109).
edge(44, 57).
edge(79, 131).
edge(3, 37).
edge(30, 133).
edge(43, 63).
edge(75, 127).
edge(94, 112).
edge(81, 93).
edge(3, 66).
edge(29, 114).
edge(18, 78).
edge(35, 110).
edge(105, 134).
edge(25, 98).
edge(34, 107).
edge(81, 88).
edge(13, 32).
edge(20, 80).
edge(5, 41).
edge(44, 116).
edge(23, 107).
edge(6, 100).
edge(42, 52).
edge(28, 126).
edge(38, 57).
edge(50, 78).
edge(103, 104).
edge(86, 123).
edge(103, 127).
edge(49, 83).
edge(100, 104).
edge(46, 52).
edge(77, 126).
edge(60, 62).
edge(38, 42).
edge(4, 16).
edge(37, 86).
edge(18, 76).
edge(34, 48).
edge(5, 119).
edge(35, 55).
edge(80, 93).
edge(59, 133).
edge(13, 101).
edge(41, 102).
edge(33, 117).
edge(21, 28).
edge(101, 113).
edge(50, 132).
edge(21, 56).
edge(66, 100).
edge(66, 78).
edge(39, 113).
edge(94, 130).
edge(62, 72).
edge(79, 129).
edge(45, 91).
edge(63, 104).
edge(80, 130).
edge(27, 52).
edge(53, 93).
edge(15, 72).
edge(25, 64).
edge(69, 87).
edge(16, 70).
edge(63, 121).
edge(32, 55).
edge(17, 90).
edge(66, 70).
edge(15, 28).
edge(29, 120).
edge(52, 131).
edge(7, 30).
edge(39, 77).
edge(38, 68).
edge(62, 76).
edge(47, 82).
edge(28, 102).
edge(24, 53).
edge(11, 115).
edge(30, 46).
edge(59, 82).
edge(63, 78).
edge(2, 24).
edge(105, 118).
edge(23, 93).
edge(17, 78).
edge(2, 22).
edge(51, 59).
edge(16, 93).
edge(70, 81).
edge(89, 112).
edge(2, 53).
edge(89, 110).
edge(90, 111).
edge(115, 121).
edge(24, 67).
edge(121, 128).
edge(97, 121).
edge(77, 117).
edge(27, 91).
edge(67, 98).
edge(100, 134).
edge(61, 132).
edge(14, 19).
edge(46, 68).
edge(63, 123).
edge(64, 97).
edge(61, 73).
edge(12, 77).
edge(32, 66).
edge(4, 121).
edge(67, 76).
edge(52, 124).
edge(108, 130).
edge(47, 105).
edge(57, 60).
edge(5, 59).
edge(78, 105).
edge(21, 68).
edge(18, 24).
edge(29, 43).
edge(50, 105).
edge(61, 87).
edge(22, 82).
edge(34, 95).
edge(34, 102).
edge(31, 50).
edge(67, 102).
edge(96, 97).
edge(102, 124).
edge(21, 63).
edge(41, 79).
edge(7, 31).
edge(72, 115).
edge(68, 130).
edge(65, 120).
edge(52, 90).
edge(14, 86).
edge(58, 93).
edge(102, 104).
edge(81, 95).
edge(20, 30).
edge(73, 92).
edge(29, 39).
edge(22, 36).
edge(49, 80).
edge(84, 121).
edge(56, 84).
edge(6, 23).
edge(3, 55).
edge(75, 117).
edge(9, 11).
edge(19, 103).
edge(43, 124).
edge(19, 45).
edge(50, 83).
edge(22, 79).
edge(5, 110).
edge(25, 103).
edge(68, 110).
edge(60, 63).
edge(120, 129).
edge(8, 69).
edge(4, 32).
edge(28, 130).
edge(11, 46).
edge(1, 118).
edge(93, 103).
edge(24, 88).
edge(37, 97).
edge(67, 122).
edge(15, 22).
edge(61, 90).
edge(111, 120).
edge(46, 100).
edge(34, 127).
edge(26, 74).
edge(0, 45).
edge(12, 86).
edge(0, 7).
edge(4, 90).
edge(25, 61).
edge(35, 48).
edge(24, 130).
edge(35, 79).
edge(38, 133).
edge(103, 116).
edge(15, 30).
edge(54, 85).
edge(91, 95).
edge(36, 42).
edge(27, 46).
edge(70, 103).
edge(72, 85).
edge(40, 133).
edge(9, 116).
edge(37, 71).
edge(29, 50).
edge(15, 93).
edge(122, 125).
edge(65, 103).
edge(65, 82).
edge(68, 124).
edge(9, 70).
edge(58, 62).
edge(48, 126).
edge(63, 69).
edge(13, 98).
edge(26, 41).
edge(15, 85).
edge(29, 73).
edge(50, 82).
edge(61, 65).
edge(37, 127).
edge(35, 115).
edge(36, 62).
edge(96, 98).
edge(64, 106).
edge(53, 112).
edge(77, 122).
edge(96, 128).
edge(96, 108).
edge(70, 123).
edge(37, 78).
edge(21, 75).
edge(31, 102).
edge(86, 101).
edge(12, 90).
edge(42, 103).
edge(66, 124).
edge(15, 96).
edge(23, 47).
edge(83, 89).
edge(103, 124).
edge(58, 98).
edge(0, 5).
edge(17, 44).
edge(7, 53).
edge(27, 68).
edge(90, 133).
edge(96, 131).
edge(102, 129).
edge(35, 70).
edge(95, 123).
edge(58, 69).
edge(68, 127).
edge(17, 89).
edge(96, 122).
edge(19, 88).
edge(61, 97).
edge(23, 116).
edge(43, 108).
edge(65, 86).
edge(2, 54).
edge(65, 130).
edge(63, 108).
edge(84, 122).
edge(94, 119).
edge(83, 112).
edge(80, 125).
edge(70, 98).
edge(13, 85).
edge(76, 108).
edge(23, 33).
edge(29, 102).
edge(58, 108).
edge(55, 88).
edge(59, 60).
edge(27, 86).
edge(5, 105).
edge(72, 84).
edge(82, 114).
edge(31, 40).
edge(4, 47).
edge(36, 49).
edge(95, 124).
edge(66, 79).
edge(5, 122).
edge(69, 105).
edge(92, 105).
edge(4, 108).
edge(84, 107).
edge(36, 56).
edge(12, 65).
edge(62, 133).
edge(62, 125).
edge(110, 118).
edge(63, 87).
edge(6, 45).
edge(87, 104).
edge(61, 64).
edge(0, 79).
edge(14, 34).
edge(110, 111).
edge(27, 60).
edge(57, 87).
edge(13, 23).
edge(36, 47).
edge(14, 27).
edge(90, 93).
edge(27, 31).
edge(53, 86).
edge(2, 27).
edge(65, 105).
edge(24, 77).
edge(67, 95).
edge(8, 57).
edge(21, 118).
edge(108, 113).
edge(44, 77).
edge(16, 80).
edge(87, 117).
edge(67, 105).
edge(61, 112).
edge(52, 116).
edge(70, 96).
edge(99, 101).
edge(115, 117).
edge(78, 102).
edge(49, 95).
edge(85, 86).
edge(4, 94).
edge(97, 120).
edge(34, 87).
edge(50, 58).
edge(34, 74).
edge(9, 112).
edge(32, 78).
edge(13, 100).
edge(102, 125).
edge(89, 133).
edge(98, 108).
edge(115, 123).
edge(11, 23).
edge(0, 122).
edge(30, 119).
edge(43, 83).
edge(21, 102).
edge(7, 130).
edge(57, 123).
edge(23, 27).
edge(70, 71).
edge(54, 114).
edge(2, 41).
edge(46, 72).
edge(16, 49).
edge(30, 78).
edge(36, 52).
edge(48, 86).
edge(5, 18).
edge(35, 121).
edge(80, 108).
edge(5, 42).
edge(82, 91).
edge(7, 73).
edge(66, 118).
edge(75, 78).
edge(4, 14).
edge(27, 55).
edge(131, 134).
edge(34, 57).
edge(30, 93).
edge(23, 41).
edge(62, 86).
edge(61, 78).
edge(31, 76).
edge(10, 15).
edge(71, 98).
edge(23, 75).
edge(108, 111).
edge(8, 41).
edge(46, 110).
edge(89, 115).
edge(2, 3).
edge(16, 50).
edge(30, 83).
edge(58, 111).
edge(100, 126).
edge(70, 74).
edge(77, 100).
edge(8, 67).
edge(52, 55).
edge(86, 122).
edge(69, 77).
edge(93, 112).
edge(1, 81).
edge(54, 68).
edge(1, 13).
edge(27, 78).
edge(64, 82).
edge(48, 75).
edge(4, 96).
edge(68, 108).
edge(111, 119).
edge(11, 120).
edge(3, 93).
edge(56, 127).
edge(43, 80).
edge(8, 19).
edge(66, 130).
edge(54, 108).
edge(86, 99).
edge(18, 32).
edge(64, 90).
edge(59, 79).
edge(51, 107).
edge(62, 106).
edge(45, 90).
edge(102, 113).
edge(67, 103).
edge(24, 92).
edge(100, 102).
edge(87, 93).
edge(26, 45).
edge(10, 124).
edge(24, 32).
edge(2, 47).
edge(50, 130).
edge(71, 104).
edge(27, 102).
edge(107, 133).
edge(47, 129).
edge(66, 104).
edge(29, 49).
edge(7, 49).
edge(69, 106).
edge(0, 16).
edge(83, 91).
edge(33, 126).
edge(16, 35).
edge(91, 118).
edge(53, 62).
edge(69, 100).
edge(8, 78).
edge(13, 70).
edge(49, 114).
edge(13, 60).
edge(15, 25).
edge(25, 59).
edge(17, 117).
edge(38, 86).
edge(84, 108).
edge(23, 88).
edge(84, 91).
edge(31, 68).
edge(7, 131).
edge(29, 133).
edge(3, 21).
edge(66, 119).
edge(56, 69).
edge(70, 120).
edge(54, 106).
edge(38, 102).
edge(16, 129).
edge(15, 24).
edge(1, 72).
edge(109, 112).
edge(17, 35).
edge(89, 114).
edge(28, 46).
edge(79, 89).
edge(10, 89).
edge(80, 118).
edge(48, 104).
edge(50, 133).
edge(24, 131).
edge(71, 89).
edge(19, 95).
edge(32, 84).
edge(69, 122).
edge(54, 100).
edge(72, 95).
edge(31, 132).
edge(24, 64).
edge(58, 84).
edge(62, 124).
edge(62, 77).
edge(1, 133).
edge(82, 95).
edge(11, 73).
edge(15, 48).
edge(3, 78).
edge(12, 71).
edge(16, 103).
edge(46, 108).
edge(0, 27).
edge(14, 106).
edge(25, 71).
edge(22, 67).
edge(105, 132).
edge(41, 99).
edge(91, 107).
edge(4, 120).
edge(11, 67).
edge(12, 57).
edge(6, 114).
edge(32, 49).
edge(100, 120).
edge(57, 79).
edge(36, 130).
edge(88, 126).
edge(5, 115).
edge(4, 24).
edge(66, 105).
edge(28, 120).
edge(29, 37).
edge(81, 111).
edge(23, 130).
edge(93, 116).
edge(83, 107).
edge(31, 61).
edge(23, 106).
edge(50, 104).
edge(112, 124).
edge(36, 119).
edge(28, 40).
edge(40, 134).
edge(19, 76).
edge(88, 112).
edge(1, 129).
edge(13, 102).
edge(64, 75).
edge(44, 99).
edge(3, 52).
edge(16, 56).
edge(72, 80).
edge(35, 47).
edge(98, 105).
edge(12, 43).
edge(44, 70).
edge(11, 68).
edge(66, 106).
edge(16, 126).
edge(9, 56).
edge(68, 129).
edge(17, 107).
edge(47, 64).
edge(62, 95).
edge(98, 120).
edge(6, 29).
edge(50, 71).
edge(59, 80).
edge(90, 94).
edge(41, 88).
edge(38, 49).
edge(18, 58).
edge(6, 88).
edge(70, 113).
edge(51, 89).
edge(3, 22).
edge(52, 62).
edge(21, 94).
edge(86, 117).
edge(94, 121).
edge(94, 123).
edge(47, 103).
edge(10, 63).
edge(58, 80).
edge(82, 109).
edge(21, 36).
edge(49, 67).
edge(15, 104).
edge(30, 40).
edge(50, 128).
edge(101, 130).
edge(64, 121).
edge(41, 83).
edge(93, 107).
edge(9, 79).
edge(31, 103).
edge(39, 70).
edge(1, 56).
edge(46, 133).
edge(72, 88).
edge(86, 118).
edge(18, 109).
edge(5, 45).
edge(30, 118).
edge(69, 91).
edge(11, 38).
edge(2, 83).
edge(84, 95).
edge(44, 85).
edge(55, 96).
edge(68, 123).
edge(14, 133).
edge(59, 125).
edge(8, 17).
edge(23, 100).
edge(64, 96).
edge(68, 92).
edge(41, 90).
edge(4, 73).
edge(51, 111).
edge(21, 104).
edge(18, 63).
edge(68, 114).
edge(1, 20).
edge(14, 126).
edge(78, 121).
edge(6, 25).
edge(92, 93).
edge(34, 73).
edge(112, 117).
edge(18, 40).
edge(112, 125).
edge(91, 106).
edge(108, 123).
edge(63, 118).
edge(34, 103).
edge(37, 119).
edge(44, 48).
edge(44, 84).
edge(23, 79).
edge(48, 74).
edge(43, 112).
edge(32, 54).
edge(61, 131).
edge(24, 54).
edge(28, 133).
edge(2, 98).
edge(91, 111).
edge(27, 42).
edge(40, 76).
edge(74, 121).
edge(51, 132).
edge(46, 86).
edge(10, 93).
edge(56, 77).
edge(21, 38).
edge(25, 104).
edge(27, 44).
edge(30, 37).
edge(94, 122).
edge(105, 133).
edge(91, 120).
edge(6, 46).
edge(26, 110).
edge(68, 73).
edge(94, 125).
edge(60, 115).
edge(61, 81).
edge(6, 74).
edge(56, 83).
edge(5, 73).
edge(6, 59).
edge(54, 88).
edge(26, 56).
edge(81, 102).
edge(34, 36).
edge(21, 111).
edge(107, 111).
edge(51, 126).
edge(15, 21).
edge(76, 90).
edge(87, 125).
edge(35, 104).
edge(64, 124).
edge(83, 93).
edge(101, 112).
edge(61, 123).
edge(56, 107).
edge(2, 115).
edge(25, 101).
edge(80, 90).
edge(81, 101).
edge(14, 84).
edge(1, 131).
edge(10, 105).
edge(54, 61).
edge(91, 108).
edge(24, 119).
edge(0, 102).
edge(4, 31).
edge(32, 131).
edge(0, 38).
edge(4, 15).
edge(14, 54).
edge(13, 72).
edge(69, 88).
edge(50, 112).
edge(62, 87).
edge(9, 117).
edge(49, 78).
edge(77, 107).
edge(17, 54).
edge(40, 51).
edge(25, 111).
edge(15, 23).
edge(44, 103).
edge(49, 120).
edge(51, 65).
edge(26, 125).
edge(27, 59).
edge(96, 133).
edge(70, 72).
edge(77, 81).
edge(75, 114).
edge(6, 30).
edge(14, 79).
edge(18, 101).
edge(26, 63).
edge(66, 127).
edge(64, 131).
edge(59, 72).
edge(33, 76).
edge(13, 53).
edge(61, 98).
edge(45, 112).
edge(6, 44).
edge(44, 65).
edge(61, 84).
edge(96, 120).
edge(62, 131).
edge(35, 46).
edge(25, 119).
edge(38, 71).
edge(4, 28).
edge(4, 10).
edge(68, 104).
edge(22, 31).
edge(19, 83).
edge(45, 109).
edge(30, 48).
edge(63, 103).
edge(47, 132).
edge(1, 21).
edge(79, 84).
edge(18, 126).
edge(118, 134).
edge(97, 123).
edge(3, 15).
edge(28, 132).
edge(13, 112).
edge(35, 99).
edge(4, 75).
edge(60, 117).
edge(40, 84).
edge(3, 9).
edge(20, 48).
edge(32, 47).
edge(15, 60).
edge(81, 117).
edge(44, 118).
edge(14, 45).
edge(38, 123).
edge(47, 81).
edge(70, 129).
edge(115, 129).
edge(70, 86).
edge(6, 87).
edge(54, 74).
edge(7, 133).
edge(44, 91).
edge(72, 75).
edge(46, 122).
edge(13, 84).
edge(77, 113).
edge(12, 109).
edge(104, 118).
edge(114, 128).
edge(16, 72).
edge(38, 55).
edge(3, 105).
edge(35, 120).
edge(56, 97).
edge(40, 117).
edge(20, 73).
edge(24, 109).
edge(3, 110).
edge(37, 87).
edge(17, 52).
edge(27, 114).
edge(85, 106).
edge(16, 27).
edge(8, 105).
edge(5, 30).
edge(19, 42).
edge(91, 130).
edge(23, 103).
edge(23, 99).
edge(43, 72).
edge(24, 55).
edge(23, 64).
edge(35, 128).
edge(13, 87).
edge(42, 106).
edge(92, 114).
edge(36, 43).
edge(62, 130).
edge(63, 74).
edge(38, 94).
edge(30, 44).
edge(32, 113).
edge(18, 45).
edge(20, 59).
edge(12, 72).
edge(0, 88).
edge(92, 103).
edge(24, 126).
edge(47, 92).
edge(32, 56).
edge(50, 111).
edge(18, 80).
edge(22, 85).
edge(83, 130).
edge(10, 66).
edge(41, 73).
edge(108, 114).
edge(34, 42).
edge(55, 80).
edge(48, 55).
edge(7, 11).
edge(72, 116).
edge(54, 134).
edge(13, 20).
edge(4, 39).
edge(35, 103).
edge(20, 86).
edge(59, 131).
edge(59, 63).
edge(25, 42).
edge(1, 4).
edge(15, 29).
edge(4, 6).
edge(19, 86).
edge(68, 79).
edge(67, 74).
edge(17, 58).
edge(16, 28).
edge(4, 101).
edge(44, 80).
edge(90, 122).
edge(6, 89).
edge(35, 101).
edge(5, 86).
edge(4, 17).
edge(23, 38).
edge(22, 42).
edge(50, 97).
edge(17, 91).
edge(90, 100).
edge(61, 101).
edge(75, 103).
edge(23, 82).
edge(5, 20).
edge(40, 58).
edge(49, 63).
edge(72, 128).
edge(7, 40).
edge(89, 128).
edge(74, 78).
edge(88, 105).
edge(34, 125).
edge(81, 82).
edge(109, 126).
edge(18, 77).
edge(54, 131).
edge(20, 84).
edge(3, 97).
edge(91, 134).
edge(23, 36).
edge(11, 90).
edge(57, 94).
edge(104, 125).
edge(54, 126).
edge(7, 21).
edge(64, 101).
edge(79, 121).
edge(50, 125).
edge(17, 124).
edge(26, 72).
edge(20, 78).
edge(50, 103).
edge(21, 114).
edge(12, 100).
edge(47, 104).
edge(8, 99).
edge(85, 94).
edge(18, 117).
edge(11, 53).
edge(7, 76).
edge(52, 65).
edge(67, 123).
edge(93, 114).
edge(6, 91).
edge(30, 52).
edge(10, 69).
edge(82, 108).
edge(9, 61).
edge(27, 76).
edge(84, 127).
edge(55, 117).
edge(20, 64).
edge(69, 92).
edge(1, 68).
edge(75, 116).
edge(12, 24).
edge(35, 112).
edge(119, 123).
edge(21, 81).
edge(87, 120).
edge(11, 77).
edge(14, 77).
edge(25, 60).
edge(17, 45).
edge(56, 109).
edge(75, 123).
edge(4, 71).
edge(3, 59).
edge(4, 86).
edge(26, 95).
edge(11, 71).
edge(60, 100).
edge(26, 96).
edge(42, 109).
edge(101, 105).
edge(1, 52).
edge(39, 53).
edge(27, 32).
edge(39, 114).
edge(10, 108).
edge(18, 128).
edge(25, 70).
edge(63, 70).
edge(111, 116).
edge(88, 117).
edge(10, 78).
edge(61, 102).
edge(47, 111).
edge(20, 69).
edge(61, 129).
edge(65, 118).
edge(11, 44).
edge(10, 94).
edge(9, 134).
edge(2, 21).
edge(1, 123).
edge(8, 113).
edge(107, 121).
edge(17, 50).
edge(81, 113).
edge(41, 69).
edge(20, 103).
edge(77, 110).
edge(25, 117).
edge(26, 92).
edge(50, 81).
edge(66, 77).
edge(0, 22).
edge(64, 108).
edge(50, 67).
edge(54, 55).
edge(61, 74).
edge(20, 115).
edge(68, 126).
edge(12, 89).
edge(112, 119).
edge(31, 53).
edge(14, 40).
edge(20, 107).
edge(95, 126).
edge(2, 37).
edge(13, 54).
edge(32, 60).
edge(1, 127).
edge(41, 111).
edge(17, 101).
edge(20, 108).
edge(82, 88).
edge(0, 32).
edge(0, 81).
edge(23, 87).
edge(18, 116).
edge(36, 107).
edge(7, 64).
edge(118, 123).
edge(42, 82).
edge(2, 125).
edge(50, 131).
edge(66, 128).
edge(76, 93).
edge(49, 76).
edge(32, 73).
edge(10, 64).
edge(38, 116).
edge(20, 34).
edge(98, 126).
edge(26, 50).
edge(76, 106).
edge(11, 59).
edge(9, 102).
edge(43, 58).
edge(6, 73).
edge(98, 112).
edge(58, 127).
edge(14, 128).
edge(11, 123).
edge(93, 104).
edge(2, 35).
edge(93, 118).
edge(2, 96).
edge(39, 89).
edge(58, 128).
edge(97, 119).
edge(22, 95).
edge(13, 108).
edge(42, 61).
edge(78, 124).
edge(23, 53).
edge(3, 86).
edge(71, 77).
edge(93, 98).
edge(21, 113).
edge(109, 113).
edge(70, 102).
edge(39, 119).
edge(22, 114).
edge(37, 113).
edge(89, 130).
edge(83, 100).
edge(30, 110).
edge(21, 57).
edge(18, 97).
edge(67, 128).
edge(18, 130).
edge(27, 103).
edge(29, 72).
edge(17, 123).
edge(2, 13).
edge(52, 80).
edge(43, 70).
edge(21, 121).
edge(90, 109).
edge(41, 82).
edge(68, 115).
edge(72, 129).
edge(14, 90).
edge(47, 79).
edge(8, 39).
edge(85, 124).
edge(5, 17).
edge(0, 87).
edge(7, 43).
edge(41, 61).
edge(52, 102).
edge(0, 121).
edge(29, 89).
edge(58, 114).
edge(133, 134).
edge(5, 31).
edge(15, 134).
edge(27, 116).
edge(1, 64).
edge(27, 99).
edge(23, 52).
edge(27, 134).
edge(17, 63).
edge(31, 95).
edge(26, 75).
edge(24, 102).
edge(30, 112).
edge(92, 109).
edge(8, 100).
edge(115, 122).
edge(24, 52).
edge(37, 77).
edge(2, 58).
edge(78, 95).
edge(45, 117).
edge(49, 112).
edge(40, 130).
edge(58, 68).
edge(0, 124).
edge(22, 115).
edge(2, 88).
edge(20, 60).
edge(82, 106).
edge(100, 128).
edge(9, 54).
edge(82, 94).
edge(0, 131).
edge(64, 125).
edge(77, 105).
edge(33, 46).
edge(54, 129).
edge(36, 108).
edge(3, 51).
edge(44, 112).
edge(7, 122).
edge(46, 93).
edge(21, 108).
edge(22, 63).
edge(65, 79).
edge(37, 107).
edge(52, 68).
edge(96, 118).
edge(72, 106).
edge(21, 40).
edge(70, 119).
edge(55, 121).
edge(35, 56).
edge(21, 85).
edge(64, 126).
edge(79, 80).
edge(13, 121).
edge(73, 108).
edge(55, 67).
edge(88, 133).
edge(35, 80).
edge(28, 122).
edge(73, 77).
edge(35, 71).
edge(1, 3).
edge(62, 126).
edge(69, 90).
edge(12, 27).
edge(73, 82).
edge(32, 51).
edge(36, 83).
edge(34, 133).
edge(5, 111).
edge(33, 115).
edge(46, 126).
edge(19, 124).
edge(31, 75).
edge(64, 117).
edge(90, 116).
edge(8, 124).
edge(8, 82).
edge(11, 70).
edge(15, 115).
edge(7, 96).
edge(40, 71).
edge(0, 132).
edge(65, 80).
edge(0, 65).
edge(6, 112).
edge(119, 129).
edge(48, 71).
edge(3, 122).
edge(74, 131).
edge(14, 93).
edge(59, 118).
edge(90, 101).
edge(1, 8).
edge(46, 85).
edge(49, 53).
edge(3, 131).
edge(95, 99).
edge(22, 104).
edge(2, 134).
edge(14, 112).
edge(90, 134).
edge(56, 61).
edge(19, 115).
edge(58, 104).
edge(41, 114).
edge(18, 94).
edge(44, 92).
edge(26, 52).
edge(2, 23).
edge(107, 129).
edge(16, 26).
edge(49, 115).
edge(82, 85).
edge(22, 28).
edge(111, 112).
edge(113, 126).
edge(42, 126).
edge(34, 108).
edge(84, 134).
edge(7, 99).
edge(61, 116).
edge(68, 89).
edge(27, 63).
edge(60, 119).
edge(4, 133).
edge(119, 122).
edge(9, 39).
edge(43, 47).
edge(22, 127).
edge(88, 102).
edge(76, 133).
edge(50, 89).
edge(25, 131).
edge(2, 119).
edge(108, 109).
edge(57, 83).
edge(50, 55).
edge(68, 85).
edge(67, 81).
edge(20, 87).
edge(15, 56).
edge(41, 128).
edge(32, 71).
edge(33, 99).
edge(4, 42).
edge(45, 93).
edge(77, 79).
edge(97, 126).
edge(10, 32).
edge(77, 128).
edge(51, 53).
edge(3, 4).
edge(43, 93).
edge(14, 38).
edge(6, 132).
edge(40, 47).
edge(52, 63).
edge(21, 119).
edge(70, 99).
edge(129, 133).
edge(70, 125).
edge(77, 130).
edge(63, 92).
edge(7, 38).
edge(88, 115).
edge(42, 130).
edge(11, 49).
edge(5, 88).
edge(17, 132).
edge(49, 57).
edge(27, 128).
edge(9, 109).
edge(18, 66).
edge(29, 71).
edge(53, 125).
edge(40, 62).
edge(1, 112).
edge(25, 83).
edge(61, 96).
edge(11, 93).
edge(41, 51).
edge(39, 95).
edge(104, 134).
edge(52, 64).
edge(9, 10).
edge(27, 54).
edge(69, 125).
edge(6, 61).
edge(20, 126).
edge(89, 111).
edge(41, 106).
edge(53, 98).
edge(50, 61).
edge(37, 120).
edge(54, 116).
edge(1, 62).
edge(7, 121).
edge(90, 110).
edge(34, 76).
edge(95, 109).
edge(1, 37).
edge(9, 86).
edge(73, 81).
edge(103, 128).
edge(59, 95).
edge(69, 110).
edge(68, 98).
edge(57, 96).
edge(23, 129).
edge(43, 54).
edge(7, 83).
edge(11, 31).
edge(30, 95).
edge(43, 102).
edge(71, 81).
edge(65, 99).
edge(112, 113).
edge(15, 105).
edge(97, 124).
edge(97, 127).
edge(21, 90).
edge(94, 127).
edge(4, 85).
edge(29, 106).
edge(15, 121).
edge(10, 74).
edge(98, 106).
edge(22, 89).
edge(2, 93).
edge(37, 48).
edge(88, 119).
edge(56, 112).
edge(19, 24).
edge(90, 107).
edge(86, 91).
edge(9, 97).
edge(1, 110).
edge(34, 122).
edge(75, 132).
edge(28, 127).
edge(103, 117).
edge(74, 130).
edge(46, 48).
edge(89, 91).
edge(13, 34).
edge(72, 86).
edge(47, 123).
edge(45, 101).
edge(83, 103).
edge(74, 85).
edge(81, 124).
edge(10, 17).
edge(33, 79).
edge(61, 124).
edge(102, 117).
edge(101, 129).
edge(81, 83).
edge(92, 132).
edge(65, 98).
edge(11, 78).
edge(112, 127).
edge(38, 43).
edge(52, 58).
edge(19, 59).
edge(92, 110).
edge(22, 52).
edge(97, 132).
edge(21, 61).
edge(8, 87).
edge(65, 85).
edge(47, 106).
edge(72, 127).
edge(3, 108).
edge(2, 87).
edge(24, 79).
edge(46, 91).
edge(121, 125).
edge(79, 111).
edge(52, 74).
edge(7, 61).
edge(1, 99).
edge(55, 115).
edge(19, 114).
edge(101, 124).
edge(2, 106).
edge(12, 41).
edge(59, 132).
edge(77, 89).
edge(24, 41).
edge(122, 123).
edge(14, 48).
edge(10, 53).
edge(58, 67).
edge(88, 114).
edge(82, 130).
edge(11, 75).
edge(76, 118).
edge(29, 41).
edge(54, 105).
edge(20, 119).
edge(59, 100).
edge(3, 90).
edge(53, 115).
edge(80, 129).
edge(82, 122).
edge(87, 103).
edge(94, 98).
edge(17, 105).
edge(6, 106).
edge(2, 108).
edge(2, 73).
edge(69, 134).
edge(29, 93).
edge(1, 87).
edge(59, 111).
edge(81, 114).
edge(17, 60).
edge(7, 74).
edge(55, 65).
edge(39, 131).
edge(84, 118).
edge(29, 53).
edge(40, 106).
edge(5, 44).
edge(22, 53).
edge(99, 107).
edge(38, 125).
edge(60, 101).
edge(3, 71).
edge(53, 108).
edge(120, 133).
edge(21, 88).
edge(55, 118).
edge(18, 54).
edge(5, 100).
edge(27, 73).
edge(28, 69).
edge(16, 24).
edge(7, 97).
edge(66, 125).
edge(25, 97).
edge(11, 86).
edge(80, 119).
edge(76, 97).
edge(2, 19).
edge(41, 58).
edge(75, 96).
edge(16, 75).
edge(21, 51).
edge(17, 66).
edge(42, 128).
edge(47, 85).
edge(123, 128).
edge(13, 22).
edge(23, 127).
edge(54, 111).
edge(66, 131).
edge(113, 134).
edge(79, 83).
edge(14, 42).
edge(85, 122).
edge(51, 97).
edge(3, 134).
edge(54, 102).
edge(2, 62).
edge(95, 131).
edge(29, 80).
edge(62, 118).
edge(20, 21).
edge(1, 119).
edge(20, 23).
edge(33, 128).
edge(74, 92).
edge(67, 70).
edge(106, 122).
edge(77, 124).
edge(92, 127).
edge(17, 43).
edge(59, 127).
edge(22, 57).
edge(68, 96).
edge(41, 62).
edge(35, 108).
edge(34, 46).
edge(83, 125).
edge(2, 69).
edge(22, 96).
edge(17, 30).
edge(55, 58).
edge(61, 118).
edge(3, 111).
edge(63, 80).
edge(34, 112).
edge(67, 83).
edge(28, 68).
edge(35, 52).
edge(14, 88).
edge(66, 107).
edge(53, 78).
edge(42, 94).
edge(41, 122).
edge(41, 131).
edge(99, 127).
edge(84, 102).
edge(37, 40).
edge(41, 115).
edge(91, 97).
edge(64, 81).
edge(24, 31).
edge(97, 128).
edge(34, 80).
edge(74, 122).
edge(18, 22).
edge(11, 103).
edge(55, 132).
edge(90, 115).
edge(66, 133).
edge(8, 22).
edge(76, 107).
edge(5, 84).
edge(76, 103).
edge(74, 132).
edge(1, 54).
edge(19, 60).
edge(2, 5).
edge(13, 28).
edge(79, 86).
edge(6, 104).
edge(37, 106).
edge(69, 133).
edge(76, 91).
edge(20, 110).
edge(17, 20).
edge(97, 99).
edge(20, 101).
edge(40, 132).
edge(14, 80).
edge(17, 95).
edge(35, 76).
edge(12, 116).
edge(115, 130).
edge(62, 114).
edge(24, 100).
edge(37, 96).
edge(84, 115).
edge(33, 91).
edge(74, 129).
edge(103, 110).
edge(17, 129).
edge(0, 97).
edge(15, 77).
edge(8, 18).
weight(0, 13).
weight(1, 3).
weight(2, 16).
weight(3, 18).
weight(4, 17).
weight(5, 4).
weight(6, 10).
weight(7, 6).
weight(8, 15).
weight(9, 19).
weight(10, 4).
weight(11, 14).
weight(12, 19).
weight(13, 1).
weight(14, 9).
weight(15, 6).
weight(16, 15).
weight(17, 9).
weight(18, 19).
weight(19, 19).
weight(20, 10).
weight(21, 6).
weight(22, 4).
weight(23, 17).
weight(24, 5).
weight(25, 1).
weight(26, 14).
weight(27, 13).
weight(28, 5).
weight(29, 3).
weight(30, 9).
weight(31, 3).
weight(32, 14).
weight(33, 16).
weight(34, 4).
weight(35, 1).
weight(36, 2).
weight(37, 11).
weight(38, 5).
weight(39, 1).
weight(40, 16).
weight(41, 3).
weight(42, 2).
weight(43, 15).
weight(44, 13).
weight(45, 1).
weight(46, 9).
weight(47, 2).
weight(48, 9).
weight(49, 11).
weight(50, 12).
weight(51, 14).
weight(52, 12).
weight(53, 12).
weight(54, 17).
weight(55, 12).
weight(56, 12).
weight(57, 19).
weight(58, 5).
weight(59, 18).
weight(60, 9).
weight(61, 6).
weight(62, 2).
weight(63, 13).
weight(64, 8).
weight(65, 19).
weight(66, 5).
weight(67, 16).
weight(68, 15).
weight(69, 12).
weight(70, 14).
weight(71, 6).
weight(72, 19).
weight(73, 18).
weight(74, 12).
weight(75, 8).
weight(76, 10).
weight(77, 2).
weight(78, 8).
weight(79, 11).
weight(80, 14).
weight(81, 12).
weight(82, 8).
weight(83, 12).
weight(84, 5).
weight(85, 16).
weight(86, 5).
weight(87, 13).
weight(88, 5).
weight(89, 15).
weight(90, 19).
weight(91, 11).
weight(92, 2).
weight(93, 11).
weight(94, 12).
weight(95, 12).
weight(96, 6).
weight(97, 11).
weight(98, 1).
weight(99, 1).
weight(100, 13).
weight(101, 19).
weight(102, 3).
weight(103, 4).
weight(104, 14).
weight(105, 9).
weight(106, 9).
weight(107, 11).
weight(108, 15).
weight(109, 17).
weight(110, 18).
weight(111, 4).
weight(112, 16).
weight(113, 12).
weight(114, 14).
weight(115, 19).
weight(116, 15).
weight(117, 9).
weight(118, 13).
weight(119, 14).
weight(120, 9).
weight(121, 11).
weight(122, 5).
weight(123, 11).
weight(124, 5).
weight(125, 18).
weight(126, 13).
weight(127, 2).
weight(128, 12).
weight(129, 13).
weight(130, 6).
weight(131, 13).
weight(132, 12).
weight(133, 12).
weight(134, 9).

{in(V)} :- node(V).
:- in(U), in(V), U < V, not edge(U,V).
:~ not in(V), weight(V,W). [W@1,V]
