node(0..138).
edge(17, 32).
edge(121, 129).
edge(37, 90).
edge(23, 61).
edge(51, 109).
edge(46, 122).
edge(24, 79).
edge(61, 85).
edge(6, 30).
edge(24, 68).
edge(52, 74).
edge(67, 88).
edge(53, 105).
edge(86, 96).
edge(97, 103).
edge(94, 106).
edge(4, 23).
edge(112, 129).
edge(4, 11).
edge(115, 119).
edge(19, 52).
edge(66, 82).
edge(93, 109).
edge(20, 88).
edge(1, 91).
edge(3, 86).
edge(8, 86).
edge(9, 32).
edge(22, 37).
edge(29, 117).
edge(53, 120).
edge(79, 128).
edge(98, 104).
edge(49, 68).
edge(118, 132).
edge(91, 137).
edge(80, 85).
edge(46, 59).
edge(71, 112).
edge(80, 134).
edge(118, 122).
edge(82, 128).
edge(61, 131).
edge(59, 129).
edge(27, 122).
edge(31, 123).
edge(42, 86).
edge(121, 138).
edge(115, 126).
edge(31, 47).
edge(69, 75).
edge(6, 101).
edge(6, 70).
edge(46, 66).
edge(7, 19).
edge(96, 112).
edge(3, 8).
edge(60, 120).
edge(88, 113).
edge(20, 87).
edge(11, 108).
edge(119, 131).
edge(24, 128).
edge(33, 39).
edge(69, 95).
edge(34, 131).
edge(40, 133).
edge(19, 79).
edge(51, 112).
edge(70, 116).
edge(17, 93).
edge(49, 93).
edge(50, 67).
edge(10, 131).
edge(23, 59).
edge(40, 104).
edge(15, 70).
edge(89, 94).
edge(3, 53).
edge(98, 110).
edge(64, 137).
edge(15, 44).
edge(35, 62).
edge(12, 33).
edge(15, 16).
edge(16, 45).
edge(6, 108).
edge(76, 117).
edge(32, 115).
edge(111, 123).
edge(60, 87).
edge(38, 137).
edge(41, 103).
edge(111, 138).
edge(36, 92).
edge(116, 123).
edge(58, 67).
edge(96, 138).
edge(92, 101).
edge(77, 123).
edge(37, 72).
edge(104, 134).
edge(8, 137).
edge(72, 89).
edge(65, 109).
edge(42, 93).
edge(18, 38).
edge(45, 55).
edge(122, 138).
edge(87, 108).
edge(89, 125).
edge(34, 74).
edge(90, 128).
edge(28, 90).
edge(78, 114).
edge(18, 74).
edge(127, 133).
edge(113, 119).
edge(0, 48).
edge(35, 129).
edge(16, 113).
edge(2, 61).
edge(40, 91).
edge(1, 61).
edge(63, 113).
edge(27, 93).
edge(77, 133).
edge(34, 119).
edge(49, 81).
edge(35, 83).
edge(4, 55).
edge(47, 133).
edge(92, 108).
edge(9, 135).
edge(30, 64).
edge(55, 100).
edge(43, 118).
edge(1, 41).
edge(57, 91).
edge(15, 58).
edge(16, 60).
edge(10, 52).
edge(43, 54).
edge(102, 103).
edge(46, 101).
edge(39, 92).
edge(22, 130).
edge(25, 76).
edge(117, 130).
edge(88, 111).
edge(94, 126).
edge(107, 137).
edge(47, 111).
edge(30, 111).
edge(38, 56).
edge(101, 117).
edge(30, 125).
edge(100, 129).
edge(59, 69).
edge(4, 131).
edge(79, 134).
edge(42, 94).
edge(32, 78).
edge(54, 94).
edge(38, 44).
edge(61, 130).
edge(112, 123).
edge(81, 128).
edge(111, 137).
edge(23, 89).
edge(112, 120).
edge(50, 127).
edge(14, 98).
edge(89, 104).
edge(30, 86).
edge(90, 124).
edge(64, 67).
edge(63, 87).
edge(63, 88).
edge(40, 126).
edge(57, 121).
edge(72, 125).
edge(21, 83).
edge(30, 95).
edge(25, 61).
edge(10, 43).
edge(15, 40).
edge(33, 40).
edge(55, 65).
edge(12, 17).
edge(108, 119).
edge(50, 131).
edge(66, 114).
edge(2, 24).
edge(109, 116).
edge(59, 84).
edge(32, 98).
edge(17, 30).
edge(95, 127).
edge(50, 132).
edge(102, 123).
edge(47, 59).
edge(6, 38).
edge(37, 117).
edge(43, 133).
edge(4, 68).
edge(52, 111).
edge(57, 77).
edge(32, 62).
edge(19, 120).
edge(84, 101).
edge(45, 93).
edge(46, 103).
edge(3, 26).
edge(68, 71).
edge(15, 26).
edge(28, 121).
edge(56, 97).
edge(9, 63).
edge(87, 113).
edge(56, 105).
edge(22, 103).
edge(57, 59).
edge(34, 125).
edge(55, 78).
edge(105, 111).
edge(94, 97).
edge(27, 50).
edge(4, 106).
edge(0, 98).
edge(37, 79).
edge(48, 122).
edge(125, 132).
edge(54, 89).
edge(4, 99).
edge(50, 108).
edge(129, 138).
edge(76, 116).
edge(37, 116).
edge(4, 94).
edge(35, 91).
edge(40, 63).
edge(47, 93).
edge(24, 132).
edge(41, 125).
edge(25, 82).
edge(30, 94).
edge(12, 96).
edge(46, 60).
edge(37, 98).
edge(24, 122).
edge(52, 128).
edge(116, 134).
edge(11, 128).
edge(2, 107).
edge(94, 114).
edge(21, 93).
edge(41, 67).
edge(5, 118).
edge(42, 65).
edge(86, 102).
edge(67, 87).
edge(16, 69).
edge(7, 31).
edge(10, 128).
edge(65, 106).
edge(102, 135).
edge(21, 36).
edge(64, 111).
edge(16, 59).
edge(13, 60).
edge(54, 64).
edge(58, 96).
edge(32, 103).
edge(16, 115).
edge(0, 55).
edge(14, 26).
edge(8, 71).
edge(9, 47).
edge(70, 76).
edge(1, 121).
edge(3, 77).
edge(24, 118).
edge(11, 24).
edge(14, 49).
edge(12, 15).
edge(39, 103).
edge(79, 89).
edge(46, 98).
edge(5, 11).
edge(116, 124).
edge(99, 101).
edge(37, 41).
edge(70, 134).
edge(28, 116).
edge(61, 68).
edge(17, 57).
edge(1, 74).
edge(92, 115).
edge(56, 112).
edge(57, 64).
edge(122, 136).
edge(91, 114).
edge(37, 68).
edge(29, 119).
edge(18, 55).
edge(30, 55).
edge(50, 60).
edge(16, 112).
edge(75, 123).
edge(3, 94).
edge(100, 101).
edge(49, 134).
edge(99, 115).
edge(133, 138).
edge(7, 126).
edge(5, 127).
edge(110, 113).
edge(8, 29).
edge(81, 116).
edge(9, 49).
edge(84, 109).
edge(42, 109).
edge(99, 137).
edge(1, 58).
edge(21, 127).
edge(19, 35).
edge(33, 56).
edge(3, 85).
edge(92, 93).
edge(45, 83).
edge(69, 85).
edge(10, 123).
edge(84, 135).
edge(40, 70).
edge(52, 121).
edge(9, 130).
edge(64, 130).
edge(53, 70).
edge(125, 127).
edge(30, 87).
edge(96, 105).
edge(42, 68).
edge(8, 17).
edge(29, 89).
edge(14, 71).
edge(21, 31).
edge(7, 86).
edge(32, 55).
edge(81, 118).
edge(1, 46).
edge(34, 77).
edge(46, 119).
edge(15, 102).
edge(14, 51).
edge(20, 64).
edge(77, 107).
edge(5, 110).
edge(16, 63).
edge(32, 91).
edge(114, 129).
edge(18, 105).
edge(43, 96).
edge(9, 110).
edge(49, 121).
edge(90, 132).
edge(20, 89).
edge(16, 42).
edge(56, 65).
edge(73, 130).
edge(43, 68).
edge(42, 74).
edge(58, 83).
edge(72, 133).
edge(34, 133).
edge(35, 89).
edge(56, 88).
edge(4, 70).
edge(33, 42).
edge(9, 75).
edge(3, 67).
edge(78, 122).
edge(26, 132).
edge(73, 96).
edge(106, 109).
edge(104, 112).
edge(30, 75).
edge(63, 68).
edge(110, 128).
edge(0, 80).
edge(119, 138).
edge(34, 115).
edge(36, 128).
edge(70, 93).
edge(23, 117).
edge(103, 124).
edge(20, 81).
edge(114, 126).
edge(12, 54).
edge(36, 63).
edge(75, 124).
edge(30, 63).
edge(113, 136).
edge(58, 113).
edge(2, 60).
edge(67, 132).
edge(10, 26).
edge(0, 16).
edge(26, 57).
edge(77, 95).
edge(18, 54).
edge(68, 89).
edge(63, 71).
edge(41, 129).
edge(16, 61).
edge(68, 88).
edge(27, 81).
edge(47, 131).
edge(14, 80).
edge(74, 109).
edge(32, 60).
edge(36, 91).
edge(15, 91).
edge(92, 98).
edge(57, 93).
edge(54, 69).
edge(7, 129).
edge(68, 82).
edge(27, 28).
edge(3, 124).
edge(45, 80).
edge(59, 116).
edge(78, 104).
edge(21, 69).
edge(28, 47).
edge(4, 114).
edge(135, 138).
edge(46, 73).
edge(16, 131).
edge(15, 87).
edge(33, 125).
edge(64, 115).
edge(5, 52).
edge(60, 84).
edge(36, 77).
edge(78, 105).
edge(87, 104).
edge(6, 128).
edge(51, 115).
edge(3, 52).
edge(85, 112).
edge(8, 113).
edge(108, 110).
edge(39, 121).
edge(56, 83).
edge(51, 118).
edge(26, 72).
edge(4, 134).
edge(22, 26).
edge(47, 67).
edge(92, 132).
edge(14, 77).
edge(28, 106).
edge(51, 96).
edge(28, 46).
edge(5, 76).
edge(65, 72).
edge(62, 92).
edge(0, 76).
edge(21, 118).
edge(20, 101).
edge(45, 57).
edge(25, 70).
edge(3, 89).
edge(103, 138).
edge(80, 87).
edge(126, 136).
edge(56, 86).
edge(6, 65).
edge(87, 88).
edge(68, 83).
edge(67, 75).
edge(87, 107).
edge(51, 66).
edge(47, 110).
edge(56, 84).
edge(19, 101).
edge(94, 119).
edge(75, 95).
edge(31, 111).
edge(114, 137).
edge(12, 48).
edge(17, 133).
edge(44, 67).
edge(19, 65).
edge(7, 59).
edge(51, 57).
edge(132, 136).
edge(71, 116).
edge(54, 123).
edge(12, 82).
edge(41, 115).
edge(57, 102).
edge(67, 115).
edge(65, 113).
edge(35, 88).
edge(31, 89).
edge(17, 28).
edge(73, 116).
edge(44, 64).
edge(40, 47).
edge(20, 59).
edge(70, 112).
edge(87, 89).
edge(59, 128).
edge(79, 87).
edge(16, 87).
edge(3, 33).
edge(45, 70).
edge(56, 82).
edge(9, 129).
edge(42, 136).
edge(5, 27).
edge(47, 130).
edge(1, 66).
edge(137, 138).
edge(59, 88).
edge(13, 31).
edge(13, 43).
edge(39, 108).
edge(4, 97).
edge(61, 121).
edge(31, 102).
edge(3, 23).
edge(40, 97).
edge(43, 62).
edge(35, 131).
edge(26, 77).
edge(9, 74).
edge(17, 56).
edge(74, 110).
edge(11, 17).
edge(91, 132).
edge(104, 115).
edge(78, 87).
edge(39, 78).
edge(116, 135).
edge(63, 115).
edge(116, 132).
edge(12, 35).
edge(37, 61).
edge(65, 84).
edge(8, 36).
edge(39, 59).
edge(65, 111).
edge(1, 67).
edge(69, 116).
edge(24, 72).
edge(17, 49).
edge(29, 54).
edge(65, 75).
edge(80, 97).
edge(64, 103).
edge(43, 57).
edge(6, 97).
edge(9, 40).
edge(0, 45).
edge(4, 38).
edge(79, 130).
edge(77, 130).
edge(73, 114).
edge(16, 17).
edge(36, 44).
edge(62, 89).
edge(66, 124).
edge(53, 78).
edge(80, 135).
edge(44, 54).
edge(88, 103).
edge(14, 124).
edge(16, 126).
edge(13, 45).
edge(48, 82).
edge(69, 71).
edge(6, 42).
edge(14, 40).
edge(0, 128).
edge(65, 133).
edge(68, 105).
edge(117, 128).
edge(11, 133).
edge(12, 60).
edge(40, 76).
edge(59, 98).
edge(32, 96).
edge(68, 94).
edge(36, 121).
edge(24, 75).
edge(75, 133).
edge(42, 103).
edge(30, 121).
edge(54, 63).
edge(10, 18).
edge(67, 105).
edge(19, 83).
edge(111, 133).
edge(51, 119).
edge(13, 71).
edge(13, 103).
edge(50, 73).
edge(63, 119).
edge(92, 109).
edge(39, 91).
edge(55, 88).
edge(26, 79).
edge(11, 136).
edge(51, 69).
edge(23, 72).
edge(55, 138).
edge(39, 83).
edge(58, 127).
edge(49, 124).
edge(50, 53).
edge(75, 86).
edge(96, 133).
edge(22, 23).
edge(50, 109).
edge(36, 87).
edge(106, 108).
edge(91, 107).
edge(21, 32).
edge(44, 136).
edge(48, 92).
edge(7, 22).
edge(19, 89).
edge(50, 100).
edge(98, 137).
edge(46, 90).
edge(4, 41).
edge(24, 97).
edge(35, 107).
edge(67, 86).
edge(102, 131).
edge(57, 85).
edge(119, 120).
edge(116, 130).
edge(14, 83).
edge(1, 8).
edge(39, 66).
edge(76, 107).
edge(25, 94).
edge(63, 97).
edge(59, 77).
edge(5, 95).
edge(10, 95).
edge(4, 19).
edge(30, 54).
edge(110, 117).
edge(6, 35).
edge(73, 120).
edge(63, 86).
edge(45, 134).
edge(78, 119).
edge(4, 137).
edge(95, 110).
edge(57, 114).
edge(19, 73).
edge(45, 74).
edge(109, 128).
edge(4, 117).
edge(1, 39).
edge(95, 103).
edge(0, 47).
edge(32, 120).
edge(88, 95).
edge(9, 134).
edge(76, 132).
edge(93, 101).
edge(3, 116).
edge(7, 38).
edge(94, 100).
edge(41, 124).
edge(101, 110).
edge(100, 112).
edge(16, 65).
edge(60, 80).
edge(24, 92).
edge(6, 55).
edge(27, 135).
edge(17, 92).
edge(28, 124).
edge(72, 114).
edge(80, 107).
edge(18, 29).
edge(64, 68).
edge(21, 77).
edge(73, 111).
edge(25, 110).
edge(37, 100).
edge(108, 124).
edge(18, 92).
edge(32, 100).
edge(30, 52).
edge(93, 136).
edge(38, 53).
edge(78, 80).
edge(11, 18).
edge(34, 45).
edge(118, 135).
edge(19, 132).
edge(39, 42).
edge(73, 117).
edge(76, 115).
edge(48, 101).
edge(7, 76).
edge(61, 64).
edge(80, 113).
edge(59, 87).
edge(10, 74).
edge(51, 79).
edge(20, 127).
edge(69, 138).
edge(21, 88).
edge(15, 50).
edge(31, 66).
edge(16, 50).
edge(4, 53).
edge(18, 21).
edge(28, 112).
edge(58, 121).
edge(57, 112).
edge(30, 70).
edge(14, 84).
edge(86, 115).
edge(67, 82).
edge(123, 133).
edge(38, 72).
edge(70, 88).
edge(39, 49).
edge(3, 125).
edge(47, 121).
edge(27, 124).
edge(47, 50).
edge(14, 116).
edge(0, 27).
edge(31, 97).
edge(15, 54).
edge(93, 138).
edge(56, 111).
edge(126, 128).
edge(61, 80).
edge(66, 69).
edge(87, 133).
edge(29, 70).
edge(26, 131).
edge(4, 61).
edge(37, 114).
edge(12, 58).
edge(44, 55).
edge(101, 103).
edge(80, 115).
edge(50, 96).
edge(4, 27).
edge(4, 7).
edge(97, 108).
edge(4, 83).
edge(80, 125).
edge(15, 51).
edge(13, 15).
edge(30, 120).
edge(39, 81).
edge(88, 131).
edge(56, 80).
edge(78, 136).
edge(12, 88).
edge(78, 88).
edge(46, 131).
edge(79, 104).
edge(31, 119).
edge(50, 123).
edge(12, 97).
edge(30, 50).
edge(121, 125).
edge(90, 111).
edge(7, 105).
edge(51, 111).
edge(7, 64).
edge(36, 83).
edge(135, 136).
edge(19, 71).
edge(37, 55).
edge(9, 31).
edge(14, 138).
edge(18, 81).
edge(113, 122).
edge(66, 128).
edge(33, 112).
edge(73, 112).
edge(14, 110).
edge(54, 97).
edge(28, 92).
edge(36, 94).
edge(106, 115).
edge(111, 122).
edge(41, 45).
edge(70, 80).
edge(98, 111).
edge(66, 103).
edge(51, 88).
edge(47, 115).
edge(83, 87).
edge(0, 96).
edge(52, 75).
edge(38, 106).
edge(98, 119).
edge(71, 121).
edge(21, 114).
edge(51, 81).
edge(40, 135).
edge(16, 66).
edge(93, 121).
edge(1, 68).
edge(24, 30).
edge(37, 101).
edge(42, 122).
edge(71, 119).
edge(103, 128).
edge(91, 128).
edge(35, 48).
edge(11, 45).
edge(22, 42).
edge(12, 20).
edge(1, 138).
edge(65, 90).
edge(5, 121).
edge(107, 130).
edge(48, 80).
edge(34, 130).
edge(42, 121).
edge(91, 93).
edge(5, 111).
edge(53, 90).
edge(3, 58).
edge(59, 89).
edge(34, 36).
edge(96, 126).
edge(27, 101).
edge(1, 55).
edge(59, 112).
edge(81, 136).
edge(80, 96).
edge(55, 102).
edge(15, 34).
edge(38, 82).
edge(82, 131).
edge(74, 98).
edge(63, 111).
edge(38, 134).
edge(28, 29).
edge(27, 45).
edge(17, 115).
edge(21, 137).
edge(96, 134).
edge(77, 136).
edge(29, 78).
edge(1, 100).
edge(40, 118).
edge(8, 91).
edge(2, 66).
edge(0, 26).
edge(70, 83).
edge(1, 117).
edge(32, 72).
edge(8, 49).
edge(69, 99).
edge(76, 95).
edge(23, 77).
edge(32, 77).
edge(125, 137).
edge(97, 124).
edge(4, 125).
edge(25, 41).
edge(97, 123).
edge(0, 119).
edge(71, 87).
edge(26, 33).
edge(60, 83).
edge(98, 118).
edge(29, 98).
edge(27, 67).
edge(74, 81).
edge(83, 88).
edge(54, 102).
edge(75, 129).
edge(28, 103).
edge(37, 76).
edge(39, 114).
edge(34, 47).
edge(11, 110).
edge(62, 116).
edge(78, 85).
edge(13, 69).
edge(52, 82).
edge(109, 132).
edge(103, 134).
edge(95, 137).
edge(57, 101).
edge(28, 114).
edge(2, 75).
edge(63, 79).
edge(33, 95).
edge(68, 95).
edge(27, 102).
edge(28, 78).
edge(53, 83).
edge(90, 117).
edge(69, 133).
edge(7, 71).
edge(10, 62).
edge(29, 99).
edge(115, 138).
edge(71, 133).
edge(39, 126).
edge(62, 122).
edge(24, 56).
edge(16, 21).
edge(56, 73).
edge(57, 84).
edge(41, 91).
edge(78, 128).
edge(68, 106).
edge(83, 123).
edge(58, 103).
edge(43, 108).
edge(68, 78).
edge(90, 136).
edge(52, 78).
edge(18, 41).
edge(6, 134).
edge(20, 119).
edge(124, 132).
edge(4, 71).
edge(6, 82).
edge(65, 126).
edge(30, 65).
edge(80, 122).
edge(29, 38).
edge(23, 95).
edge(9, 89).
edge(104, 130).
edge(17, 134).
edge(57, 80).
edge(30, 68).
edge(22, 60).
edge(3, 76).
edge(15, 37).
edge(104, 111).
edge(109, 115).
edge(55, 112).
edge(13, 68).
edge(42, 76).
edge(1, 5).
edge(10, 48).
edge(11, 69).
edge(65, 114).
edge(94, 110).
edge(51, 77).
edge(103, 119).
edge(65, 120).
edge(99, 107).
edge(10, 122).
edge(5, 24).
edge(57, 128).
edge(72, 79).
edge(87, 115).
edge(14, 108).
edge(11, 137).
edge(50, 76).
edge(53, 63).
edge(70, 103).
edge(10, 125).
edge(17, 62).
edge(50, 70).
edge(45, 47).
edge(76, 133).
edge(107, 114).
edge(27, 33).
edge(120, 123).
edge(94, 98).
edge(96, 108).
edge(33, 63).
edge(84, 138).
edge(35, 105).
edge(105, 133).
edge(21, 33).
edge(88, 127).
edge(2, 79).
edge(92, 119).
edge(2, 10).
edge(19, 55).
edge(13, 93).
edge(5, 81).
edge(71, 108).
edge(84, 90).
edge(53, 130).
edge(92, 133).
edge(0, 15).
edge(45, 67).
edge(38, 86).
edge(75, 135).
edge(77, 135).
edge(27, 32).
edge(46, 132).
edge(23, 122).
edge(78, 82).
edge(27, 83).
edge(17, 23).
edge(85, 92).
edge(63, 126).
edge(71, 138).
edge(35, 96).
edge(8, 80).
edge(26, 35).
edge(7, 116).
edge(54, 125).
edge(33, 92).
edge(13, 120).
edge(31, 33).
edge(42, 114).
edge(37, 70).
edge(93, 99).
edge(78, 112).
edge(80, 112).
edge(3, 63).
edge(8, 43).
edge(52, 67).
edge(77, 106).
edge(26, 127).
edge(42, 101).
edge(54, 107).
edge(32, 138).
edge(35, 57).
edge(107, 132).
edge(4, 88).
edge(2, 111).
edge(66, 102).
edge(30, 82).
edge(39, 104).
edge(21, 91).
edge(77, 78).
edge(45, 132).
edge(49, 73).
edge(52, 55).
edge(23, 63).
edge(130, 138).
edge(60, 92).
edge(93, 116).
edge(57, 137).
edge(9, 58).
edge(22, 104).
edge(0, 70).
edge(70, 73).
edge(93, 95).
edge(32, 118).
edge(16, 33).
edge(76, 111).
edge(48, 95).
edge(60, 129).
edge(3, 32).
edge(105, 130).
edge(13, 44).
edge(50, 119).
edge(62, 82).
edge(49, 58).
edge(70, 138).
edge(72, 121).
edge(89, 121).
edge(41, 136).
edge(79, 126).
edge(2, 36).
edge(7, 94).
edge(33, 54).
edge(66, 78).
edge(49, 76).
edge(57, 88).
edge(103, 118).
edge(52, 125).
edge(34, 127).
edge(5, 128).
edge(46, 86).
edge(4, 59).
edge(28, 99).
edge(35, 55).
edge(44, 84).
edge(19, 51).
edge(79, 84).
edge(106, 110).
edge(24, 36).
edge(109, 117).
edge(15, 94).
edge(45, 125).
edge(46, 76).
edge(57, 119).
edge(108, 126).
edge(16, 77).
edge(49, 130).
edge(30, 101).
edge(42, 69).
edge(3, 16).
edge(1, 37).
edge(95, 113).
edge(14, 96).
edge(89, 131).
edge(16, 71).
edge(43, 99).
edge(90, 105).
edge(3, 30).
edge(64, 90).
edge(39, 118).
edge(85, 91).
edge(74, 96).
edge(24, 52).
edge(60, 132).
edge(25, 113).
edge(92, 125).
edge(39, 58).
edge(16, 116).
edge(51, 107).
edge(14, 32).
edge(17, 67).
edge(58, 102).
edge(91, 124).
edge(51, 134).
edge(54, 116).
edge(47, 85).
edge(71, 98).
edge(48, 59).
edge(9, 61).
edge(2, 58).
edge(97, 107).
edge(85, 133).
edge(104, 127).
edge(94, 102).
edge(58, 76).
edge(22, 57).
edge(31, 82).
edge(1, 16).
edge(43, 103).
edge(47, 113).
edge(37, 92).
edge(101, 108).
edge(44, 122).
edge(31, 86).
edge(8, 124).
edge(88, 114).
edge(45, 99).
edge(9, 106).
edge(49, 67).
edge(65, 93).
edge(17, 25).
edge(78, 135).
edge(18, 46).
edge(73, 108).
edge(111, 117).
edge(22, 89).
edge(26, 116).
edge(78, 106).
edge(44, 114).
edge(103, 123).
edge(67, 131).
edge(122, 133).
edge(73, 137).
edge(19, 43).
edge(9, 30).
edge(42, 61).
edge(11, 94).
edge(24, 74).
edge(76, 96).
edge(71, 104).
edge(56, 92).
edge(28, 96).
edge(0, 44).
edge(25, 104).
edge(14, 34).
edge(49, 123).
edge(25, 58).
edge(3, 87).
edge(49, 50).
edge(112, 138).
edge(3, 107).
edge(39, 135).
edge(4, 87).
edge(21, 62).
edge(71, 79).
edge(26, 51).
edge(56, 72).
edge(68, 125).
edge(29, 100).
edge(18, 96).
edge(7, 66).
edge(15, 18).
edge(37, 97).
edge(93, 113).
edge(46, 95).
edge(21, 92).
edge(33, 73).
edge(83, 115).
edge(0, 107).
edge(8, 111).
edge(23, 40).
edge(65, 79).
edge(1, 88).
edge(87, 93).
edge(73, 126).
edge(20, 73).
edge(46, 108).
edge(43, 55).
edge(57, 66).
edge(11, 43).
edge(7, 75).
edge(48, 97).
edge(33, 43).
edge(21, 38).
edge(12, 108).
edge(57, 118).
edge(9, 44).
edge(0, 37).
edge(60, 106).
edge(19, 98).
edge(123, 137).
edge(11, 20).
edge(32, 57).
edge(77, 120).
edge(90, 118).
edge(6, 107).
edge(116, 122).
edge(50, 91).
edge(108, 109).
edge(17, 54).
edge(111, 130).
edge(75, 115).
edge(6, 41).
edge(27, 137).
edge(75, 118).
edge(89, 134).
edge(65, 68).
edge(22, 80).
edge(68, 107).
edge(8, 22).
edge(63, 125).
edge(29, 108).
edge(44, 93).
edge(109, 135).
edge(82, 122).
edge(12, 26).
edge(6, 122).
edge(87, 114).
edge(64, 86).
edge(23, 111).
edge(36, 55).
edge(70, 82).
edge(16, 103).
edge(56, 103).
edge(54, 62).
edge(45, 94).
edge(42, 43).
edge(5, 80).
edge(4, 121).
edge(10, 56).
edge(54, 106).
edge(2, 16).
edge(54, 135).
edge(43, 85).
edge(42, 80).
edge(58, 87).
edge(39, 65).
edge(40, 105).
edge(25, 87).
edge(116, 119).
edge(15, 96).
edge(0, 94).
edge(19, 108).
edge(20, 82).
edge(67, 125).
edge(29, 66).
edge(88, 123).
edge(48, 118).
edge(21, 135).
edge(40, 44).
edge(5, 75).
edge(40, 84).
edge(21, 124).
edge(15, 103).
edge(10, 118).
edge(13, 37).
edge(90, 121).
edge(66, 87).
edge(10, 34).
edge(14, 33).
edge(19, 112).
edge(3, 137).
edge(92, 112).
edge(16, 36).
edge(22, 102).
edge(31, 105).
edge(18, 127).
edge(40, 79).
edge(51, 137).
edge(55, 135).
edge(7, 47).
edge(7, 123).
edge(5, 31).
edge(59, 91).
edge(97, 104).
edge(90, 112).
edge(72, 109).
edge(10, 115).
edge(21, 74).
edge(72, 136).
edge(26, 121).
edge(91, 136).
edge(2, 19).
edge(97, 118).
edge(4, 29).
edge(54, 121).
edge(31, 72).
edge(74, 107).
edge(78, 137).
edge(18, 90).
edge(55, 81).
edge(33, 111).
edge(72, 100).
edge(51, 127).
edge(51, 91).
edge(94, 111).
edge(15, 31).
edge(17, 38).
edge(42, 72).
edge(14, 23).
edge(65, 132).
edge(57, 129).
edge(23, 36).
edge(33, 135).
edge(45, 66).
edge(75, 76).
edge(69, 136).
edge(70, 96).
edge(79, 82).
edge(27, 91).
edge(91, 123).
edge(12, 32).
edge(123, 138).
edge(126, 127).
edge(45, 100).
edge(69, 110).
edge(33, 79).
edge(47, 119).
edge(36, 71).
edge(5, 119).
edge(51, 67).
edge(8, 40).
edge(43, 67).
edge(69, 127).
edge(6, 104).
edge(99, 106).
edge(38, 117).
edge(96, 106).
edge(99, 122).
edge(25, 101).
edge(109, 126).
edge(37, 124).
edge(37, 123).
edge(12, 94).
edge(80, 88).
edge(26, 30).
edge(55, 71).
edge(16, 81).
edge(81, 126).
edge(15, 57).
edge(3, 73).
edge(48, 78).
edge(11, 66).
edge(66, 132).
edge(34, 89).
edge(20, 63).
edge(40, 106).
edge(77, 92).
edge(81, 104).
edge(26, 38).
edge(38, 107).
edge(27, 60).
edge(102, 125).
edge(13, 84).
edge(24, 95).
edge(62, 105).
edge(30, 130).
edge(64, 94).
edge(114, 122).
edge(15, 95).
edge(9, 104).
edge(126, 137).
edge(84, 91).
edge(29, 60).
edge(10, 105).
edge(62, 75).
edge(31, 114).
edge(58, 91).
edge(114, 136).
edge(43, 109).
edge(21, 24).
edge(75, 116).
edge(18, 106).
edge(21, 82).
edge(33, 35).
edge(84, 96).
edge(105, 109).
edge(61, 94).
edge(1, 9).
edge(2, 46).
edge(52, 105).
edge(8, 42).
edge(41, 94).
edge(80, 109).
edge(17, 102).
edge(42, 128).
edge(82, 86).
edge(27, 87).
edge(26, 91).
edge(99, 105).
edge(41, 85).
edge(79, 113).
edge(15, 60).
edge(38, 60).
edge(115, 130).
edge(20, 135).
edge(3, 57).
edge(41, 108).
edge(39, 99).
edge(62, 138).
edge(62, 134).
edge(74, 85).
edge(86, 118).
edge(28, 32).
edge(63, 135).
edge(27, 52).
edge(26, 53).
edge(104, 128).
edge(117, 131).
edge(96, 103).
edge(106, 136).
edge(79, 117).
edge(1, 52).
edge(77, 84).
edge(16, 62).
edge(9, 115).
edge(87, 135).
edge(46, 80).
edge(1, 102).
edge(8, 98).
edge(10, 120).
edge(106, 130).
edge(18, 32).
edge(26, 71).
edge(89, 99).
edge(113, 134).
edge(77, 83).
edge(67, 116).
edge(96, 136).
edge(5, 42).
edge(67, 74).
edge(69, 79).
edge(117, 134).
edge(1, 116).
edge(66, 77).
edge(10, 47).
edge(16, 37).
edge(54, 84).
edge(0, 61).
edge(60, 134).
edge(76, 129).
edge(84, 107).
edge(8, 69).
edge(45, 84).
edge(3, 56).
edge(113, 132).
edge(30, 100).
edge(8, 76).
edge(53, 107).
edge(10, 121).
edge(96, 119).
edge(66, 72).
edge(25, 83).
edge(4, 42).
edge(9, 73).
edge(61, 104).
edge(63, 83).
edge(79, 122).
edge(63, 124).
edge(86, 135).
edge(82, 136).
edge(6, 9).
edge(11, 13).
edge(19, 107).
edge(20, 121).
edge(18, 68).
edge(52, 95).
edge(52, 81).
edge(3, 126).
edge(1, 28).
edge(10, 108).
edge(45, 113).
edge(81, 125).
edge(62, 131).
edge(36, 93).
edge(27, 41).
edge(38, 78).
edge(3, 46).
edge(56, 122).
edge(25, 54).
edge(18, 73).
edge(19, 61).
edge(41, 122).
edge(82, 109).
edge(60, 78).
edge(124, 137).
edge(58, 120).
edge(39, 129).
edge(7, 13).
edge(68, 122).
edge(40, 74).
edge(19, 100).
edge(54, 120).
edge(80, 106).
edge(22, 56).
edge(61, 77).
edge(5, 74).
edge(16, 101).
edge(125, 130).
edge(91, 96).
edge(22, 94).
edge(125, 126).
edge(12, 49).
edge(0, 10).
edge(25, 67).
edge(54, 91).
edge(50, 59).
edge(9, 124).
edge(22, 59).
edge(86, 110).
edge(3, 4).
edge(71, 135).
edge(78, 89).
edge(33, 82).
edge(62, 96).
edge(2, 3).
edge(55, 96).
edge(86, 119).
edge(11, 106).
edge(25, 121).
edge(1, 137).
edge(95, 109).
edge(51, 86).
edge(31, 133).
edge(2, 80).
edge(3, 6).
edge(71, 127).
edge(50, 103).
edge(66, 101).
edge(30, 126).
edge(49, 109).
edge(38, 119).
edge(70, 124).
edge(30, 39).
edge(60, 90).
edge(56, 123).
edge(69, 72).
edge(95, 135).
edge(77, 119).
edge(9, 125).
edge(16, 102).
edge(82, 124).
edge(99, 123).
edge(43, 122).
edge(92, 126).
edge(48, 104).
edge(109, 121).
edge(11, 28).
edge(35, 82).
edge(8, 26).
edge(45, 56).
edge(75, 136).
edge(6, 24).
edge(60, 128).
edge(128, 131).
edge(30, 51).
edge(41, 57).
edge(43, 78).
edge(107, 122).
edge(81, 121).
edge(28, 42).
edge(6, 58).
edge(43, 48).
edge(76, 102).
edge(11, 102).
edge(39, 77).
edge(10, 65).
edge(35, 46).
edge(11, 100).
edge(6, 90).
edge(45, 112).
edge(5, 9).
edge(20, 97).
edge(22, 63).
edge(85, 101).
edge(0, 53).
edge(68, 118).
edge(90, 101).
edge(52, 98).
edge(30, 36).
edge(2, 13).
edge(88, 130).
edge(16, 84).
edge(105, 135).
edge(52, 119).
edge(51, 131).
edge(11, 61).
edge(101, 122).
edge(3, 82).
edge(49, 104).
edge(43, 136).
edge(14, 106).
edge(20, 27).
edge(4, 100).
edge(3, 114).
edge(29, 84).
edge(66, 71).
edge(59, 64).
edge(2, 82).
edge(13, 114).
edge(16, 73).
edge(54, 99).
edge(70, 127).
edge(15, 59).
edge(80, 95).
edge(10, 50).
edge(13, 24).
edge(27, 49).
edge(115, 116).
edge(7, 113).
edge(0, 92).
edge(25, 80).
edge(1, 75).
edge(16, 117).
edge(20, 90).
edge(93, 134).
edge(4, 67).
edge(55, 93).
edge(117, 119).
edge(27, 132).
edge(47, 136).
edge(5, 125).
edge(57, 71).
edge(2, 49).
edge(31, 117).
edge(55, 77).
edge(25, 107).
edge(40, 57).
edge(75, 89).
edge(78, 109).
edge(99, 119).
edge(55, 125).
edge(78, 120).
edge(48, 66).
edge(73, 128).
edge(39, 120).
edge(14, 104).
edge(4, 126).
edge(123, 125).
edge(5, 16).
edge(80, 89).
edge(3, 113).
edge(51, 114).
edge(33, 76).
edge(20, 24).
edge(6, 74).
edge(75, 117).
edge(31, 38).
edge(82, 93).
edge(63, 91).
edge(35, 118).
edge(56, 87).
edge(14, 37).
edge(48, 132).
edge(24, 55).
edge(1, 114).
edge(8, 120).
edge(13, 116).
edge(59, 120).
edge(95, 106).
edge(88, 137).
edge(35, 137).
edge(90, 106).
edge(64, 118).
edge(56, 100).
edge(65, 125).
edge(36, 106).
edge(64, 65).
edge(29, 137).
edge(106, 112).
edge(83, 130).
edge(52, 129).
edge(60, 63).
edge(29, 86).
edge(31, 96).
edge(15, 46).
edge(90, 93).
edge(58, 117).
edge(16, 106).
edge(22, 34).
edge(17, 79).
edge(63, 101).
edge(37, 71).
edge(2, 94).
edge(0, 105).
edge(5, 61).
edge(32, 37).
edge(34, 44).
edge(61, 108).
edge(44, 86).
edge(83, 138).
edge(22, 58).
edge(28, 68).
edge(9, 69).
edge(67, 71).
edge(42, 82).
edge(64, 77).
edge(7, 72).
edge(5, 109).
edge(66, 126).
edge(65, 138).
edge(3, 28).
edge(72, 102).
edge(64, 95).
edge(129, 137).
edge(32, 69).
edge(27, 96).
edge(86, 113).
edge(3, 92).
edge(6, 12).
edge(103, 116).
edge(3, 110).
edge(8, 109).
edge(72, 81).
edge(55, 103).
edge(25, 34).
edge(2, 122).
edge(33, 138).
edge(18, 95).
edge(77, 105).
edge(10, 87).
edge(42, 85).
edge(66, 133).
edge(52, 91).
edge(48, 90).
edge(43, 66).
edge(55, 122).
edge(26, 75).
edge(73, 110).
edge(54, 100).
edge(8, 13).
edge(0, 20).
edge(1, 44).
edge(108, 135).
edge(0, 130).
edge(103, 126).
edge(28, 133).
edge(6, 29).
edge(69, 104).
edge(77, 122).
edge(51, 59).
edge(2, 77).
edge(17, 124).
edge(79, 119).
edge(71, 128).
edge(91, 118).
edge(13, 21).
edge(5, 45).
edge(65, 123).
edge(13, 26).
edge(1, 48).
edge(42, 119).
edge(0, 21).
edge(77, 93).
edge(61, 128).
edge(85, 89).
edge(31, 137).
edge(21, 129).
edge(7, 67).
edge(48, 62).
edge(105, 134).
edge(49, 71).
edge(97, 137).
edge(15, 138).
edge(28, 102).
edge(50, 83).
edge(17, 76).
edge(23, 134).
edge(118, 127).
edge(1, 90).
edge(8, 15).
edge(38, 108).
edge(27, 82).
edge(25, 52).
edge(90, 91).
edge(21, 55).
edge(86, 130).
edge(44, 100).
edge(23, 78).
edge(93, 96).
edge(7, 81).
edge(109, 112).
edge(22, 85).
edge(43, 44).
edge(79, 81).
edge(83, 116).
edge(22, 66).
edge(29, 48).
edge(22, 98).
edge(81, 100).
edge(52, 94).
edge(47, 94).
edge(83, 121).
edge(34, 100).
edge(27, 97).
edge(49, 118).
edge(112, 116).
edge(113, 115).
edge(19, 85).
edge(4, 26).
edge(7, 111).
edge(13, 90).
edge(82, 127).
edge(61, 133).
edge(81, 113).
edge(59, 111).
edge(17, 107).
edge(58, 114).
edge(68, 126).
edge(25, 59).
edge(15, 119).
edge(78, 134).
edge(36, 114).
edge(20, 77).
edge(15, 98).
edge(60, 110).
edge(69, 77).
edge(29, 106).
edge(3, 17).
edge(1, 71).
edge(54, 85).
edge(5, 69).
edge(28, 115).
edge(55, 92).
edge(112, 128).
edge(58, 136).
edge(84, 114).
edge(56, 126).
edge(31, 131).
edge(65, 103).
edge(59, 108).
edge(28, 65).
edge(0, 114).
edge(38, 105).
edge(32, 102).
edge(63, 134).
edge(11, 83).
edge(11, 79).
edge(56, 118).
edge(93, 97).
edge(33, 126).
edge(92, 111).
edge(21, 102).
edge(57, 117).
edge(51, 138).
edge(33, 86).
edge(18, 87).
edge(6, 49).
edge(0, 5).
edge(7, 99).
edge(83, 107).
edge(73, 78).
edge(91, 95).
edge(62, 88).
edge(34, 113).
edge(43, 59).
edge(16, 47).
edge(61, 82).
edge(56, 104).
edge(51, 90).
edge(94, 115).
edge(92, 118).
edge(72, 110).
edge(32, 84).
edge(77, 94).
edge(22, 87).
edge(50, 63).
edge(69, 82).
edge(28, 87).
edge(72, 108).
edge(35, 38).
edge(25, 74).
edge(23, 42).
edge(50, 82).
edge(133, 137).
edge(31, 83).
edge(0, 60).
edge(71, 106).
edge(94, 101).
edge(3, 118).
edge(50, 114).
edge(16, 23).
edge(114, 132).
edge(68, 115).
edge(127, 130).
edge(32, 128).
edge(2, 118).
edge(68, 91).
edge(63, 138).
edge(8, 103).
edge(2, 131).
edge(6, 77).
edge(44, 116).
edge(59, 130).
edge(58, 108).
edge(13, 94).
edge(33, 105).
edge(14, 19).
edge(5, 30).
edge(2, 123).
edge(53, 117).
edge(47, 90).
edge(42, 51).
edge(43, 123).
edge(59, 83).
edge(78, 129).
edge(41, 92).
edge(44, 48).
edge(5, 96).
edge(102, 120).
edge(60, 102).
edge(15, 126).
edge(12, 130).
edge(10, 92).
edge(14, 120).
edge(25, 47).
edge(106, 113).
edge(16, 72).
edge(85, 110).
edge(10, 17).
edge(112, 131).
edge(79, 137).
edge(28, 30).
edge(16, 105).
edge(84, 113).
edge(9, 10).
edge(93, 110).
edge(73, 92).
edge(129, 131).
edge(35, 117).
edge(26, 69).
edge(12, 102).
edge(9, 101).
edge(0, 31).
edge(32, 129).
edge(1, 85).
edge(40, 128).
edge(85, 125).
edge(8, 12).
edge(34, 112).
edge(18, 49).
edge(7, 27).
edge(109, 119).
edge(52, 87).
edge(32, 107).
edge(24, 65).
edge(39, 132).
edge(21, 98).
edge(24, 126).
edge(27, 29).
edge(19, 113).
edge(30, 67).
edge(16, 24).
edge(5, 71).
edge(55, 84).
edge(78, 117).
edge(110, 130).
edge(90, 96).
edge(33, 114).
edge(98, 115).
edge(28, 43).
edge(34, 85).
edge(44, 46).
edge(19, 81).
edge(36, 132).
edge(81, 102).
edge(79, 112).
edge(8, 78).
edge(12, 91).
edge(19, 33).
edge(44, 96).
edge(0, 135).
edge(3, 75).
edge(11, 29).
edge(0, 63).
edge(123, 128).
edge(27, 133).
edge(5, 25).
edge(61, 96).
edge(117, 129).
edge(63, 108).
edge(62, 78).
edge(71, 86).
edge(48, 125).
edge(18, 122).
edge(1, 23).
edge(58, 92).
edge(13, 52).
edge(38, 115).
edge(30, 108).
edge(57, 65).
edge(35, 45).
edge(17, 71).
edge(22, 28).
edge(30, 83).
edge(19, 80).
edge(41, 88).
edge(59, 82).
edge(93, 98).
edge(102, 138).
edge(14, 105).
edge(50, 134).
edge(17, 69).
edge(70, 118).
edge(35, 119).
edge(2, 53).
edge(8, 19).
edge(20, 137).
edge(88, 112).
edge(7, 62).
edge(61, 116).
edge(126, 129).
edge(6, 25).
edge(25, 97).
edge(2, 124).
edge(18, 60).
edge(33, 119).
edge(22, 33).
edge(19, 94).
edge(45, 89).
edge(75, 126).
edge(41, 61).
edge(25, 105).
edge(128, 136).
edge(24, 117).
edge(31, 122).
edge(104, 132).
edge(22, 100).
edge(21, 85).
edge(34, 48).
edge(6, 11).
edge(112, 115).
edge(32, 87).
edge(17, 26).
edge(68, 93).
edge(113, 137).
edge(13, 79).
edge(80, 103).
edge(98, 127).
edge(46, 61).
edge(92, 128).
edge(2, 17).
edge(21, 63).
edge(25, 125).
edge(72, 103).
edge(47, 124).
edge(5, 100).
edge(15, 136).
edge(15, 25).
edge(23, 28).
edge(53, 71).
edge(34, 66).
edge(84, 115).
edge(58, 106).
edge(2, 23).
edge(8, 24).
edge(53, 118).
edge(27, 108).
edge(6, 111).
edge(96, 110).
edge(109, 114).
edge(30, 45).
edge(10, 102).
edge(89, 136).
edge(39, 94).
edge(69, 119).
edge(0, 100).
edge(35, 70).
edge(8, 134).
edge(10, 89).
edge(1, 20).
edge(2, 22).
edge(8, 33).
edge(32, 36).
edge(61, 123).
edge(66, 79).
edge(59, 105).
edge(54, 70).
edge(34, 129).
edge(60, 136).
edge(56, 63).
edge(53, 93).
edge(42, 107).
edge(43, 83).
edge(19, 66).
edge(119, 129).
edge(64, 110).
edge(37, 134).
edge(5, 56).
edge(25, 32).
edge(17, 104).
edge(14, 69).
edge(107, 109).
edge(11, 85).
edge(21, 80).
edge(19, 121).
edge(32, 113).
edge(3, 45).
edge(60, 101).
edge(46, 135).
edge(24, 47).
edge(87, 117).
edge(53, 128).
edge(23, 128).
edge(8, 48).
edge(83, 125).
edge(96, 111).
edge(15, 124).
edge(26, 111).
edge(27, 59).
edge(48, 130).
edge(33, 96).
edge(11, 74).
edge(5, 134).
edge(69, 114).
edge(34, 118).
edge(62, 121).
edge(88, 92).
edge(21, 47).
edge(23, 86).
edge(51, 53).
edge(43, 90).
edge(53, 123).
edge(60, 116).
edge(3, 55).
edge(4, 79).
edge(25, 33).
edge(50, 72).
edge(50, 71).
edge(93, 119).
edge(38, 116).
edge(45, 92).
edge(75, 97).
edge(40, 42).
edge(22, 117).
edge(21, 68).
edge(46, 56).
edge(37, 81).
edge(79, 127).
edge(0, 2).
edge(15, 64).
edge(18, 78).
edge(102, 137).
edge(9, 127).
edge(27, 116).
edge(64, 87).
edge(19, 30).
edge(72, 126).
edge(15, 73).
edge(59, 67).
edge(135, 137).
edge(74, 132).
edge(41, 99).
edge(5, 17).
edge(2, 101).
edge(19, 75).
edge(52, 71).
edge(25, 93).
edge(41, 107).
edge(77, 96).
edge(97, 135).
edge(65, 86).
edge(21, 112).
edge(17, 97).
edge(76, 119).
edge(60, 82).
edge(101, 136).
edge(56, 57).
edge(16, 26).
edge(74, 131).
edge(104, 126).
edge(32, 66).
edge(49, 133).
edge(109, 125).
edge(19, 110).
edge(37, 99).
edge(67, 99).
edge(20, 40).
edge(52, 76).
edge(42, 59).
edge(12, 87).
edge(71, 113).
edge(5, 115).
edge(119, 134).
edge(98, 130).
edge(4, 45).
edge(59, 121).
edge(40, 50).
edge(21, 120).
edge(46, 124).
edge(37, 60).
edge(29, 73).
edge(36, 62).
edge(13, 17).
edge(71, 90).
edge(11, 135).
edge(73, 83).
edge(59, 123).
edge(35, 138).
edge(25, 68).
edge(15, 134).
edge(18, 67).
edge(1, 107).
edge(32, 41).
edge(22, 83).
edge(55, 64).
edge(31, 95).
edge(58, 101).
edge(87, 100).
edge(40, 125).
edge(19, 86).
edge(11, 92).
edge(19, 96).
edge(4, 115).
edge(25, 86).
edge(47, 97).
edge(22, 72).
edge(79, 86).
edge(11, 39).
edge(71, 122).
edge(3, 35).
edge(23, 38).
edge(9, 24).
edge(88, 134).
edge(102, 127).
edge(6, 28).
edge(46, 84).
edge(65, 131).
edge(1, 126).
edge(73, 127).
edge(0, 40).
edge(37, 96).
edge(102, 107).
edge(1, 35).
edge(33, 129).
edge(47, 74).
edge(112, 113).
edge(8, 51).
edge(34, 68).
edge(34, 39).
edge(19, 128).
edge(10, 31).
edge(3, 14).
edge(40, 88).
edge(61, 129).
edge(31, 107).
edge(51, 99).
edge(2, 50).
edge(8, 99).
edge(37, 108).
edge(36, 99).
edge(10, 113).
edge(26, 105).
edge(112, 135).
edge(52, 61).
edge(2, 87).
edge(7, 128).
edge(46, 136).
edge(1, 18).
edge(25, 102).
edge(4, 17).
edge(67, 89).
edge(4, 130).
edge(91, 97).
edge(73, 75).
edge(101, 119).
edge(9, 92).
edge(43, 112).
edge(50, 54).
edge(16, 97).
edge(27, 86).
edge(15, 90).
edge(77, 137).
edge(61, 110).
edge(27, 98).
edge(28, 134).
edge(39, 61).
edge(38, 61).
edge(63, 65).
edge(28, 82).
edge(1, 128).
edge(16, 52).
edge(62, 137).
edge(41, 116).
edge(65, 73).
edge(19, 32).
edge(53, 114).
edge(16, 109).
edge(21, 101).
edge(35, 71).
edge(66, 115).
edge(35, 120).
edge(75, 96).
edge(20, 36).
edge(8, 84).
edge(54, 78).
edge(8, 135).
edge(52, 65).
edge(10, 11).
edge(79, 108).
edge(15, 17).
edge(132, 134).
edge(45, 105).
edge(24, 84).
edge(38, 89).
edge(84, 132).
edge(26, 32).
edge(0, 22).
edge(54, 114).
edge(46, 127).
edge(42, 57).
edge(25, 31).
edge(69, 122).
edge(62, 65).
edge(49, 97).
edge(93, 105).
edge(61, 138).
edge(31, 65).
edge(17, 19).
edge(2, 38).
edge(85, 96).
edge(70, 91).
edge(81, 120).
edge(5, 19).
edge(42, 89).
edge(11, 111).
edge(8, 75).
edge(81, 97).
edge(5, 36).
edge(24, 27).
edge(92, 131).
edge(18, 34).
edge(51, 133).
edge(90, 98).
edge(46, 114).
edge(107, 110).
edge(1, 76).
edge(67, 111).
edge(67, 104).
edge(94, 131).
edge(10, 39).
edge(9, 23).
edge(75, 102).
edge(38, 128).
edge(27, 54).
edge(95, 122).
edge(47, 114).
edge(37, 119).
edge(115, 136).
edge(45, 91).
edge(23, 49).
edge(4, 21).
edge(49, 114).
edge(51, 54).
edge(11, 109).
edge(32, 54).
edge(20, 57).
edge(85, 132).
edge(7, 42).
edge(70, 102).
edge(116, 133).
edge(58, 137).
edge(45, 75).
edge(82, 134).
edge(26, 89).
edge(22, 52).
edge(49, 111).
edge(55, 118).
edge(39, 131).
edge(20, 124).
edge(127, 128).
edge(107, 113).
edge(20, 102).
edge(21, 66).
edge(79, 121).
edge(45, 76).
edge(42, 44).
edge(1, 27).
edge(85, 124).
edge(19, 26).
edge(98, 108).
edge(8, 128).
edge(44, 68).
edge(97, 115).
edge(13, 55).
edge(54, 82).
edge(7, 92).
edge(94, 128).
edge(73, 101).
edge(15, 32).
edge(9, 136).
edge(44, 112).
edge(94, 132).
edge(67, 114).
edge(32, 126).
edge(97, 100).
edge(98, 136).
edge(31, 79).
edge(42, 129).
edge(64, 104).
edge(44, 66).
edge(90, 107).
edge(111, 134).
edge(106, 121).
edge(105, 125).
edge(40, 127).
edge(42, 53).
edge(94, 104).
edge(36, 75).
edge(32, 52).
edge(15, 33).
edge(34, 91).
edge(99, 118).
edge(75, 112).
edge(98, 103).
edge(71, 131).
edge(15, 61).
edge(129, 133).
edge(101, 129).
edge(13, 108).
edge(35, 41).
edge(49, 117).
edge(84, 88).
edge(32, 58).
edge(60, 123).
edge(42, 132).
edge(39, 48).
edge(56, 134).
edge(19, 23).
edge(14, 130).
edge(40, 51).
edge(83, 110).
edge(109, 124).
edge(6, 23).
edge(59, 119).
edge(15, 113).
edge(46, 109).
edge(9, 81).
edge(89, 132).
edge(61, 90).
edge(3, 24).
edge(31, 90).
edge(2, 71).
edge(9, 28).
edge(2, 96).
edge(33, 57).
edge(51, 124).
edge(8, 14).
edge(5, 102).
edge(1, 124).
edge(12, 57).
edge(78, 131).
edge(82, 114).
edge(41, 76).
edge(68, 113).
edge(59, 132).
edge(30, 84).
edge(5, 122).
edge(33, 58).
edge(51, 82).
edge(50, 136).
edge(58, 123).
edge(1, 82).
edge(36, 46).
edge(67, 119).
edge(29, 68).
edge(103, 120).
edge(68, 119).
edge(23, 33).
edge(5, 101).
edge(84, 89).
edge(39, 67).
edge(1, 32).
edge(17, 64).
edge(87, 138).
edge(60, 117).
edge(24, 40).
edge(49, 119).
edge(7, 84).
edge(21, 86).
edge(12, 61).
edge(43, 130).
edge(88, 115).
edge(4, 95).
edge(23, 73).
edge(25, 50).
edge(12, 23).
edge(37, 133).
edge(14, 68).
edge(51, 72).
edge(89, 90).
edge(43, 104).
edge(52, 137).
edge(94, 113).
edge(95, 98).
edge(10, 45).
edge(51, 135).
edge(78, 127).
edge(42, 49).
edge(51, 100).
edge(37, 75).
edge(9, 137).
edge(37, 40).
edge(124, 128).
edge(2, 112).
edge(52, 92).
edge(0, 136).
edge(9, 72).
edge(33, 89).
edge(12, 119).
edge(51, 56).
edge(8, 38).
edge(44, 132).
edge(9, 119).
edge(17, 43).
edge(4, 33).
edge(88, 97).
edge(0, 106).
edge(27, 103).
edge(9, 26).
edge(44, 130).
edge(73, 76).
edge(2, 138).
edge(75, 106).
edge(16, 22).
edge(32, 92).
edge(19, 40).
edge(32, 53).
edge(101, 118).
edge(73, 132).
edge(52, 127).
edge(1, 26).
edge(3, 11).
edge(13, 59).
edge(61, 71).
edge(98, 107).
edge(40, 102).
edge(39, 110).
edge(73, 99).
edge(35, 116).
edge(20, 56).
edge(10, 70).
edge(29, 44).
edge(25, 126).
edge(20, 22).
edge(84, 86).
edge(15, 41).
edge(13, 85).
edge(52, 97).
edge(33, 104).
edge(76, 138).
edge(32, 124).
edge(17, 130).
edge(80, 83).
edge(3, 134).
edge(48, 99).
edge(51, 102).
edge(103, 131).
edge(101, 121).
edge(11, 78).
edge(31, 92).
edge(3, 65).
edge(67, 81).
edge(101, 128).
edge(51, 110).
edge(87, 129).
edge(28, 41).
edge(7, 57).
edge(33, 110).
edge(92, 127).
edge(30, 76).
edge(28, 132).
edge(87, 94).
edge(42, 48).
edge(52, 112).
edge(79, 95).
edge(35, 124).
edge(17, 108).
edge(73, 119).
edge(84, 123).
edge(31, 64).
edge(57, 70).
edge(10, 94).
edge(80, 114).
edge(42, 52).
edge(23, 119).
edge(23, 50).
edge(110, 124).
edge(9, 66).
edge(29, 95).
edge(45, 96).
edge(64, 76).
edge(27, 77).
edge(23, 125).
edge(4, 107).
edge(7, 87).
edge(46, 110).
edge(47, 105).
edge(74, 77).
edge(71, 126).
edge(32, 137).
edge(3, 120).
edge(53, 73).
edge(28, 123).
edge(49, 84).
edge(22, 31).
edge(91, 99).
edge(76, 112).
edge(100, 109).
edge(21, 121).
edge(26, 119).
edge(59, 126).
edge(89, 96).
edge(42, 54).
edge(42, 130).
edge(4, 110).
edge(16, 49).
edge(6, 130).
edge(74, 104).
edge(96, 114).
edge(23, 96).
edge(45, 118).
edge(37, 63).
edge(23, 29).
edge(42, 100).
edge(26, 99).
edge(49, 129).
edge(44, 102).
edge(21, 128).
edge(39, 53).
edge(17, 98).
edge(94, 138).
edge(29, 130).
edge(79, 124).
edge(25, 135).
edge(31, 36).
edge(30, 77).
edge(106, 128).
edge(68, 85).
edge(62, 124).
edge(43, 89).
edge(29, 113).
edge(13, 57).
edge(7, 23).
edge(50, 105).
edge(86, 131).
edge(12, 53).
edge(13, 105).
edge(100, 123).
edge(15, 45).
edge(53, 72).
edge(24, 93).
edge(34, 62).
edge(6, 114).
edge(0, 35).
edge(69, 73).
edge(47, 122).
edge(25, 40).
edge(5, 90).
edge(97, 111).
edge(7, 73).
edge(112, 121).
edge(90, 99).
edge(65, 70).
edge(16, 54).
edge(90, 97).
edge(94, 124).
edge(113, 124).
edge(45, 138).
edge(26, 43).
edge(69, 126).
edge(100, 115).
edge(99, 111).
edge(19, 72).
edge(10, 14).
edge(63, 107).
edge(3, 18).
edge(22, 45).
edge(61, 91).
edge(27, 117).
edge(102, 115).
edge(21, 90).
edge(75, 87).
edge(69, 89).
edge(53, 67).
edge(93, 126).
edge(59, 113).
edge(37, 50).
edge(65, 124).
edge(9, 88).
edge(43, 88).
edge(9, 131).
edge(87, 111).
edge(71, 93).
edge(10, 135).
edge(20, 85).
edge(3, 12).
edge(17, 51).
edge(97, 113).
edge(118, 121).
edge(35, 101).
edge(7, 138).
edge(41, 106).
edge(53, 129).
edge(70, 137).
edge(105, 129).
edge(4, 120).
edge(131, 132).
edge(41, 44).
edge(13, 137).
edge(49, 138).
edge(114, 138).
edge(95, 124).
edge(43, 100).
edge(20, 91).
edge(106, 127).
edge(11, 138).
edge(19, 48).
edge(78, 90).
edge(24, 25).
edge(10, 75).
edge(38, 52).
edge(70, 75).
edge(22, 54).
edge(51, 122).
edge(11, 60).
edge(21, 43).
edge(108, 138).
edge(6, 13).
edge(35, 40).
edge(90, 109).
edge(61, 86).
edge(7, 101).
edge(114, 135).
edge(54, 71).
edge(13, 102).
edge(28, 119).
edge(19, 44).
edge(31, 75).
edge(29, 76).
edge(3, 99).
edge(16, 46).
edge(30, 133).
edge(10, 29).
edge(3, 71).
edge(18, 70).
edge(81, 137).
edge(63, 77).
edge(85, 94).
edge(36, 113).
edge(7, 135).
edge(4, 69).
edge(73, 123).
edge(4, 65).
edge(70, 107).
edge(25, 106).
edge(9, 43).
edge(6, 136).
edge(1, 134).
edge(50, 86).
edge(41, 89).
edge(44, 95).
edge(8, 65).
edge(25, 43).
edge(133, 135).
edge(39, 93).
edge(48, 75).
edge(52, 88).
edge(34, 109).
edge(1, 38).
edge(8, 114).
edge(15, 69).
edge(48, 114).
edge(9, 107).
edge(65, 112).
edge(17, 126).
edge(38, 88).
edge(69, 93).
edge(70, 109).
edge(52, 113).
edge(50, 122).
edge(25, 133).
edge(15, 101).
edge(43, 114).
edge(120, 136).
edge(19, 76).
edge(63, 76).
edge(73, 136).
edge(19, 39).
edge(85, 116).
edge(64, 96).
edge(38, 48).
edge(13, 131).
edge(31, 34).
edge(44, 77).
edge(29, 81).
edge(13, 91).
edge(77, 116).
edge(30, 136).
edge(26, 68).
edge(67, 84).
edge(2, 25).
edge(28, 113).
edge(52, 107).
edge(31, 67).
edge(50, 51).
edge(104, 137).
edge(69, 83).
edge(15, 56).
edge(98, 121).
edge(101, 120).
edge(93, 129).
edge(98, 102).
edge(16, 92).
edge(46, 89).
edge(8, 132).
edge(77, 129).
edge(4, 74).
edge(40, 82).
edge(2, 14).
edge(3, 66).
edge(36, 131).
edge(44, 58).
edge(53, 58).
edge(14, 20).
edge(58, 62).
edge(5, 114).
edge(132, 133).
edge(67, 69).
edge(7, 49).
edge(48, 109).
edge(37, 126).
edge(0, 87).
edge(45, 95).
edge(38, 123).
edge(19, 45).
edge(47, 80).
edge(117, 126).
edge(49, 79).
edge(25, 90).
edge(51, 125).
edge(55, 59).
edge(14, 115).
edge(84, 129).
edge(16, 25).
edge(110, 120).
edge(44, 127).
edge(83, 132).
edge(18, 98).
edge(6, 96).
edge(8, 50).
edge(72, 88).
edge(91, 133).
edge(8, 108).
edge(12, 42).
edge(30, 103).
edge(62, 113).
edge(11, 37).
edge(76, 114).
edge(16, 127).
edge(43, 95).
edge(1, 103).
edge(55, 86).
edge(77, 101).
edge(72, 117).
edge(57, 126).
edge(22, 91).
edge(36, 134).
edge(11, 15).
edge(50, 80).
edge(108, 114).
edge(53, 75).
edge(75, 81).
edge(86, 88).
edge(2, 45).
edge(92, 107).
edge(88, 100).
edge(28, 77).
edge(45, 64).
edge(11, 62).
edge(58, 75).
edge(6, 75).
edge(19, 84).
edge(45, 86).
edge(114, 120).
edge(2, 69).
edge(30, 31).
edge(99, 129).
edge(52, 73).
edge(60, 124).
edge(10, 21).
edge(68, 134).
edge(33, 121).
edge(27, 42).
edge(31, 98).
edge(44, 90).
edge(86, 91).
edge(33, 122).
edge(64, 73).
edge(7, 112).
edge(64, 109).
edge(67, 70).
edge(4, 101).
edge(64, 125).
edge(40, 60).
edge(72, 135).
edge(42, 87).
edge(48, 138).
edge(88, 120).
edge(56, 133).
edge(107, 131).
edge(58, 74).
edge(67, 73).
edge(11, 73).
edge(26, 129).
edge(22, 24).
edge(71, 101).
edge(64, 82).
edge(85, 127).
edge(14, 90).
edge(46, 74).
edge(30, 112).
edge(13, 107).
edge(10, 63).
edge(13, 113).
edge(84, 98).
edge(101, 109).
edge(8, 57).
edge(20, 50).
edge(68, 109).
edge(75, 122).
edge(8, 39).
edge(7, 104).
edge(31, 43).
edge(24, 100).
edge(7, 33).
edge(91, 130).
edge(16, 93).
edge(50, 126).
edge(34, 78).
edge(13, 35).
edge(39, 89).
edge(63, 127).
edge(89, 117).
edge(89, 101).
edge(51, 132).
edge(42, 113).
edge(22, 69).
edge(104, 116).
edge(49, 105).
edge(7, 18).
edge(114, 125).
edge(9, 21).
edge(128, 130).
edge(0, 42).
edge(2, 29).
edge(32, 45).
edge(22, 93).
edge(23, 57).
edge(80, 119).
edge(57, 75).
edge(54, 77).
edge(26, 87).
edge(58, 60).
edge(90, 114).
edge(109, 133).
edge(52, 59).
edge(59, 107).
edge(14, 59).
edge(39, 47).
edge(25, 46).
edge(32, 79).
edge(92, 97).
edge(6, 48).
edge(25, 95).
edge(7, 56).
edge(31, 125).
edge(9, 53).
edge(33, 72).
edge(39, 76).
edge(62, 136).
edge(42, 105).
edge(56, 95).
edge(49, 113).
edge(109, 120).
edge(35, 61).
edge(81, 108).
edge(108, 127).
edge(42, 73).
edge(15, 93).
edge(81, 99).
edge(27, 89).
edge(48, 53).
edge(57, 133).
edge(7, 61).
edge(61, 75).
edge(45, 109).
edge(68, 84).
edge(12, 16).
edge(67, 85).
edge(25, 63).
edge(71, 137).
edge(30, 38).
edge(60, 135).
edge(64, 80).
edge(6, 37).
edge(64, 100).
edge(75, 120).
edge(2, 65).
edge(20, 126).
edge(24, 59).
edge(10, 138).
edge(1, 7).
edge(124, 127).
edge(93, 117).
edge(72, 87).
edge(44, 73).
edge(23, 26).
edge(48, 107).
edge(33, 108).
edge(35, 100).
edge(13, 136).
edge(82, 117).
edge(42, 125).
edge(109, 130).
edge(27, 73).
edge(0, 122).
edge(41, 101).
edge(91, 126).
edge(57, 68).
edge(10, 16).
edge(21, 65).
edge(16, 79).
edge(12, 134).
edge(9, 93).
edge(87, 126).
edge(34, 124).
edge(48, 96).
edge(9, 85).
edge(4, 127).
edge(20, 60).
edge(33, 120).
edge(51, 83).
edge(82, 125).
edge(127, 129).
edge(21, 100).
edge(11, 25).
edge(27, 125).
edge(22, 110).
edge(80, 101).
edge(59, 73).
edge(23, 41).
edge(37, 49).
edge(0, 24).
edge(51, 98).
edge(8, 25).
edge(29, 53).
edge(13, 129).
edge(86, 95).
edge(99, 126).
edge(0, 73).
edge(68, 117).
edge(84, 133).
edge(98, 123).
edge(73, 82).
edge(20, 44).
edge(98, 117).
edge(29, 33).
edge(37, 104).
edge(24, 67).
edge(11, 56).
edge(41, 87).
edge(4, 37).
edge(56, 108).
edge(72, 82).
edge(46, 94).
edge(60, 133).
edge(27, 38).
edge(10, 80).
edge(50, 111).
edge(20, 129).
edge(75, 103).
edge(21, 110).
edge(75, 119).
edge(29, 67).
edge(71, 136).
edge(7, 121).
edge(29, 107).
edge(2, 135).
edge(38, 121).
edge(14, 122).
edge(19, 64).
edge(28, 45).
edge(80, 110).
edge(52, 109).
edge(29, 92).
edge(4, 32).
edge(64, 131).
edge(60, 85).
edge(63, 112).
edge(60, 121).
edge(25, 42).
edge(119, 127).
edge(70, 90).
edge(17, 80).
edge(74, 78).
edge(25, 129).
edge(96, 131).
edge(77, 102).
edge(13, 65).
edge(30, 93).
edge(28, 35).
edge(3, 38).
edge(58, 73).
edge(18, 23).
edge(30, 47).
edge(23, 43).
edge(46, 72).
edge(122, 128).
edge(55, 61).
edge(15, 52).
edge(64, 126).
edge(1, 4).
edge(5, 41).
edge(22, 96).
edge(18, 85).
edge(36, 115).
edge(4, 119).
edge(57, 113).
edge(92, 138).
edge(18, 39).
edge(21, 108).
edge(23, 24).
edge(38, 130).
edge(92, 95).
edge(14, 21).
edge(6, 72).
edge(47, 84).
edge(18, 129).
edge(96, 99).
edge(72, 101).
edge(34, 46).
edge(5, 18).
edge(52, 56).
edge(56, 78).
edge(77, 132).
edge(72, 130).
edge(11, 126).
edge(55, 124).
edge(112, 118).
edge(30, 80).
edge(100, 126).
edge(53, 65).
edge(44, 117).
edge(34, 102).
edge(59, 135).
edge(62, 108).
edge(76, 89).
edge(66, 130).
edge(25, 53).
edge(31, 135).
edge(32, 49).
edge(24, 136).
edge(64, 117).
edge(29, 110).
edge(85, 103).
edge(39, 128).
edge(77, 134).
edge(130, 132).
edge(118, 120).
edge(35, 56).
edge(36, 38).
edge(90, 100).
edge(85, 123).
edge(56, 128).
edge(44, 105).
edge(2, 43).
edge(22, 74).
edge(103, 114).
edge(30, 102).
edge(40, 124).
edge(61, 136).
edge(66, 74).
edge(43, 97).
edge(81, 114).
edge(64, 127).
edge(50, 93).
edge(28, 40).
edge(23, 71).
edge(38, 51).
edge(95, 129).
edge(34, 42).
edge(58, 78).
edge(55, 104).
edge(18, 69).
edge(21, 29).
edge(57, 98).
edge(14, 52).
edge(76, 84).
edge(6, 84).
edge(105, 112).
edge(52, 103).
edge(30, 92).
edge(4, 36).
edge(35, 98).
edge(22, 61).
edge(93, 111).
edge(40, 46).
edge(68, 131).
edge(54, 73).
edge(117, 127).
edge(84, 94).
edge(20, 92).
edge(37, 102).
edge(23, 137).
edge(20, 42).
edge(13, 109).
edge(45, 120).
edge(9, 11).
edge(16, 76).
edge(97, 128).
edge(29, 75).
edge(32, 33).
edge(66, 75).
edge(26, 90).
edge(64, 121).
edge(48, 134).
edge(49, 106).
edge(34, 63).
edge(48, 65).
edge(9, 87).
edge(20, 122).
edge(16, 99).
edge(7, 79).
edge(44, 91).
edge(53, 77).
edge(44, 50).
edge(84, 119).
edge(16, 120).
edge(30, 115).
edge(34, 57).
edge(57, 116).
edge(106, 111).
edge(41, 109).
edge(42, 111).
edge(8, 95).
edge(68, 121).
edge(21, 44).
edge(110, 123).
edge(41, 130).
edge(5, 97).
edge(16, 67).
edge(65, 87).
edge(91, 120).
edge(24, 137).
edge(7, 48).
edge(81, 95).
edge(77, 109).
edge(91, 94).
edge(18, 128).
edge(60, 68).
edge(66, 93).
edge(32, 71).
edge(19, 134).
edge(30, 73).
edge(10, 64).
edge(21, 59).
edge(85, 117).
edge(15, 63).
edge(3, 131).
edge(55, 130).
edge(55, 75).
edge(51, 78).
edge(98, 133).
edge(107, 133).
edge(0, 52).
edge(67, 95).
edge(74, 86).
edge(2, 128).
edge(41, 100).
edge(12, 40).
edge(109, 137).
edge(82, 126).
edge(55, 62).
edge(31, 134).
edge(38, 135).
edge(13, 36).
edge(10, 98).
edge(51, 106).
edge(19, 111).
edge(57, 60).
edge(42, 110).
edge(55, 76).
edge(42, 46).
edge(14, 87).
edge(22, 44).
edge(11, 14).
edge(45, 52).
edge(65, 91).
edge(67, 96).
edge(22, 27).
edge(22, 86).
edge(79, 133).
edge(12, 104).
edge(63, 66).
edge(32, 48).
edge(59, 61).
edge(56, 60).
edge(17, 50).
edge(30, 33).
edge(7, 107).
edge(4, 90).
edge(40, 41).
edge(99, 120).
edge(49, 120).
edge(2, 95).
edge(57, 130).
edge(28, 84).
edge(65, 67).
edge(14, 91).
edge(61, 95).
edge(98, 101).
edge(40, 87).
edge(102, 109).
edge(3, 78).
edge(25, 103).
edge(35, 93).
edge(65, 76).
edge(31, 100).
edge(3, 10).
edge(56, 130).
edge(28, 36).
edge(54, 65).
edge(47, 64).
edge(57, 110).
edge(38, 77).
edge(51, 95).
edge(17, 20).
edge(60, 95).
edge(12, 89).
edge(68, 97).
edge(11, 93).
edge(0, 67).
edge(9, 94).
edge(56, 90).
edge(39, 101).
edge(40, 90).
edge(68, 138).
edge(28, 53).
edge(46, 63).
edge(44, 92).
edge(41, 110).
edge(53, 101).
edge(81, 106).
edge(19, 53).
edge(130, 136).
edge(21, 25).
edge(6, 46).
edge(26, 88).
edge(68, 74).
edge(13, 127).
edge(13, 81).
edge(38, 129).
edge(31, 71).
edge(27, 88).
edge(42, 56).
edge(26, 81).
edge(4, 91).
edge(44, 108).
edge(14, 86).
edge(40, 48).
edge(47, 116).
edge(20, 84).
edge(17, 121).
edge(2, 12).
edge(40, 56).
edge(17, 88).
edge(8, 116).
edge(34, 137).
edge(0, 72).
edge(20, 69).
edge(49, 108).
edge(58, 109).
edge(6, 10).
edge(75, 91).
edge(13, 106).
edge(100, 135).
edge(50, 75).
edge(102, 118).
edge(16, 80).
edge(68, 86).
edge(36, 108).
edge(12, 118).
edge(25, 84).
edge(40, 122).
edge(32, 80).
edge(20, 51).
edge(15, 24).
edge(53, 82).
edge(38, 41).
edge(123, 135).
edge(32, 61).
edge(59, 134).
edge(36, 133).
edge(122, 137).
edge(35, 136).
edge(55, 121).
edge(96, 97).
edge(73, 90).
edge(41, 66).
edge(113, 114).
edge(39, 88).
edge(45, 129).
edge(90, 95).
edge(58, 72).
edge(13, 20).
edge(10, 67).
edge(9, 62).
edge(88, 107).
edge(6, 91).
edge(34, 79).
edge(25, 81).
edge(23, 98).
edge(61, 97).
edge(42, 117).
edge(29, 63).
edge(4, 31).
edge(2, 68).
edge(20, 98).
edge(43, 63).
edge(62, 81).
edge(45, 61).
edge(1, 72).
edge(47, 66).
edge(50, 98).
edge(35, 121).
edge(20, 125).
edge(27, 34).
edge(75, 85).
edge(58, 90).
edge(2, 110).
edge(29, 36).
edge(0, 102).
edge(102, 130).
edge(31, 68).
edge(17, 81).
edge(91, 119).
edge(35, 80).
edge(34, 107).
edge(47, 58).
edge(52, 86).
edge(27, 126).
edge(36, 119).
edge(6, 92).
edge(18, 101).
edge(57, 81).
edge(39, 124).
edge(49, 75).
edge(86, 97).
edge(22, 114).
edge(6, 76).
edge(58, 89).
edge(10, 88).
edge(13, 135).
edge(93, 118).
edge(22, 76).
edge(85, 119).
edge(19, 88).
edge(50, 92).
edge(27, 130).
edge(23, 103).
edge(15, 29).
edge(89, 116).
edge(36, 125).
edge(44, 110).
edge(12, 65).
edge(39, 127).
edge(17, 34).
edge(60, 105).
edge(55, 132).
edge(7, 34).
edge(50, 58).
edge(63, 102).
edge(13, 118).
edge(16, 122).
edge(125, 129).
edge(4, 30).
edge(40, 54).
edge(80, 130).
edge(12, 116).
edge(67, 112).
edge(0, 36).
edge(6, 109).
edge(60, 115).
edge(70, 110).
edge(18, 134).
edge(48, 83).
edge(20, 113).
edge(82, 135).
edge(36, 116).
edge(2, 134).
edge(120, 129).
edge(114, 131).
edge(61, 114).
edge(120, 127).
edge(80, 92).
edge(105, 110).
edge(32, 35).
edge(21, 136).
edge(30, 137).
edge(25, 49).
edge(83, 99).
edge(47, 118).
edge(91, 111).
edge(28, 79).
edge(1, 79).
edge(116, 136).
edge(17, 122).
edge(110, 135).
edge(15, 47).
edge(9, 67).
edge(40, 100).
edge(3, 40).
edge(104, 118).
edge(90, 135).
edge(70, 108).
edge(62, 93).
edge(122, 124).
edge(18, 94).
edge(33, 100).
edge(46, 82).
edge(13, 51).
edge(10, 104).
edge(59, 96).
edge(37, 88).
edge(8, 55).
edge(25, 122).
edge(36, 122).
edge(45, 136).
edge(61, 78).
edge(49, 57).
edge(20, 111).
edge(64, 98).
edge(86, 136).
edge(67, 68).
edge(43, 113).
edge(6, 62).
edge(25, 75).
edge(33, 106).
edge(82, 95).
edge(31, 44).
edge(32, 117).
edge(86, 98).
edge(50, 138).
edge(18, 19).
edge(3, 29).
edge(35, 49).
edge(27, 119).
edge(7, 127).
edge(30, 131).
edge(75, 132).
edge(71, 96).
edge(83, 85).
edge(14, 85).
edge(44, 53).
edge(27, 74).
edge(61, 124).
edge(35, 37).
edge(120, 138).
edge(30, 123).
edge(119, 121).
edge(64, 75).
edge(15, 97).
edge(45, 60).
edge(83, 95).
edge(33, 61).
edge(3, 133).
edge(84, 118).
edge(57, 73).
edge(44, 61).
edge(1, 81).
edge(101, 126).
edge(47, 103).
edge(30, 116).
edge(95, 123).
edge(12, 80).
edge(86, 116).
edge(7, 8).
edge(7, 37).
edge(11, 27).
edge(116, 125).
edge(33, 93).
edge(14, 133).
edge(83, 137).
edge(82, 94).
edge(74, 129).
edge(48, 81).
edge(53, 104).
edge(14, 45).
edge(21, 123).
edge(29, 133).
edge(28, 31).
edge(12, 29).
edge(10, 103).
edge(33, 37).
edge(44, 74).
edge(19, 56).
edge(36, 58).
edge(45, 106).
edge(22, 29).
edge(61, 109).
edge(34, 135).
edge(35, 66).
edge(21, 40).
edge(85, 131).
edge(51, 94).
edge(26, 60).
edge(23, 132).
edge(54, 72).
edge(101, 104).
edge(9, 109).
edge(48, 128).
edge(13, 56).
edge(0, 69).
edge(0, 38).
edge(7, 90).
edge(71, 120).
edge(25, 100).
edge(25, 45).
edge(48, 89).
edge(96, 135).
edge(28, 86).
edge(36, 60).
edge(71, 111).
edge(5, 58).
edge(94, 96).
edge(123, 124).
edge(77, 117).
edge(67, 130).
edge(21, 89).
edge(87, 97).
edge(20, 133).
edge(62, 63).
edge(18, 133).
edge(15, 125).
edge(103, 105).
edge(79, 102).
edge(86, 104).
edge(29, 124).
edge(38, 66).
edge(26, 52).
edge(29, 65).
edge(68, 103).
edge(4, 62).
edge(93, 132).
edge(1, 6).
edge(62, 130).
edge(59, 136).
edge(27, 63).
edge(34, 56).
edge(70, 104).
edge(38, 120).
edge(61, 137).
edge(53, 54).
edge(58, 68).
edge(46, 121).
edge(91, 125).
edge(53, 102).
edge(94, 109).
edge(7, 137).
edge(66, 95).
edge(93, 130).
edge(89, 106).
edge(105, 132).
edge(48, 119).
edge(0, 79).
edge(90, 129).
edge(0, 29).
edge(108, 137).
edge(22, 122).
edge(44, 81).
edge(23, 104).
edge(71, 88).
edge(48, 106).
edge(67, 79).
edge(98, 116).
edge(5, 7).
edge(8, 133).
edge(76, 88).
edge(52, 130).
edge(58, 126).
edge(38, 43).
edge(53, 96).
edge(52, 58).
edge(24, 50).
edge(95, 133).
edge(33, 81).
edge(28, 60).
edge(2, 51).
edge(88, 136).
edge(100, 134).
edge(33, 134).
edge(71, 97).
edge(119, 135).
edge(34, 82).
edge(88, 138).
edge(71, 125).
edge(92, 136).
edge(70, 135).
edge(13, 66).
edge(35, 104).
edge(52, 106).
edge(5, 132).
edge(53, 95).
edge(83, 128).
edge(47, 104).
edge(11, 130).
edge(45, 81).
edge(13, 128).
edge(100, 105).
edge(46, 50).
edge(1, 15).
edge(62, 69).
edge(82, 89).
edge(1, 84).
edge(70, 126).
edge(127, 132).
edge(43, 98).
edge(74, 128).
edge(23, 112).
edge(79, 94).
edge(98, 129).
edge(29, 122).
edge(41, 82).
edge(13, 19).
edge(39, 84).
edge(32, 94).
edge(5, 64).
edge(8, 62).
edge(29, 114).
edge(77, 128).
edge(52, 96).
edge(65, 83).
edge(13, 72).
edge(7, 118).
edge(77, 112).
edge(50, 64).
edge(31, 62).
edge(85, 93).
edge(46, 92).
edge(4, 13).
edge(16, 20).
edge(112, 133).
edge(5, 59).
edge(24, 43).
edge(23, 99).
edge(101, 112).
edge(65, 116).
edge(57, 107).
edge(36, 39).
edge(66, 90).
edge(36, 123).
edge(59, 72).
edge(46, 97).
edge(30, 48).
edge(47, 75).
edge(80, 93).
edge(97, 117).
edge(127, 135).
edge(8, 118).
edge(41, 81).
edge(15, 107).
edge(41, 132).
edge(64, 72).
edge(15, 81).
edge(36, 84).
edge(47, 49).
edge(42, 71).
edge(8, 23).
edge(104, 108).
edge(28, 50).
edge(22, 81).
edge(37, 110).
edge(86, 122).
edge(41, 56).
edge(11, 65).
edge(18, 71).
edge(71, 84).
edge(88, 118).
edge(49, 62).
edge(17, 46).
edge(1, 63).
edge(89, 92).
edge(115, 118).
edge(32, 99).
edge(94, 120).
edge(69, 88).
edge(44, 49).
edge(64, 122).
edge(2, 86).
edge(27, 43).
edge(65, 108).
edge(5, 79).
edge(13, 111).
edge(34, 117).
edge(103, 125).
edge(45, 68).
edge(50, 107).
edge(47, 95).
edge(20, 105).
edge(111, 121).
edge(61, 93).
edge(108, 130).
edge(22, 71).
edge(33, 49).
edge(49, 64).
edge(43, 64).
edge(12, 103).
edge(24, 130).
edge(98, 131).
edge(44, 106).
edge(27, 47).
edge(1, 29).
edge(36, 76).
edge(21, 105).
edge(71, 95).
edge(26, 130).
edge(90, 122).
edge(1, 25).
edge(22, 55).
edge(69, 90).
edge(97, 121).
edge(35, 73).
edge(22, 138).
edge(23, 81).
edge(78, 97).
edge(104, 110).
edge(26, 104).
edge(23, 55).
edge(24, 53).
edge(7, 44).
edge(50, 62).
edge(7, 16).
edge(20, 32).
edge(115, 117).
edge(36, 61).
edge(45, 131).
edge(8, 35).
edge(54, 59).
edge(61, 100).
edge(70, 120).
edge(114, 115).
edge(50, 135).
edge(1, 51).
edge(121, 124).
edge(13, 104).
edge(32, 64).
edge(24, 33).
edge(73, 138).
edge(89, 127).
edge(88, 109).
edge(37, 65).
edge(6, 88).
edge(31, 45).
edge(79, 129).
edge(29, 41).
edge(100, 114).
edge(48, 87).
edge(80, 90).
edge(4, 34).
edge(42, 118).
edge(99, 117).
edge(91, 106).
edge(18, 37).
edge(19, 90).
edge(60, 127).
edge(72, 131).
edge(62, 120).
edge(30, 138).
edge(36, 37).
edge(42, 92).
edge(17, 136).
edge(72, 115).
edge(23, 116).
edge(51, 130).
edge(63, 90).
edge(5, 91).
edge(81, 135).
edge(8, 123).
edge(38, 69).
edge(3, 130).
edge(39, 57).
edge(53, 79).
edge(35, 112).
edge(10, 30).
edge(27, 129).
edge(32, 109).
edge(111, 125).
edge(17, 106).
edge(81, 109).
edge(108, 131).
edge(100, 128).
edge(16, 43).
edge(22, 70).
edge(24, 109).
edge(100, 110).
edge(5, 10).
edge(10, 27).
edge(20, 62).
edge(7, 78).
edge(16, 58).
edge(5, 65).
edge(10, 42).
edge(68, 137).
edge(11, 52).
edge(0, 30).
edge(3, 50).
edge(59, 79).
edge(80, 118).
edge(6, 51).
edge(71, 92).
edge(91, 138).
edge(71, 78).
edge(41, 120).
edge(44, 133).
edge(39, 138).
edge(29, 91).
edge(93, 115).
edge(86, 90).
edge(3, 128).
edge(39, 107).
edge(15, 38).
edge(72, 138).
edge(6, 93).
edge(39, 133).
edge(54, 122).
edge(72, 104).
edge(50, 77).
edge(53, 111).
edge(80, 117).
edge(48, 79).
edge(26, 64).
edge(37, 131).
edge(11, 40).
edge(45, 85).
edge(69, 78).
edge(132, 138).
edge(78, 110).
edge(44, 120).
edge(25, 77).
edge(14, 35).
edge(95, 114).
edge(6, 137).
edge(60, 74).
edge(57, 111).
edge(61, 92).
edge(37, 115).
edge(42, 135).
edge(26, 138).
edge(25, 57).
edge(3, 21).
edge(6, 60).
edge(51, 117).
edge(66, 85).
edge(70, 119).
edge(39, 87).
edge(107, 136).
edge(43, 72).
edge(50, 113).
edge(77, 118).
edge(8, 127).
edge(21, 84).
edge(81, 83).
edge(50, 130).
edge(26, 37).
edge(73, 121).
edge(128, 133).
edge(54, 112).
edge(22, 133).
edge(48, 64).
edge(52, 135).
edge(12, 101).
edge(29, 35).
edge(24, 46).
edge(100, 124).
edge(60, 125).
edge(30, 98).
edge(66, 112).
edge(67, 117).
edge(54, 104).
edge(29, 83).
edge(43, 51).
edge(105, 106).
edge(77, 79).
edge(34, 55).
edge(70, 97).
edge(14, 57).
edge(33, 34).
edge(22, 127).
edge(28, 69).
edge(95, 126).
edge(40, 109).
edge(50, 101).
edge(96, 101).
edge(11, 107).
edge(31, 46).
edge(12, 93).
edge(79, 98).
edge(58, 100).
edge(73, 87).
edge(8, 92).
edge(0, 64).
edge(125, 131).
edge(46, 115).
edge(85, 100).
edge(75, 131).
edge(30, 132).
edge(0, 120).
edge(41, 77).
edge(13, 80).
edge(47, 96).
edge(55, 119).
edge(42, 77).
edge(14, 60).
edge(72, 96).
edge(120, 121).
edge(43, 132).
edge(126, 134).
edge(56, 59).
edge(31, 120).
edge(55, 117).
edge(51, 85).
edge(11, 70).
edge(2, 8).
edge(53, 94).
edge(65, 110).
edge(94, 118).
edge(70, 117).
edge(12, 92).
edge(1, 33).
edge(22, 48).
edge(79, 111).
edge(4, 109).
edge(98, 109).
edge(19, 74).
edge(19, 70).
edge(81, 107).
edge(37, 57).
edge(29, 132).
edge(43, 71).
edge(26, 135).
edge(49, 125).
edge(23, 120).
edge(25, 128).
edge(108, 125).
edge(76, 81).
edge(46, 125).
edge(20, 107).
edge(96, 125).
edge(16, 133).
edge(28, 76).
edge(81, 124).
edge(18, 31).
edge(126, 138).
edge(32, 39).
edge(76, 134).
edge(10, 76).
edge(104, 135).
edge(14, 53).
edge(128, 132).
edge(108, 122).
edge(4, 5).
edge(42, 120).
edge(56, 106).
edge(83, 86).
edge(11, 53).
edge(34, 88).
edge(62, 73).
edge(81, 117).
edge(33, 132).
edge(115, 131).
edge(41, 69).
edge(38, 112).
edge(13, 89).
edge(79, 80).
edge(46, 130).
edge(49, 65).
edge(61, 112).
edge(22, 47).
edge(44, 118).
edge(69, 109).
edge(32, 132).
edge(74, 114).
edge(53, 88).
edge(22, 129).
edge(41, 48).
edge(8, 112).
edge(90, 126).
edge(2, 88).
edge(122, 135).
edge(5, 103).
edge(10, 112).
edge(14, 61).
edge(43, 69).
edge(32, 88).
edge(63, 98).
edge(5, 39).
edge(74, 117).
edge(72, 118).
edge(14, 79).
edge(7, 97).
edge(48, 70).
edge(23, 34).
edge(78, 84).
edge(89, 93).
edge(2, 21).
edge(30, 99).
edge(17, 94).
edge(87, 123).
edge(76, 137).
edge(45, 133).
edge(57, 105).
edge(7, 15).
edge(54, 127).
edge(102, 126).
edge(69, 80).
edge(44, 80).
edge(78, 98).
edge(109, 131).
edge(18, 117).
edge(24, 48).
edge(73, 109).
edge(22, 106).
edge(55, 90).
edge(21, 111).
edge(101, 132).
edge(76, 105).
edge(60, 103).
edge(3, 108).
edge(3, 51).
edge(24, 138).
edge(23, 93).
edge(79, 107).
edge(36, 90).
edge(11, 129).
edge(23, 52).
edge(83, 90).
edge(12, 111).
edge(23, 45).
edge(79, 135).
edge(36, 109).
edge(41, 62).
edge(14, 63).
edge(6, 103).
edge(55, 58).
edge(68, 92).
edge(20, 30).
edge(65, 104).
edge(8, 89).
edge(3, 68).
edge(107, 128).
edge(2, 130).
edge(18, 114).
edge(1, 62).
edge(2, 91).
edge(28, 64).
edge(110, 132).
edge(91, 112).
edge(129, 136).
edge(40, 131).
edge(2, 136).
edge(92, 124).
edge(28, 125).
edge(99, 104).
edge(19, 50).
edge(102, 129).
edge(5, 49).
edge(38, 49).
edge(7, 80).
edge(96, 98).
edge(88, 121).
edge(94, 123).
edge(87, 127).
edge(81, 131).
edge(58, 116).
edge(18, 82).
edge(56, 70).
edge(96, 127).
edge(126, 132).
edge(32, 86).
edge(73, 105).
edge(20, 80).
edge(11, 38).
edge(50, 118).
edge(36, 47).
edge(41, 128).
edge(10, 119).
edge(43, 45).
edge(16, 135).
edge(23, 84).
edge(12, 95).
edge(1, 99).
edge(36, 88).
edge(13, 53).
edge(10, 134).
edge(87, 120).
edge(48, 67).
edge(58, 138).
edge(106, 120).
edge(44, 56).
edge(79, 118).
edge(42, 78).
edge(71, 100).
edge(36, 70).
edge(18, 51).
edge(56, 77).
edge(101, 123).
edge(97, 126).
edge(79, 114).
edge(26, 95).
edge(3, 69).
edge(35, 132).
edge(1, 13).
edge(66, 104).
edge(127, 137).
edge(94, 134).
edge(37, 56).
edge(80, 102).
edge(71, 115).
edge(62, 118).
edge(23, 54).
edge(56, 91).
edge(120, 124).
edge(13, 74).
edge(17, 63).
edge(18, 91).
edge(103, 110).
edge(11, 76).
edge(37, 66).
edge(32, 93).
edge(21, 134).
edge(3, 104).
edge(14, 135).
edge(59, 68).
edge(95, 128).
edge(58, 82).
edge(1, 47).
edge(69, 135).
edge(4, 72).
edge(70, 114).
edge(18, 47).
edge(9, 25).
edge(0, 33).
edge(8, 104).
edge(73, 129).
edge(106, 132).
edge(0, 19).
edge(10, 38).
edge(93, 120).
edge(51, 103).
edge(73, 88).
edge(4, 96).
edge(31, 70).
edge(63, 80).
edge(78, 115).
edge(55, 107).
edge(28, 38).
edge(126, 131).
edge(19, 118).
edge(23, 133).
edge(56, 125).
edge(12, 122).
edge(46, 123).
edge(65, 105).
edge(75, 82).
edge(12, 41).
edge(65, 97).
edge(4, 50).
edge(134, 136).
edge(17, 100).
edge(40, 111).
edge(40, 68).
edge(8, 102).
edge(19, 82).
edge(111, 131).
edge(31, 136).
edge(61, 89).
edge(32, 90).
edge(35, 106).
edge(70, 132).
edge(17, 82).
edge(1, 133).
edge(7, 134).
edge(33, 88).
edge(37, 112).
edge(65, 101).
edge(32, 136).
edge(44, 128).
edge(42, 88).
edge(63, 84).
edge(83, 100).
edge(8, 117).
edge(42, 102).
edge(6, 102).
edge(67, 118).
edge(29, 136).
edge(18, 84).
edge(102, 111).
edge(54, 76).
edge(55, 95).
edge(74, 137).
edge(99, 132).
edge(6, 87).
edge(44, 124).
edge(2, 31).
edge(5, 28).
edge(83, 112).
edge(20, 67).
edge(89, 95).
edge(66, 88).
edge(5, 104).
edge(86, 87).
edge(21, 70).
edge(98, 125).
edge(1, 120).
edge(23, 46).
edge(64, 79).
edge(32, 119).
edge(82, 105).
edge(41, 95).
edge(83, 126).
edge(71, 99).
edge(13, 63).
edge(62, 66).
edge(96, 122).
edge(19, 60).
edge(3, 121).
edge(15, 137).
edge(34, 98).
edge(49, 53).
edge(13, 64).
edge(56, 75).
edge(0, 116).
edge(25, 35).
edge(20, 114).
edge(39, 74).
edge(5, 21).
edge(28, 122).
edge(73, 85).
edge(34, 60).
edge(83, 134).
edge(84, 106).
edge(9, 38).
edge(48, 60).
edge(5, 92).
edge(8, 100).
edge(6, 123).
edge(28, 52).
edge(76, 80).
edge(72, 86).
edge(16, 111).
edge(1, 111).
edge(32, 68).
edge(11, 71).
edge(50, 117).
edge(24, 90).
edge(29, 115).
edge(40, 86).
edge(7, 69).
edge(5, 107).
edge(14, 30).
edge(46, 116).
edge(19, 25).
edge(15, 121).
edge(110, 116).
edge(37, 127).
edge(87, 95).
edge(34, 97).
edge(66, 118).
edge(43, 47).
edge(21, 76).
edge(52, 53).
edge(37, 130).
edge(32, 81).
edge(84, 128).
edge(91, 127).
edge(113, 120).
edge(15, 112).
edge(98, 132).
edge(8, 28).
edge(9, 82).
edge(3, 117).
edge(20, 130).
edge(49, 132).
edge(8, 85).
edge(93, 100).
edge(52, 122).
edge(91, 129).
edge(30, 79).
edge(71, 102).
edge(102, 132).
edge(60, 138).
edge(7, 114).
edge(49, 66).
edge(110, 118).
edge(82, 101).
edge(81, 92).
edge(16, 123).
edge(62, 95).
edge(11, 49).
edge(47, 89).
edge(9, 95).
edge(55, 82).
edge(5, 23).
edge(33, 62).
edge(20, 94).
edge(11, 84).
edge(78, 113).
edge(78, 91).
edge(26, 54).
edge(70, 130).
edge(0, 46).
edge(28, 81).
edge(10, 23).
edge(84, 111).
edge(17, 132).
edge(29, 109).
edge(31, 63).
edge(24, 116).
edge(42, 106).
edge(72, 105).
edge(35, 50).
edge(99, 113).
edge(11, 32).
edge(101, 135).
edge(67, 83).
edge(47, 73).
edge(41, 117).
edge(40, 95).
edge(76, 101).
edge(12, 132).
edge(11, 46).
edge(3, 22).
edge(58, 129).
edge(35, 53).
edge(54, 88).
edge(3, 138).
edge(3, 64).
edge(39, 97).
edge(8, 63).
edge(19, 31).
edge(9, 79).
edge(0, 84).
edge(61, 67).
edge(113, 128).
edge(80, 100).
edge(124, 138).
edge(71, 94).
edge(30, 46).
edge(61, 73).
edge(33, 109).
edge(81, 132).
edge(46, 62).
edge(59, 71).
edge(12, 127).
edge(7, 46).
edge(83, 114).
edge(81, 101).
edge(102, 117).
edge(80, 128).
edge(45, 108).
edge(57, 95).
edge(30, 66).
edge(73, 124).
edge(40, 71).
edge(23, 94).
edge(9, 71).
edge(59, 122).
edge(28, 107).
edge(6, 54).
edge(46, 105).
edge(24, 135).
edge(26, 102).
edge(83, 104).
edge(77, 89).
edge(42, 127).
edge(0, 132).
edge(99, 100).
edge(72, 123).
edge(73, 89).
edge(30, 58).
edge(102, 116).
edge(69, 132).
edge(48, 131).
edge(11, 114).
edge(4, 123).
edge(14, 56).
edge(62, 103).
edge(107, 125).
edge(37, 73).
edge(43, 106).
edge(99, 138).
edge(38, 92).
edge(13, 123).
edge(39, 98).
edge(33, 133).
edge(9, 50).
edge(51, 116).
edge(1, 101).
edge(55, 101).
edge(9, 35).
edge(100, 137).
edge(4, 129).
edge(72, 90).
edge(22, 125).
edge(66, 105).
edge(23, 114).
edge(43, 111).
edge(29, 104).
edge(33, 116).
edge(85, 121).
edge(63, 70).
edge(94, 107).
edge(13, 50).
edge(8, 21).
edge(43, 91).
edge(36, 129).
edge(83, 92).
edge(22, 65).
edge(56, 119).
edge(35, 123).
edge(55, 131).
edge(62, 109).
edge(58, 79).
edge(58, 70).
edge(54, 105).
edge(10, 106).
edge(20, 136).
edge(10, 44).
edge(84, 137).
edge(118, 131).
edge(25, 124).
edge(33, 128).
edge(78, 138).
edge(22, 68).
edge(76, 124).
edge(64, 92).
edge(103, 132).
edge(81, 133).
edge(116, 129).
edge(3, 42).
edge(40, 72).
edge(45, 111).
edge(43, 101).
edge(101, 106).
edge(77, 138).
edge(34, 123).
edge(52, 118).
edge(23, 97).
edge(86, 117).
edge(5, 54).
edge(6, 85).
edge(17, 44).
edge(6, 68).
edge(4, 75).
edge(69, 81).
edge(63, 82).
edge(34, 51).
edge(18, 43).
edge(55, 114).
edge(49, 85).
edge(48, 86).
edge(21, 57).
edge(9, 64).
edge(35, 52).
edge(10, 132).
edge(17, 39).
edge(85, 129).
edge(30, 43).
edge(35, 110).
edge(0, 85).
edge(23, 67).
edge(9, 123).
edge(1, 95).
edge(9, 100).
edge(64, 97).
edge(79, 109).
edge(47, 117).
edge(22, 113).
edge(2, 35).
edge(5, 98).
edge(45, 102).
edge(23, 62).
edge(34, 138).
edge(35, 81).
edge(48, 50).
edge(5, 133).
edge(67, 122).
edge(62, 119).
edge(68, 102).
edge(87, 122).
edge(32, 50).
edge(104, 109).
edge(33, 83).
edge(28, 56).
edge(17, 31).
edge(7, 26).
edge(54, 66).
edge(58, 104).
edge(83, 136).
edge(27, 95).
edge(53, 110).
edge(90, 113).
edge(39, 75).
edge(29, 131).
edge(95, 101).
edge(51, 87).
edge(20, 131).
edge(128, 134).
edge(5, 33).
edge(28, 130).
edge(31, 110).
edge(36, 137).
edge(59, 86).
edge(6, 132).
edge(17, 72).
edge(35, 130).
edge(77, 86).
edge(99, 127).
edge(111, 128).
edge(19, 28).
edge(68, 75).
edge(64, 105).
edge(26, 73).
edge(41, 118).
edge(39, 85).
edge(48, 69).
edge(78, 86).
edge(101, 116).
edge(56, 101).
edge(22, 32).
edge(28, 117).
edge(45, 54).
edge(51, 97).
edge(12, 123).
edge(35, 128).
edge(9, 120).
edge(28, 109).
edge(53, 85).
edge(24, 105).
edge(5, 70).
edge(76, 106).
edge(61, 76).
edge(17, 111).
edge(19, 68).
edge(52, 126).
edge(5, 112).
edge(55, 126).
edge(12, 77).
edge(58, 97).
edge(22, 111).
edge(9, 108).
edge(29, 50).
edge(108, 134).
edge(59, 117).
edge(77, 82).
edge(45, 127).
edge(9, 118).
edge(20, 76).
edge(38, 125).
edge(44, 134).
edge(19, 46).
edge(19, 123).
edge(3, 103).
edge(30, 78).
edge(37, 106).
edge(89, 123).
edge(35, 69).
edge(27, 55).
edge(34, 103).
edge(49, 137).
edge(48, 77).
edge(95, 99).
edge(98, 122).
edge(119, 133).
edge(79, 136).
edge(23, 115).
edge(38, 68).
edge(5, 13).
edge(40, 83).
edge(12, 137).
edge(68, 127).
edge(44, 51).
edge(1, 21).
edge(67, 134).
edge(46, 54).
edge(49, 98).
edge(66, 98).
edge(104, 120).
edge(14, 44).
edge(26, 58).
edge(17, 84).
edge(96, 124).
edge(45, 46).
edge(5, 87).
edge(15, 30).
edge(76, 136).
edge(78, 125).
edge(36, 100).
edge(76, 127).
edge(11, 72).
edge(45, 78).
edge(45, 63).
edge(86, 120).
edge(49, 56).
edge(31, 59).
edge(87, 131).
edge(7, 58).
edge(61, 122).
edge(26, 109).
edge(91, 113).
edge(43, 102).
edge(41, 126).
edge(75, 110).
edge(54, 129).
edge(13, 32).
edge(49, 61).
edge(54, 68).
edge(66, 106).
edge(10, 100).
edge(117, 132).
edge(26, 39).
edge(61, 106).
edge(4, 73).
edge(81, 82).
edge(8, 31).
edge(100, 120).
edge(63, 129).
edge(36, 101).
edge(89, 91).
edge(52, 60).
edge(31, 35).
edge(54, 109).
edge(60, 72).
edge(56, 131).
edge(18, 61).
edge(30, 41).
edge(39, 62).
edge(19, 95).
edge(35, 63).
edge(103, 112).
edge(21, 48).
edge(18, 89).
edge(0, 138).
weight(0, 13).
weight(1, 15).
weight(2, 18).
weight(3, 19).
weight(4, 19).
weight(5, 17).
weight(6, 8).
weight(7, 15).
weight(8, 7).
weight(9, 7).
weight(10, 8).
weight(11, 4).
weight(12, 2).
weight(13, 2).
weight(14, 16).
weight(15, 19).
weight(16, 7).
weight(17, 8).
weight(18, 19).
weight(19, 5).
weight(20, 18).
weight(21, 17).
weight(22, 10).
weight(23, 17).
weight(24, 13).
weight(25, 9).
weight(26, 12).
weight(27, 6).
weight(28, 14).
weight(29, 2).
weight(30, 7).
weight(31, 13).
weight(32, 16).
weight(33, 13).
weight(34, 3).
weight(35, 13).
weight(36, 9).
weight(37, 10).
weight(38, 9).
weight(39, 8).
weight(40, 17).
weight(41, 18).
weight(42, 8).
weight(43, 13).
weight(44, 8).
weight(45, 10).
weight(46, 2).
weight(47, 3).
weight(48, 17).
weight(49, 15).
weight(50, 14).
weight(51, 5).
weight(52, 3).
weight(53, 3).
weight(54, 13).
weight(55, 12).
weight(56, 11).
weight(57, 13).
weight(58, 10).
weight(59, 17).
weight(60, 19).
weight(61, 10).
weight(62, 3).
weight(63, 15).
weight(64, 13).
weight(65, 18).
weight(66, 18).
weight(67, 12).
weight(68, 13).
weight(69, 2).
weight(70, 5).
weight(71, 5).
weight(72, 3).
weight(73, 1).
weight(74, 18).
weight(75, 8).
weight(76, 15).
weight(77, 14).
weight(78, 5).
weight(79, 16).
weight(80, 4).
weight(81, 3).
weight(82, 3).
weight(83, 11).
weight(84, 8).
weight(85, 1).
weight(86, 7).
weight(87, 15).
weight(88, 7).
weight(89, 15).
weight(90, 2).
weight(91, 1).
weight(92, 14).
weight(93, 18).
weight(94, 2).
weight(95, 8).
weight(96, 9).
weight(97, 11).
weight(98, 14).
weight(99, 5).
weight(100, 4).
weight(101, 2).
weight(102, 5).
weight(103, 9).
weight(104, 9).
weight(105, 1).
weight(106, 4).
weight(107, 6).
weight(108, 5).
weight(109, 14).
weight(110, 10).
weight(111, 4).
weight(112, 11).
weight(113, 1).
weight(114, 12).
weight(115, 18).
weight(116, 1).
weight(117, 14).
weight(118, 10).
weight(119, 3).
weight(120, 4).
weight(121, 16).
weight(122, 4).
weight(123, 12).
weight(124, 13).
weight(125, 8).
weight(126, 7).
weight(127, 17).
weight(128, 11).
weight(129, 2).
weight(130, 15).
weight(131, 18).
weight(132, 19).
weight(133, 19).
weight(134, 10).
weight(135, 6).
weight(136, 9).
weight(137, 5).
weight(138, 8).

{in(V)} :- node(V).
:- in(U), in(V), U < V, not edge(U,V).
:~ not in(V), weight(V,W). [W@1,V]
