node(0..150).
edge(12, 141).
edge(51, 135).
edge(75, 137).
edge(36, 140).
edge(25, 70).
edge(77, 92).
edge(141, 145).
edge(0, 15).
edge(28, 82).
edge(129, 139).
edge(59, 138).
edge(34, 62).
edge(13, 121).
edge(26, 121).
edge(9, 106).
edge(7, 16).
edge(90, 105).
edge(57, 127).
edge(89, 111).
edge(90, 139).
edge(20, 74).
edge(85, 149).
edge(24, 48).
edge(5, 101).
edge(11, 76).
edge(95, 97).
edge(82, 83).
edge(16, 95).
edge(59, 69).
edge(94, 132).
edge(114, 125).
edge(32, 97).
edge(109, 117).
edge(59, 91).
edge(125, 129).
edge(76, 98).
edge(66, 143).
edge(68, 120).
edge(35, 100).
edge(120, 122).
edge(102, 133).
edge(96, 128).
edge(22, 87).
edge(47, 142).
edge(12, 38).
edge(25, 37).
edge(129, 133).
edge(48, 143).
edge(4, 24).
edge(55, 103).
edge(86, 147).
edge(26, 61).
edge(101, 104).
edge(98, 102).
edge(47, 136).
edge(68, 76).
edge(68, 92).
edge(19, 72).
edge(37, 136).
edge(114, 129).
edge(84, 89).
edge(5, 23).
edge(20, 100).
edge(25, 131).
edge(7, 143).
edge(13, 104).
edge(30, 147).
edge(31, 68).
edge(123, 143).
edge(69, 72).
edge(146, 150).
edge(60, 102).
edge(93, 104).
edge(50, 59).
edge(13, 81).
edge(39, 69).
edge(28, 90).
edge(51, 98).
edge(32, 48).
edge(17, 93).
edge(58, 73).
edge(139, 145).
edge(85, 146).
edge(34, 70).
edge(14, 61).
edge(46, 134).
edge(47, 89).
edge(35, 81).
edge(9, 136).
edge(77, 135).
edge(69, 73).
edge(48, 67).
edge(14, 52).
edge(55, 85).
edge(29, 85).
edge(58, 89).
edge(84, 121).
edge(47, 150).
edge(72, 91).
edge(93, 111).
edge(8, 133).
edge(63, 91).
edge(82, 140).
edge(87, 120).
edge(0, 50).
edge(45, 129).
edge(62, 117).
edge(56, 124).
edge(109, 119).
edge(45, 126).
edge(69, 85).
edge(30, 65).
edge(110, 137).
edge(0, 38).
edge(20, 37).
edge(15, 46).
edge(57, 139).
edge(83, 86).
edge(72, 125).
edge(27, 115).
edge(100, 131).
edge(40, 149).
edge(52, 148).
edge(37, 109).
edge(1, 109).
edge(58, 98).
edge(52, 93).
edge(21, 65).
edge(58, 81).
edge(91, 124).
edge(62, 101).
edge(28, 63).
edge(40, 118).
edge(63, 76).
edge(5, 129).
edge(5, 149).
edge(85, 102).
edge(82, 109).
edge(3, 68).
edge(68, 70).
edge(65, 141).
edge(37, 121).
edge(5, 25).
edge(68, 132).
edge(19, 105).
edge(13, 33).
edge(48, 72).
edge(38, 89).
edge(7, 127).
edge(46, 85).
edge(78, 79).
edge(60, 72).
edge(2, 53).
edge(3, 126).
edge(85, 142).
edge(11, 145).
edge(28, 73).
edge(44, 142).
edge(2, 102).
edge(15, 103).
edge(1, 137).
edge(23, 100).
edge(41, 78).
edge(2, 89).
edge(58, 85).
edge(122, 149).
edge(132, 149).
edge(44, 146).
edge(18, 84).
edge(18, 36).
edge(40, 44).
edge(72, 147).
edge(91, 148).
edge(79, 83).
edge(54, 133).
edge(51, 68).
edge(20, 123).
edge(95, 115).
edge(117, 133).
edge(19, 145).
edge(93, 148).
edge(38, 72).
edge(35, 74).
edge(64, 86).
edge(46, 117).
edge(59, 84).
edge(113, 128).
edge(105, 137).
edge(111, 128).
edge(20, 75).
edge(7, 88).
edge(15, 116).
edge(25, 96).
edge(27, 145).
edge(19, 36).
edge(123, 142).
edge(75, 128).
edge(50, 125).
edge(123, 124).
edge(46, 54).
edge(47, 99).
edge(44, 98).
edge(34, 98).
edge(60, 117).
edge(83, 84).
edge(21, 101).
edge(77, 94).
edge(0, 107).
edge(75, 87).
edge(19, 131).
edge(54, 121).
edge(59, 82).
edge(43, 118).
edge(25, 85).
edge(60, 143).
edge(27, 82).
edge(20, 120).
edge(17, 82).
edge(114, 116).
edge(94, 131).
edge(102, 132).
edge(29, 143).
edge(33, 82).
edge(60, 62).
edge(90, 106).
edge(33, 47).
edge(116, 143).
edge(39, 83).
edge(19, 136).
edge(19, 42).
edge(22, 51).
edge(53, 62).
edge(19, 46).
edge(29, 54).
edge(17, 86).
edge(89, 128).
edge(32, 61).
edge(3, 110).
edge(58, 78).
edge(6, 104).
edge(57, 131).
edge(8, 85).
edge(72, 101).
edge(28, 33).
edge(92, 136).
edge(37, 58).
edge(87, 116).
edge(39, 75).
edge(10, 92).
edge(14, 142).
edge(142, 147).
edge(96, 146).
edge(5, 61).
edge(3, 79).
edge(5, 112).
edge(106, 145).
edge(72, 126).
edge(52, 72).
edge(17, 129).
edge(72, 96).
edge(24, 124).
edge(15, 102).
edge(58, 141).
edge(47, 107).
edge(92, 112).
edge(33, 36).
edge(9, 135).
edge(71, 116).
edge(131, 134).
edge(48, 61).
edge(76, 145).
edge(119, 145).
edge(39, 96).
edge(6, 112).
edge(24, 59).
edge(5, 73).
edge(6, 55).
edge(112, 146).
edge(6, 108).
edge(43, 123).
edge(75, 148).
edge(50, 141).
edge(49, 130).
edge(26, 74).
edge(39, 139).
edge(29, 138).
edge(66, 88).
edge(82, 149).
edge(20, 30).
edge(51, 97).
edge(2, 79).
edge(30, 38).
edge(70, 97).
edge(42, 66).
edge(25, 76).
edge(32, 96).
edge(2, 141).
edge(63, 90).
edge(80, 127).
edge(12, 133).
edge(74, 84).
edge(86, 103).
edge(10, 82).
edge(1, 60).
edge(54, 65).
edge(22, 122).
edge(28, 72).
edge(7, 20).
edge(9, 62).
edge(76, 134).
edge(73, 85).
edge(4, 87).
edge(8, 32).
edge(122, 131).
edge(28, 68).
edge(39, 64).
edge(20, 68).
edge(102, 105).
edge(75, 78).
edge(47, 109).
edge(3, 46).
edge(79, 97).
edge(30, 82).
edge(20, 47).
edge(22, 111).
edge(45, 142).
edge(88, 106).
edge(27, 130).
edge(103, 121).
edge(37, 44).
edge(33, 37).
edge(17, 19).
edge(39, 143).
edge(58, 124).
edge(13, 149).
edge(69, 121).
edge(54, 137).
edge(8, 143).
edge(68, 145).
edge(109, 143).
edge(6, 116).
edge(115, 144).
edge(3, 124).
edge(43, 148).
edge(36, 49).
edge(61, 78).
edge(57, 98).
edge(17, 48).
edge(73, 96).
edge(24, 128).
edge(40, 66).
edge(75, 103).
edge(18, 56).
edge(21, 110).
edge(42, 131).
edge(58, 90).
edge(2, 62).
edge(79, 135).
edge(58, 106).
edge(41, 93).
edge(93, 132).
edge(86, 144).
edge(85, 87).
edge(26, 83).
edge(48, 119).
edge(7, 95).
edge(37, 75).
edge(6, 120).
edge(54, 55).
edge(1, 49).
edge(107, 113).
edge(0, 52).
edge(26, 50).
edge(146, 148).
edge(101, 134).
edge(3, 67).
edge(10, 95).
edge(104, 111).
edge(40, 88).
edge(107, 111).
edge(41, 105).
edge(43, 128).
edge(49, 61).
edge(59, 77).
edge(17, 74).
edge(3, 131).
edge(4, 86).
edge(55, 125).
edge(0, 137).
edge(48, 70).
edge(107, 143).
edge(20, 141).
edge(4, 18).
edge(22, 50).
edge(46, 114).
edge(3, 25).
edge(60, 81).
edge(0, 97).
edge(48, 110).
edge(92, 114).
edge(78, 138).
edge(54, 97).
edge(66, 93).
edge(57, 99).
edge(36, 94).
edge(34, 82).
edge(25, 77).
edge(23, 25).
edge(38, 103).
edge(94, 117).
edge(10, 136).
edge(15, 93).
edge(5, 51).
edge(33, 91).
edge(96, 112).
edge(101, 114).
edge(80, 84).
edge(63, 145).
edge(113, 144).
edge(36, 92).
edge(95, 138).
edge(22, 45).
edge(99, 136).
edge(32, 129).
edge(36, 89).
edge(6, 25).
edge(33, 59).
edge(51, 52).
edge(67, 83).
edge(74, 97).
edge(13, 97).
edge(87, 141).
edge(34, 67).
edge(38, 109).
edge(17, 98).
edge(31, 73).
edge(65, 92).
edge(39, 148).
edge(13, 52).
edge(29, 71).
edge(75, 95).
edge(44, 71).
edge(10, 119).
edge(3, 92).
edge(36, 82).
edge(16, 79).
edge(14, 116).
edge(23, 42).
edge(17, 33).
edge(86, 126).
edge(22, 84).
edge(64, 94).
edge(38, 129).
edge(42, 67).
edge(11, 71).
edge(79, 105).
edge(102, 120).
edge(18, 93).
edge(82, 98).
edge(30, 67).
edge(17, 73).
edge(25, 36).
edge(63, 133).
edge(43, 83).
edge(68, 133).
edge(125, 141).
edge(16, 58).
edge(114, 147).
edge(21, 41).
edge(119, 143).
edge(6, 123).
edge(12, 94).
edge(43, 126).
edge(43, 62).
edge(17, 124).
edge(52, 131).
edge(85, 100).
edge(29, 144).
edge(88, 146).
edge(67, 108).
edge(105, 139).
edge(51, 74).
edge(92, 131).
edge(26, 43).
edge(100, 140).
edge(19, 48).
edge(44, 80).
edge(24, 122).
edge(48, 128).
edge(62, 134).
edge(89, 118).
edge(69, 107).
edge(6, 87).
edge(17, 121).
edge(3, 42).
edge(0, 76).
edge(3, 61).
edge(24, 60).
edge(14, 71).
edge(77, 147).
edge(51, 144).
edge(4, 40).
edge(21, 127).
edge(103, 119).
edge(4, 68).
edge(48, 125).
edge(56, 133).
edge(108, 146).
edge(67, 123).
edge(73, 138).
edge(133, 140).
edge(33, 136).
edge(90, 124).
edge(45, 108).
edge(52, 129).
edge(100, 113).
edge(59, 76).
edge(120, 134).
edge(90, 143).
edge(33, 60).
edge(57, 66).
edge(19, 109).
edge(19, 108).
edge(19, 138).
edge(20, 51).
edge(42, 111).
edge(56, 98).
edge(40, 52).
edge(13, 131).
edge(27, 60).
edge(97, 144).
edge(8, 136).
edge(117, 148).
edge(12, 33).
edge(9, 54).
edge(98, 99).
edge(61, 114).
edge(102, 125).
edge(0, 133).
edge(0, 12).
edge(3, 120).
edge(65, 108).
edge(17, 110).
edge(45, 58).
edge(13, 55).
edge(12, 138).
edge(74, 104).
edge(134, 141).
edge(136, 140).
edge(78, 88).
edge(16, 85).
edge(25, 145).
edge(15, 118).
edge(115, 122).
edge(50, 53).
edge(9, 36).
edge(4, 88).
edge(18, 34).
edge(48, 95).
edge(54, 138).
edge(95, 126).
edge(81, 132).
edge(90, 107).
edge(26, 97).
edge(122, 124).
edge(43, 120).
edge(4, 27).
edge(34, 113).
edge(109, 125).
edge(47, 108).
edge(30, 124).
edge(1, 7).
edge(41, 135).
edge(57, 76).
edge(0, 26).
edge(14, 30).
edge(38, 116).
edge(8, 26).
edge(45, 73).
edge(83, 124).
edge(12, 123).
edge(11, 100).
edge(66, 84).
edge(72, 97).
edge(96, 110).
edge(10, 36).
edge(3, 96).
edge(76, 124).
edge(41, 143).
edge(13, 38).
edge(49, 94).
edge(46, 116).
edge(50, 128).
edge(39, 134).
edge(49, 73).
edge(31, 77).
edge(29, 146).
edge(115, 136).
edge(50, 92).
edge(39, 49).
edge(40, 61).
edge(21, 30).
edge(60, 123).
edge(12, 64).
edge(11, 78).
edge(46, 50).
edge(10, 37).
edge(32, 85).
edge(78, 136).
edge(48, 122).
edge(89, 104).
edge(37, 146).
edge(27, 36).
edge(47, 124).
edge(95, 98).
edge(55, 127).
edge(20, 119).
edge(60, 78).
edge(120, 123).
edge(80, 97).
edge(81, 150).
edge(133, 148).
edge(23, 139).
edge(108, 124).
edge(46, 93).
edge(13, 68).
edge(21, 86).
edge(83, 110).
edge(60, 146).
edge(98, 129).
edge(27, 71).
edge(30, 55).
edge(24, 77).
edge(58, 100).
edge(23, 79).
edge(18, 121).
edge(28, 43).
edge(44, 68).
edge(94, 107).
edge(102, 142).
edge(26, 122).
edge(118, 132).
edge(65, 113).
edge(34, 77).
edge(56, 58).
edge(32, 45).
edge(13, 46).
edge(52, 60).
edge(134, 142).
edge(26, 76).
edge(63, 103).
edge(19, 75).
edge(83, 118).
edge(113, 117).
edge(60, 110).
edge(106, 132).
edge(2, 72).
edge(38, 135).
edge(83, 149).
edge(30, 34).
edge(105, 123).
edge(38, 66).
edge(68, 89).
edge(31, 54).
edge(10, 12).
edge(77, 85).
edge(74, 129).
edge(3, 55).
edge(109, 147).
edge(10, 89).
edge(19, 142).
edge(71, 129).
edge(128, 150).
edge(130, 134).
edge(4, 38).
edge(14, 112).
edge(46, 67).
edge(128, 139).
edge(81, 115).
edge(12, 135).
edge(15, 64).
edge(36, 124).
edge(83, 105).
edge(9, 105).
edge(51, 145).
edge(2, 145).
edge(8, 51).
edge(112, 131).
edge(0, 95).
edge(10, 93).
edge(70, 128).
edge(52, 89).
edge(127, 128).
edge(56, 84).
edge(24, 83).
edge(7, 58).
edge(63, 68).
edge(9, 143).
edge(8, 130).
edge(73, 125).
edge(80, 125).
edge(22, 135).
edge(86, 110).
edge(61, 106).
edge(1, 131).
edge(36, 73).
edge(32, 67).
edge(110, 118).
edge(7, 80).
edge(83, 144).
edge(15, 55).
edge(109, 148).
edge(55, 148).
edge(128, 137).
edge(12, 99).
edge(22, 78).
edge(58, 84).
edge(49, 87).
edge(90, 134).
edge(15, 125).
edge(31, 147).
edge(8, 27).
edge(85, 97).
edge(127, 135).
edge(91, 107).
edge(17, 29).
edge(130, 144).
edge(69, 146).
edge(23, 84).
edge(112, 142).
edge(61, 150).
edge(8, 103).
edge(17, 40).
edge(99, 116).
edge(56, 125).
edge(101, 150).
edge(80, 113).
edge(6, 61).
edge(75, 132).
edge(34, 105).
edge(18, 112).
edge(23, 103).
edge(37, 127).
edge(22, 47).
edge(82, 123).
edge(69, 94).
edge(107, 148).
edge(71, 122).
edge(78, 111).
edge(15, 119).
edge(51, 113).
edge(29, 121).
edge(18, 78).
edge(45, 57).
edge(3, 122).
edge(86, 129).
edge(37, 129).
edge(10, 44).
edge(70, 139).
edge(2, 85).
edge(22, 109).
edge(19, 94).
edge(67, 94).
edge(65, 117).
edge(114, 123).
edge(5, 27).
edge(108, 132).
edge(109, 149).
edge(40, 131).
edge(70, 148).
edge(85, 120).
edge(72, 141).
edge(2, 99).
edge(51, 132).
edge(110, 144).
edge(82, 106).
edge(4, 103).
edge(29, 62).
edge(52, 90).
edge(53, 128).
edge(59, 70).
edge(19, 120).
edge(123, 126).
edge(82, 134).
edge(100, 122).
edge(15, 25).
edge(45, 136).
edge(33, 141).
edge(70, 100).
edge(62, 90).
edge(19, 116).
edge(28, 115).
edge(61, 136).
edge(74, 102).
edge(18, 88).
edge(41, 108).
edge(9, 133).
edge(76, 93).
edge(0, 69).
edge(72, 127).
edge(27, 57).
edge(39, 125).
edge(3, 65).
edge(41, 74).
edge(7, 84).
edge(29, 51).
edge(64, 133).
edge(106, 124).
edge(95, 133).
edge(7, 37).
edge(55, 126).
edge(1, 30).
edge(14, 105).
edge(51, 79).
edge(0, 147).
edge(9, 85).
edge(44, 59).
edge(24, 72).
edge(25, 41).
edge(47, 111).
edge(61, 143).
edge(53, 105).
edge(80, 82).
edge(3, 114).
edge(103, 104).
edge(68, 147).
edge(144, 149).
edge(140, 148).
edge(39, 47).
edge(9, 26).
edge(75, 86).
edge(11, 91).
edge(75, 81).
edge(0, 31).
edge(25, 129).
edge(20, 110).
edge(47, 53).
edge(20, 130).
edge(18, 80).
edge(23, 106).
edge(86, 139).
edge(68, 90).
edge(13, 41).
edge(108, 111).
edge(37, 132).
edge(13, 118).
edge(28, 50).
edge(30, 134).
edge(44, 112).
edge(65, 111).
edge(52, 120).
edge(68, 115).
edge(30, 135).
edge(12, 46).
edge(40, 49).
edge(37, 111).
edge(18, 67).
edge(76, 135).
edge(42, 145).
edge(2, 147).
edge(6, 92).
edge(47, 57).
edge(38, 99).
edge(68, 69).
edge(63, 135).
edge(97, 108).
edge(65, 78).
edge(0, 122).
edge(91, 116).
edge(41, 49).
edge(36, 132).
edge(6, 83).
edge(105, 111).
edge(74, 140).
edge(64, 130).
edge(61, 122).
edge(96, 98).
edge(67, 138).
edge(66, 122).
edge(28, 49).
edge(68, 134).
edge(15, 148).
edge(118, 130).
edge(9, 55).
edge(41, 132).
edge(75, 113).
edge(113, 119).
edge(94, 95).
edge(33, 65).
edge(2, 101).
edge(24, 150).
edge(48, 106).
edge(139, 150).
edge(18, 133).
edge(45, 95).
edge(78, 80).
edge(46, 113).
edge(112, 125).
edge(64, 150).
edge(42, 61).
edge(18, 150).
edge(57, 59).
edge(70, 145).
edge(116, 139).
edge(15, 68).
edge(47, 123).
edge(4, 23).
edge(47, 63).
edge(99, 120).
edge(72, 121).
edge(30, 36).
edge(7, 117).
edge(5, 95).
edge(35, 103).
edge(1, 14).
edge(62, 135).
edge(47, 55).
edge(52, 144).
edge(0, 1).
edge(79, 91).
edge(80, 112).
edge(85, 148).
edge(23, 61).
edge(35, 52).
edge(44, 77).
edge(38, 52).
edge(53, 113).
edge(51, 94).
edge(9, 111).
edge(117, 135).
edge(7, 78).
edge(14, 29).
edge(12, 66).
edge(104, 132).
edge(58, 95).
edge(14, 17).
edge(114, 131).
edge(5, 15).
edge(59, 73).
edge(25, 39).
edge(87, 126).
edge(75, 110).
edge(32, 78).
edge(55, 89).
edge(48, 140).
edge(82, 108).
edge(53, 102).
edge(32, 121).
edge(62, 118).
edge(97, 111).
edge(27, 114).
edge(4, 110).
edge(62, 150).
edge(10, 28).
edge(127, 136).
edge(138, 145).
edge(21, 115).
edge(15, 138).
edge(41, 98).
edge(133, 136).
edge(100, 111).
edge(38, 94).
edge(46, 55).
edge(19, 81).
edge(32, 136).
edge(32, 60).
edge(91, 95).
edge(97, 138).
edge(47, 67).
edge(97, 145).
edge(77, 110).
edge(46, 95).
edge(110, 146).
edge(64, 147).
edge(21, 112).
edge(60, 94).
edge(103, 118).
edge(56, 122).
edge(39, 52).
edge(67, 132).
edge(0, 124).
edge(24, 137).
edge(5, 147).
edge(90, 120).
edge(51, 93).
edge(50, 131).
edge(22, 125).
edge(7, 145).
edge(14, 57).
edge(35, 42).
edge(36, 129).
edge(30, 72).
edge(80, 131).
edge(1, 23).
edge(41, 44).
edge(93, 138).
edge(40, 137).
edge(86, 95).
edge(17, 95).
edge(52, 140).
edge(25, 53).
edge(23, 75).
edge(18, 119).
edge(133, 138).
edge(65, 84).
edge(100, 109).
edge(25, 114).
edge(19, 96).
edge(30, 108).
edge(47, 114).
edge(81, 91).
edge(4, 132).
edge(75, 88).
edge(4, 67).
edge(35, 88).
edge(137, 148).
edge(79, 121).
edge(11, 34).
edge(47, 119).
edge(37, 110).
edge(65, 85).
edge(44, 92).
edge(96, 140).
edge(20, 135).
edge(58, 91).
edge(32, 140).
edge(59, 141).
edge(6, 135).
edge(108, 118).
edge(47, 52).
edge(28, 52).
edge(42, 150).
edge(10, 57).
edge(0, 88).
edge(27, 56).
edge(37, 102).
edge(59, 147).
edge(36, 63).
edge(138, 141).
edge(11, 92).
edge(33, 134).
edge(0, 134).
edge(30, 83).
edge(7, 51).
edge(64, 67).
edge(1, 17).
edge(23, 89).
edge(118, 147).
edge(13, 127).
edge(25, 110).
edge(94, 116).
edge(9, 148).
edge(114, 124).
edge(97, 148).
edge(10, 94).
edge(17, 78).
edge(29, 45).
edge(119, 144).
edge(67, 75).
edge(40, 91).
edge(44, 138).
edge(58, 144).
edge(56, 130).
edge(38, 47).
edge(3, 109).
edge(99, 129).
edge(62, 95).
edge(44, 100).
edge(75, 105).
edge(107, 120).
edge(18, 73).
edge(37, 97).
edge(26, 107).
edge(34, 43).
edge(4, 105).
edge(51, 127).
edge(36, 135).
edge(61, 88).
edge(44, 90).
edge(127, 140).
edge(104, 113).
edge(116, 125).
edge(116, 146).
edge(27, 126).
edge(11, 51).
edge(131, 132).
edge(57, 75).
edge(26, 90).
edge(1, 6).
edge(8, 71).
edge(59, 67).
edge(58, 129).
edge(120, 136).
edge(19, 88).
edge(20, 22).
edge(62, 70).
edge(13, 35).
edge(70, 86).
edge(10, 108).
edge(64, 106).
edge(6, 139).
edge(51, 118).
edge(23, 93).
edge(6, 39).
edge(0, 36).
edge(10, 70).
edge(0, 68).
edge(65, 70).
edge(19, 54).
edge(70, 95).
edge(5, 65).
edge(47, 110).
edge(28, 65).
edge(1, 115).
edge(45, 75).
edge(90, 123).
edge(68, 117).
edge(33, 61).
edge(90, 103).
edge(9, 60).
edge(40, 63).
edge(66, 68).
edge(8, 149).
edge(46, 115).
edge(72, 100).
edge(72, 79).
edge(24, 116).
edge(14, 106).
edge(78, 110).
edge(43, 132).
edge(73, 89).
edge(121, 123).
edge(55, 112).
edge(59, 136).
edge(111, 133).
edge(6, 48).
edge(14, 102).
edge(105, 128).
edge(53, 60).
edge(50, 104).
edge(103, 145).
edge(39, 40).
edge(98, 117).
edge(56, 66).
edge(94, 111).
edge(13, 47).
edge(23, 33).
edge(30, 127).
edge(10, 135).
edge(68, 144).
edge(53, 141).
edge(76, 127).
edge(21, 99).
edge(0, 75).
edge(97, 102).
edge(5, 134).
edge(90, 109).
edge(67, 124).
edge(10, 112).
edge(89, 90).
edge(27, 124).
edge(14, 23).
edge(88, 101).
edge(27, 41).
edge(6, 129).
edge(38, 96).
edge(34, 57).
edge(7, 44).
edge(147, 149).
edge(24, 135).
edge(73, 118).
edge(24, 50).
edge(68, 148).
edge(17, 39).
edge(0, 28).
edge(70, 142).
edge(61, 103).
edge(29, 101).
edge(109, 116).
edge(7, 124).
edge(23, 104).
edge(96, 145).
edge(121, 133).
edge(33, 140).
edge(56, 127).
edge(79, 101).
edge(2, 100).
edge(87, 113).
edge(108, 123).
edge(33, 106).
edge(51, 61).
edge(35, 39).
edge(75, 142).
edge(36, 103).
edge(33, 147).
edge(37, 86).
edge(94, 138).
edge(54, 81).
edge(12, 118).
edge(32, 75).
edge(113, 116).
edge(53, 108).
edge(51, 143).
edge(9, 83).
edge(84, 125).
edge(28, 45).
edge(52, 98).
edge(38, 148).
edge(81, 119).
edge(2, 31).
edge(30, 90).
edge(80, 140).
edge(43, 101).
edge(38, 57).
edge(64, 100).
edge(24, 141).
edge(86, 87).
edge(23, 128).
edge(93, 140).
edge(99, 147).
edge(92, 144).
edge(68, 75).
edge(95, 130).
edge(40, 126).
edge(4, 141).
edge(78, 96).
edge(49, 107).
edge(132, 135).
edge(47, 84).
edge(73, 92).
edge(82, 128).
edge(44, 114).
edge(43, 56).
edge(17, 111).
edge(67, 82).
edge(23, 66).
edge(64, 95).
edge(33, 111).
edge(1, 97).
edge(86, 131).
edge(31, 71).
edge(73, 109).
edge(32, 72).
edge(76, 115).
edge(119, 146).
edge(34, 108).
edge(32, 141).
edge(93, 99).
edge(27, 105).
edge(77, 148).
edge(23, 108).
edge(35, 65).
edge(94, 120).
edge(33, 119).
edge(66, 86).
edge(17, 96).
edge(36, 88).
edge(40, 144).
edge(13, 28).
edge(5, 43).
edge(69, 109).
edge(36, 144).
edge(0, 55).
edge(15, 117).
edge(56, 97).
edge(25, 75).
edge(48, 63).
edge(95, 110).
edge(25, 108).
edge(19, 30).
edge(40, 143).
edge(80, 147).
edge(70, 146).
edge(103, 107).
edge(70, 112).
edge(44, 107).
edge(8, 67).
edge(84, 91).
edge(5, 39).
edge(25, 122).
edge(59, 140).
edge(128, 146).
edge(71, 90).
edge(36, 133).
edge(54, 68).
edge(40, 99).
edge(62, 103).
edge(23, 107).
edge(21, 122).
edge(85, 118).
edge(89, 107).
edge(89, 103).
edge(92, 111).
edge(12, 143).
edge(117, 118).
edge(88, 129).
edge(40, 150).
edge(36, 130).
edge(97, 123).
edge(6, 100).
edge(30, 141).
edge(52, 86).
edge(89, 143).
edge(124, 135).
edge(114, 137).
edge(112, 114).
edge(64, 125).
edge(114, 140).
edge(78, 131).
edge(52, 115).
edge(48, 121).
edge(27, 54).
edge(16, 18).
edge(49, 66).
edge(134, 138).
edge(94, 148).
edge(71, 94).
edge(51, 105).
edge(42, 138).
edge(73, 131).
edge(68, 77).
edge(35, 114).
edge(62, 91).
edge(12, 70).
edge(31, 101).
edge(60, 64).
edge(6, 34).
edge(125, 147).
edge(65, 119).
edge(43, 115).
edge(85, 104).
edge(27, 50).
edge(8, 17).
edge(81, 86).
edge(66, 120).
edge(32, 126).
edge(118, 141).
edge(118, 144).
edge(22, 49).
edge(98, 136).
edge(7, 23).
edge(28, 111).
edge(42, 93).
edge(22, 31).
edge(64, 84).
edge(21, 103).
edge(1, 133).
edge(34, 111).
edge(28, 108).
edge(44, 78).
edge(48, 68).
edge(106, 110).
edge(103, 130).
edge(132, 139).
edge(119, 150).
edge(97, 107).
edge(92, 148).
edge(26, 139).
edge(54, 106).
edge(14, 41).
edge(19, 106).
edge(16, 64).
edge(64, 140).
edge(85, 144).
edge(27, 74).
edge(64, 83).
edge(89, 149).
edge(9, 78).
edge(15, 42).
edge(54, 90).
edge(8, 111).
edge(43, 81).
edge(66, 73).
edge(62, 65).
edge(19, 69).
edge(67, 93).
edge(88, 111).
edge(54, 64).
edge(59, 102).
edge(98, 119).
edge(37, 60).
edge(87, 98).
edge(15, 60).
edge(79, 104).
edge(74, 122).
edge(34, 73).
edge(28, 113).
edge(16, 83).
edge(61, 77).
edge(20, 91).
edge(40, 125).
edge(4, 130).
edge(95, 134).
edge(46, 136).
edge(84, 136).
edge(129, 135).
edge(69, 128).
edge(33, 92).
edge(117, 119).
edge(129, 134).
edge(26, 72).
edge(104, 117).
edge(49, 100).
edge(21, 147).
edge(6, 59).
edge(122, 138).
edge(53, 146).
edge(30, 110).
edge(16, 94).
edge(18, 147).
edge(36, 83).
edge(9, 103).
edge(61, 115).
edge(24, 92).
edge(31, 144).
edge(85, 113).
edge(116, 128).
edge(21, 52).
edge(1, 124).
edge(63, 104).
edge(89, 100).
edge(8, 110).
edge(63, 112).
edge(54, 104).
edge(102, 119).
edge(13, 75).
edge(24, 76).
edge(9, 38).
edge(22, 126).
edge(75, 130).
edge(9, 112).
edge(91, 135).
edge(126, 137).
edge(28, 58).
edge(46, 91).
edge(51, 111).
edge(9, 123).
edge(17, 50).
edge(82, 147).
edge(35, 97).
edge(27, 38).
edge(48, 57).
edge(106, 108).
edge(13, 17).
edge(24, 125).
edge(106, 146).
edge(62, 111).
edge(43, 114).
edge(39, 50).
edge(54, 136).
edge(112, 117).
edge(73, 77).
edge(49, 112).
edge(60, 134).
edge(17, 136).
edge(68, 112).
edge(53, 67).
edge(8, 142).
edge(3, 66).
edge(63, 117).
edge(53, 78).
edge(97, 118).
edge(61, 134).
edge(9, 46).
edge(67, 78).
edge(5, 22).
edge(85, 86).
edge(81, 129).
edge(66, 97).
edge(23, 124).
edge(25, 133).
edge(22, 138).
edge(0, 74).
edge(20, 39).
edge(91, 138).
edge(17, 53).
edge(67, 112).
edge(2, 140).
edge(109, 114).
edge(34, 130).
edge(104, 138).
edge(90, 115).
edge(85, 108).
edge(91, 102).
edge(58, 77).
edge(26, 91).
edge(15, 97).
edge(9, 98).
edge(41, 63).
edge(57, 129).
edge(16, 128).
edge(98, 105).
edge(11, 101).
edge(126, 143).
edge(12, 88).
edge(34, 93).
edge(129, 144).
edge(24, 38).
edge(29, 82).
edge(73, 95).
edge(5, 75).
edge(1, 147).
edge(19, 141).
edge(16, 27).
edge(20, 121).
edge(114, 127).
edge(29, 88).
edge(32, 66).
edge(104, 116).
edge(29, 70).
edge(71, 73).
edge(21, 143).
edge(85, 125).
edge(50, 137).
edge(21, 119).
edge(31, 52).
edge(99, 137).
edge(19, 93).
edge(41, 70).
edge(132, 150).
edge(92, 94).
edge(13, 106).
edge(83, 95).
edge(116, 119).
edge(73, 111).
edge(112, 119).
edge(51, 107).
edge(104, 149).
edge(42, 91).
edge(12, 116).
edge(6, 70).
edge(7, 99).
edge(33, 77).
edge(60, 141).
edge(24, 75).
edge(21, 118).
edge(10, 75).
edge(2, 134).
edge(128, 140).
edge(17, 71).
edge(120, 121).
edge(57, 125).
edge(74, 90).
edge(39, 93).
edge(74, 134).
edge(14, 144).
edge(68, 126).
edge(62, 97).
edge(104, 106).
edge(33, 57).
edge(114, 150).
edge(76, 91).
edge(112, 124).
edge(29, 53).
edge(67, 71).
edge(9, 29).
edge(24, 57).
edge(23, 38).
edge(40, 73).
edge(24, 64).
edge(80, 105).
edge(47, 50).
edge(107, 129).
edge(18, 81).
edge(24, 114).
edge(78, 101).
edge(14, 51).
edge(34, 125).
edge(11, 143).
edge(84, 126).
edge(41, 126).
edge(14, 62).
edge(33, 90).
edge(67, 135).
edge(41, 77).
edge(38, 136).
edge(6, 16).
edge(39, 77).
edge(69, 132).
edge(26, 118).
edge(32, 119).
edge(83, 130).
edge(14, 148).
edge(58, 71).
edge(12, 29).
edge(130, 145).
edge(8, 63).
edge(27, 125).
edge(88, 119).
edge(55, 90).
edge(65, 129).
edge(19, 83).
edge(63, 150).
edge(3, 75).
edge(33, 137).
edge(88, 150).
edge(69, 91).
edge(38, 142).
edge(72, 131).
edge(123, 148).
edge(31, 48).
edge(44, 108).
edge(14, 125).
edge(34, 41).
edge(116, 142).
edge(58, 113).
edge(38, 46).
edge(27, 79).
edge(78, 129).
edge(36, 128).
edge(22, 72).
edge(81, 111).
edge(10, 85).
edge(88, 98).
edge(127, 131).
edge(59, 118).
edge(8, 117).
edge(57, 118).
edge(24, 146).
edge(64, 85).
edge(22, 116).
edge(10, 121).
edge(110, 114).
edge(108, 122).
edge(47, 148).
edge(6, 131).
edge(66, 75).
edge(23, 149).
edge(14, 87).
edge(4, 81).
edge(47, 78).
edge(45, 140).
edge(12, 128).
edge(2, 8).
edge(11, 90).
edge(26, 130).
edge(23, 114).
edge(22, 137).
edge(48, 118).
edge(62, 71).
edge(10, 142).
edge(49, 143).
edge(37, 56).
edge(87, 136).
edge(18, 120).
edge(83, 96).
edge(111, 118).
edge(25, 66).
edge(96, 124).
edge(26, 135).
edge(50, 121).
edge(51, 109).
edge(18, 115).
edge(4, 45).
edge(27, 32).
edge(18, 113).
edge(117, 150).
edge(37, 62).
edge(7, 75).
edge(8, 83).
edge(48, 104).
edge(5, 115).
edge(3, 29).
edge(5, 91).
edge(96, 116).
edge(27, 120).
edge(35, 124).
edge(24, 84).
edge(7, 139).
edge(116, 130).
edge(23, 24).
edge(29, 44).
edge(67, 70).
edge(12, 73).
edge(13, 23).
edge(9, 52).
edge(66, 116).
edge(38, 45).
edge(29, 127).
edge(84, 131).
edge(33, 98).
edge(100, 106).
edge(66, 115).
edge(8, 58).
edge(123, 146).
edge(32, 147).
edge(15, 104).
edge(26, 132).
edge(91, 137).
edge(44, 118).
edge(72, 128).
edge(23, 69).
edge(4, 26).
edge(30, 129).
edge(106, 112).
edge(10, 98).
edge(78, 105).
edge(1, 63).
edge(35, 92).
edge(36, 150).
edge(52, 53).
edge(101, 132).
edge(26, 120).
edge(77, 115).
edge(34, 102).
edge(83, 102).
edge(0, 138).
edge(82, 126).
edge(94, 109).
edge(62, 80).
edge(20, 59).
edge(53, 98).
edge(21, 78).
edge(63, 78).
edge(76, 126).
edge(2, 139).
edge(86, 100).
edge(101, 126).
edge(30, 45).
edge(96, 106).
edge(82, 114).
edge(109, 132).
edge(51, 128).
edge(30, 53).
edge(29, 73).
edge(77, 116).
edge(48, 100).
edge(53, 133).
edge(86, 132).
edge(106, 148).
edge(53, 101).
edge(68, 79).
edge(138, 142).
edge(70, 88).
edge(111, 116).
edge(139, 144).
edge(39, 66).
edge(26, 51).
edge(68, 71).
edge(37, 113).
edge(88, 113).
edge(41, 97).
edge(79, 87).
edge(63, 129).
edge(54, 105).
edge(42, 112).
edge(13, 42).
edge(26, 119).
edge(45, 63).
edge(106, 139).
edge(33, 73).
edge(50, 142).
edge(9, 132).
edge(53, 120).
edge(45, 125).
edge(72, 129).
edge(14, 85).
edge(2, 86).
edge(21, 106).
edge(124, 139).
edge(31, 61).
edge(64, 113).
edge(125, 146).
edge(4, 59).
edge(84, 99).
edge(57, 96).
edge(62, 87).
edge(15, 73).
edge(55, 61).
edge(23, 131).
edge(27, 46).
edge(1, 135).
edge(52, 59).
edge(56, 68).
edge(51, 72).
edge(44, 50).
edge(25, 138).
edge(95, 101).
edge(41, 59).
edge(45, 60).
edge(54, 143).
edge(50, 101).
edge(15, 63).
edge(15, 128).
edge(121, 122).
edge(64, 142).
edge(17, 47).
edge(109, 150).
edge(122, 127).
edge(18, 77).
edge(14, 50).
edge(13, 15).
edge(21, 90).
edge(49, 53).
edge(9, 97).
edge(139, 142).
edge(66, 129).
edge(68, 111).
edge(48, 139).
edge(17, 80).
edge(49, 51).
edge(104, 121).
edge(16, 109).
edge(51, 96).
edge(62, 89).
edge(14, 79).
edge(92, 125).
edge(40, 55).
edge(43, 47).
edge(29, 63).
edge(117, 125).
edge(105, 119).
edge(67, 96).
edge(21, 128).
edge(78, 145).
edge(38, 61).
edge(75, 93).
edge(38, 56).
edge(6, 68).
edge(33, 116).
edge(32, 69).
edge(0, 85).
edge(100, 123).
edge(80, 136).
edge(68, 143).
edge(60, 124).
edge(51, 102).
edge(79, 109).
edge(22, 105).
edge(3, 147).
edge(31, 46).
edge(58, 119).
edge(16, 126).
edge(24, 29).
edge(85, 96).
edge(46, 121).
edge(55, 141).
edge(2, 55).
edge(43, 98).
edge(33, 93).
edge(126, 129).
edge(0, 54).
edge(49, 52).
edge(9, 14).
edge(104, 110).
edge(28, 86).
edge(2, 96).
edge(3, 100).
edge(45, 111).
edge(56, 88).
edge(53, 63).
edge(108, 137).
edge(96, 123).
edge(72, 81).
edge(52, 126).
edge(95, 113).
edge(34, 91).
edge(48, 80).
edge(51, 71).
edge(33, 123).
edge(116, 138).
edge(98, 149).
edge(99, 123).
edge(119, 136).
edge(110, 128).
edge(68, 93).
edge(62, 109).
edge(5, 113).
edge(46, 124).
edge(15, 22).
edge(77, 86).
edge(60, 137).
edge(7, 42).
edge(101, 138).
edge(5, 132).
edge(14, 69).
edge(63, 139).
edge(50, 114).
edge(65, 76).
edge(2, 98).
edge(114, 133).
edge(44, 131).
edge(37, 126).
edge(72, 142).
edge(1, 13).
edge(2, 19).
edge(30, 87).
edge(44, 96).
edge(51, 66).
edge(66, 92).
edge(74, 96).
edge(67, 116).
edge(88, 130).
edge(62, 108).
edge(96, 144).
edge(8, 42).
edge(99, 108).
edge(73, 115).
edge(25, 104).
edge(10, 38).
edge(12, 117).
edge(11, 63).
edge(4, 139).
edge(18, 146).
edge(50, 150).
edge(36, 104).
edge(26, 42).
edge(42, 127).
edge(33, 62).
edge(39, 137).
edge(64, 132).
edge(13, 117).
edge(55, 68).
edge(47, 69).
edge(105, 127).
edge(114, 130).
edge(76, 83).
edge(101, 124).
edge(63, 101).
edge(29, 134).
edge(140, 141).
edge(111, 124).
edge(17, 114).
edge(87, 114).
edge(6, 118).
edge(88, 126).
edge(24, 81).
edge(63, 81).
edge(33, 101).
edge(47, 146).
edge(27, 68).
edge(110, 126).
edge(39, 117).
edge(53, 103).
edge(127, 142).
edge(89, 137).
edge(128, 149).
edge(0, 93).
edge(52, 80).
edge(81, 113).
edge(36, 146).
edge(12, 14).
edge(40, 98).
edge(55, 149).
edge(36, 134).
edge(48, 82).
edge(21, 74).
edge(78, 132).
edge(22, 44).
edge(13, 84).
edge(66, 148).
edge(1, 26).
edge(74, 139).
edge(10, 22).
edge(2, 65).
edge(66, 146).
edge(56, 92).
edge(73, 123).
edge(15, 40).
edge(3, 107).
edge(33, 41).
edge(35, 83).
edge(71, 117).
edge(7, 126).
edge(51, 130).
edge(63, 116).
edge(89, 126).
edge(113, 149).
edge(23, 59).
edge(128, 145).
edge(104, 112).
edge(13, 26).
edge(45, 74).
edge(53, 83).
edge(84, 118).
edge(59, 72).
edge(17, 72).
edge(114, 144).
edge(31, 32).
edge(32, 102).
edge(79, 128).
edge(54, 56).
edge(19, 57).
edge(13, 145).
edge(97, 124).
edge(14, 20).
edge(36, 57).
edge(106, 109).
edge(53, 89).
edge(8, 77).
edge(70, 130).
edge(73, 132).
edge(136, 148).
edge(123, 141).
edge(30, 31).
edge(45, 113).
edge(45, 92).
edge(4, 128).
edge(66, 134).
edge(87, 115).
edge(74, 107).
edge(89, 131).
edge(32, 93).
edge(26, 75).
edge(110, 125).
edge(65, 96).
edge(5, 70).
edge(46, 75).
edge(10, 40).
edge(5, 60).
edge(94, 96).
edge(24, 62).
edge(17, 132).
edge(14, 149).
edge(93, 122).
edge(86, 114).
edge(82, 87).
edge(59, 87).
edge(86, 121).
edge(54, 116).
edge(63, 86).
edge(1, 16).
edge(5, 150).
edge(73, 112).
edge(31, 59).
edge(87, 117).
edge(105, 138).
edge(84, 107).
edge(11, 105).
edge(110, 148).
edge(37, 46).
edge(18, 54).
edge(17, 31).
edge(10, 49).
edge(35, 37).
edge(14, 140).
edge(50, 83).
edge(20, 34).
edge(52, 79).
edge(76, 147).
edge(93, 101).
edge(84, 149).
edge(38, 100).
edge(90, 108).
edge(13, 141).
edge(12, 19).
edge(36, 107).
edge(12, 93).
edge(5, 47).
edge(15, 108).
edge(5, 122).
edge(86, 128).
edge(79, 137).
edge(21, 134).
edge(126, 148).
edge(37, 103).
edge(43, 65).
edge(68, 97).
edge(3, 70).
edge(39, 99).
edge(123, 140).
edge(35, 82).
edge(14, 64).
edge(20, 86).
edge(67, 129).
edge(74, 99).
edge(33, 38).
edge(66, 117).
edge(30, 132).
edge(14, 113).
edge(85, 105).
edge(81, 106).
edge(93, 142).
edge(62, 100).
edge(28, 89).
edge(5, 19).
edge(27, 104).
edge(11, 17).
edge(32, 58).
edge(25, 71).
edge(44, 93).
edge(76, 94).
edge(61, 64).
edge(12, 149).
edge(21, 142).
edge(42, 140).
edge(41, 89).
edge(22, 55).
edge(10, 29).
edge(12, 75).
edge(99, 148).
edge(48, 138).
edge(82, 107).
edge(90, 95).
edge(15, 69).
edge(94, 110).
edge(54, 78).
edge(69, 149).
edge(86, 102).
edge(36, 147).
edge(75, 107).
edge(1, 68).
edge(95, 111).
edge(31, 83).
edge(27, 112).
edge(4, 50).
edge(4, 127).
edge(27, 146).
edge(14, 25).
edge(15, 31).
edge(138, 146).
edge(57, 100).
edge(34, 143).
edge(116, 126).
edge(16, 100).
edge(69, 82).
edge(85, 130).
edge(2, 13).
edge(122, 150).
edge(2, 117).
edge(61, 135).
edge(39, 110).
edge(0, 115).
edge(41, 103).
edge(19, 24).
edge(73, 88).
edge(70, 71).
edge(110, 113).
edge(47, 139).
edge(3, 35).
edge(45, 130).
edge(19, 20).
edge(56, 116).
edge(42, 44).
edge(40, 94).
edge(109, 110).
edge(8, 125).
edge(119, 132).
edge(124, 149).
edge(0, 43).
edge(37, 108).
edge(49, 89).
edge(31, 123).
edge(32, 89).
edge(38, 85).
edge(86, 97).
edge(22, 136).
edge(20, 28).
edge(79, 98).
edge(113, 145).
edge(21, 44).
edge(0, 145).
edge(27, 59).
edge(10, 52).
edge(19, 71).
edge(64, 143).
edge(36, 43).
edge(7, 149).
edge(21, 89).
edge(3, 112).
edge(61, 81).
edge(65, 105).
edge(110, 116).
edge(60, 91).
edge(80, 145).
edge(4, 57).
edge(46, 111).
edge(16, 112).
edge(82, 86).
edge(26, 32).
edge(12, 48).
edge(90, 146).
edge(129, 143).
edge(61, 76).
edge(20, 36).
edge(130, 140).
edge(4, 39).
edge(55, 137).
edge(39, 136).
edge(76, 132).
edge(10, 147).
edge(78, 128).
edge(6, 11).
edge(68, 150).
edge(129, 149).
edge(51, 75).
edge(22, 61).
edge(60, 145).
edge(39, 123).
edge(48, 148).
edge(63, 110).
edge(28, 31).
edge(118, 122).
edge(1, 12).
edge(38, 71).
edge(2, 21).
edge(52, 143).
edge(65, 79).
edge(11, 33).
edge(74, 147).
edge(6, 12).
edge(2, 133).
edge(81, 105).
edge(112, 144).
edge(2, 78).
edge(77, 122).
edge(72, 109).
edge(66, 141).
edge(28, 64).
edge(73, 114).
edge(65, 143).
edge(3, 90).
edge(24, 100).
edge(27, 84).
edge(102, 106).
edge(56, 81).
edge(33, 75).
edge(22, 90).
edge(12, 34).
edge(86, 106).
edge(118, 129).
edge(50, 108).
edge(42, 119).
edge(9, 116).
edge(30, 49).
edge(18, 35).
edge(83, 128).
edge(96, 118).
edge(37, 51).
edge(138, 144).
edge(2, 51).
edge(19, 55).
edge(8, 80).
edge(8, 23).
edge(5, 103).
edge(31, 119).
edge(58, 109).
edge(18, 101).
edge(74, 120).
edge(47, 143).
edge(26, 98).
edge(26, 111).
edge(23, 72).
edge(1, 48).
edge(34, 146).
edge(58, 114).
edge(45, 46).
edge(142, 145).
edge(51, 122).
edge(13, 14).
edge(69, 135).
edge(10, 150).
edge(79, 86).
edge(135, 149).
edge(62, 114).
edge(21, 50).
edge(31, 97).
edge(59, 125).
edge(9, 58).
edge(39, 129).
edge(88, 116).
edge(18, 143).
edge(6, 73).
edge(12, 69).
edge(112, 139).
edge(89, 93).
edge(57, 107).
edge(14, 39).
edge(34, 48).
edge(64, 144).
edge(7, 104).
edge(19, 117).
edge(60, 66).
edge(45, 104).
edge(133, 139).
edge(111, 112).
edge(19, 148).
edge(30, 59).
edge(36, 108).
edge(82, 127).
edge(27, 65).
edge(32, 79).
edge(2, 6).
edge(20, 87).
edge(64, 110).
edge(98, 137).
edge(35, 78).
edge(41, 142).
edge(59, 98).
edge(55, 83).
edge(8, 39).
edge(42, 104).
edge(61, 72).
edge(58, 139).
edge(96, 139).
edge(4, 22).
edge(107, 149).
edge(2, 112).
edge(12, 101).
edge(136, 138).
edge(99, 104).
edge(52, 113).
edge(89, 106).
edge(14, 73).
edge(38, 64).
edge(54, 102).
edge(12, 140).
edge(16, 28).
edge(21, 149).
edge(36, 70).
edge(0, 121).
edge(11, 128).
edge(99, 128).
edge(34, 44).
edge(25, 98).
edge(15, 145).
edge(64, 128).
edge(38, 138).
edge(78, 98).
edge(117, 121).
edge(44, 81).
edge(57, 77).
edge(22, 98).
edge(44, 83).
edge(89, 112).
edge(24, 107).
edge(66, 102).
edge(45, 80).
edge(36, 81).
edge(1, 28).
edge(65, 103).
edge(50, 69).
edge(28, 32).
edge(9, 107).
edge(25, 132).
edge(74, 77).
edge(39, 61).
edge(87, 107).
edge(88, 96).
edge(75, 89).
edge(35, 133).
edge(71, 124).
edge(40, 59).
edge(100, 126).
edge(38, 60).
edge(80, 134).
edge(4, 29).
edge(72, 132).
edge(48, 97).
edge(98, 101).
edge(5, 67).
edge(75, 90).
edge(12, 32).
edge(36, 102).
edge(22, 127).
edge(2, 121).
edge(7, 13).
edge(30, 52).
edge(4, 79).
edge(100, 119).
edge(24, 119).
edge(68, 122).
edge(70, 115).
edge(110, 142).
edge(16, 23).
edge(41, 52).
edge(73, 119).
edge(27, 97).
edge(17, 137).
edge(14, 18).
edge(73, 80).
edge(63, 136).
edge(27, 63).
edge(77, 140).
edge(30, 62).
edge(32, 95).
edge(5, 100).
edge(70, 105).
edge(16, 75).
edge(1, 92).
edge(37, 144).
edge(0, 42).
edge(32, 52).
edge(62, 125).
edge(65, 104).
edge(46, 98).
edge(67, 142).
edge(14, 34).
edge(33, 130).
edge(28, 137).
edge(61, 91).
edge(85, 88).
edge(113, 140).
edge(30, 123).
edge(91, 143).
edge(93, 127).
edge(102, 124).
edge(44, 85).
edge(6, 9).
edge(82, 124).
edge(62, 132).
edge(31, 43).
edge(61, 73).
edge(8, 147).
edge(13, 109).
edge(32, 142).
edge(58, 101).
edge(60, 88).
edge(50, 149).
edge(77, 118).
edge(18, 76).
edge(29, 48).
edge(53, 110).
edge(61, 123).
edge(102, 107).
edge(18, 75).
edge(16, 38).
edge(39, 111).
edge(63, 88).
edge(92, 126).
edge(38, 139).
edge(68, 94).
edge(7, 33).
edge(40, 81).
edge(67, 102).
edge(10, 66).
edge(32, 111).
edge(13, 66).
edge(23, 121).
edge(4, 123).
edge(81, 122).
edge(49, 78).
edge(8, 144).
edge(17, 104).
edge(8, 41).
edge(17, 102).
edge(49, 91).
edge(28, 80).
edge(13, 31).
edge(133, 142).
edge(35, 118).
edge(11, 24).
edge(23, 36).
edge(76, 80).
edge(36, 106).
edge(3, 73).
edge(50, 88).
edge(28, 119).
edge(7, 118).
edge(29, 140).
edge(41, 133).
edge(17, 24).
edge(73, 141).
edge(28, 41).
edge(43, 44).
edge(47, 65).
edge(24, 88).
edge(63, 82).
edge(3, 148).
edge(19, 25).
edge(41, 58).
edge(12, 124).
edge(31, 105).
edge(90, 98).
edge(56, 107).
edge(118, 123).
edge(55, 132).
edge(40, 115).
edge(71, 144).
edge(28, 75).
edge(34, 64).
edge(11, 72).
edge(144, 147).
edge(77, 91).
edge(22, 60).
edge(79, 145).
edge(67, 91).
edge(11, 112).
edge(63, 92).
edge(79, 88).
edge(44, 51).
edge(111, 114).
edge(23, 43).
edge(30, 96).
edge(22, 67).
edge(80, 133).
edge(23, 68).
edge(64, 111).
edge(89, 136).
edge(53, 70).
edge(101, 149).
edge(47, 128).
edge(25, 27).
edge(11, 32).
edge(34, 79).
edge(21, 100).
edge(18, 61).
edge(4, 58).
edge(8, 16).
edge(42, 80).
edge(29, 111).
edge(62, 78).
edge(116, 129).
edge(23, 29).
edge(77, 117).
edge(72, 143).
edge(28, 42).
edge(38, 117).
edge(86, 99).
edge(67, 74).
edge(107, 110).
edge(28, 97).
edge(16, 136).
edge(29, 96).
edge(36, 118).
edge(16, 71).
edge(43, 70).
edge(30, 138).
edge(33, 88).
edge(79, 80).
edge(25, 146).
edge(20, 49).
edge(31, 64).
edge(85, 109).
edge(70, 118).
edge(76, 87).
edge(130, 150).
edge(6, 148).
edge(35, 129).
edge(108, 140).
edge(81, 143).
edge(72, 115).
edge(26, 117).
edge(77, 121).
edge(0, 118).
edge(6, 72).
edge(56, 67).
edge(31, 93).
edge(67, 139).
edge(6, 88).
edge(34, 109).
edge(81, 83).
edge(31, 118).
edge(50, 89).
edge(28, 106).
edge(34, 147).
edge(47, 129).
edge(111, 138).
edge(55, 124).
edge(50, 105).
edge(28, 140).
edge(84, 142).
edge(83, 101).
edge(37, 122).
edge(49, 106).
edge(91, 113).
edge(2, 91).
edge(67, 77).
edge(39, 109).
edge(98, 135).
edge(2, 35).
edge(78, 109).
edge(11, 104).
edge(100, 107).
edge(78, 93).
edge(127, 132).
edge(59, 132).
edge(71, 125).
edge(92, 146).
edge(26, 105).
edge(18, 82).
edge(25, 55).
edge(32, 68).
edge(10, 115).
edge(54, 57).
edge(123, 130).
edge(58, 148).
edge(49, 111).
edge(18, 149).
edge(55, 133).
edge(121, 147).
edge(45, 141).
edge(119, 126).
edge(111, 121).
edge(7, 87).
edge(57, 73).
edge(11, 140).
edge(82, 117).
edge(28, 112).
edge(2, 4).
edge(54, 135).
edge(70, 129).
edge(109, 129).
edge(54, 139).
edge(70, 117).
edge(37, 77).
edge(106, 149).
edge(129, 142).
edge(20, 31).
edge(27, 103).
edge(82, 96).
edge(53, 66).
edge(2, 138).
edge(35, 77).
edge(14, 135).
edge(15, 136).
edge(15, 78).
edge(43, 99).
edge(14, 66).
edge(38, 126).
edge(5, 128).
edge(11, 126).
edge(61, 102).
edge(5, 121).
edge(38, 50).
edge(33, 83).
edge(74, 113).
edge(106, 121).
edge(24, 93).
edge(13, 94).
edge(88, 115).
edge(24, 86).
edge(5, 86).
edge(46, 104).
edge(16, 125).
edge(16, 34).
edge(40, 136).
edge(49, 109).
edge(2, 3).
edge(9, 56).
edge(2, 29).
edge(81, 96).
edge(56, 72).
edge(44, 86).
edge(89, 146).
edge(27, 93).
edge(106, 135).
edge(14, 150).
edge(0, 73).
edge(23, 56).
edge(64, 107).
edge(70, 126).
edge(47, 116).
edge(8, 106).
edge(27, 119).
edge(46, 83).
edge(12, 60).
edge(48, 79).
edge(0, 141).
edge(19, 100).
edge(62, 143).
edge(72, 105).
edge(60, 70).
edge(6, 15).
edge(72, 75).
edge(69, 120).
edge(53, 127).
edge(28, 125).
edge(42, 130).
edge(39, 132).
edge(50, 109).
edge(13, 150).
edge(1, 37).
edge(14, 97).
edge(0, 112).
edge(89, 110).
edge(87, 132).
edge(6, 119).
edge(16, 124).
edge(70, 73).
edge(25, 103).
edge(19, 132).
edge(50, 75).
edge(88, 136).
edge(22, 57).
edge(67, 79).
edge(18, 58).
edge(95, 141).
edge(90, 121).
edge(125, 133).
edge(38, 54).
edge(37, 70).
edge(63, 137).
edge(61, 121).
edge(7, 141).
edge(59, 130).
edge(126, 131).
edge(22, 113).
edge(122, 147).
edge(35, 72).
edge(3, 83).
edge(2, 111).
edge(45, 138).
edge(21, 39).
edge(31, 110).
edge(38, 128).
edge(60, 132).
edge(5, 119).
edge(20, 114).
edge(72, 117).
edge(56, 144).
edge(39, 144).
edge(3, 149).
edge(29, 137).
edge(75, 109).
edge(26, 48).
edge(59, 144).
edge(6, 40).
edge(31, 133).
edge(38, 150).
edge(8, 89).
edge(12, 67).
edge(15, 80).
edge(30, 117).
edge(6, 77).
edge(15, 84).
edge(59, 148).
edge(49, 79).
edge(53, 118).
edge(49, 80).
edge(46, 145).
edge(48, 60).
edge(30, 84).
edge(101, 142).
edge(26, 147).
edge(50, 115).
edge(72, 110).
edge(47, 105).
edge(58, 120).
edge(5, 34).
edge(102, 129).
edge(4, 51).
edge(14, 21).
edge(4, 62).
edge(13, 102).
edge(3, 13).
edge(42, 62).
edge(4, 143).
edge(101, 143).
edge(135, 145).
edge(60, 144).
edge(132, 145).
edge(133, 146).
edge(20, 58).
edge(22, 143).
edge(8, 22).
edge(62, 68).
edge(15, 23).
edge(67, 148).
edge(23, 47).
edge(11, 132).
edge(115, 129).
edge(3, 6).
edge(47, 79).
edge(91, 109).
edge(22, 35).
edge(80, 91).
edge(37, 112).
edge(116, 147).
edge(94, 103).
edge(78, 146).
edge(5, 107).
edge(79, 119).
edge(15, 83).
edge(83, 143).
edge(85, 111).
edge(48, 107).
edge(34, 95).
edge(91, 132).
edge(30, 114).
edge(64, 66).
edge(73, 127).
edge(61, 92).
edge(44, 72).
edge(65, 74).
edge(90, 127).
edge(124, 134).
edge(43, 140).
edge(7, 29).
edge(45, 134).
edge(30, 142).
edge(31, 96).
edge(40, 112).
edge(32, 51).
edge(37, 85).
edge(29, 122).
edge(29, 77).
edge(32, 146).
edge(3, 94).
edge(15, 134).
edge(29, 142).
edge(49, 134).
edge(14, 108).
edge(13, 113).
edge(16, 73).
edge(10, 124).
edge(71, 140).
edge(89, 142).
edge(24, 118).
edge(87, 138).
edge(11, 117).
edge(23, 51).
edge(40, 51).
edge(26, 53).
edge(66, 96).
edge(27, 111).
edge(47, 122).
edge(82, 122).
edge(41, 64).
edge(25, 113).
edge(59, 143).
edge(36, 75).
edge(38, 115).
edge(36, 120).
edge(94, 108).
edge(118, 140).
edge(5, 102).
edge(2, 119).
edge(54, 69).
edge(96, 107).
edge(94, 114).
edge(52, 54).
edge(90, 126).
edge(86, 92).
edge(55, 73).
edge(67, 86).
edge(35, 45).
edge(1, 101).
edge(80, 124).
edge(46, 60).
edge(20, 83).
edge(91, 142).
edge(84, 105).
edge(82, 99).
edge(37, 135).
edge(80, 130).
edge(38, 132).
edge(5, 124).
edge(75, 119).
edge(84, 130).
edge(40, 119).
edge(59, 129).
edge(24, 139).
edge(90, 138).
edge(83, 121).
edge(36, 47).
edge(125, 137).
edge(90, 137).
edge(94, 128).
edge(75, 116).
edge(46, 120).
edge(101, 110).
edge(21, 32).
edge(5, 117).
edge(16, 140).
edge(60, 79).
edge(13, 126).
edge(87, 93).
edge(89, 95).
edge(38, 140).
edge(78, 135).
edge(51, 73).
edge(43, 146).
edge(17, 87).
edge(35, 87).
edge(90, 118).
edge(96, 111).
edge(6, 141).
edge(94, 124).
edge(31, 57).
edge(60, 115).
edge(3, 37).
edge(9, 150).
edge(131, 141).
edge(38, 145).
edge(56, 123).
edge(75, 146).
edge(45, 76).
edge(43, 52).
edge(103, 110).
edge(33, 139).
edge(66, 95).
edge(76, 129).
edge(8, 109).
edge(3, 87).
edge(50, 52).
edge(123, 132).
edge(80, 90).
edge(35, 67).
edge(55, 63).
edge(121, 132).
edge(47, 120).
edge(17, 46).
edge(55, 65).
edge(129, 137).
edge(76, 107).
edge(54, 95).
edge(23, 117).
edge(33, 120).
edge(36, 52).
edge(60, 76).
edge(45, 49).
edge(64, 81).
edge(74, 142).
edge(27, 78).
edge(30, 42).
edge(97, 134).
edge(37, 81).
edge(68, 102).
edge(83, 134).
edge(25, 100).
edge(7, 17).
edge(40, 124).
edge(40, 100).
edge(70, 102).
edge(46, 147).
edge(28, 60).
edge(25, 106).
edge(85, 99).
edge(26, 110).
edge(23, 44).
edge(4, 129).
edge(56, 136).
edge(5, 50).
edge(33, 76).
edge(14, 126).
edge(130, 146).
edge(31, 113).
edge(102, 109).
edge(0, 70).
edge(11, 16).
edge(29, 145).
edge(54, 79).
edge(27, 101).
edge(102, 143).
edge(40, 117).
edge(27, 92).
edge(10, 71).
edge(1, 88).
edge(53, 106).
edge(75, 138).
edge(121, 143).
edge(2, 123).
edge(39, 146).
edge(95, 96).
edge(70, 131).
edge(36, 65).
edge(20, 62).
edge(115, 120).
edge(29, 36).
edge(90, 141).
edge(40, 43).
edge(53, 134).
edge(48, 83).
edge(23, 54).
edge(80, 137).
edge(9, 131).
edge(45, 47).
edge(93, 119).
edge(5, 136).
edge(16, 53).
edge(101, 144).
edge(39, 108).
edge(56, 61).
edge(50, 127).
edge(77, 99).
edge(56, 79).
edge(22, 25).
edge(0, 53).
edge(72, 139).
edge(32, 83).
edge(48, 142).
edge(64, 90).
edge(70, 89).
edge(43, 87).
edge(79, 82).
edge(30, 140).
edge(6, 82).
edge(60, 113).
edge(38, 78).
edge(13, 62).
edge(48, 127).
edge(112, 136).
edge(85, 116).
edge(76, 144).
edge(128, 148).
edge(12, 22).
edge(29, 56).
edge(9, 101).
edge(15, 123).
edge(59, 103).
edge(59, 104).
edge(19, 143).
edge(21, 102).
edge(17, 41).
edge(98, 139).
edge(44, 130).
edge(104, 114).
edge(36, 101).
edge(102, 139).
edge(31, 89).
edge(2, 94).
edge(26, 126).
edge(99, 103).
edge(48, 149).
edge(37, 148).
edge(82, 93).
edge(98, 132).
edge(12, 30).
edge(0, 46).
edge(26, 67).
edge(48, 108).
edge(18, 102).
edge(30, 93).
edge(73, 76).
edge(42, 73).
edge(0, 2).
edge(6, 41).
edge(57, 70).
edge(81, 93).
edge(58, 64).
edge(12, 23).
edge(2, 70).
edge(49, 129).
edge(89, 108).
edge(61, 124).
edge(12, 31).
edge(75, 147).
edge(7, 14).
edge(30, 64).
edge(11, 18).
edge(123, 137).
edge(122, 136).
edge(46, 142).
edge(122, 142).
edge(45, 124).
edge(101, 140).
edge(94, 119).
edge(98, 104).
edge(57, 88).
edge(10, 30).
edge(9, 15).
edge(98, 128).
edge(14, 128).
edge(33, 39).
edge(57, 110).
edge(100, 116).
edge(58, 87).
edge(11, 144).
edge(15, 21).
edge(65, 142).
edge(71, 78).
edge(52, 150).
edge(12, 107).
edge(36, 145).
edge(120, 146).
edge(102, 114).
edge(96, 133).
edge(83, 111).
edge(6, 14).
edge(89, 102).
edge(10, 97).
edge(54, 115).
edge(102, 113).
edge(86, 98).
edge(74, 95).
edge(11, 44).
edge(1, 53).
edge(43, 116).
edge(14, 31).
edge(24, 111).
edge(82, 113).
edge(40, 107).
edge(8, 88).
edge(53, 95).
edge(2, 137).
edge(15, 120).
edge(128, 135).
edge(39, 88).
edge(21, 114).
edge(116, 149).
edge(13, 111).
edge(73, 75).
edge(59, 114).
edge(17, 106).
edge(78, 148).
edge(74, 116).
edge(13, 22).
edge(92, 128).
edge(41, 62).
edge(0, 10).
edge(43, 117).
edge(51, 129).
edge(23, 58).
edge(55, 96).
edge(65, 135).
edge(26, 94).
edge(26, 45).
edge(68, 78).
edge(75, 133).
edge(52, 76).
edge(19, 44).
edge(15, 141).
edge(130, 148).
edge(2, 109).
edge(46, 47).
edge(23, 82).
edge(14, 117).
edge(116, 124).
edge(8, 105).
edge(8, 47).
edge(96, 143).
edge(124, 132).
edge(62, 126).
edge(57, 105).
edge(49, 93).
edge(18, 105).
edge(83, 122).
edge(58, 86).
edge(57, 86).
edge(61, 117).
edge(0, 103).
edge(33, 80).
edge(22, 108).
edge(88, 149).
edge(46, 73).
edge(16, 51).
edge(15, 121).
edge(81, 108).
edge(90, 112).
edge(2, 54).
edge(9, 53).
edge(71, 130).
edge(34, 120).
edge(84, 113).
edge(66, 112).
edge(130, 137).
edge(123, 136).
edge(125, 149).
edge(83, 127).
edge(63, 67).
edge(0, 11).
edge(32, 103).
edge(96, 142).
edge(55, 72).
edge(87, 148).
edge(8, 145).
edge(61, 142).
edge(71, 133).
edge(55, 93).
edge(25, 109).
edge(107, 112).
edge(49, 149).
edge(61, 129).
edge(99, 124).
edge(99, 143).
edge(22, 64).
edge(51, 123).
edge(91, 129).
edge(25, 99).
edge(52, 64).
edge(3, 128).
edge(18, 117).
edge(21, 70).
edge(45, 93).
edge(14, 119).
edge(21, 125).
edge(76, 114).
edge(45, 83).
edge(46, 108).
edge(100, 144).
edge(112, 128).
edge(58, 94).
edge(15, 132).
edge(51, 67).
edge(85, 137).
edge(58, 123).
edge(18, 68).
edge(97, 100).
edge(24, 148).
edge(33, 144).
edge(3, 121).
edge(53, 81).
edge(1, 39).
edge(12, 134).
edge(70, 107).
edge(0, 60).
edge(2, 63).
edge(5, 6).
edge(120, 149).
edge(80, 110).
edge(45, 97).
edge(142, 150).
edge(66, 83).
edge(26, 124).
edge(34, 52).
edge(37, 63).
edge(43, 94).
edge(63, 96).
edge(2, 61).
edge(16, 66).
edge(54, 109).
edge(8, 20).
edge(34, 69).
edge(8, 49).
edge(75, 122).
edge(89, 98).
edge(7, 35).
edge(44, 54).
edge(127, 148).
edge(105, 120).
edge(77, 106).
edge(44, 137).
edge(91, 93).
edge(63, 69).
edge(6, 17).
edge(0, 116).
edge(114, 149).
edge(28, 133).
edge(14, 56).
edge(49, 123).
edge(115, 125).
edge(11, 79).
edge(41, 109).
edge(60, 85).
edge(69, 117).
edge(15, 98).
edge(73, 149).
edge(5, 116).
edge(35, 131).
edge(83, 123).
edge(4, 115).
edge(3, 36).
edge(3, 19).
edge(41, 110).
edge(37, 134).
edge(115, 148).
edge(69, 122).
edge(20, 132).
edge(96, 100).
edge(59, 146).
edge(34, 71).
edge(33, 49).
edge(73, 98).
edge(37, 145).
edge(98, 142).
edge(124, 144).
edge(17, 141).
edge(39, 91).
edge(16, 82).
edge(51, 64).
edge(57, 74).
edge(36, 76).
edge(44, 103).
edge(21, 88).
edge(23, 143).
edge(0, 109).
edge(20, 94).
edge(69, 136).
edge(129, 138).
edge(53, 135).
edge(60, 98).
edge(80, 149).
edge(118, 134).
edge(98, 108).
edge(21, 120).
edge(12, 76).
edge(9, 80).
edge(14, 124).
edge(28, 118).
edge(58, 68).
edge(56, 69).
edge(100, 136).
edge(43, 104).
edge(94, 99).
edge(12, 148).
edge(38, 123).
edge(43, 147).
edge(5, 109).
edge(65, 82).
edge(49, 132).
edge(40, 103).
edge(77, 129).
edge(31, 38).
edge(69, 80).
edge(65, 75).
edge(4, 72).
edge(3, 141).
edge(97, 105).
edge(94, 146).
edge(49, 86).
edge(3, 123).
edge(44, 63).
edge(35, 121).
edge(114, 135).
edge(26, 69).
edge(23, 60).
edge(139, 146).
edge(0, 82).
edge(13, 116).
edge(66, 118).
edge(1, 148).
edge(40, 60).
edge(45, 69).
edge(31, 63).
edge(77, 82).
edge(3, 47).
edge(6, 89).
edge(73, 121).
edge(25, 95).
edge(134, 149).
edge(2, 15).
edge(22, 62).
edge(99, 130).
edge(109, 118).
edge(43, 106).
edge(74, 115).
edge(3, 34).
edge(41, 47).
edge(88, 89).
edge(20, 45).
edge(14, 72).
edge(4, 140).
edge(22, 129).
edge(130, 143).
edge(24, 37).
edge(76, 105).
edge(72, 140).
edge(86, 109).
edge(56, 60).
edge(40, 48).
edge(17, 28).
edge(41, 54).
edge(17, 18).
edge(18, 126).
edge(79, 147).
edge(33, 34).
edge(81, 89).
edge(58, 130).
edge(32, 39).
edge(94, 135).
edge(65, 90).
edge(103, 108).
edge(101, 125).
edge(62, 121).
edge(41, 131).
edge(45, 56).
edge(64, 76).
edge(3, 74).
edge(100, 117).
edge(70, 87).
edge(34, 145).
edge(14, 141).
edge(38, 87).
edge(136, 141).
edge(120, 140).
edge(64, 89).
edge(60, 83).
edge(56, 76).
edge(31, 92).
edge(66, 69).
edge(65, 95).
edge(56, 139).
edge(21, 82).
edge(44, 122).
edge(55, 56).
edge(100, 146).
edge(81, 92).
edge(101, 109).
edge(112, 140).
edge(80, 128).
edge(92, 123).
edge(37, 101).
edge(112, 122).
edge(22, 150).
edge(7, 83).
edge(89, 114).
edge(72, 74).
edge(86, 118).
edge(10, 101).
edge(9, 86).
edge(125, 131).
edge(81, 102).
edge(52, 88).
edge(71, 105).
edge(15, 144).
edge(143, 144).
edge(23, 35).
edge(51, 78).
edge(1, 45).
edge(21, 84).
edge(35, 43).
edge(42, 107).
edge(108, 117).
edge(0, 84).
edge(16, 65).
edge(3, 127).
edge(5, 140).
edge(81, 128).
edge(58, 135).
edge(63, 113).
edge(88, 94).
edge(2, 108).
edge(43, 103).
edge(22, 92).
edge(13, 135).
edge(74, 111).
edge(17, 62).
edge(0, 48).
edge(6, 19).
edge(39, 105).
edge(11, 139).
edge(109, 112).
edge(17, 112).
edge(2, 57).
edge(125, 132).
edge(104, 136).
edge(5, 12).
edge(0, 51).
edge(65, 122).
edge(30, 136).
edge(2, 71).
edge(66, 71).
edge(44, 84).
edge(85, 143).
edge(107, 126).
edge(121, 148).
edge(24, 71).
edge(80, 102).
edge(40, 72).
edge(67, 117).
edge(46, 133).
edge(2, 81).
edge(126, 138).
edge(61, 107).
edge(25, 90).
edge(62, 85).
edge(40, 86).
edge(32, 77).
edge(70, 114).
edge(66, 76).
edge(83, 94).
edge(62, 72).
edge(128, 142).
edge(55, 102).
edge(133, 144).
edge(71, 100).
edge(33, 89).
edge(67, 80).
edge(93, 125).
edge(34, 54).
edge(40, 140).
edge(66, 77).
edge(6, 36).
edge(13, 137).
edge(53, 139).
edge(123, 135).
edge(0, 131).
edge(44, 79).
edge(60, 89).
edge(35, 113).
edge(33, 40).
edge(136, 146).
edge(105, 129).
edge(65, 112).
edge(78, 150).
edge(113, 139).
edge(35, 105).
edge(88, 144).
edge(52, 132).
edge(9, 94).
edge(13, 91).
edge(51, 141).
edge(14, 37).
edge(41, 45).
edge(8, 141).
edge(24, 129).
edge(40, 105).
edge(26, 89).
edge(8, 12).
edge(31, 143).
edge(15, 67).
edge(37, 40).
edge(33, 142).
edge(1, 36).
edge(135, 147).
edge(15, 32).
edge(50, 74).
edge(48, 49).
edge(98, 103).
edge(17, 147).
edge(49, 131).
edge(6, 98).
edge(31, 82).
edge(88, 90).
edge(81, 94).
edge(42, 85).
edge(51, 100).
edge(43, 50).
edge(12, 68).
edge(18, 64).
edge(41, 118).
edge(32, 135).
edge(137, 143).
edge(63, 140).
edge(22, 114).
edge(6, 69).
edge(8, 64).
edge(101, 118).
edge(55, 58).
edge(142, 149).
edge(88, 112).
edge(14, 47).
edge(113, 114).
edge(67, 100).
edge(74, 105).
edge(38, 81).
edge(120, 143).
edge(18, 141).
edge(38, 91).
edge(68, 99).
edge(13, 74).
edge(36, 67).
edge(41, 129).
edge(53, 73).
edge(16, 57).
edge(74, 121).
edge(2, 11).
edge(29, 117).
edge(120, 150).
edge(31, 34).
edge(14, 24).
edge(57, 148).
edge(1, 44).
edge(44, 110).
edge(7, 110).
edge(105, 107).
edge(83, 88).
edge(54, 96).
edge(3, 23).
edge(79, 114).
edge(19, 52).
edge(16, 149).
edge(46, 87).
edge(52, 101).
edge(38, 80).
edge(15, 143).
edge(51, 121).
edge(111, 143).
edge(13, 43).
edge(64, 117).
edge(15, 96).
edge(56, 64).
edge(54, 66).
edge(53, 76).
edge(76, 92).
edge(86, 141).
edge(116, 137).
edge(76, 110).
edge(62, 141).
edge(52, 134).
edge(96, 101).
edge(57, 82).
edge(46, 139).
edge(135, 137).
edge(27, 64).
edge(23, 105).
edge(24, 103).
edge(27, 95).
edge(95, 140).
edge(30, 128).
edge(120, 144).
edge(0, 120).
edge(132, 147).
edge(25, 136).
edge(18, 134).
edge(27, 31).
edge(5, 32).
edge(14, 28).
edge(29, 65).
edge(86, 136).
edge(73, 103).
edge(51, 142).
edge(27, 94).
edge(24, 136).
edge(9, 69).
edge(65, 149).
edge(63, 121).
edge(82, 88).
edge(19, 50).
edge(69, 106).
edge(0, 114).
edge(126, 139).
edge(29, 114).
edge(73, 122).
edge(61, 105).
edge(22, 95).
edge(73, 78).
edge(62, 136).
edge(137, 145).
edge(42, 110).
edge(51, 85).
edge(93, 108).
edge(1, 103).
edge(34, 46).
edge(90, 136).
edge(100, 124).
edge(53, 97).
edge(136, 147).
edge(22, 63).
edge(16, 90).
edge(73, 126).
edge(10, 114).
edge(11, 22).
edge(29, 148).
edge(25, 86).
edge(105, 122).
edge(11, 58).
edge(124, 138).
edge(23, 98).
edge(26, 113).
edge(125, 142).
edge(10, 129).
edge(61, 75).
edge(95, 119).
edge(102, 126).
edge(26, 125).
edge(48, 123).
edge(102, 135).
edge(57, 90).
edge(29, 130).
edge(27, 62).
edge(50, 56).
edge(148, 150).
edge(59, 79).
edge(107, 108).
edge(76, 131).
edge(131, 143).
edge(92, 118).
edge(37, 59).
edge(72, 80).
edge(20, 117).
edge(30, 143).
edge(20, 127).
edge(28, 69).
edge(28, 142).
edge(89, 119).
edge(6, 20).
edge(57, 102).
edge(2, 7).
edge(51, 58).
edge(25, 40).
edge(13, 96).
edge(58, 65).
edge(26, 146).
edge(19, 56).
edge(112, 113).
edge(64, 92).
edge(19, 128).
edge(68, 91).
edge(56, 112).
edge(60, 96).
edge(36, 127).
edge(30, 119).
edge(88, 110).
edge(7, 43).
edge(54, 124).
edge(38, 110).
edge(57, 83).
edge(1, 42).
edge(16, 84).
edge(4, 14).
edge(91, 119).
edge(5, 125).
edge(0, 129).
edge(41, 146).
edge(23, 126).
edge(26, 29).
edge(2, 52).
edge(49, 50).
edge(37, 142).
edge(9, 93).
edge(24, 41).
edge(112, 141).
edge(126, 141).
edge(25, 87).
edge(98, 113).
edge(11, 125).
edge(2, 122).
edge(78, 90).
edge(22, 36).
edge(42, 143).
edge(120, 126).
edge(81, 121).
edge(4, 11).
edge(34, 144).
edge(18, 131).
edge(71, 99).
edge(2, 50).
edge(41, 117).
edge(17, 88).
edge(62, 106).
edge(68, 114).
edge(32, 46).
edge(17, 148).
edge(54, 76).
edge(90, 117).
edge(42, 116).
edge(84, 119).
edge(2, 17).
edge(43, 85).
edge(6, 47).
edge(2, 56).
edge(94, 142).
edge(92, 93).
edge(59, 96).
edge(76, 103).
edge(11, 116).
edge(46, 89).
edge(118, 127).
edge(67, 127).
edge(41, 139).
edge(76, 82).
edge(60, 147).
edge(58, 93).
edge(71, 81).
edge(84, 135).
edge(7, 31).
edge(79, 93).
edge(21, 48).
edge(125, 150).
edge(57, 122).
edge(78, 142).
edge(64, 70).
edge(45, 109).
edge(81, 110).
edge(58, 108).
edge(9, 37).
edge(99, 111).
edge(139, 149).
edge(116, 118).
edge(21, 62).
edge(127, 144).
edge(96, 102).
edge(56, 99).
edge(114, 146).
edge(121, 126).
edge(59, 142).
edge(8, 81).
edge(47, 94).
edge(103, 129).
edge(66, 82).
edge(6, 117).
edge(2, 143).
edge(9, 88).
edge(1, 90).
edge(28, 136).
edge(19, 118).
edge(128, 130).
edge(46, 126).
edge(106, 116).
edge(1, 56).
edge(146, 149).
edge(109, 134).
edge(19, 37).
edge(67, 133).
edge(84, 117).
edge(6, 127).
edge(48, 69).
edge(27, 87).
edge(6, 51).
edge(13, 73).
edge(22, 38).
edge(13, 25).
edge(28, 129).
edge(6, 109).
edge(18, 138).
edge(68, 72).
edge(134, 139).
edge(125, 126).
edge(107, 117).
edge(95, 105).
edge(111, 131).
edge(68, 123).
edge(2, 125).
edge(38, 93).
edge(9, 49).
edge(11, 118).
edge(101, 107).
edge(34, 112).
edge(2, 114).
edge(33, 104).
edge(2, 12).
edge(59, 116).
edge(19, 45).
edge(50, 78).
edge(25, 32).
edge(47, 66).
edge(21, 107).
edge(91, 110).
edge(134, 146).
edge(25, 88).
edge(29, 113).
edge(35, 146).
edge(3, 115).
edge(20, 92).
edge(57, 130).
edge(13, 112).
edge(83, 145).
edge(24, 147).
edge(75, 112).
edge(7, 106).
edge(107, 147).
edge(10, 131).
edge(107, 124).
edge(10, 126).
edge(29, 147).
edge(41, 107).
edge(87, 146).
edge(17, 77).
edge(75, 76).
edge(8, 104).
edge(35, 73).
edge(11, 89).
edge(63, 89).
edge(13, 122).
edge(120, 131).
edge(91, 128).
edge(19, 103).
edge(48, 58).
edge(30, 71).
edge(72, 136).
edge(10, 19).
edge(3, 71).
edge(3, 125).
edge(73, 150).
edge(42, 139).
edge(40, 76).
edge(83, 107).
edge(27, 83).
edge(114, 122).
edge(10, 139).
edge(10, 106).
edge(94, 102).
edge(21, 116).
edge(43, 71).
edge(39, 79).
edge(22, 48).
edge(7, 48).
edge(60, 108).
edge(44, 70).
edge(19, 27).
edge(145, 148).
edge(15, 18).
edge(54, 88).
edge(60, 135).
edge(42, 69).
edge(8, 131).
edge(41, 67).
edge(21, 71).
edge(9, 110).
edge(72, 149).
edge(84, 90).
edge(26, 63).
edge(27, 131).
edge(31, 121).
edge(18, 71).
edge(59, 60).
edge(21, 73).
edge(1, 121).
edge(80, 115).
edge(21, 131).
edge(87, 135).
edge(5, 120).
edge(61, 139).
edge(3, 48).
edge(42, 141).
edge(46, 71).
edge(127, 146).
edge(83, 99).
edge(28, 51).
edge(91, 126).
edge(80, 98).
edge(98, 126).
edge(78, 147).
edge(45, 115).
edge(50, 140).
edge(93, 100).
edge(111, 135).
edge(30, 103).
edge(29, 41).
edge(28, 143).
edge(36, 114).
edge(95, 131).
edge(67, 95).
edge(37, 73).
edge(103, 135).
edge(10, 117).
edge(32, 99).
edge(6, 10).
edge(59, 121).
edge(92, 116).
edge(33, 146).
edge(130, 139).
edge(38, 75).
edge(66, 124).
edge(31, 117).
edge(49, 75).
edge(51, 108).
edge(31, 72).
edge(92, 122).
edge(100, 127).
edge(37, 89).
edge(16, 25).
edge(30, 41).
edge(3, 104).
edge(79, 100).
edge(19, 122).
edge(3, 85).
edge(1, 118).
edge(116, 134).
edge(6, 26).
edge(10, 143).
edge(35, 46).
edge(98, 114).
edge(40, 50).
edge(8, 123).
edge(2, 146).
edge(83, 126).
edge(68, 95).
edge(38, 106).
edge(5, 118).
edge(52, 55).
edge(18, 70).
edge(72, 137).
edge(43, 60).
edge(0, 72).
edge(41, 134).
edge(40, 108).
edge(2, 106).
edge(1, 54).
edge(49, 102).
edge(5, 133).
edge(12, 98).
edge(34, 61).
edge(20, 115).
edge(24, 85).
edge(46, 149).
edge(79, 150).
edge(99, 100).
edge(88, 104).
edge(9, 79).
edge(16, 19).
edge(11, 20).
edge(68, 135).
edge(8, 91).
edge(41, 90).
edge(63, 98).
edge(78, 97).
edge(54, 103).
edge(64, 73).
edge(24, 68).
edge(0, 143).
edge(143, 150).
edge(94, 136).
edge(38, 69).
edge(15, 79).
edge(16, 91).
edge(56, 63).
edge(80, 104).
edge(61, 97).
edge(39, 55).
edge(103, 143).
edge(82, 146).
edge(17, 118).
edge(62, 144).
edge(11, 123).
edge(18, 24).
edge(70, 143).
edge(95, 122).
edge(17, 97).
edge(110, 117).
edge(113, 138).
edge(44, 106).
edge(15, 76).
edge(64, 141).
edge(62, 86).
edge(9, 118).
edge(76, 143).
edge(25, 102).
edge(63, 119).
edge(81, 120).
edge(42, 43).
edge(18, 98).
edge(96, 141).
edge(18, 100).
edge(107, 132).
edge(7, 36).
edge(8, 62).
edge(15, 85).
edge(47, 48).
edge(56, 73).
edge(67, 113).
edge(95, 108).
edge(12, 102).
edge(42, 94).
edge(17, 32).
edge(63, 77).
edge(13, 114).
edge(93, 118).
edge(125, 138).
edge(27, 86).
edge(52, 99).
edge(45, 110).
edge(4, 34).
edge(53, 115).
edge(57, 147).
edge(15, 56).
edge(66, 138).
edge(55, 107).
edge(52, 71).
edge(2, 14).
edge(125, 134).
edge(126, 127).
edge(40, 58).
edge(79, 117).
edge(21, 76).
edge(31, 58).
edge(16, 130).
edge(93, 97).
edge(85, 114).
edge(108, 126).
edge(39, 101).
edge(25, 134).
edge(19, 111).
edge(11, 43).
edge(31, 47).
edge(26, 136).
edge(35, 79).
edge(6, 44).
edge(5, 146).
edge(69, 123).
edge(99, 110).
edge(15, 126).
edge(60, 74).
edge(8, 96).
edge(34, 63).
edge(11, 62).
edge(27, 44).
edge(91, 118).
edge(49, 146).
edge(22, 104).
edge(7, 65).
edge(30, 56).
edge(15, 24).
edge(110, 124).
edge(0, 56).
edge(33, 35).
edge(0, 24).
edge(4, 106).
edge(79, 84).
edge(43, 84).
edge(93, 150).
edge(54, 114).
edge(102, 127).
edge(21, 85).
edge(113, 115).
edge(19, 43).
edge(38, 88).
edge(87, 123).
edge(39, 85).
edge(36, 149).
edge(57, 145).
edge(31, 134).
edge(85, 92).
edge(4, 37).
edge(107, 128).
edge(103, 150).
edge(86, 125).
edge(61, 130).
edge(125, 135).
edge(36, 100).
edge(63, 146).
edge(69, 104).
edge(46, 110).
edge(102, 116).
edge(41, 48).
edge(11, 134).
edge(2, 32).
edge(69, 125).
edge(1, 32).
edge(66, 136).
edge(0, 148).
edge(19, 86).
edge(44, 111).
edge(47, 125).
edge(31, 129).
edge(28, 146).
edge(38, 102).
edge(41, 150).
edge(2, 83).
edge(6, 107).
edge(66, 99).
edge(9, 77).
edge(28, 91).
edge(5, 14).
edge(65, 139).
edge(135, 144).
edge(41, 119).
edge(6, 132).
edge(31, 107).
edge(60, 101).
edge(36, 85).
edge(17, 100).
edge(41, 104).
edge(24, 58).
edge(77, 138).
edge(2, 30).
edge(6, 33).
edge(4, 107).
edge(25, 119).
edge(48, 84).
edge(43, 77).
edge(43, 53).
edge(24, 69).
edge(59, 117).
edge(27, 75).
edge(133, 145).
edge(36, 72).
edge(2, 43).
edge(78, 104).
edge(113, 125).
edge(14, 48).
edge(29, 31).
edge(137, 150).
edge(81, 88).
edge(18, 37).
edge(55, 113).
edge(15, 133).
edge(42, 88).
edge(87, 142).
edge(6, 145).
edge(23, 123).
edge(41, 86).
edge(20, 84).
edge(17, 143).
edge(52, 137).
edge(27, 96).
edge(45, 65).
edge(111, 127).
edge(87, 145).
edge(41, 81).
edge(12, 27).
edge(93, 94).
edge(10, 102).
edge(10, 50).
edge(76, 79).
edge(30, 60).
edge(20, 126).
edge(3, 33).
edge(109, 130).
edge(35, 59).
edge(74, 136).
edge(76, 99).
edge(18, 148).
edge(69, 147).
edge(51, 112).
edge(108, 120).
edge(109, 136).
edge(4, 109).
edge(14, 70).
edge(12, 127).
edge(69, 86).
edge(37, 130).
edge(144, 150).
edge(76, 97).
edge(104, 148).
edge(15, 92).
edge(102, 136).
edge(21, 61).
edge(32, 55).
edge(76, 104).
edge(74, 103).
edge(7, 15).
edge(8, 86).
edge(31, 74).
edge(13, 49).
edge(9, 73).
edge(41, 83).
edge(111, 129).
edge(70, 90).
edge(46, 100).
edge(23, 147).
edge(5, 77).
edge(18, 41).
edge(14, 53).
edge(29, 37).
edge(77, 96).
edge(26, 99).
edge(49, 62).
edge(71, 96).
edge(115, 137).
edge(11, 38).
edge(47, 97).
edge(28, 95).
edge(13, 129).
edge(72, 144).
edge(89, 94).
edge(136, 149).
edge(106, 128).
edge(47, 87).
edge(4, 33).
edge(35, 96).
edge(47, 138).
edge(80, 92).
edge(69, 130).
edge(21, 28).
edge(32, 138).
edge(33, 107).
edge(0, 89).
edge(54, 150).
edge(49, 81).
edge(4, 64).
edge(47, 58).
edge(19, 62).
edge(24, 96).
edge(26, 131).
edge(24, 52).
edge(4, 7).
edge(11, 48).
edge(29, 105).
edge(16, 29).
edge(101, 113).
edge(16, 101).
edge(16, 110).
edge(34, 150).
edge(56, 102).
edge(72, 82).
edge(98, 143).
edge(47, 132).
edge(23, 142).
edge(8, 92).
edge(77, 84).
edge(18, 49).
edge(38, 41).
edge(20, 137).
edge(78, 99).
edge(6, 113).
edge(40, 134).
edge(101, 102).
edge(61, 89).
edge(14, 94).
edge(61, 70).
edge(36, 68).
edge(38, 141).
edge(27, 107).
edge(23, 96).
edge(20, 35).
edge(111, 140).
edge(56, 113).
edge(28, 120).
edge(81, 123).
edge(65, 94).
edge(1, 15).
edge(91, 105).
edge(47, 80).
edge(62, 66).
edge(39, 51).
edge(24, 142).
edge(72, 130).
edge(99, 106).
edge(37, 116).
edge(23, 62).
edge(126, 145).
edge(98, 121).
edge(132, 138).
edge(41, 46).
edge(19, 98).
edge(72, 133).
edge(13, 86).
edge(22, 124).
edge(3, 24).
edge(79, 111).
edge(83, 120).
edge(14, 63).
edge(24, 78).
edge(51, 147).
edge(71, 114).
edge(18, 42).
edge(59, 133).
edge(29, 94).
edge(117, 149).
edge(86, 140).
edge(68, 108).
edge(28, 116).
edge(7, 134).
edge(8, 90).
edge(53, 75).
edge(87, 130).
edge(108, 130).
edge(88, 91).
edge(23, 150).
edge(104, 118).
edge(21, 31).
edge(27, 116).
edge(97, 143).
edge(12, 110).
edge(60, 138).
edge(34, 142).
edge(81, 125).
edge(102, 134).
edge(63, 115).
edge(81, 130).
edge(1, 94).
edge(57, 108).
edge(34, 134).
edge(1, 40).
edge(6, 101).
edge(9, 84).
edge(101, 121).
edge(42, 71).
edge(0, 111).
edge(64, 123).
edge(17, 85).
edge(52, 107).
edge(27, 102).
edge(92, 147).
edge(1, 98).
edge(25, 49).
edge(29, 90).
edge(63, 124).
edge(5, 13).
edge(61, 108).
edge(106, 127).
edge(20, 73).
edge(94, 118).
edge(32, 127).
edge(14, 67).
edge(128, 147).
edge(39, 94).
edge(4, 28).
edge(2, 132).
edge(38, 58).
edge(4, 41).
edge(48, 134).
edge(10, 145).
edge(9, 57).
edge(61, 110).
edge(101, 112).
edge(4, 70).
edge(131, 140).
edge(19, 104).
edge(30, 79).
edge(0, 47).
edge(68, 103).
edge(31, 90).
edge(77, 128).
edge(48, 102).
edge(61, 137).
edge(4, 15).
edge(80, 135).
edge(29, 38).
edge(40, 111).
edge(28, 101).
edge(57, 143).
edge(17, 69).
edge(0, 150).
edge(27, 28).
edge(3, 133).
edge(128, 144).
edge(126, 144).
edge(3, 28).
edge(81, 126).
edge(5, 56).
edge(13, 30).
edge(69, 71).
edge(52, 111).
edge(64, 108).
edge(67, 68).
edge(9, 41).
edge(1, 110).
edge(97, 130).
edge(110, 119).
edge(73, 105).
edge(129, 150).
edge(17, 58).
edge(38, 131).
edge(48, 131).
edge(61, 100).
edge(53, 107).
edge(84, 92).
edge(82, 110).
edge(26, 71).
edge(0, 41).
edge(40, 64).
edge(49, 84).
edge(25, 64).
edge(143, 148).
edge(6, 79).
edge(99, 115).
edge(55, 95).
edge(34, 124).
edge(98, 147).
edge(23, 46).
edge(87, 124).
edge(45, 116).
edge(18, 94).
edge(36, 58).
edge(68, 83).
edge(79, 118).
edge(60, 61).
edge(1, 31).
edge(71, 98).
edge(81, 97).
edge(32, 33).
edge(20, 128).
edge(31, 49).
edge(50, 120).
edge(26, 82).
edge(88, 117).
edge(88, 121).
edge(67, 136).
edge(25, 59).
edge(65, 98).
edge(114, 126).
edge(25, 79).
edge(56, 143).
edge(69, 95).
edge(36, 148).
edge(19, 140).
edge(13, 107).
edge(60, 97).
edge(2, 46).
edge(3, 21).
edge(4, 20).
edge(61, 74).
edge(8, 60).
edge(111, 142).
edge(76, 121).
edge(13, 77).
edge(113, 127).
edge(84, 87).
edge(35, 44).
edge(25, 128).
edge(79, 140).
edge(3, 134).
edge(9, 95).
edge(19, 82).
edge(115, 139).
edge(8, 134).
edge(87, 96).
edge(56, 78).
edge(53, 122).
edge(14, 104).
edge(79, 95).
edge(44, 95).
edge(37, 64).
edge(52, 77).
edge(111, 130).
edge(13, 48).
edge(0, 92).
edge(34, 68).
edge(17, 115).
edge(70, 79).
edge(113, 146).
edge(39, 76).
edge(51, 80).
edge(22, 27).
edge(24, 49).
edge(108, 143).
edge(17, 42).
edge(107, 138).
edge(12, 59).
edge(104, 128).
edge(55, 84).
edge(22, 144).
edge(21, 26).
edge(84, 95).
edge(29, 131).
edge(119, 130).
edge(28, 92).
edge(79, 144).
edge(130, 131).
edge(85, 150).
edge(77, 97).
edge(28, 62).
edge(126, 133).
edge(64, 122).
edge(0, 32).
edge(55, 146).
edge(81, 141).
edge(85, 95).
edge(91, 144).
edge(18, 59).
edge(19, 124).
edge(50, 122).
edge(42, 92).
edge(71, 127).
edge(35, 76).
edge(16, 41).
edge(27, 149).
edge(8, 18).
edge(64, 82).
edge(33, 52).
edge(39, 86).
edge(70, 106).
edge(55, 77).
edge(35, 80).
edge(58, 136).
edge(62, 146).
edge(31, 124).
edge(12, 136).
edge(79, 120).
edge(31, 33).
edge(28, 145).
edge(35, 69).
edge(85, 132).
edge(53, 69).
edge(90, 144).
edge(14, 138).
edge(76, 120).
edge(15, 88).
edge(16, 88).
edge(9, 147).
edge(7, 125).
edge(20, 96).
edge(21, 51).
edge(39, 73).
edge(10, 32).
edge(76, 141).
edge(20, 145).
edge(18, 23).
edge(26, 54).
edge(10, 20).
edge(68, 130).
edge(43, 78).
edge(95, 129).
edge(31, 53).
edge(23, 130).
edge(72, 83).
edge(33, 44).
edge(30, 109).
edge(39, 138).
edge(57, 126).
edge(97, 142).
edge(23, 70).
edge(12, 89).
edge(55, 119).
edge(109, 122).
edge(29, 80).
edge(87, 147).
edge(44, 124).
edge(63, 100).
edge(72, 73).
edge(77, 104).
edge(97, 99).
edge(36, 78).
edge(20, 38).
edge(58, 146).
edge(0, 125).
edge(82, 130).
edge(51, 115).
edge(35, 98).
edge(22, 130).
edge(42, 101).
edge(111, 122).
edge(18, 33).
edge(78, 94).
edge(36, 61).
edge(6, 52).
edge(103, 127).
edge(3, 136).
edge(53, 125).
edge(105, 126).
edge(105, 132).
edge(51, 88).
edge(14, 49).
edge(116, 145).
edge(24, 36).
edge(123, 127).
edge(87, 150).
edge(102, 123).
edge(24, 102).
edge(109, 128).
edge(15, 58).
edge(106, 141).
edge(83, 114).
edge(73, 90).
edge(77, 146).
edge(19, 70).
edge(59, 88).
edge(45, 148).
edge(49, 113).
edge(22, 77).
edge(30, 137).
edge(56, 109).
edge(107, 140).
edge(69, 99).
edge(56, 74).
edge(31, 145).
edge(113, 120).
edge(32, 59).
edge(15, 66).
edge(107, 142).
edge(41, 57).
edge(47, 117).
edge(9, 141).
edge(34, 136).
edge(73, 74).
edge(1, 117).
edge(75, 104).
edge(23, 127).
edge(77, 93).
edge(22, 85).
edge(95, 125).
edge(44, 75).
edge(97, 149).
edge(33, 129).
edge(4, 19).
edge(8, 69).
edge(27, 52).
edge(6, 21).
edge(109, 137).
edge(61, 138).
edge(65, 125).
edge(41, 80).
edge(97, 109).
edge(7, 131).
edge(38, 124).
edge(118, 121).
edge(4, 91).
edge(3, 4).
edge(35, 122).
edge(5, 36).
edge(14, 82).
edge(13, 130).
edge(32, 87).
edge(53, 65).
edge(45, 98).
edge(94, 145).
edge(86, 94).
edge(8, 140).
edge(12, 108).
edge(41, 114).
edge(22, 96).
edge(22, 37).
edge(60, 119).
edge(57, 150).
edge(22, 119).
edge(51, 89).
edge(25, 115).
edge(6, 111).
edge(83, 97).
edge(101, 146).
edge(16, 21).
edge(46, 57).
edge(92, 124).
edge(63, 127).
edge(120, 141).
edge(14, 22).
edge(28, 114).
edge(31, 50).
edge(11, 81).
edge(94, 126).
edge(115, 146).
edge(14, 98).
edge(10, 91).
edge(19, 101).
edge(36, 87).
edge(93, 139).
edge(55, 129).
edge(33, 132).
edge(79, 139).
edge(111, 148).
edge(32, 40).
edge(15, 106).
edge(82, 116).
edge(91, 147).
edge(1, 91).
edge(75, 125).
edge(38, 70).
edge(106, 117).
edge(121, 125).
edge(18, 91).
edge(100, 105).
edge(45, 131).
edge(1, 140).
edge(137, 140).
edge(19, 67).
edge(17, 128).
edge(70, 80).
edge(34, 90).
edge(74, 83).
edge(48, 92).
edge(47, 149).
edge(9, 33).
edge(43, 150).
edge(15, 57).
edge(28, 85).
edge(44, 52).
edge(77, 100).
edge(107, 121).
edge(3, 95).
edge(60, 65).
edge(77, 90).
edge(1, 9).
edge(2, 135).
edge(7, 128).
edge(1, 5).
edge(6, 133).
edge(105, 147).
edge(1, 136).
edge(44, 126).
edge(69, 144).
edge(117, 127).
edge(37, 120).
edge(95, 144).
edge(48, 146).
edge(41, 60).
edge(52, 138).
edge(64, 131).
edge(11, 61).
edge(61, 111).
edge(39, 135).
edge(34, 45).
edge(105, 125).
edge(62, 110).
edge(52, 91).
edge(60, 125).
edge(117, 146).
edge(17, 21).
edge(9, 134).
edge(4, 31).
edge(27, 148).
edge(46, 70).
edge(9, 68).
edge(72, 107).
edge(4, 44).
edge(18, 106).
edge(36, 37).
edge(29, 43).
edge(6, 78).
edge(14, 133).
edge(27, 81).
edge(29, 106).
edge(2, 74).
edge(67, 118).
edge(4, 9).
edge(64, 115).
edge(121, 144).
edge(3, 111).
edge(36, 74).
edge(116, 132).
edge(63, 75).
edge(12, 52).
edge(12, 122).
edge(132, 137).
edge(2, 60).
edge(41, 85).
edge(26, 73).
edge(42, 81).
edge(17, 54).
edge(21, 58).
edge(115, 126).
edge(62, 99).
edge(23, 55).
edge(40, 109).
edge(5, 35).
edge(43, 143).
edge(41, 75).
edge(100, 104).
edge(112, 116).
edge(64, 99).
edge(31, 66).
edge(55, 116).
edge(109, 124).
edge(27, 91).
edge(16, 33).
edge(8, 53).
edge(28, 53).
edge(60, 75).
edge(36, 139).
edge(44, 148).
edge(42, 115).
edge(148, 149).
edge(21, 56).
edge(39, 56).
edge(67, 122).
edge(95, 139).
edge(9, 16).
edge(81, 149).
edge(23, 113).
edge(58, 133).
edge(39, 140).
edge(71, 108).
edge(54, 72).
edge(80, 142).
edge(8, 102).
edge(12, 106).
edge(134, 147).
edge(96, 119).
edge(7, 96).
edge(35, 66).
edge(57, 136).
edge(104, 146).
edge(40, 77).
edge(25, 124).
edge(17, 113).
edge(14, 35).
edge(40, 82).
edge(15, 115).
edge(10, 24).
edge(14, 32).
edge(32, 73).
edge(107, 127).
edge(72, 113).
edge(69, 96).
edge(41, 149).
edge(140, 143).
edge(30, 69).
edge(76, 116).
edge(44, 74).
edge(64, 136).
edge(59, 112).
edge(49, 147).
edge(64, 77).
edge(67, 69).
edge(27, 34).
edge(15, 41).
edge(129, 141).
edge(26, 137).
edge(55, 114).
edge(71, 75).
edge(78, 82).
edge(9, 61).
edge(58, 92).
edge(84, 106).
edge(9, 128).
edge(17, 119).
edge(10, 141).
edge(29, 49).
edge(46, 122).
edge(43, 51).
edge(92, 104).
edge(11, 21).
edge(86, 115).
edge(13, 21).
edge(80, 94).
edge(23, 148).
edge(56, 96).
edge(90, 119).
edge(10, 140).
edge(66, 137).
edge(65, 118).
edge(18, 40).
edge(10, 73).
edge(0, 62).
edge(38, 112).
edge(15, 87).
edge(64, 114).
edge(69, 79).
edge(30, 112).
edge(30, 50).
edge(42, 82).
edge(29, 55).
edge(11, 15).
edge(97, 110).
edge(23, 136).
edge(46, 132).
edge(3, 38).
edge(12, 77).
edge(104, 115).
edge(17, 149).
edge(21, 22).
edge(20, 42).
edge(115, 142).
edge(34, 106).
edge(68, 96).
edge(57, 113).
edge(40, 139).
edge(146, 147).
edge(79, 134).
edge(61, 66).
edge(41, 55).
edge(36, 97).
edge(30, 47).
edge(24, 112).
edge(78, 84).
edge(138, 149).
edge(58, 121).
edge(82, 94).
edge(73, 136).
edge(51, 138).
edge(99, 105).
edge(127, 141).
edge(0, 101).
edge(89, 116).
edge(0, 23).
edge(74, 123).
edge(0, 67).
edge(8, 139).
edge(45, 84).
edge(4, 60).
edge(69, 111).
edge(1, 141).
edge(2, 10).
edge(7, 27).
edge(10, 34).
edge(54, 149).
edge(34, 66).
edge(5, 66).
edge(16, 37).
edge(18, 30).
edge(30, 76).
edge(7, 82).
edge(71, 87).
edge(64, 68).
edge(42, 58).
edge(90, 135).
edge(55, 120).
edge(49, 74).
edge(20, 85).
edge(25, 83).
edge(14, 109).
edge(37, 128).
edge(19, 28).
edge(22, 89).
edge(35, 119).
edge(8, 19).
edge(42, 121).
edge(122, 123).
edge(60, 139).
edge(54, 120).
edge(96, 137).
edge(18, 86).
edge(3, 40).
edge(106, 123).
edge(81, 107).
edge(52, 102).
edge(32, 130).
edge(25, 65).
edge(89, 133).
edge(72, 150).
edge(62, 122).
edge(79, 102).
edge(12, 47).
edge(0, 87).
edge(109, 140).
edge(29, 40).
edge(64, 146).
edge(27, 53).
edge(60, 100).
edge(4, 146).
edge(63, 123).
edge(84, 103).
edge(0, 130).
edge(61, 148).
edge(111, 139).
edge(79, 89).
edge(13, 108).
edge(44, 58).
edge(0, 149).
edge(98, 107).
edge(16, 98).
edge(40, 62).
edge(24, 30).
edge(119, 120).
edge(0, 105).
edge(29, 109).
edge(8, 21).
edge(27, 30).
edge(33, 58).
edge(2, 149).
edge(1, 89).
edge(40, 135).
edge(41, 125).
edge(43, 142).
edge(17, 70).
edge(77, 127).
edge(117, 137).
edge(78, 144).
edge(129, 146).
edge(70, 138).
edge(88, 134).
edge(96, 97).
edge(11, 64).
edge(1, 11).
edge(72, 84).
edge(86, 107).
edge(105, 134).
edge(20, 40).
edge(108, 115).
edge(79, 112).
edge(51, 104).
edge(96, 136).
edge(90, 149).
edge(25, 121).
edge(31, 115).
edge(9, 113).
edge(132, 140).
edge(1, 134).
edge(36, 69).
edge(31, 60).
edge(45, 54).
edge(9, 45).
edge(44, 127).
edge(5, 126).
edge(28, 117).
edge(70, 110).
edge(76, 109).
edge(59, 97).
edge(45, 145).
edge(47, 75).
edge(63, 79).
edge(64, 91).
edge(38, 143).
edge(72, 76).
edge(1, 69).
edge(17, 59).
edge(48, 109).
edge(92, 102).
edge(6, 24).
edge(38, 111).
edge(90, 129).
edge(51, 70).
edge(35, 123).
edge(16, 137).
edge(7, 54).
edge(85, 115).
edge(77, 111).
edge(45, 50).
edge(131, 139).
edge(3, 43).
edge(0, 104).
edge(27, 33).
edge(25, 61).
edge(3, 93).
edge(19, 53).
edge(22, 97).
edge(10, 137).
edge(13, 70).
edge(3, 30).
edge(65, 140).
edge(57, 119).
edge(51, 53).
edge(76, 128).
edge(52, 121).
edge(66, 142).
edge(37, 57).
edge(21, 97).
edge(53, 148).
edge(105, 131).
edge(80, 83).
edge(90, 130).
edge(71, 142).
edge(23, 53).
edge(7, 73).
edge(46, 102).
edge(0, 94).
edge(75, 85).
edge(36, 115).
edge(77, 107).
edge(49, 69).
edge(54, 128).
edge(49, 126).
edge(116, 123).
edge(100, 118).
edge(77, 101).
edge(52, 118).
edge(70, 104).
edge(109, 126).
edge(0, 71).
edge(18, 53).
edge(113, 136).
edge(16, 115).
edge(34, 135).
edge(51, 134).
edge(16, 72).
edge(59, 127).
edge(7, 142).
edge(44, 53).
edge(3, 60).
edge(32, 125).
edge(56, 91).
edge(33, 68).
edge(58, 116).
edge(81, 95).
edge(46, 59).
edge(57, 67).
edge(1, 114).
edge(6, 38).
edge(113, 126).
edge(34, 149).
edge(80, 108).
edge(41, 73).
edge(137, 141).
edge(119, 125).
edge(53, 55).
edge(68, 138).
edge(65, 128).
edge(33, 50).
edge(23, 83).
edge(92, 121).
edge(70, 125).
edge(50, 126).
edge(30, 120).
edge(80, 146).
edge(0, 99).
edge(48, 135).
edge(108, 129).
edge(29, 97).
edge(34, 85).
edge(28, 46).
edge(42, 48).
edge(5, 96).
edge(25, 46).
edge(17, 103).
edge(62, 119).
edge(61, 93).
edge(63, 122).
edge(45, 133).
edge(11, 150).
edge(61, 68).
edge(141, 143).
edge(12, 41).
edge(113, 122).
edge(22, 141).
edge(39, 62).
edge(56, 137).
edge(38, 92).
edge(78, 114).
edge(69, 134).
edge(20, 98).
edge(15, 77).
edge(1, 144).
edge(40, 129).
edge(71, 91).
edge(1, 106).
edge(16, 142).
edge(5, 93).
edge(45, 79).
edge(99, 133).
edge(99, 150).
edge(100, 108).
edge(20, 48).
edge(24, 120).
edge(56, 89).
edge(33, 42).
edge(7, 12).
edge(89, 121).
edge(74, 135).
edge(50, 61).
edge(95, 150).
edge(28, 74).
edge(8, 100).
edge(0, 144).
edge(4, 84).
edge(21, 130).
edge(41, 140).
edge(38, 39).
edge(45, 147).
edge(6, 85).
edge(16, 78).
edge(19, 79).
edge(4, 49).
edge(31, 85).
edge(5, 64).
edge(6, 95).
edge(29, 52).
edge(92, 139).
edge(28, 29).
edge(55, 110).
edge(30, 74).
edge(125, 144).
edge(103, 115).
edge(8, 129).
edge(14, 91).
edge(45, 72).
edge(15, 122).
edge(123, 129).
edge(135, 141).
edge(29, 72).
edge(41, 145).
edge(6, 90).
edge(100, 121).
edge(53, 116).
edge(80, 148).
edge(58, 88).
edge(17, 56).
edge(50, 51).
edge(49, 68).
edge(27, 150).
edge(80, 88).
edge(33, 64).
edge(28, 150).
edge(47, 144).
edge(19, 91).
edge(32, 64).
edge(8, 148).
edge(79, 81).
edge(39, 118).
edge(52, 127).
edge(5, 58).
edge(44, 128).
edge(66, 121).
edge(33, 69).
edge(19, 139).
edge(0, 57).
edge(7, 97).
edge(105, 142).
edge(9, 19).
edge(47, 81).
edge(3, 86).
edge(57, 60).
edge(9, 126).
edge(109, 144).
edge(42, 96).
edge(28, 55).
edge(9, 43).
edge(73, 81).
edge(72, 104).
edge(53, 94).
edge(9, 144).
edge(35, 70).
edge(59, 139).
edge(9, 90).
edge(42, 79).
edge(74, 82).
edge(17, 120).
edge(144, 148).
edge(52, 96).
edge(31, 114).
edge(25, 149).
edge(69, 145).
edge(51, 99).
edge(48, 137).
edge(70, 98).
edge(48, 117).
edge(2, 113).
edge(118, 133).
edge(21, 123).
edge(1, 127).
edge(21, 95).
edge(51, 117).
edge(64, 129).
edge(59, 123).
edge(63, 132).
edge(101, 130).
edge(7, 146).
edge(28, 35).
edge(59, 134).
edge(120, 130).
edge(83, 89).
edge(78, 87).
edge(77, 131).
edge(41, 42).
edge(41, 136).
edge(22, 71).
edge(29, 92).
edge(51, 106).
edge(58, 66).
edge(7, 40).
edge(90, 91).
edge(17, 84).
edge(7, 26).
edge(56, 80).
edge(19, 137).
edge(44, 140).
edge(5, 54).
edge(5, 71).
edge(43, 109).
edge(19, 110).
edge(104, 137).
edge(39, 102).
edge(2, 64).
edge(15, 49).
edge(5, 138).
edge(71, 84).
edge(39, 81).
edge(66, 133).
edge(36, 125).
edge(23, 85).
edge(107, 123).
edge(46, 118).
edge(92, 101).
edge(40, 54).
edge(16, 114).
edge(45, 114).
edge(71, 83).
edge(87, 90).
edge(115, 117).
edge(80, 118).
edge(81, 104).
edge(11, 28).
edge(67, 89).
edge(22, 128).
edge(107, 141).
edge(19, 39).
edge(44, 129).
edge(83, 90).
edge(63, 141).
edge(0, 8).
edge(87, 110).
edge(16, 20).
edge(3, 22).
edge(1, 119).
edge(82, 121).
edge(111, 146).
edge(92, 108).
edge(27, 139).
edge(3, 119).
edge(57, 85).
edge(3, 113).
edge(57, 114).
edge(5, 82).
edge(70, 121).
edge(47, 126).
edge(135, 148).
edge(106, 114).
edge(67, 150).
edge(16, 32).
edge(76, 125).
edge(12, 130).
edge(11, 75).
edge(110, 131).
edge(11, 133).
edge(40, 89).
edge(37, 117).
edge(34, 104).
edge(84, 98).
edge(42, 56).
edge(123, 133).
edge(31, 86).
edge(133, 141).
edge(9, 87).
edge(7, 56).
edge(51, 136).
edge(19, 64).
edge(16, 132).
edge(55, 123).
edge(77, 139).
edge(50, 112).
edge(135, 139).
edge(76, 89).
edge(6, 126).
edge(104, 129).
edge(70, 84).
edge(45, 94).
edge(116, 127).
edge(95, 112).
edge(11, 107).
edge(26, 80).
edge(33, 94).
edge(41, 84).
edge(24, 94).
edge(50, 106).
edge(16, 148).
edge(5, 84).
edge(68, 105).
edge(129, 132).
edge(51, 59).
edge(44, 120).
edge(37, 68).
edge(32, 148).
edge(15, 30).
edge(41, 56).
edge(7, 76).
edge(84, 101).
edge(86, 123).
edge(13, 44).
edge(41, 51).
edge(2, 23).
edge(80, 95).
edge(16, 141).
edge(12, 146).
edge(92, 135).
edge(64, 138).
edge(3, 101).
edge(42, 118).
edge(15, 74).
edge(24, 110).
edge(69, 78).
edge(13, 123).
edge(10, 105).
edge(5, 17).
edge(8, 55).
edge(7, 50).
edge(44, 47).
edge(57, 84).
edge(71, 74).
edge(100, 125).
edge(13, 100).
edge(105, 144).
edge(49, 90).
edge(82, 137).
edge(3, 82).
edge(94, 101).
edge(44, 104).
edge(32, 145).
edge(10, 17).
edge(93, 113).
edge(28, 38).
edge(97, 103).
edge(37, 92).
edge(0, 100).
edge(122, 137).
edge(30, 81).
edge(71, 141).
edge(29, 68).
edge(10, 62).
edge(25, 33).
edge(55, 87).
edge(14, 36).
edge(95, 149).
edge(71, 146).
edge(19, 134).
edge(8, 13).
edge(44, 139).
edge(12, 105).
edge(58, 82).
edge(40, 122).
edge(6, 103).
edge(96, 108).
edge(84, 129).
edge(38, 144).
edge(93, 102).
edge(22, 101).
edge(22, 145).
edge(75, 123).
edge(34, 140).
edge(77, 132).
edge(4, 56).
edge(109, 111).
edge(0, 142).
edge(98, 125).
edge(21, 72).
edge(26, 144).
edge(1, 95).
edge(12, 18).
edge(100, 114).
edge(17, 92).
edge(43, 75).
edge(130, 135).
edge(101, 115).
edge(105, 113).
edge(100, 139).
edge(22, 147).
edge(29, 133).
edge(58, 150).
edge(55, 101).
edge(0, 123).
edge(20, 138).
edge(52, 65).
edge(137, 139).
edge(47, 141).
edge(7, 85).
edge(16, 147).
edge(87, 125).
edge(6, 7).
edge(22, 112).
edge(22, 79).
edge(16, 121).
edge(50, 119).
edge(13, 34).
edge(12, 36).
edge(83, 132).
edge(75, 108).
edge(30, 104).
edge(43, 79).
edge(60, 130).
edge(83, 112).
edge(50, 96).
edge(7, 144).
edge(16, 89).
edge(50, 103).
edge(106, 134).
edge(108, 116).
edge(23, 52).
edge(102, 149).
edge(46, 127).
edge(28, 39).
edge(63, 108).
edge(132, 148).
edge(86, 150).
edge(50, 124).
edge(62, 130).
edge(35, 147).
edge(40, 79).
edge(17, 107).
edge(26, 103).
edge(114, 145).
edge(26, 39).
edge(52, 141).
edge(66, 108).
edge(114, 115).
edge(43, 124).
edge(55, 147).
edge(97, 116).
edge(38, 146).
edge(29, 50).
edge(25, 127).
edge(7, 137).
edge(70, 103).
edge(62, 129).
edge(40, 57).
edge(96, 126).
edge(35, 108).
edge(60, 126).
edge(102, 110).
edge(35, 47).
edge(46, 141).
edge(21, 105).
edge(31, 150).
edge(67, 104).
edge(13, 136).
edge(18, 50).
edge(10, 127).
edge(49, 76).
edge(114, 143).
edge(77, 150).
edge(26, 133).
edge(113, 129).
edge(34, 78).
edge(11, 103).
edge(115, 141).
edge(104, 122).
edge(49, 99).
edge(61, 147).
edge(93, 126).
edge(71, 136).
edge(46, 48).
edge(7, 123).
edge(18, 60).
edge(55, 74).
edge(13, 128).
edge(4, 135).
edge(28, 54).
edge(11, 147).
edge(64, 103).
edge(87, 140).
edge(55, 109).
edge(45, 62).
edge(44, 64).
edge(56, 108).
edge(59, 100).
edge(16, 145).
edge(81, 124).
edge(3, 88).
edge(98, 130).
edge(12, 17).
edge(87, 91).
edge(30, 126).
edge(133, 147).
edge(119, 149).
edge(24, 123).
edge(78, 106).
edge(81, 148).
edge(14, 127).
edge(66, 70).
edge(6, 99).
edge(28, 148).
edge(103, 116).
edge(9, 75).
edge(13, 98).
edge(59, 150).
edge(94, 127).
edge(60, 99).
edge(40, 84).
edge(33, 133).
edge(48, 91).
edge(21, 80).
edge(36, 122).
edge(133, 135).
edge(36, 105).
edge(49, 144).
edge(0, 5).
edge(103, 113).
edge(5, 106).
edge(54, 77).
edge(68, 104).
edge(101, 119).
edge(13, 124).
edge(56, 115).
edge(14, 95).
edge(54, 82).
edge(129, 140).
edge(19, 114).
edge(51, 124).
edge(78, 91).
edge(122, 135).
edge(44, 149).
edge(74, 93).
edge(47, 76).
edge(36, 39).
edge(10, 77).
edge(50, 68).
edge(36, 77).
edge(30, 68).
edge(56, 146).
edge(13, 146).
edge(10, 148).
edge(71, 111).
edge(18, 99).
edge(15, 135).
edge(16, 55).
edge(123, 125).
edge(14, 26).
edge(15, 82).
edge(111, 113).
edge(7, 79).
edge(58, 131).
edge(17, 38).
edge(24, 56).
edge(72, 102).
edge(79, 122).
edge(25, 144).
edge(63, 102).
edge(94, 100).
edge(56, 134).
edge(41, 111).
edge(12, 50).
edge(69, 101).
edge(78, 139).
edge(38, 133).
edge(13, 32).
edge(30, 43).
edge(134, 143).
edge(40, 93).
edge(48, 141).
edge(70, 140).
edge(55, 78).
edge(136, 142).
edge(111, 120).
edge(13, 69).
edge(76, 137).
edge(35, 137).
edge(39, 142).
edge(24, 32).
edge(25, 148).
edge(9, 140).
edge(119, 147).
edge(7, 109).
edge(90, 111).
edge(124, 136).
edge(7, 39).
edge(38, 149).
edge(14, 75).
edge(104, 140).
edge(41, 123).
edge(22, 148).
edge(29, 135).
edge(131, 135).
edge(26, 38).
edge(15, 110).
edge(7, 72).
edge(17, 67).
edge(61, 146).
edge(103, 136).
edge(18, 108).
edge(28, 122).
edge(12, 78).
edge(43, 59).
edge(28, 99).
edge(68, 86).
edge(7, 28).
edge(4, 98).
edge(75, 97).
edge(16, 40).
edge(73, 129).
edge(9, 76).
edge(78, 108).
edge(46, 140).
edge(4, 148).
edge(15, 149).
edge(11, 137).
edge(51, 82).
edge(13, 87).
edge(15, 65).
edge(18, 39).
edge(24, 113).
edge(55, 100).
edge(61, 101).
edge(73, 134).
edge(61, 65).
edge(31, 78).
edge(0, 79).
edge(119, 121).
edge(108, 139).
edge(123, 149).
edge(103, 111).
edge(80, 86).
edge(46, 92).
edge(91, 130).
edge(81, 142).
edge(32, 90).
edge(31, 109).
edge(99, 139).
edge(93, 96).
edge(70, 123).
edge(69, 77).
edge(109, 131).
edge(42, 86).
edge(19, 77).
edge(22, 53).
edge(64, 78).
edge(31, 138).
edge(70, 75).
edge(5, 10).
edge(134, 150).
edge(84, 138).
edge(56, 131).
edge(46, 78).
edge(40, 95).
edge(55, 60).
edge(78, 133).
edge(43, 141).
edge(98, 146).
edge(60, 116).
edge(50, 94).
edge(2, 16).
edge(17, 22).
edge(91, 127).
edge(66, 144).
edge(100, 138).
edge(45, 52).
edge(44, 48).
edge(5, 131).
edge(7, 101).
edge(24, 138).
edge(90, 147).
edge(9, 100).
edge(122, 130).
edge(2, 90).
edge(16, 80).
edge(18, 43).
edge(11, 50).
edge(103, 148).
edge(37, 107).
edge(101, 133).
edge(34, 110).
edge(1, 55).
edge(1, 83).
edge(52, 125).
edge(2, 116).
edge(48, 96).
edge(16, 69).
edge(106, 144).
edge(37, 143).
edge(130, 149).
edge(44, 134).
edge(88, 131).
edge(20, 69).
edge(36, 56).
edge(70, 74).
edge(29, 129).
edge(7, 140).
edge(35, 60).
edge(71, 77).
edge(90, 93).
edge(45, 68).
edge(132, 136).
edge(99, 126).
edge(43, 86).
edge(111, 145).
edge(37, 82).
edge(90, 114).
edge(30, 39).
edge(19, 90).
edge(27, 43).
edge(20, 82).
edge(54, 100).
edge(15, 59).
edge(11, 127).
edge(71, 120).
edge(29, 59).
edge(12, 37).
edge(36, 64).
edge(46, 65).
edge(29, 47).
edge(55, 62).
edge(9, 51).
edge(3, 31).
edge(112, 126).
edge(7, 67).
edge(20, 144).
edge(73, 140).
edge(52, 109).
edge(21, 34).
edge(65, 69).
edge(8, 24).
edge(50, 73).
edge(18, 25).
edge(43, 58).
edge(44, 125).
edge(56, 120).
edge(46, 76).
edge(94, 140).
edge(36, 42).
edge(53, 96).
edge(63, 70).
edge(21, 139).
edge(108, 114).
edge(31, 44).
edge(1, 149).
edge(52, 85).
edge(41, 82).
edge(6, 75).
edge(25, 51).
edge(54, 134).
edge(1, 20).
edge(5, 89).
edge(91, 136).
edge(93, 103).
edge(26, 59).
edge(18, 26).
edge(77, 124).
edge(0, 37).
edge(40, 56).
edge(17, 27).
edge(109, 138).
edge(79, 131).
edge(9, 11).
edge(31, 62).
edge(101, 106).
edge(73, 139).
edge(33, 81).
edge(72, 112).
edge(6, 150).
edge(20, 142).
edge(61, 94).
edge(69, 93).
edge(137, 146).
edge(52, 114).
edge(28, 78).
edge(126, 132).
edge(113, 134).
edge(6, 149).
edge(61, 84).
edge(83, 131).
edge(51, 83).
edge(49, 117).
edge(52, 119).
edge(10, 13).
edge(14, 100).
edge(88, 93).
edge(96, 131).
edge(86, 119).
edge(12, 56).
edge(47, 82).
edge(12, 57).
edge(52, 139).
edge(79, 106).
edge(28, 34).
edge(26, 30).
edge(47, 59).
edge(74, 133).
edge(136, 137).
edge(47, 72).
edge(136, 144).
edge(93, 124).
edge(8, 52).
edge(42, 106).
edge(19, 102).
edge(0, 7).
edge(24, 149).
edge(122, 132).
edge(17, 123).
edge(18, 83).
edge(83, 133).
edge(41, 96).
edge(97, 117).
edge(17, 81).
edge(103, 131).
edge(61, 98).
edge(41, 122).
edge(18, 62).
edge(88, 100).
edge(11, 42).
edge(71, 102).
edge(118, 149).
edge(21, 81).
edge(93, 137).
edge(88, 147).
edge(49, 145).
edge(86, 105).
edge(8, 107).
edge(114, 117).
edge(44, 82).
edge(0, 127).
edge(24, 105).
edge(80, 81).
edge(82, 111).
edge(33, 46).
edge(62, 123).
edge(121, 149).
edge(0, 128).
edge(77, 98).
edge(108, 121).
edge(2, 27).
edge(134, 144).
edge(100, 112).
edge(11, 96).
edge(31, 141).
edge(10, 39).
edge(16, 44).
edge(26, 44).
edge(44, 69).
edge(114, 134).
edge(8, 116).
edge(17, 138).
edge(32, 70).
edge(114, 139).
edge(82, 84).
edge(99, 145).
edge(12, 61).
edge(44, 145).
edge(84, 110).
edge(24, 97).
edge(135, 140).
edge(72, 111).
edge(36, 40).
edge(28, 131).
edge(101, 122).
edge(84, 97).
edge(118, 138).
edge(1, 84).
edge(52, 92).
edge(42, 124).
edge(25, 28).
edge(60, 68).
edge(87, 144).
edge(62, 127).
edge(64, 127).
edge(134, 145).
edge(75, 98).
edge(34, 58).
edge(83, 87).
edge(49, 95).
edge(92, 133).
edge(31, 142).
edge(79, 149).
edge(32, 139).
edge(116, 117).
edge(25, 44).
edge(20, 116).
edge(48, 88).
edge(32, 122).
edge(11, 30).
edge(4, 47).
edge(6, 94).
edge(10, 56).
edge(12, 84).
edge(18, 107).
edge(50, 64).
edge(8, 78).
edge(17, 51).
edge(97, 126).
edge(15, 124).
edge(61, 145).
edge(7, 93).
edge(8, 37).
edge(4, 121).
edge(3, 50).
edge(19, 127).
edge(11, 99).
edge(9, 138).
edge(57, 97).
edge(43, 108).
edge(127, 145).
edge(94, 150).
edge(48, 133).
edge(35, 75).
edge(93, 123).
edge(28, 93).
edge(14, 139).
edge(15, 131).
edge(19, 97).
edge(26, 101).
edge(33, 72).
edge(10, 27).
edge(57, 103).
edge(43, 113).
edge(27, 140).
edge(87, 104).
edge(26, 148).
edge(31, 108).
edge(23, 26).
edge(14, 46).
edge(72, 77).
edge(107, 109).
edge(1, 104).
edge(117, 147).
edge(1, 35).
edge(106, 126).
edge(7, 92).
edge(13, 67).
edge(56, 135).
edge(46, 137).
edge(8, 87).
edge(83, 103).
edge(10, 11).
edge(56, 117).
edge(68, 100).
edge(107, 122).
edge(13, 139).
edge(29, 139).
edge(84, 88).
edge(77, 78).
edge(45, 87).
edge(7, 77).
edge(19, 92).
edge(95, 116).
edge(45, 144).
edge(0, 86).
edge(58, 103).
edge(11, 60).
edge(100, 137).
edge(25, 105).
edge(8, 70).
edge(20, 124).
edge(11, 110).
edge(2, 80).
edge(46, 109).
edge(32, 82).
edge(103, 137).
edge(10, 125).
edge(9, 91).
edge(16, 70).
edge(0, 18).
edge(91, 112).
edge(114, 141).
edge(63, 95).
edge(76, 78).
edge(31, 79).
edge(56, 75).
edge(30, 44).
edge(43, 54).
edge(71, 72).
edge(14, 65).
edge(50, 63).
edge(38, 65).
edge(97, 139).
edge(32, 76).
edge(112, 118).
edge(21, 137).
edge(26, 85).
edge(7, 129).
edge(17, 105).
edge(48, 75).
edge(58, 140).
edge(54, 125).
edge(59, 105).
edge(36, 121).
edge(30, 133).
edge(51, 120).
edge(113, 148).
edge(52, 66).
edge(74, 132).
edge(24, 34).
edge(70, 111).
edge(2, 5).
edge(50, 55).
edge(64, 65).
edge(87, 103).
edge(5, 44).
edge(62, 149).
edge(123, 150).
edge(28, 109).
edge(18, 109).
edge(38, 130).
edge(16, 30).
edge(69, 83).
edge(97, 125).
edge(48, 98).
edge(19, 150).
edge(28, 57).
edge(21, 57).
edge(91, 108).
edge(29, 30).
edge(44, 115).
edge(75, 143).
edge(6, 54).
edge(33, 87).
edge(68, 131).
edge(21, 108).
edge(50, 110).
edge(18, 72).
edge(81, 147).
edge(63, 148).
edge(14, 143).
edge(53, 58).
edge(12, 114).
edge(108, 135).
edge(81, 103).
edge(101, 139).
edge(64, 98).
edge(59, 149).
edge(26, 123).
edge(6, 122).
edge(111, 149).
edge(115, 147).
edge(22, 115).
edge(29, 132).
edge(112, 147).
edge(90, 150).
edge(41, 102).
edge(10, 58).
edge(54, 126).
edge(34, 94).
edge(21, 96).
edge(77, 134).
edge(1, 112).
edge(31, 45).
edge(0, 63).
edge(23, 101).
edge(85, 93).
edge(31, 88).
edge(95, 120).
edge(20, 106).
edge(41, 88).
edge(78, 107).
edge(16, 43).
edge(28, 110).
edge(25, 141).
edge(1, 130).
edge(65, 146).
edge(47, 64).
edge(93, 133).
edge(32, 49).
edge(25, 93).
edge(52, 130).
edge(108, 138).
edge(49, 103).
edge(18, 135).
edge(34, 47).
edge(4, 89).
edge(76, 150).
edge(55, 82).
edge(11, 37).
edge(23, 71).
edge(11, 14).
edge(90, 133).
edge(41, 148).
edge(20, 129).
edge(138, 143).
edge(49, 150).
edge(35, 85).
edge(33, 131).
edge(32, 91).
edge(4, 82).
edge(91, 123).
edge(53, 126).
edge(51, 116).
edge(1, 73).
edge(88, 99).
edge(7, 34).
edge(2, 26).
edge(70, 144).
edge(14, 132).
edge(126, 149).
edge(44, 113).
edge(26, 65).
edge(59, 80).
edge(92, 99).
edge(24, 40).
edge(19, 125).
edge(71, 82).
edge(35, 145).
edge(32, 41).
edge(1, 24).
edge(3, 99).
edge(35, 55).
edge(5, 104).
edge(23, 74).
edge(95, 104).
edge(114, 118).
edge(20, 32).
edge(85, 127).
edge(12, 119).
edge(23, 120).
edge(8, 122).
edge(42, 129).
edge(10, 83).
edge(81, 99).
edge(52, 84).
edge(2, 59).
edge(75, 136).
edge(57, 104).
edge(24, 104).
edge(1, 105).
edge(9, 74).
edge(53, 147).
edge(7, 55).
edge(5, 143).
edge(32, 106).
edge(32, 38).
edge(1, 43).
edge(112, 120).
edge(69, 119).
edge(67, 87).
edge(126, 150).
edge(47, 91).
edge(98, 150).
edge(51, 87).
edge(89, 138).
edge(72, 89).
edge(53, 71).
edge(45, 137).
edge(51, 91).
edge(9, 81).
edge(26, 87).
edge(86, 111).
edge(91, 146).
edge(23, 116).
edge(120, 132).
edge(28, 30).
edge(36, 113).
edge(40, 123).
edge(21, 38).
edge(23, 111).
edge(1, 33).
edge(117, 124).
edge(35, 110).
edge(0, 140).
edge(26, 37).
edge(27, 118).
edge(17, 126).
edge(135, 143).
edge(129, 147).
edge(92, 141).
edge(79, 108).
edge(111, 132).
edge(16, 62).
edge(91, 97).
edge(10, 103).
edge(8, 61).
edge(26, 47).
edge(1, 123).
edge(69, 141).
edge(42, 103).
edge(125, 148).
edge(35, 117).
edge(66, 72).
edge(54, 60).
edge(50, 133).
edge(93, 128).
edge(5, 108).
edge(6, 23).
edge(12, 15).
edge(69, 98).
edge(18, 63).
edge(62, 75).
edge(47, 115).
edge(87, 97).
edge(23, 112).
edge(108, 147).
edge(27, 58).
edge(76, 86).
edge(36, 119).
edge(21, 55).
edge(65, 71).
edge(33, 126).
edge(39, 90).
edge(32, 44).
edge(60, 93).
edge(20, 104).
edge(27, 35).
edge(125, 143).
edge(3, 52).
edge(35, 142).
edge(68, 98).
edge(69, 129).
edge(6, 49).
edge(8, 45).
edge(85, 89).
edge(85, 138).
edge(40, 87).
edge(37, 90).
edge(21, 66).
edge(42, 102).
edge(15, 20).
edge(14, 77).
edge(68, 101).
edge(67, 137).
edge(16, 103).
edge(9, 72).
edge(100, 115).
edge(15, 95).
edge(18, 87).
edge(1, 34).
edge(34, 100).
edge(15, 53).
edge(6, 53).
edge(3, 59).
edge(7, 25).
edge(11, 85).
edge(86, 104).
edge(42, 54).
edge(48, 56).
edge(13, 143).
edge(40, 74).
edge(39, 92).
edge(69, 133).
edge(115, 150).
edge(44, 55).
edge(100, 133).
edge(3, 108).
edge(80, 107).
edge(33, 128).
edge(33, 100).
edge(73, 137).
edge(115, 140).
edge(34, 80).
edge(50, 86).
edge(13, 147).
edge(6, 22).
edge(69, 88).
edge(68, 146).
edge(35, 62).
edge(28, 47).
edge(1, 122).
edge(120, 148).
edge(46, 97).
edge(119, 148).
edge(35, 90).
edge(11, 27).
edge(89, 120).
edge(60, 140).
edge(54, 89).
edge(24, 35).
edge(69, 81).
edge(31, 106).
edge(27, 72).
edge(31, 94).
edge(3, 137).
edge(102, 141).
edge(39, 53).
edge(110, 135).
edge(10, 46).
edge(25, 101).
edge(132, 142).
edge(19, 130).
edge(81, 112).
edge(2, 73).
edge(11, 47).
edge(76, 146).
edge(10, 116).
edge(72, 138).
edge(116, 136).
edge(75, 96).
edge(24, 51).
edge(68, 124).
edge(82, 132).
edge(12, 103).
edge(101, 141).
edge(92, 96).
edge(83, 98).
edge(53, 99).
edge(106, 115).
edge(93, 95).
edge(129, 131).
edge(122, 128).
edge(77, 123).
edge(44, 62).
edge(124, 129).
weight(0, 3).
weight(1, 17).
weight(2, 19).
weight(3, 1).
weight(4, 14).
weight(5, 5).
weight(6, 9).
weight(7, 5).
weight(8, 7).
weight(9, 17).
weight(10, 19).
weight(11, 15).
weight(12, 10).
weight(13, 1).
weight(14, 7).
weight(15, 3).
weight(16, 3).
weight(17, 4).
weight(18, 8).
weight(19, 11).
weight(20, 5).
weight(21, 6).
weight(22, 5).
weight(23, 3).
weight(24, 4).
weight(25, 6).
weight(26, 7).
weight(27, 21).
weight(28, 17).
weight(29, 4).
weight(30, 11).
weight(31, 9).
weight(32, 19).
weight(33, 1).
weight(34, 3).
weight(35, 3).
weight(36, 20).
weight(37, 11).
weight(38, 16).
weight(39, 14).
weight(40, 16).
weight(41, 6).
weight(42, 6).
weight(43, 18).
weight(44, 5).
weight(45, 12).
weight(46, 8).
weight(47, 11).
weight(48, 3).
weight(49, 12).
weight(50, 8).
weight(51, 17).
weight(52, 1).
weight(53, 10).
weight(54, 11).
weight(55, 5).
weight(56, 20).
weight(57, 17).
weight(58, 4).
weight(59, 5).
weight(60, 20).
weight(61, 7).
weight(62, 20).
weight(63, 20).
weight(64, 21).
weight(65, 2).
weight(66, 17).
weight(67, 10).
weight(68, 3).
weight(69, 21).
weight(70, 8).
weight(71, 18).
weight(72, 6).
weight(73, 16).
weight(74, 20).
weight(75, 10).
weight(76, 19).
weight(77, 10).
weight(78, 16).
weight(79, 21).
weight(80, 11).
weight(81, 6).
weight(82, 3).
weight(83, 3).
weight(84, 12).
weight(85, 16).
weight(86, 12).
weight(87, 3).
weight(88, 4).
weight(89, 10).
weight(90, 7).
weight(91, 16).
weight(92, 20).
weight(93, 15).
weight(94, 8).
weight(95, 9).
weight(96, 4).
weight(97, 17).
weight(98, 20).
weight(99, 4).
weight(100, 15).
weight(101, 1).
weight(102, 11).
weight(103, 8).
weight(104, 14).
weight(105, 17).
weight(106, 16).
weight(107, 16).
weight(108, 12).
weight(109, 1).
weight(110, 19).
weight(111, 21).
weight(112, 4).
weight(113, 1).
weight(114, 21).
weight(115, 16).
weight(116, 2).
weight(117, 16).
weight(118, 13).
weight(119, 14).
weight(120, 8).
weight(121, 9).
weight(122, 11).
weight(123, 17).
weight(124, 2).
weight(125, 14).
weight(126, 13).
weight(127, 14).
weight(128, 6).
weight(129, 13).
weight(130, 1).
weight(131, 6).
weight(132, 19).
weight(133, 15).
weight(134, 14).
weight(135, 4).
weight(136, 8).
weight(137, 3).
weight(138, 14).
weight(139, 12).
weight(140, 19).
weight(141, 10).
weight(142, 1).
weight(143, 4).
weight(144, 13).
weight(145, 4).
weight(146, 19).
weight(147, 17).
weight(148, 21).
weight(149, 4).
weight(150, 4).

{in(V)} :- node(V).
:- in(U), in(V), U < V, not edge(U,V).
:~ not in(V), weight(V,W). [W@1,V]
