node(0..177).
edge(43, 115).
edge(128, 166).
edge(1, 164).
edge(143, 151).
edge(68, 112).
edge(25, 40).
edge(9, 41).
edge(1, 24).
edge(119, 159).
edge(96, 143).
edge(11, 133).
edge(77, 97).
edge(88, 95).
edge(83, 125).
edge(44, 133).
edge(112, 114).
edge(99, 141).
edge(1, 64).
edge(168, 173).
edge(53, 149).
edge(26, 165).
edge(0, 33).
edge(134, 140).
edge(106, 116).
edge(127, 163).
edge(21, 168).
edge(18, 19).
edge(45, 47).
edge(169, 177).
edge(84, 153).
edge(115, 131).
edge(0, 114).
edge(97, 103).
edge(79, 165).
edge(16, 152).
edge(9, 131).
edge(71, 97).
edge(12, 45).
edge(79, 108).
edge(47, 89).
edge(63, 134).
edge(45, 166).
edge(0, 124).
edge(43, 155).
edge(57, 122).
edge(21, 109).
edge(37, 158).
edge(47, 81).
edge(43, 134).
edge(78, 121).
edge(80, 120).
edge(113, 167).
edge(122, 147).
edge(2, 123).
edge(35, 38).
edge(124, 151).
edge(74, 112).
edge(1, 156).
edge(79, 116).
edge(1, 58).
edge(137, 168).
edge(136, 151).
edge(71, 138).
edge(32, 143).
edge(61, 142).
edge(84, 147).
edge(86, 106).
edge(41, 170).
edge(4, 165).
edge(0, 177).
edge(5, 170).
edge(62, 149).
edge(57, 138).
edge(60, 113).
edge(20, 41).
edge(80, 88).
edge(73, 150).
edge(110, 155).
edge(64, 144).
edge(8, 154).
edge(45, 120).
edge(146, 177).
edge(122, 153).
edge(171, 173).
edge(30, 140).
edge(69, 171).
edge(8, 138).
edge(16, 25).
edge(75, 95).
edge(52, 58).
edge(90, 118).
edge(41, 113).
edge(10, 21).
edge(97, 115).
edge(38, 49).
edge(77, 177).
edge(3, 73).
edge(14, 90).
edge(100, 152).
edge(91, 154).
edge(146, 160).
edge(67, 138).
edge(73, 89).
edge(67, 123).
edge(54, 138).
edge(109, 117).
edge(11, 80).
edge(61, 107).
edge(50, 142).
edge(15, 26).
edge(32, 117).
edge(26, 174).
edge(25, 153).
edge(58, 147).
edge(24, 107).
edge(52, 89).
edge(21, 102).
edge(0, 164).
edge(2, 156).
edge(104, 151).
edge(65, 110).
edge(21, 167).
edge(54, 128).
edge(88, 105).
edge(56, 71).
edge(32, 59).
edge(52, 84).
edge(67, 129).
edge(164, 167).
edge(46, 165).
edge(141, 158).
edge(55, 119).
edge(12, 71).
edge(91, 108).
edge(50, 132).
edge(75, 92).
edge(41, 126).
edge(33, 82).
edge(31, 70).
edge(18, 24).
edge(71, 94).
edge(0, 56).
edge(70, 142).
edge(89, 173).
edge(41, 92).
edge(44, 63).
edge(1, 146).
edge(33, 167).
edge(104, 155).
edge(3, 65).
edge(0, 8).
edge(102, 173).
edge(18, 82).
edge(84, 96).
edge(34, 140).
edge(3, 146).
edge(56, 84).
edge(39, 47).
edge(26, 164).
edge(60, 159).
edge(63, 142).
edge(43, 122).
edge(5, 26).
edge(9, 104).
edge(30, 133).
edge(53, 78).
edge(68, 86).
edge(40, 71).
edge(21, 169).
edge(43, 116).
edge(41, 67).
edge(85, 131).
edge(40, 118).
edge(60, 162).
edge(92, 143).
edge(117, 122).
edge(0, 106).
edge(1, 173).
edge(108, 139).
edge(13, 131).
edge(21, 81).
edge(40, 77).
edge(115, 172).
edge(154, 177).
edge(108, 160).
edge(62, 109).
edge(51, 62).
edge(75, 144).
edge(6, 130).
edge(40, 82).
edge(54, 71).
edge(133, 151).
edge(40, 128).
edge(41, 52).
edge(96, 173).
edge(32, 90).
edge(1, 170).
edge(44, 136).
edge(5, 49).
edge(90, 94).
edge(67, 80).
edge(29, 159).
edge(25, 115).
edge(52, 142).
edge(76, 100).
edge(129, 170).
edge(20, 163).
edge(133, 139).
edge(68, 124).
edge(88, 169).
edge(98, 168).
edge(85, 163).
edge(85, 169).
edge(54, 57).
edge(50, 57).
edge(123, 134).
edge(46, 71).
edge(21, 121).
edge(11, 23).
edge(22, 98).
edge(19, 154).
edge(12, 105).
edge(2, 63).
edge(75, 96).
edge(71, 123).
edge(157, 177).
edge(29, 143).
edge(87, 114).
edge(64, 80).
edge(13, 160).
edge(28, 104).
edge(17, 56).
edge(94, 166).
edge(9, 162).
edge(53, 77).
edge(24, 147).
edge(107, 141).
edge(111, 117).
edge(121, 124).
edge(159, 164).
edge(58, 77).
edge(51, 168).
edge(6, 112).
edge(21, 148).
edge(76, 170).
edge(1, 13).
edge(10, 24).
edge(34, 165).
edge(147, 165).
edge(31, 106).
edge(57, 93).
edge(98, 111).
edge(7, 54).
edge(93, 167).
edge(31, 163).
edge(27, 131).
edge(61, 154).
edge(84, 110).
edge(88, 103).
edge(23, 27).
edge(10, 78).
edge(25, 80).
edge(99, 165).
edge(71, 162).
edge(15, 161).
edge(85, 176).
edge(72, 174).
edge(47, 51).
edge(117, 140).
edge(60, 126).
edge(48, 102).
edge(97, 169).
edge(5, 69).
edge(8, 24).
edge(52, 152).
edge(29, 96).
edge(64, 122).
edge(145, 148).
edge(57, 70).
edge(12, 24).
edge(100, 110).
edge(94, 111).
edge(105, 141).
edge(13, 120).
edge(26, 48).
edge(66, 79).
edge(72, 114).
edge(78, 93).
edge(25, 73).
edge(57, 141).
edge(59, 166).
edge(34, 124).
edge(132, 160).
edge(68, 134).
edge(49, 52).
edge(65, 105).
edge(37, 101).
edge(112, 163).
edge(70, 108).
edge(122, 141).
edge(40, 68).
edge(66, 157).
edge(6, 96).
edge(8, 177).
edge(20, 81).
edge(38, 170).
edge(33, 157).
edge(34, 71).
edge(88, 160).
edge(41, 168).
edge(66, 171).
edge(106, 170).
edge(86, 134).
edge(76, 106).
edge(98, 115).
edge(91, 175).
edge(97, 158).
edge(49, 123).
edge(7, 43).
edge(67, 116).
edge(16, 112).
edge(66, 68).
edge(12, 37).
edge(84, 138).
edge(36, 93).
edge(64, 136).
edge(16, 160).
edge(56, 126).
edge(70, 84).
edge(46, 80).
edge(4, 58).
edge(130, 166).
edge(24, 106).
edge(81, 133).
edge(60, 167).
edge(88, 156).
edge(50, 149).
edge(121, 167).
edge(24, 101).
edge(60, 88).
edge(74, 175).
edge(43, 157).
edge(6, 71).
edge(46, 69).
edge(60, 155).
edge(3, 47).
edge(25, 91).
edge(80, 166).
edge(106, 174).
edge(15, 74).
edge(82, 168).
edge(44, 77).
edge(110, 173).
edge(25, 84).
edge(85, 118).
edge(103, 108).
edge(109, 150).
edge(24, 60).
edge(14, 130).
edge(2, 85).
edge(2, 16).
edge(82, 112).
edge(19, 121).
edge(94, 126).
edge(17, 79).
edge(66, 149).
edge(80, 118).
edge(121, 139).
edge(5, 27).
edge(59, 148).
edge(2, 14).
edge(94, 163).
edge(71, 131).
edge(38, 130).
edge(14, 40).
edge(84, 125).
edge(100, 136).
edge(46, 91).
edge(59, 70).
edge(105, 111).
edge(80, 137).
edge(66, 175).
edge(81, 131).
edge(128, 133).
edge(22, 99).
edge(48, 124).
edge(113, 149).
edge(90, 131).
edge(96, 165).
edge(15, 167).
edge(98, 171).
edge(29, 140).
edge(1, 88).
edge(13, 26).
edge(34, 93).
edge(34, 171).
edge(84, 163).
edge(8, 107).
edge(128, 150).
edge(43, 167).
edge(43, 140).
edge(72, 129).
edge(43, 123).
edge(55, 102).
edge(32, 175).
edge(45, 165).
edge(67, 134).
edge(67, 98).
edge(100, 126).
edge(30, 37).
edge(78, 131).
edge(103, 104).
edge(34, 105).
edge(47, 123).
edge(70, 139).
edge(49, 53).
edge(16, 96).
edge(5, 14).
edge(49, 157).
edge(39, 138).
edge(56, 133).
edge(147, 167).
edge(31, 137).
edge(8, 119).
edge(102, 164).
edge(82, 170).
edge(103, 110).
edge(95, 106).
edge(114, 120).
edge(70, 79).
edge(63, 147).
edge(64, 125).
edge(6, 167).
edge(32, 138).
edge(161, 164).
edge(18, 70).
edge(101, 165).
edge(28, 78).
edge(1, 122).
edge(65, 138).
edge(37, 98).
edge(38, 121).
edge(33, 151).
edge(109, 156).
edge(93, 106).
edge(75, 115).
edge(69, 151).
edge(40, 152).
edge(9, 73).
edge(39, 79).
edge(43, 170).
edge(16, 111).
edge(13, 72).
edge(76, 105).
edge(59, 74).
edge(113, 155).
edge(25, 145).
edge(13, 162).
edge(12, 87).
edge(35, 46).
edge(40, 159).
edge(2, 100).
edge(107, 136).
edge(39, 94).
edge(120, 151).
edge(2, 6).
edge(25, 164).
edge(62, 96).
edge(54, 94).
edge(78, 125).
edge(9, 167).
edge(95, 144).
edge(56, 58).
edge(129, 160).
edge(7, 120).
edge(25, 175).
edge(5, 171).
edge(73, 145).
edge(151, 171).
edge(8, 165).
edge(96, 133).
edge(46, 157).
edge(56, 115).
edge(1, 81).
edge(58, 59).
edge(3, 93).
edge(8, 173).
edge(7, 42).
edge(79, 144).
edge(10, 35).
edge(9, 157).
edge(8, 60).
edge(1, 162).
edge(118, 141).
edge(141, 144).
edge(45, 51).
edge(22, 156).
edge(24, 130).
edge(113, 145).
edge(45, 72).
edge(85, 114).
edge(53, 60).
edge(37, 153).
edge(69, 118).
edge(69, 103).
edge(42, 100).
edge(13, 37).
edge(9, 77).
edge(8, 99).
edge(132, 138).
edge(102, 141).
edge(18, 167).
edge(63, 83).
edge(16, 73).
edge(114, 177).
edge(37, 152).
edge(65, 68).
edge(34, 122).
edge(61, 71).
edge(130, 154).
edge(60, 65).
edge(30, 148).
edge(40, 150).
edge(123, 129).
edge(22, 69).
edge(86, 88).
edge(127, 167).
edge(113, 128).
edge(15, 147).
edge(92, 153).
edge(117, 143).
edge(19, 176).
edge(78, 92).
edge(11, 130).
edge(79, 170).
edge(12, 111).
edge(8, 114).
edge(64, 142).
edge(91, 165).
edge(126, 142).
edge(65, 156).
edge(9, 135).
edge(67, 158).
edge(36, 114).
edge(2, 43).
edge(76, 116).
edge(27, 149).
edge(78, 119).
edge(29, 112).
edge(38, 162).
edge(60, 81).
edge(18, 32).
edge(47, 163).
edge(61, 99).
edge(37, 42).
edge(33, 168).
edge(4, 88).
edge(12, 138).
edge(108, 163).
edge(11, 150).
edge(3, 105).
edge(105, 122).
edge(36, 86).
edge(62, 134).
edge(67, 160).
edge(69, 168).
edge(87, 136).
edge(53, 165).
edge(53, 116).
edge(21, 88).
edge(103, 173).
edge(21, 99).
edge(27, 104).
edge(139, 153).
edge(47, 57).
edge(42, 91).
edge(20, 56).
edge(45, 123).
edge(83, 169).
edge(41, 175).
edge(55, 121).
edge(38, 164).
edge(32, 62).
edge(113, 120).
edge(38, 115).
edge(49, 139).
edge(128, 134).
edge(49, 117).
edge(20, 21).
edge(53, 74).
edge(22, 125).
edge(93, 115).
edge(32, 156).
edge(42, 152).
edge(33, 51).
edge(106, 154).
edge(44, 150).
edge(51, 126).
edge(17, 116).
edge(82, 121).
edge(14, 172).
edge(4, 89).
edge(118, 120).
edge(108, 128).
edge(55, 158).
edge(56, 91).
edge(56, 81).
edge(28, 61).
edge(3, 96).
edge(72, 156).
edge(10, 109).
edge(6, 160).
edge(10, 20).
edge(43, 57).
edge(61, 130).
edge(152, 153).
edge(130, 162).
edge(73, 159).
edge(0, 94).
edge(134, 157).
edge(69, 84).
edge(55, 103).
edge(19, 24).
edge(72, 132).
edge(70, 167).
edge(5, 63).
edge(32, 137).
edge(49, 69).
edge(4, 11).
edge(59, 137).
edge(130, 157).
edge(101, 163).
edge(87, 89).
edge(81, 165).
edge(66, 86).
edge(116, 154).
edge(41, 119).
edge(105, 148).
edge(114, 128).
edge(29, 97).
edge(79, 83).
edge(135, 146).
edge(120, 168).
edge(18, 123).
edge(82, 177).
edge(43, 121).
edge(3, 19).
edge(19, 107).
edge(0, 119).
edge(65, 168).
edge(86, 94).
edge(1, 51).
edge(17, 163).
edge(0, 95).
edge(10, 104).
edge(21, 42).
edge(107, 113).
edge(53, 56).
edge(56, 83).
edge(31, 100).
edge(13, 60).
edge(6, 64).
edge(85, 162).
edge(26, 161).
edge(4, 78).
edge(15, 122).
edge(48, 95).
edge(122, 158).
edge(94, 122).
edge(25, 134).
edge(26, 171).
edge(17, 150).
edge(72, 120).
edge(122, 163).
edge(6, 169).
edge(13, 56).
edge(25, 75).
edge(7, 49).
edge(133, 138).
edge(13, 27).
edge(43, 90).
edge(89, 106).
edge(7, 16).
edge(41, 49).
edge(49, 108).
edge(42, 103).
edge(56, 146).
edge(80, 93).
edge(29, 116).
edge(89, 141).
edge(107, 138).
edge(38, 80).
edge(107, 133).
edge(37, 75).
edge(20, 47).
edge(109, 161).
edge(33, 150).
edge(110, 172).
edge(14, 119).
edge(103, 111).
edge(82, 101).
edge(149, 156).
edge(0, 64).
edge(56, 99).
edge(96, 138).
edge(155, 166).
edge(72, 168).
edge(35, 96).
edge(33, 96).
edge(38, 104).
edge(12, 132).
edge(36, 106).
edge(167, 172).
edge(13, 127).
edge(15, 98).
edge(39, 154).
edge(81, 171).
edge(56, 92).
edge(34, 168).
edge(48, 167).
edge(12, 147).
edge(69, 113).
edge(68, 171).
edge(19, 96).
edge(59, 109).
edge(170, 175).
edge(46, 169).
edge(57, 83).
edge(21, 151).
edge(28, 95).
edge(46, 116).
edge(153, 174).
edge(0, 170).
edge(24, 44).
edge(8, 175).
edge(138, 142).
edge(29, 75).
edge(33, 161).
edge(71, 161).
edge(62, 158).
edge(98, 102).
edge(1, 91).
edge(70, 96).
edge(42, 82).
edge(37, 168).
edge(9, 25).
edge(150, 166).
edge(17, 82).
edge(135, 145).
edge(120, 129).
edge(34, 141).
edge(8, 117).
edge(132, 142).
edge(115, 154).
edge(38, 52).
edge(126, 154).
edge(15, 17).
edge(40, 109).
edge(139, 176).
edge(48, 123).
edge(13, 119).
edge(156, 168).
edge(32, 167).
edge(2, 104).
edge(100, 168).
edge(80, 105).
edge(82, 114).
edge(28, 126).
edge(145, 177).
edge(100, 160).
edge(40, 175).
edge(68, 76).
edge(28, 85).
edge(44, 148).
edge(29, 171).
edge(108, 120).
edge(39, 83).
edge(162, 171).
edge(19, 140).
edge(24, 38).
edge(5, 55).
edge(7, 137).
edge(20, 71).
edge(12, 19).
edge(11, 169).
edge(36, 166).
edge(95, 117).
edge(17, 54).
edge(5, 20).
edge(110, 165).
edge(82, 110).
edge(49, 130).
edge(141, 143).
edge(54, 108).
edge(22, 70).
edge(110, 114).
edge(6, 36).
edge(33, 132).
edge(20, 36).
edge(36, 163).
edge(10, 79).
edge(61, 120).
edge(54, 77).
edge(86, 172).
edge(116, 173).
edge(8, 115).
edge(16, 63).
edge(96, 104).
edge(17, 170).
edge(71, 82).
edge(23, 81).
edge(82, 88).
edge(0, 52).
edge(68, 144).
edge(153, 165).
edge(59, 138).
edge(137, 143).
edge(109, 133).
edge(65, 137).
edge(31, 112).
edge(1, 106).
edge(131, 155).
edge(72, 84).
edge(31, 35).
edge(16, 28).
edge(14, 45).
edge(63, 143).
edge(43, 143).
edge(19, 123).
edge(131, 169).
edge(14, 156).
edge(38, 48).
edge(99, 128).
edge(72, 101).
edge(24, 144).
edge(43, 169).
edge(19, 27).
edge(102, 161).
edge(60, 131).
edge(83, 128).
edge(143, 148).
edge(50, 122).
edge(108, 111).
edge(87, 122).
edge(31, 90).
edge(72, 127).
edge(67, 176).
edge(4, 18).
edge(64, 109).
edge(62, 86).
edge(81, 130).
edge(45, 152).
edge(132, 145).
edge(92, 149).
edge(34, 142).
edge(29, 138).
edge(23, 123).
edge(67, 75).
edge(125, 165).
edge(77, 88).
edge(102, 153).
edge(51, 89).
edge(6, 37).
edge(64, 177).
edge(7, 15).
edge(9, 79).
edge(85, 147).
edge(35, 94).
edge(17, 60).
edge(9, 68).
edge(3, 168).
edge(7, 28).
edge(91, 137).
edge(14, 52).
edge(26, 61).
edge(26, 98).
edge(18, 149).
edge(74, 90).
edge(39, 135).
edge(31, 80).
edge(5, 66).
edge(78, 112).
edge(53, 71).
edge(35, 135).
edge(84, 111).
edge(37, 67).
edge(4, 147).
edge(54, 152).
edge(42, 102).
edge(45, 88).
edge(10, 63).
edge(37, 90).
edge(105, 119).
edge(135, 144).
edge(18, 56).
edge(88, 130).
edge(81, 149).
edge(62, 105).
edge(59, 125).
edge(0, 101).
edge(82, 128).
edge(140, 153).
edge(86, 162).
edge(147, 148).
edge(160, 170).
edge(84, 130).
edge(63, 105).
edge(96, 113).
edge(41, 136).
edge(41, 48).
edge(81, 148).
edge(2, 165).
edge(109, 118).
edge(24, 59).
edge(37, 85).
edge(93, 128).
edge(109, 173).
edge(103, 121).
edge(91, 118).
edge(10, 58).
edge(112, 158).
edge(81, 168).
edge(30, 44).
edge(35, 95).
edge(71, 105).
edge(16, 142).
edge(111, 148).
edge(126, 165).
edge(87, 152).
edge(63, 65).
edge(117, 125).
edge(54, 126).
edge(9, 165).
edge(5, 168).
edge(11, 66).
edge(15, 92).
edge(23, 33).
edge(79, 118).
edge(64, 71).
edge(132, 176).
edge(36, 141).
edge(56, 154).
edge(90, 174).
edge(23, 174).
edge(2, 46).
edge(41, 132).
edge(3, 11).
edge(27, 94).
edge(61, 85).
edge(82, 150).
edge(83, 105).
edge(21, 38).
edge(29, 157).
edge(13, 91).
edge(17, 146).
edge(32, 161).
edge(15, 21).
edge(63, 97).
edge(97, 170).
edge(54, 83).
edge(65, 102).
edge(3, 6).
edge(57, 153).
edge(43, 117).
edge(86, 145).
edge(48, 109).
edge(34, 166).
edge(8, 109).
edge(19, 45).
edge(19, 174).
edge(115, 120).
edge(20, 55).
edge(51, 78).
edge(19, 91).
edge(16, 76).
edge(41, 53).
edge(63, 155).
edge(142, 167).
edge(59, 91).
edge(51, 77).
edge(117, 171).
edge(21, 45).
edge(1, 83).
edge(90, 157).
edge(1, 177).
edge(139, 175).
edge(41, 61).
edge(91, 148).
edge(0, 137).
edge(148, 174).
edge(124, 174).
edge(67, 153).
edge(50, 91).
edge(45, 73).
edge(0, 99).
edge(85, 167).
edge(8, 85).
edge(36, 118).
edge(35, 37).
edge(10, 93).
edge(62, 125).
edge(59, 163).
edge(63, 154).
edge(119, 150).
edge(33, 140).
edge(33, 156).
edge(118, 166).
edge(111, 112).
edge(10, 17).
edge(56, 129).
edge(63, 136).
edge(87, 91).
edge(149, 171).
edge(28, 147).
edge(3, 137).
edge(73, 137).
edge(19, 168).
edge(57, 177).
edge(16, 175).
edge(130, 167).
edge(122, 168).
edge(31, 43).
edge(46, 168).
edge(104, 158).
edge(4, 28).
edge(5, 127).
edge(136, 164).
edge(117, 161).
edge(78, 150).
edge(157, 170).
edge(154, 168).
edge(27, 134).
edge(104, 112).
edge(52, 110).
edge(112, 128).
edge(66, 69).
edge(34, 44).
edge(92, 114).
edge(57, 115).
edge(28, 65).
edge(15, 84).
edge(37, 126).
edge(31, 40).
edge(77, 106).
edge(17, 25).
edge(40, 96).
edge(46, 92).
edge(127, 131).
edge(123, 146).
edge(9, 153).
edge(114, 125).
edge(137, 175).
edge(80, 83).
edge(23, 134).
edge(17, 97).
edge(15, 93).
edge(14, 146).
edge(89, 127).
edge(3, 21).
edge(25, 28).
edge(25, 62).
edge(44, 75).
edge(57, 167).
edge(76, 145).
edge(79, 140).
edge(70, 110).
edge(52, 102).
edge(64, 129).
edge(32, 148).
edge(9, 118).
edge(33, 142).
edge(49, 86).
edge(14, 140).
edge(18, 53).
edge(64, 137).
edge(33, 56).
edge(85, 152).
edge(35, 124).
edge(20, 33).
edge(18, 154).
edge(7, 83).
edge(97, 121).
edge(44, 113).
edge(86, 155).
edge(34, 39).
edge(39, 40).
edge(23, 151).
edge(53, 124).
edge(50, 71).
edge(49, 74).
edge(58, 156).
edge(51, 146).
edge(24, 55).
edge(104, 108).
edge(51, 63).
edge(115, 143).
edge(33, 97).
edge(124, 172).
edge(52, 57).
edge(49, 94).
edge(16, 38).
edge(13, 107).
edge(17, 70).
edge(71, 99).
edge(117, 150).
edge(75, 150).
edge(30, 159).
edge(22, 101).
edge(23, 50).
edge(28, 116).
edge(121, 144).
edge(51, 70).
edge(8, 48).
edge(13, 155).
edge(25, 140).
edge(25, 128).
edge(13, 150).
edge(124, 168).
edge(92, 176).
edge(63, 74).
edge(110, 148).
edge(83, 88).
edge(18, 33).
edge(56, 74).
edge(10, 108).
edge(66, 91).
edge(97, 119).
edge(41, 120).
edge(28, 158).
edge(11, 163).
edge(20, 175).
edge(63, 101).
edge(102, 119).
edge(103, 167).
edge(86, 100).
edge(38, 138).
edge(8, 35).
edge(136, 138).
edge(7, 13).
edge(18, 40).
edge(79, 117).
edge(98, 144).
edge(75, 85).
edge(85, 108).
edge(67, 110).
edge(73, 164).
edge(18, 141).
edge(46, 76).
edge(138, 177).
edge(85, 99).
edge(58, 117).
edge(39, 121).
edge(77, 140).
edge(50, 107).
edge(42, 49).
edge(3, 102).
edge(61, 79).
edge(63, 78).
edge(18, 98).
edge(26, 101).
edge(50, 123).
edge(26, 106).
edge(120, 131).
edge(121, 149).
edge(70, 175).
edge(98, 139).
edge(79, 147).
edge(11, 47).
edge(36, 87).
edge(50, 59).
edge(89, 164).
edge(96, 101).
edge(86, 161).
edge(44, 57).
edge(76, 151).
edge(19, 116).
edge(4, 64).
edge(68, 159).
edge(57, 144).
edge(69, 135).
edge(35, 141).
edge(58, 116).
edge(16, 156).
edge(63, 80).
edge(117, 123).
edge(35, 138).
edge(22, 57).
edge(18, 139).
edge(69, 157).
edge(80, 112).
edge(60, 168).
edge(70, 101).
edge(47, 165).
edge(13, 173).
edge(168, 175).
edge(17, 92).
edge(97, 105).
edge(8, 63).
edge(67, 100).
edge(84, 123).
edge(23, 164).
edge(135, 170).
edge(71, 167).
edge(82, 140).
edge(22, 71).
edge(117, 163).
edge(23, 146).
edge(30, 103).
edge(3, 155).
edge(18, 45).
edge(66, 94).
edge(55, 176).
edge(17, 87).
edge(39, 97).
edge(55, 133).
edge(81, 157).
edge(54, 92).
edge(169, 175).
edge(146, 156).
edge(7, 19).
edge(96, 159).
edge(101, 169).
edge(9, 91).
edge(80, 146).
edge(44, 78).
edge(48, 114).
edge(171, 175).
edge(109, 122).
edge(88, 134).
edge(37, 69).
edge(45, 151).
edge(144, 169).
edge(141, 165).
edge(37, 108).
edge(67, 132).
edge(91, 98).
edge(110, 123).
edge(14, 122).
edge(30, 71).
edge(127, 135).
edge(32, 119).
edge(111, 173).
edge(48, 67).
edge(87, 102).
edge(24, 167).
edge(135, 167).
edge(99, 145).
edge(69, 105).
edge(6, 155).
edge(21, 166).
edge(6, 39).
edge(23, 29).
edge(9, 19).
edge(87, 116).
edge(30, 121).
edge(32, 35).
edge(47, 168).
edge(110, 177).
edge(134, 149).
edge(35, 174).
edge(69, 167).
edge(18, 22).
edge(15, 140).
edge(36, 147).
edge(51, 127).
edge(100, 130).
edge(45, 86).
edge(8, 27).
edge(11, 99).
edge(54, 162).
edge(112, 155).
edge(57, 173).
edge(11, 60).
edge(89, 162).
edge(12, 103).
edge(124, 125).
edge(65, 80).
edge(127, 133).
edge(119, 158).
edge(121, 173).
edge(54, 111).
edge(43, 142).
edge(40, 162).
edge(48, 71).
edge(94, 136).
edge(29, 130).
edge(28, 165).
edge(96, 160).
edge(40, 95).
edge(65, 145).
edge(24, 91).
edge(31, 109).
edge(45, 112).
edge(53, 147).
edge(37, 120).
edge(102, 169).
edge(63, 64).
edge(32, 81).
edge(15, 165).
edge(6, 14).
edge(124, 160).
edge(66, 74).
edge(112, 132).
edge(5, 50).
edge(53, 162).
edge(36, 169).
edge(100, 167).
edge(14, 124).
edge(58, 84).
edge(9, 76).
edge(36, 146).
edge(137, 142).
edge(13, 134).
edge(3, 152).
edge(69, 86).
edge(87, 137).
edge(18, 37).
edge(9, 175).
edge(23, 73).
edge(12, 126).
edge(14, 75).
edge(49, 51).
edge(12, 84).
edge(20, 84).
edge(112, 174).
edge(86, 152).
edge(17, 106).
edge(3, 78).
edge(5, 83).
edge(3, 171).
edge(118, 124).
edge(77, 153).
edge(44, 69).
edge(23, 165).
edge(129, 132).
edge(23, 122).
edge(72, 83).
edge(0, 159).
edge(54, 74).
edge(33, 64).
edge(110, 163).
edge(56, 158).
edge(118, 145).
edge(10, 142).
edge(55, 171).
edge(40, 167).
edge(134, 173).
edge(78, 104).
edge(27, 173).
edge(6, 15).
edge(14, 144).
edge(5, 137).
edge(51, 133).
edge(59, 122).
edge(75, 117).
edge(1, 22).
edge(90, 137).
edge(101, 167).
edge(101, 176).
edge(134, 136).
edge(90, 126).
edge(147, 173).
edge(15, 59).
edge(16, 164).
edge(20, 78).
edge(14, 106).
edge(1, 53).
edge(39, 150).
edge(59, 153).
edge(34, 139).
edge(64, 65).
edge(41, 57).
edge(110, 126).
edge(133, 174).
edge(81, 129).
edge(90, 96).
edge(21, 87).
edge(151, 152).
edge(173, 174).
edge(7, 119).
edge(162, 173).
edge(117, 170).
edge(82, 119).
edge(26, 31).
edge(21, 50).
edge(70, 174).
edge(30, 102).
edge(39, 130).
edge(30, 81).
edge(40, 67).
edge(7, 111).
edge(48, 62).
edge(156, 169).
edge(84, 122).
edge(71, 120).
edge(103, 164).
edge(127, 140).
edge(91, 162).
edge(11, 127).
edge(36, 104).
edge(86, 118).
edge(34, 112).
edge(62, 164).
edge(47, 152).
edge(66, 105).
edge(167, 175).
edge(79, 143).
edge(49, 162).
edge(78, 160).
edge(55, 71).
edge(76, 121).
edge(34, 99).
edge(62, 77).
edge(42, 96).
edge(16, 163).
edge(76, 104).
edge(26, 56).
edge(102, 150).
edge(6, 63).
edge(19, 68).
edge(125, 161).
edge(90, 145).
edge(48, 120).
edge(31, 82).
edge(111, 152).
edge(71, 160).
edge(8, 9).
edge(46, 104).
edge(99, 170).
edge(68, 161).
edge(50, 66).
edge(15, 28).
edge(42, 64).
edge(18, 55).
edge(40, 138).
edge(48, 159).
edge(0, 3).
edge(33, 102).
edge(45, 100).
edge(111, 160).
edge(129, 161).
edge(15, 58).
edge(131, 137).
edge(141, 173).
edge(29, 121).
edge(84, 105).
edge(15, 37).
edge(58, 69).
edge(95, 161).
edge(57, 111).
edge(51, 60).
edge(0, 165).
edge(37, 169).
edge(35, 127).
edge(48, 177).
edge(15, 159).
edge(81, 117).
edge(14, 137).
edge(60, 121).
edge(111, 167).
edge(2, 80).
edge(7, 146).
edge(154, 162).
edge(6, 136).
edge(108, 151).
edge(107, 153).
edge(47, 172).
edge(69, 88).
edge(11, 48).
edge(76, 155).
edge(35, 68).
edge(96, 98).
edge(13, 135).
edge(25, 152).
edge(68, 138).
edge(29, 89).
edge(63, 127).
edge(88, 163).
edge(21, 157).
edge(6, 106).
edge(38, 66).
edge(20, 159).
edge(13, 125).
edge(116, 160).
edge(115, 155).
edge(40, 170).
edge(14, 37).
edge(4, 102).
edge(55, 98).
edge(73, 91).
edge(126, 171).
edge(21, 51).
edge(64, 172).
edge(81, 164).
edge(1, 100).
edge(105, 118).
edge(41, 108).
edge(60, 117).
edge(19, 156).
edge(6, 89).
edge(139, 147).
edge(5, 46).
edge(119, 142).
edge(43, 93).
edge(92, 130).
edge(41, 151).
edge(66, 155).
edge(18, 29).
edge(39, 115).
edge(163, 165).
edge(11, 68).
edge(15, 56).
edge(164, 174).
edge(10, 147).
edge(93, 105).
edge(32, 78).
edge(19, 142).
edge(44, 82).
edge(93, 138).
edge(80, 136).
edge(46, 68).
edge(29, 39).
edge(6, 162).
edge(74, 88).
edge(115, 127).
edge(46, 154).
edge(20, 174).
edge(26, 137).
edge(79, 86).
edge(66, 161).
edge(12, 131).
edge(22, 111).
edge(5, 64).
edge(39, 123).
edge(116, 127).
edge(17, 44).
edge(93, 171).
edge(125, 130).
edge(38, 140).
edge(33, 98).
edge(31, 155).
edge(33, 113).
edge(42, 140).
edge(16, 58).
edge(19, 100).
edge(62, 146).
edge(147, 177).
edge(12, 152).
edge(7, 27).
edge(109, 158).
edge(61, 98).
edge(48, 172).
edge(8, 73).
edge(117, 152).
edge(114, 129).
edge(78, 81).
edge(10, 145).
edge(4, 98).
edge(117, 139).
edge(26, 151).
edge(44, 126).
edge(1, 74).
edge(145, 172).
edge(12, 171).
edge(121, 171).
edge(61, 106).
edge(116, 167).
edge(61, 76).
edge(11, 100).
edge(32, 46).
edge(68, 82).
edge(8, 145).
edge(170, 171).
edge(104, 153).
edge(68, 113).
edge(40, 63).
edge(111, 154).
edge(35, 125).
edge(102, 148).
edge(82, 137).
edge(13, 43).
edge(117, 129).
edge(18, 31).
edge(91, 158).
edge(82, 131).
edge(71, 115).
edge(71, 114).
edge(55, 116).
edge(149, 157).
edge(55, 79).
edge(71, 171).
edge(54, 125).
edge(62, 67).
edge(75, 159).
edge(16, 77).
edge(46, 121).
edge(141, 154).
edge(69, 104).
edge(21, 77).
edge(115, 121).
edge(101, 115).
edge(58, 123).
edge(66, 159).
edge(15, 142).
edge(6, 81).
edge(91, 107).
edge(33, 40).
edge(52, 104).
edge(78, 153).
edge(36, 91).
edge(29, 155).
edge(6, 25).
edge(33, 99).
edge(42, 50).
edge(142, 162).
edge(79, 95).
edge(44, 45).
edge(29, 132).
edge(10, 53).
edge(66, 151).
edge(9, 173).
edge(0, 31).
edge(64, 77).
edge(101, 143).
edge(103, 172).
edge(22, 121).
edge(7, 166).
edge(127, 148).
edge(15, 106).
edge(124, 137).
edge(87, 90).
edge(95, 104).
edge(26, 168).
edge(40, 97).
edge(62, 103).
edge(57, 71).
edge(139, 163).
edge(35, 166).
edge(15, 128).
edge(96, 158).
edge(22, 167).
edge(150, 158).
edge(71, 155).
edge(85, 164).
edge(109, 149).
edge(111, 163).
edge(19, 167).
edge(88, 161).
edge(9, 69).
edge(104, 152).
edge(11, 29).
edge(21, 107).
edge(61, 152).
edge(43, 148).
edge(26, 147).
edge(114, 126).
edge(92, 151).
edge(96, 150).
edge(24, 64).
edge(7, 77).
edge(57, 108).
edge(6, 177).
edge(87, 132).
edge(96, 172).
edge(109, 169).
edge(91, 143).
edge(129, 155).
edge(44, 173).
edge(8, 156).
edge(105, 107).
edge(4, 142).
edge(13, 114).
edge(78, 122).
edge(18, 130).
edge(49, 151).
edge(61, 148).
edge(173, 177).
edge(121, 159).
edge(47, 90).
edge(71, 95).
edge(19, 62).
edge(56, 117).
edge(122, 129).
edge(63, 170).
edge(117, 148).
edge(38, 135).
edge(144, 175).
edge(31, 110).
edge(38, 71).
edge(104, 172).
edge(58, 89).
edge(5, 116).
edge(16, 68).
edge(143, 164).
edge(19, 46).
edge(118, 138).
edge(38, 83).
edge(140, 156).
edge(54, 86).
edge(109, 146).
edge(124, 135).
edge(59, 106).
edge(30, 160).
edge(40, 88).
edge(56, 171).
edge(34, 131).
edge(0, 1).
edge(58, 138).
edge(33, 107).
edge(34, 104).
edge(43, 149).
edge(85, 159).
edge(46, 145).
edge(17, 58).
edge(130, 144).
edge(72, 175).
edge(29, 163).
edge(106, 121).
edge(150, 169).
edge(54, 168).
edge(13, 123).
edge(72, 109).
edge(17, 125).
edge(7, 117).
edge(102, 110).
edge(47, 162).
edge(65, 89).
edge(1, 44).
edge(46, 163).
edge(48, 65).
edge(46, 72).
edge(73, 153).
edge(83, 109).
edge(35, 98).
edge(100, 141).
edge(56, 121).
edge(4, 144).
edge(112, 169).
edge(17, 27).
edge(85, 148).
edge(82, 89).
edge(15, 61).
edge(60, 86).
edge(15, 138).
edge(3, 126).
edge(77, 83).
edge(11, 121).
edge(10, 23).
edge(44, 97).
edge(77, 171).
edge(15, 141).
edge(43, 127).
edge(41, 56).
edge(2, 174).
edge(112, 133).
edge(40, 174).
edge(168, 169).
edge(122, 128).
edge(57, 146).
edge(5, 93).
edge(25, 132).
edge(91, 174).
edge(107, 123).
edge(61, 110).
edge(125, 149).
edge(111, 125).
edge(100, 154).
edge(71, 96).
edge(77, 119).
edge(81, 107).
edge(99, 112).
edge(14, 21).
edge(112, 121).
edge(117, 144).
edge(98, 101).
edge(169, 171).
edge(91, 119).
edge(3, 10).
edge(24, 75).
edge(92, 99).
edge(76, 94).
edge(8, 65).
edge(24, 37).
edge(2, 166).
edge(80, 134).
edge(61, 134).
edge(7, 40).
edge(119, 140).
edge(4, 54).
edge(13, 139).
edge(4, 132).
edge(95, 119).
edge(41, 95).
edge(0, 118).
edge(18, 47).
edge(106, 124).
edge(98, 142).
edge(104, 116).
edge(18, 75).
edge(47, 166).
edge(130, 168).
edge(49, 60).
edge(39, 49).
edge(101, 103).
edge(114, 147).
edge(102, 167).
edge(96, 135).
edge(99, 113).
edge(118, 169).
edge(10, 33).
edge(85, 92).
edge(76, 112).
edge(6, 165).
edge(47, 72).
edge(17, 107).
edge(113, 119).
edge(32, 176).
edge(14, 76).
edge(13, 169).
edge(103, 117).
edge(65, 112).
edge(39, 103).
edge(18, 27).
edge(24, 134).
edge(89, 114).
edge(70, 115).
edge(1, 86).
edge(3, 43).
edge(57, 103).
edge(74, 138).
edge(53, 58).
edge(4, 31).
edge(55, 82).
edge(17, 110).
edge(30, 169).
edge(6, 70).
edge(23, 93).
edge(26, 109).
edge(39, 106).
edge(5, 126).
edge(66, 172).
edge(35, 55).
edge(20, 80).
edge(36, 42).
edge(138, 146).
edge(32, 37).
edge(98, 128).
edge(38, 144).
edge(31, 87).
edge(25, 82).
edge(24, 29).
edge(38, 111).
edge(33, 130).
edge(6, 48).
edge(35, 161).
edge(28, 105).
edge(71, 129).
edge(88, 132).
edge(67, 130).
edge(140, 144).
edge(84, 137).
edge(38, 155).
edge(14, 68).
edge(9, 158).
edge(95, 112).
edge(28, 170).
edge(45, 85).
edge(39, 159).
edge(28, 52).
edge(63, 135).
edge(143, 170).
edge(4, 20).
edge(2, 52).
edge(18, 170).
edge(88, 98).
edge(93, 136).
edge(72, 143).
edge(81, 126).
edge(54, 98).
edge(68, 71).
edge(98, 170).
edge(98, 135).
edge(34, 67).
edge(63, 146).
edge(3, 31).
edge(0, 70).
edge(91, 141).
edge(135, 149).
edge(13, 53).
edge(31, 60).
edge(61, 93).
edge(128, 161).
edge(94, 152).
edge(24, 114).
edge(52, 115).
edge(52, 77).
edge(88, 91).
edge(66, 116).
edge(16, 45).
edge(1, 70).
edge(112, 177).
edge(18, 38).
edge(29, 113).
edge(96, 126).
edge(22, 31).
edge(69, 107).
edge(84, 85).
edge(35, 133).
edge(1, 98).
edge(18, 115).
edge(0, 38).
edge(96, 169).
edge(77, 117).
edge(108, 152).
edge(90, 103).
edge(128, 137).
edge(38, 41).
edge(31, 98).
edge(0, 36).
edge(2, 27).
edge(75, 107).
edge(77, 158).
edge(49, 84).
edge(78, 129).
edge(100, 108).
edge(32, 58).
edge(51, 147).
edge(19, 122).
edge(111, 155).
edge(44, 71).
edge(39, 176).
edge(53, 140).
edge(70, 133).
edge(80, 101).
edge(71, 149).
edge(57, 162).
edge(72, 82).
edge(77, 132).
edge(10, 36).
edge(2, 138).
edge(119, 149).
edge(47, 85).
edge(101, 142).
edge(104, 169).
edge(35, 54).
edge(31, 121).
edge(41, 145).
edge(64, 84).
edge(15, 72).
edge(137, 164).
edge(79, 141).
edge(64, 97).
edge(69, 163).
edge(101, 140).
edge(75, 104).
edge(0, 175).
edge(101, 162).
edge(135, 157).
edge(78, 171).
edge(104, 126).
edge(50, 82).
edge(41, 66).
edge(39, 161).
edge(56, 110).
edge(113, 174).
edge(11, 27).
edge(118, 154).
edge(64, 100).
edge(85, 136).
edge(21, 82).
edge(67, 72).
edge(145, 161).
edge(36, 113).
edge(68, 90).
edge(118, 147).
edge(91, 104).
edge(4, 52).
edge(23, 69).
edge(0, 111).
edge(131, 146).
edge(29, 123).
edge(46, 161).
edge(72, 113).
edge(12, 77).
edge(115, 151).
edge(165, 170).
edge(0, 10).
edge(2, 90).
edge(11, 74).
edge(131, 149).
edge(84, 155).
edge(89, 91).
edge(0, 87).
edge(16, 92).
edge(57, 66).
edge(60, 91).
edge(44, 125).
edge(116, 135).
edge(5, 84).
edge(13, 115).
edge(5, 145).
edge(68, 110).
edge(12, 149).
edge(29, 98).
edge(52, 132).
edge(42, 133).
edge(132, 173).
edge(125, 164).
edge(91, 136).
edge(79, 161).
edge(141, 166).
edge(1, 149).
edge(58, 153).
edge(0, 61).
edge(14, 159).
edge(32, 103).
edge(6, 152).
edge(44, 106).
edge(96, 174).
edge(87, 149).
edge(108, 168).
edge(11, 164).
edge(106, 122).
edge(47, 107).
edge(12, 52).
edge(40, 87).
edge(111, 130).
edge(153, 162).
edge(87, 138).
edge(81, 91).
edge(35, 154).
edge(55, 137).
edge(107, 173).
edge(120, 139).
edge(19, 41).
edge(134, 165).
edge(75, 123).
edge(38, 76).
edge(132, 167).
edge(13, 42).
edge(46, 133).
edge(82, 153).
edge(49, 154).
edge(21, 86).
edge(79, 102).
edge(129, 162).
edge(12, 26).
edge(26, 135).
edge(10, 150).
edge(84, 95).
edge(146, 154).
edge(84, 118).
edge(172, 177).
edge(12, 118).
edge(141, 151).
edge(51, 93).
edge(27, 156).
edge(4, 106).
edge(51, 162).
edge(99, 152).
edge(97, 177).
edge(143, 172).
edge(109, 111).
edge(124, 162).
edge(27, 167).
edge(97, 161).
edge(67, 109).
edge(44, 123).
edge(62, 168).
edge(126, 150).
edge(26, 54).
edge(22, 116).
edge(108, 129).
edge(70, 91).
edge(44, 112).
edge(54, 139).
edge(70, 126).
edge(93, 114).
edge(53, 113).
edge(3, 114).
edge(52, 71).
edge(143, 173).
edge(46, 109).
edge(32, 122).
edge(87, 123).
edge(7, 76).
edge(93, 127).
edge(54, 100).
edge(19, 80).
edge(40, 85).
edge(22, 26).
edge(83, 141).
edge(26, 160).
edge(15, 174).
edge(64, 118).
edge(19, 31).
edge(12, 46).
edge(119, 167).
edge(104, 113).
edge(98, 133).
edge(141, 168).
edge(125, 140).
edge(9, 17).
edge(93, 147).
edge(0, 41).
edge(74, 169).
edge(157, 159).
edge(52, 153).
edge(95, 177).
edge(9, 37).
edge(101, 170).
edge(81, 86).
edge(103, 159).
edge(90, 132).
edge(118, 134).
edge(4, 164).
edge(15, 83).
edge(46, 137).
edge(42, 68).
edge(7, 154).
edge(4, 49).
edge(147, 166).
edge(27, 96).
edge(103, 106).
edge(26, 38).
edge(2, 130).
edge(15, 114).
edge(109, 119).
edge(57, 59).
edge(87, 143).
edge(69, 173).
edge(39, 50).
edge(88, 164).
edge(69, 122).
edge(3, 17).
edge(63, 139).
edge(55, 128).
edge(87, 173).
edge(78, 105).
edge(55, 65).
edge(9, 115).
edge(7, 112).
edge(16, 134).
edge(95, 140).
edge(151, 158).
edge(66, 123).
edge(138, 164).
edge(14, 59).
edge(44, 130).
edge(44, 139).
edge(102, 105).
edge(113, 171).
edge(50, 155).
edge(83, 102).
edge(10, 165).
edge(146, 149).
edge(108, 138).
edge(47, 119).
edge(51, 114).
edge(34, 96).
edge(90, 150).
edge(11, 131).
edge(105, 114).
edge(122, 149).
edge(28, 86).
edge(136, 145).
edge(82, 97).
edge(24, 157).
edge(79, 110).
edge(31, 48).
edge(53, 166).
edge(54, 85).
edge(45, 60).
edge(76, 161).
edge(103, 134).
edge(74, 108).
edge(66, 99).
edge(29, 54).
edge(55, 149).
edge(70, 111).
edge(50, 88).
edge(4, 177).
edge(19, 51).
edge(12, 55).
edge(122, 160).
edge(44, 72).
edge(59, 104).
edge(36, 53).
edge(54, 153).
edge(16, 153).
edge(46, 48).
edge(46, 138).
edge(11, 75).
edge(84, 167).
edge(28, 97).
edge(20, 138).
edge(113, 117).
edge(86, 121).
edge(48, 91).
edge(20, 93).
edge(76, 150).
edge(15, 66).
edge(19, 32).
edge(88, 125).
edge(31, 124).
edge(29, 175).
edge(75, 81).
edge(74, 84).
edge(1, 150).
edge(2, 5).
edge(140, 157).
edge(71, 132).
edge(75, 154).
edge(4, 107).
edge(23, 34).
edge(25, 109).
edge(53, 158).
edge(155, 174).
edge(8, 83).
edge(73, 75).
edge(19, 74).
edge(75, 108).
edge(66, 129).
edge(37, 122).
edge(29, 172).
edge(0, 81).
edge(118, 171).
edge(9, 155).
edge(6, 61).
edge(126, 159).
edge(27, 40).
edge(8, 93).
edge(62, 148).
edge(7, 20).
edge(150, 176).
edge(3, 77).
edge(92, 129).
edge(5, 40).
edge(52, 118).
edge(45, 52).
edge(134, 143).
edge(134, 174).
edge(37, 150).
edge(27, 122).
edge(86, 132).
edge(79, 80).
edge(2, 73).
edge(45, 134).
edge(54, 75).
edge(147, 151).
edge(70, 132).
edge(62, 118).
edge(20, 29).
edge(82, 149).
edge(80, 138).
edge(13, 19).
edge(24, 153).
edge(53, 163).
edge(23, 154).
edge(0, 42).
edge(33, 112).
edge(41, 59).
edge(99, 168).
edge(96, 129).
edge(2, 172).
edge(55, 64).
edge(39, 118).
edge(28, 168).
edge(26, 28).
edge(147, 168).
edge(0, 14).
edge(8, 45).
edge(51, 94).
edge(28, 119).
edge(47, 106).
edge(64, 174).
edge(10, 91).
edge(56, 60).
edge(37, 57).
edge(43, 139).
edge(58, 66).
edge(18, 172).
edge(25, 36).
edge(138, 175).
edge(109, 151).
edge(16, 97).
edge(13, 55).
edge(27, 129).
edge(42, 112).
edge(35, 102).
edge(140, 162).
edge(79, 152).
edge(62, 142).
edge(1, 94).
edge(49, 89).
edge(92, 123).
edge(67, 135).
edge(2, 102).
edge(13, 144).
edge(134, 139).
edge(50, 101).
edge(5, 61).
edge(97, 108).
edge(57, 69).
edge(28, 174).
edge(28, 143).
edge(95, 147).
edge(1, 143).
edge(50, 136).
edge(28, 83).
edge(40, 58).
edge(129, 173).
edge(77, 93).
edge(67, 137).
edge(9, 120).
edge(129, 140).
edge(29, 145).
edge(22, 87).
edge(72, 80).
edge(88, 90).
edge(47, 101).
edge(47, 128).
edge(40, 108).
edge(174, 176).
edge(36, 109).
edge(68, 94).
edge(75, 86).
edge(72, 119).
edge(130, 173).
edge(103, 133).
edge(85, 138).
edge(0, 47).
edge(18, 49).
edge(140, 163).
edge(127, 150).
edge(7, 110).
edge(56, 161).
edge(57, 112).
edge(8, 39).
edge(24, 140).
edge(15, 127).
edge(151, 177).
edge(36, 125).
edge(30, 175).
edge(8, 176).
edge(54, 176).
edge(108, 117).
edge(60, 114).
edge(82, 135).
edge(50, 100).
edge(29, 90).
edge(92, 137).
edge(132, 139).
edge(10, 15).
edge(23, 108).
edge(94, 159).
edge(25, 70).
edge(150, 175).
edge(138, 169).
edge(66, 111).
edge(165, 173).
edge(13, 92).
edge(68, 139).
edge(84, 175).
edge(24, 104).
edge(56, 98).
edge(109, 128).
edge(101, 105).
edge(19, 72).
edge(30, 62).
edge(24, 68).
edge(58, 142).
edge(30, 93).
edge(106, 118).
edge(70, 85).
edge(30, 131).
edge(107, 117).
edge(34, 109).
edge(93, 173).
edge(13, 168).
edge(86, 141).
edge(131, 175).
edge(12, 61).
edge(82, 115).
edge(35, 162).
edge(17, 88).
edge(66, 130).
edge(14, 136).
edge(36, 57).
edge(68, 102).
edge(111, 135).
edge(9, 149).
edge(107, 112).
edge(88, 171).
edge(11, 26).
edge(89, 133).
edge(75, 76).
edge(133, 144).
edge(32, 100).
edge(50, 67).
edge(80, 111).
edge(49, 59).
edge(104, 173).
edge(6, 56).
edge(55, 125).
edge(14, 87).
edge(15, 126).
edge(89, 107).
edge(16, 122).
edge(20, 58).
edge(13, 40).
edge(16, 55).
edge(128, 132).
edge(23, 66).
edge(54, 102).
edge(95, 134).
edge(122, 135).
edge(32, 126).
edge(15, 29).
edge(48, 161).
edge(34, 129).
edge(55, 106).
edge(9, 29).
edge(103, 116).
edge(88, 153).
edge(15, 177).
edge(28, 120).
edge(26, 132).
edge(88, 159).
edge(25, 103).
edge(52, 88).
edge(129, 141).
edge(144, 145).
edge(75, 93).
edge(107, 156).
edge(104, 154).
edge(116, 172).
edge(39, 84).
edge(54, 151).
edge(134, 142).
edge(37, 133).
edge(148, 156).
edge(126, 169).
edge(18, 39).
edge(27, 138).
edge(1, 139).
edge(40, 153).
edge(40, 145).
edge(3, 34).
edge(5, 22).
edge(35, 110).
edge(20, 155).
edge(57, 98).
edge(77, 145).
edge(67, 88).
edge(20, 67).
edge(51, 52).
edge(0, 76).
edge(64, 66).
edge(81, 143).
edge(102, 133).
edge(7, 88).
edge(63, 102).
edge(17, 62).
edge(18, 85).
edge(102, 154).
edge(11, 115).
edge(127, 168).
edge(163, 172).
edge(120, 128).
edge(44, 102).
edge(2, 87).
edge(27, 169).
edge(128, 151).
edge(118, 131).
edge(23, 62).
edge(28, 81).
edge(78, 90).
edge(158, 164).
edge(59, 86).
edge(95, 163).
edge(16, 53).
edge(28, 67).
edge(48, 151).
edge(42, 138).
edge(83, 119).
edge(2, 124).
edge(77, 104).
edge(27, 113).
edge(88, 122).
edge(65, 103).
edge(63, 130).
edge(27, 124).
edge(28, 175).
edge(104, 134).
edge(3, 9).
edge(18, 111).
edge(34, 73).
edge(95, 146).
edge(84, 148).
edge(30, 67).
edge(110, 164).
edge(8, 43).
edge(71, 88).
edge(141, 164).
edge(54, 110).
edge(58, 112).
edge(125, 133).
edge(26, 41).
edge(38, 79).
edge(112, 120).
edge(4, 25).
edge(85, 173).
edge(129, 172).
edge(83, 127).
edge(25, 98).
edge(2, 160).
edge(152, 154).
edge(29, 164).
edge(73, 93).
edge(87, 125).
edge(39, 58).
edge(112, 131).
edge(70, 89).
edge(92, 174).
edge(23, 120).
edge(93, 149).
edge(63, 157).
edge(94, 112).
edge(29, 129).
edge(133, 165).
edge(87, 165).
edge(118, 177).
edge(21, 150).
edge(20, 76).
edge(85, 160).
edge(90, 138).
edge(72, 118).
edge(26, 57).
edge(82, 100).
edge(22, 124).
edge(80, 115).
edge(53, 126).
edge(89, 169).
edge(102, 152).
edge(0, 73).
edge(57, 82).
edge(112, 113).
edge(86, 87).
edge(45, 136).
edge(18, 78).
edge(71, 92).
edge(97, 114).
edge(35, 91).
edge(131, 143).
edge(75, 147).
edge(19, 81).
edge(36, 121).
edge(48, 166).
edge(2, 128).
edge(34, 103).
edge(56, 103).
edge(94, 119).
edge(22, 29).
edge(89, 163).
edge(86, 139).
edge(16, 107).
edge(55, 86).
edge(8, 59).
edge(21, 112).
edge(16, 83).
edge(63, 117).
edge(17, 101).
edge(114, 142).
edge(21, 35).
edge(97, 129).
edge(82, 171).
edge(28, 60).
edge(86, 109).
edge(79, 115).
edge(51, 86).
edge(18, 35).
edge(66, 140).
edge(74, 89).
edge(52, 158).
edge(6, 107).
edge(130, 158).
edge(21, 76).
edge(5, 68).
edge(10, 19).
edge(82, 144).
edge(101, 134).
edge(6, 123).
edge(2, 134).
edge(33, 159).
edge(40, 140).
edge(60, 177).
edge(81, 87).
edge(153, 173).
edge(43, 99).
edge(142, 165).
edge(38, 109).
edge(16, 141).
edge(79, 111).
edge(25, 118).
edge(105, 120).
edge(52, 62).
edge(20, 42).
edge(99, 175).
edge(36, 168).
edge(11, 93).
edge(101, 132).
edge(46, 166).
edge(56, 118).
edge(106, 159).
edge(33, 158).
edge(5, 165).
edge(70, 159).
edge(37, 51).
edge(37, 140).
edge(154, 167).
edge(14, 50).
edge(0, 50).
edge(77, 167).
edge(33, 38).
edge(15, 110).
edge(94, 172).
edge(89, 116).
edge(69, 112).
edge(14, 108).
edge(98, 134).
edge(114, 175).
edge(47, 140).
edge(115, 156).
edge(62, 63).
edge(31, 33).
edge(5, 156).
edge(41, 156).
edge(37, 175).
edge(71, 85).
edge(7, 9).
edge(26, 157).
edge(137, 155).
edge(94, 120).
edge(102, 125).
edge(107, 176).
edge(57, 127).
edge(45, 126).
edge(6, 142).
edge(123, 162).
edge(144, 152).
edge(10, 113).
edge(36, 167).
edge(31, 57).
edge(8, 94).
edge(31, 176).
edge(1, 39).
edge(30, 34).
edge(63, 76).
edge(73, 138).
edge(35, 79).
edge(14, 112).
edge(5, 53).
edge(59, 136).
edge(67, 121).
edge(165, 166).
edge(118, 149).
edge(74, 94).
edge(50, 145).
edge(65, 77).
edge(149, 161).
edge(1, 119).
edge(24, 36).
edge(164, 172).
edge(21, 44).
edge(161, 176).
edge(34, 134).
edge(15, 94).
edge(29, 99).
edge(6, 59).
edge(116, 146).
edge(6, 176).
edge(5, 128).
edge(22, 175).
edge(41, 44).
edge(135, 162).
edge(90, 93).
edge(31, 129).
edge(37, 71).
edge(94, 113).
edge(94, 177).
edge(53, 107).
edge(27, 54).
edge(112, 149).
edge(49, 169).
edge(68, 131).
edge(122, 152).
edge(2, 131).
edge(4, 35).
edge(6, 133).
edge(8, 22).
edge(46, 117).
edge(50, 83).
edge(17, 102).
edge(19, 90).
edge(113, 172).
edge(50, 153).
edge(78, 167).
edge(33, 114).
edge(29, 177).
edge(64, 115).
edge(63, 90).
edge(129, 151).
edge(84, 133).
edge(2, 22).
edge(79, 138).
edge(148, 161).
edge(2, 60).
edge(60, 151).
edge(76, 103).
edge(74, 96).
edge(51, 66).
edge(64, 146).
edge(7, 161).
edge(16, 146).
edge(93, 152).
edge(88, 131).
edge(55, 76).
edge(3, 85).
edge(161, 169).
edge(100, 170).
edge(170, 177).
edge(3, 50).
edge(38, 60).
edge(49, 158).
edge(57, 133).
edge(9, 52).
edge(21, 22).
edge(13, 112).
edge(49, 168).
edge(65, 85).
edge(44, 110).
edge(1, 128).
edge(133, 175).
edge(141, 146).
edge(8, 84).
edge(45, 94).
edge(112, 173).
edge(30, 87).
edge(26, 64).
edge(9, 36).
edge(17, 145).
edge(137, 177).
edge(127, 143).
edge(89, 137).
edge(43, 104).
edge(39, 132).
edge(23, 46).
edge(71, 153).
edge(137, 149).
edge(129, 130).
edge(83, 161).
edge(23, 114).
edge(115, 165).
edge(35, 42).
edge(4, 73).
edge(94, 168).
edge(9, 65).
edge(54, 145).
edge(2, 175).
edge(44, 88).
edge(7, 144).
edge(1, 134).
edge(51, 97).
edge(11, 56).
edge(72, 153).
edge(6, 31).
edge(150, 164).
edge(66, 88).
edge(126, 172).
edge(38, 158).
edge(71, 84).
edge(94, 105).
edge(53, 108).
edge(57, 148).
edge(30, 60).
edge(54, 62).
edge(136, 152).
edge(16, 138).
edge(36, 151).
edge(62, 90).
edge(10, 49).
edge(76, 101).
edge(54, 142).
edge(93, 141).
edge(13, 67).
edge(14, 152).
edge(116, 131).
edge(64, 88).
edge(21, 94).
edge(147, 159).
edge(155, 161).
edge(57, 170).
edge(34, 147).
edge(10, 119).
edge(73, 80).
edge(119, 168).
edge(0, 150).
edge(15, 124).
edge(115, 149).
edge(75, 77).
edge(30, 33).
edge(11, 64).
edge(0, 116).
edge(82, 87).
edge(4, 149).
edge(30, 120).
edge(32, 160).
edge(25, 158).
edge(24, 97).
edge(124, 145).
edge(107, 114).
edge(23, 77).
edge(78, 85).
edge(144, 161).
edge(63, 133).
edge(72, 165).
edge(120, 143).
edge(14, 175).
edge(105, 109).
edge(9, 49).
edge(28, 45).
edge(19, 177).
edge(77, 175).
edge(2, 108).
edge(32, 88).
edge(4, 37).
edge(0, 83).
edge(143, 158).
edge(64, 131).
edge(118, 137).
edge(92, 116).
edge(84, 88).
edge(51, 76).
edge(54, 88).
edge(80, 104).
edge(142, 157).
edge(52, 80).
edge(0, 60).
edge(18, 46).
edge(25, 81).
edge(47, 156).
edge(48, 138).
edge(15, 101).
edge(69, 98).
edge(106, 134).
edge(67, 177).
edge(16, 123).
edge(32, 145).
edge(0, 11).
edge(124, 156).
edge(137, 172).
edge(12, 70).
edge(25, 107).
edge(14, 15).
edge(65, 91).
edge(66, 145).
edge(91, 96).
edge(118, 175).
edge(97, 124).
edge(54, 115).
edge(19, 95).
edge(42, 175).
edge(23, 39).
edge(46, 160).
edge(7, 174).
edge(122, 144).
edge(0, 156).
edge(42, 176).
edge(26, 117).
edge(62, 113).
edge(0, 153).
edge(24, 145).
edge(160, 166).
edge(30, 98).
edge(44, 161).
edge(166, 172).
edge(18, 99).
edge(7, 58).
edge(85, 91).
edge(130, 135).
edge(70, 156).
edge(52, 73).
edge(5, 159).
edge(124, 129).
edge(113, 129).
edge(44, 98).
edge(13, 77).
edge(46, 156).
edge(38, 172).
edge(82, 111).
edge(113, 134).
edge(94, 143).
edge(25, 27).
edge(69, 99).
edge(150, 165).
edge(132, 171).
edge(97, 175).
edge(15, 151).
edge(2, 31).
edge(119, 154).
edge(51, 150).
edge(101, 174).
edge(145, 147).
edge(1, 72).
edge(60, 153).
edge(17, 78).
edge(91, 167).
edge(88, 143).
edge(78, 80).
edge(149, 173).
edge(133, 154).
edge(68, 135).
edge(18, 50).
edge(87, 142).
edge(7, 108).
edge(37, 87).
edge(52, 139).
edge(115, 166).
edge(130, 141).
edge(32, 54).
edge(37, 164).
edge(154, 164).
edge(87, 129).
edge(125, 127).
edge(79, 156).
edge(101, 159).
edge(126, 149).
edge(127, 129).
edge(12, 172).
edge(34, 145).
edge(129, 176).
edge(18, 165).
edge(8, 111).
edge(50, 152).
edge(78, 149).
edge(8, 29).
edge(1, 118).
edge(67, 175).
edge(24, 92).
edge(22, 32).
edge(42, 79).
edge(25, 85).
edge(8, 31).
edge(41, 70).
edge(27, 132).
edge(92, 131).
edge(148, 149).
edge(149, 162).
edge(61, 105).
edge(45, 90).
edge(74, 91).
edge(46, 77).
edge(19, 111).
edge(123, 143).
edge(71, 151).
edge(57, 79).
edge(17, 65).
edge(25, 133).
edge(12, 62).
edge(1, 26).
edge(34, 159).
edge(75, 114).
edge(160, 167).
edge(92, 134).
edge(91, 145).
edge(145, 163).
edge(19, 70).
edge(91, 144).
edge(17, 148).
edge(50, 150).
edge(132, 151).
edge(59, 129).
edge(40, 171).
edge(102, 166).
edge(12, 74).
edge(88, 155).
edge(88, 119).
edge(22, 102).
edge(101, 137).
edge(124, 159).
edge(117, 175).
edge(83, 126).
edge(49, 105).
edge(120, 134).
edge(38, 91).
edge(23, 129).
edge(41, 174).
edge(101, 177).
edge(14, 154).
edge(79, 124).
edge(81, 152).
edge(72, 160).
edge(85, 128).
edge(14, 118).
edge(25, 55).
edge(61, 144).
edge(23, 26).
edge(81, 144).
edge(73, 95).
edge(108, 125).
edge(11, 94).
edge(95, 137).
edge(2, 69).
edge(76, 89).
edge(28, 121).
edge(96, 136).
edge(28, 159).
edge(1, 25).
edge(47, 131).
edge(67, 120).
edge(165, 169).
edge(92, 138).
edge(46, 139).
edge(22, 171).
edge(27, 95).
edge(103, 163).
edge(48, 75).
edge(73, 172).
edge(6, 62).
edge(38, 132).
edge(44, 156).
edge(52, 112).
edge(46, 51).
edge(7, 138).
edge(59, 90).
edge(119, 141).
edge(110, 112).
edge(50, 131).
edge(95, 97).
edge(76, 166).
edge(38, 107).
edge(2, 155).
edge(65, 128).
edge(122, 173).
edge(57, 126).
edge(84, 114).
edge(27, 102).
edge(79, 139).
edge(109, 167).
edge(24, 51).
edge(156, 160).
edge(40, 73).
edge(47, 137).
edge(138, 158).
edge(24, 136).
edge(6, 40).
edge(8, 155).
edge(25, 126).
edge(62, 73).
edge(4, 129).
edge(137, 153).
edge(151, 157).
edge(53, 142).
edge(113, 165).
edge(116, 153).
edge(75, 132).
edge(37, 110).
edge(79, 87).
edge(77, 143).
edge(84, 174).
edge(109, 115).
edge(95, 105).
edge(0, 134).
edge(15, 73).
edge(64, 132).
edge(29, 158).
edge(29, 61).
edge(14, 62).
edge(0, 89).
edge(1, 28).
edge(17, 95).
edge(15, 109).
edge(86, 171).
edge(79, 169).
edge(102, 146).
edge(72, 134).
edge(27, 69).
edge(16, 94).
edge(85, 142).
edge(38, 110).
edge(26, 103).
edge(3, 94).
edge(0, 117).
edge(12, 47).
edge(47, 146).
edge(4, 143).
edge(39, 45).
edge(16, 174).
edge(45, 172).
edge(17, 71).
edge(107, 144).
edge(59, 80).
edge(14, 33).
edge(94, 107).
edge(71, 174).
edge(93, 126).
edge(89, 131).
edge(138, 168).
edge(49, 156).
edge(121, 164).
edge(35, 115).
edge(92, 150).
edge(5, 101).
edge(34, 72).
edge(13, 171).
edge(35, 151).
edge(3, 74).
edge(44, 124).
edge(46, 94).
edge(46, 118).
edge(36, 77).
edge(47, 56).
edge(1, 63).
edge(161, 170).
edge(116, 159).
edge(66, 76).
edge(65, 72).
edge(13, 31).
edge(76, 167).
edge(35, 146).
edge(75, 146).
edge(62, 132).
edge(53, 127).
edge(160, 168).
edge(58, 170).
edge(47, 48).
edge(26, 131).
edge(7, 101).
edge(37, 148).
edge(21, 122).
edge(8, 69).
edge(39, 145).
edge(45, 159).
edge(28, 66).
edge(43, 165).
edge(16, 140).
edge(4, 94).
edge(21, 46).
edge(112, 144).
edge(60, 158).
edge(133, 172).
edge(61, 140).
edge(33, 136).
edge(34, 49).
edge(41, 130).
edge(11, 135).
edge(33, 58).
edge(48, 113).
edge(28, 111).
edge(22, 147).
edge(52, 156).
edge(66, 87).
edge(59, 135).
edge(33, 171).
edge(118, 139).
edge(159, 172).
edge(24, 137).
edge(161, 166).
edge(20, 98).
edge(11, 165).
edge(117, 120).
edge(60, 142).
edge(93, 121).
edge(24, 85).
edge(76, 83).
edge(9, 15).
edge(30, 68).
edge(75, 122).
edge(21, 103).
edge(1, 10).
edge(98, 167).
edge(43, 105).
edge(115, 160).
edge(11, 119).
edge(38, 77).
edge(133, 166).
edge(93, 119).
edge(109, 130).
edge(13, 87).
edge(74, 124).
edge(94, 121).
edge(131, 144).
edge(1, 31).
edge(66, 148).
edge(62, 171).
edge(72, 148).
edge(162, 167).
edge(124, 154).
edge(2, 56).
edge(20, 162).
edge(16, 119).
edge(98, 152).
edge(88, 123).
edge(1, 21).
edge(153, 158).
edge(123, 174).
edge(59, 119).
edge(13, 126).
edge(33, 85).
edge(100, 104).
edge(35, 169).
edge(9, 114).
edge(103, 127).
edge(109, 174).
edge(114, 165).
edge(67, 108).
edge(90, 102).
edge(8, 96).
edge(119, 120).
edge(72, 124).
edge(40, 45).
edge(78, 168).
edge(51, 153).
edge(51, 151).
edge(3, 67).
edge(52, 122).
edge(43, 102).
edge(7, 55).
edge(69, 120).
edge(63, 112).
edge(82, 96).
edge(127, 159).
edge(4, 136).
edge(66, 127).
edge(32, 124).
edge(36, 80).
edge(21, 72).
edge(89, 167).
edge(5, 77).
edge(117, 149).
edge(52, 53).
edge(7, 63).
edge(48, 142).
edge(107, 143).
edge(13, 97).
edge(50, 172).
edge(33, 67).
edge(20, 39).
edge(68, 173).
edge(6, 41).
edge(73, 92).
edge(50, 72).
edge(132, 154).
edge(38, 108).
edge(43, 112).
edge(88, 150).
edge(47, 170).
edge(33, 119).
edge(150, 177).
edge(32, 166).
edge(55, 84).
edge(10, 88).
edge(33, 65).
edge(24, 128).
edge(12, 159).
edge(43, 171).
edge(42, 130).
edge(37, 138).
edge(44, 64).
edge(70, 129).
edge(131, 166).
edge(70, 93).
edge(119, 157).
edge(41, 112).
edge(65, 107).
edge(121, 172).
edge(75, 99).
edge(9, 21).
edge(10, 99).
edge(8, 120).
edge(46, 129).
edge(76, 130).
edge(125, 126).
edge(22, 128).
edge(20, 86).
edge(58, 105).
edge(19, 87).
edge(0, 140).
edge(7, 148).
edge(54, 171).
edge(140, 141).
edge(86, 154).
edge(47, 98).
edge(89, 105).
edge(13, 20).
edge(3, 104).
edge(11, 51).
edge(28, 171).
edge(36, 67).
edge(104, 115).
edge(27, 37).
edge(35, 93).
edge(115, 164).
edge(32, 43).
edge(17, 52).
edge(67, 73).
edge(24, 176).
edge(4, 51).
edge(2, 119).
edge(115, 163).
edge(119, 135).
edge(78, 170).
edge(40, 103).
edge(47, 83).
edge(125, 173).
edge(80, 119).
edge(61, 118).
edge(2, 154).
edge(25, 114).
edge(82, 169).
edge(4, 108).
edge(51, 130).
edge(96, 106).
edge(66, 147).
edge(61, 97).
edge(63, 174).
edge(103, 146).
edge(41, 140).
edge(54, 70).
edge(5, 78).
edge(137, 160).
edge(26, 100).
edge(12, 20).
edge(18, 34).
edge(0, 126).
edge(5, 85).
edge(4, 166).
edge(9, 161).
edge(49, 79).
edge(162, 163).
edge(20, 143).
edge(121, 165).
edge(40, 154).
edge(35, 116).
edge(1, 19).
edge(21, 172).
edge(89, 176).
edge(72, 142).
edge(9, 16).
edge(27, 32).
edge(8, 150).
edge(52, 79).
edge(11, 90).
edge(95, 176).
edge(114, 130).
edge(87, 157).
edge(9, 87).
edge(30, 91).
edge(114, 139).
edge(15, 22).
edge(138, 174).
edge(45, 48).
edge(28, 114).
edge(14, 66).
edge(149, 169).
edge(87, 155).
edge(60, 87).
edge(36, 59).
edge(116, 148).
edge(74, 122).
edge(50, 119).
edge(82, 103).
edge(0, 13).
edge(9, 27).
edge(75, 158).
edge(28, 35).
edge(46, 78).
edge(8, 91).
edge(22, 169).
edge(47, 71).
edge(2, 59).
edge(16, 37).
edge(18, 65).
edge(97, 134).
edge(98, 100).
edge(166, 175).
edge(32, 52).
edge(126, 136).
edge(80, 113).
edge(2, 91).
edge(58, 174).
edge(58, 101).
edge(33, 118).
edge(17, 124).
edge(51, 84).
edge(79, 94).
edge(53, 114).
edge(83, 172).
edge(86, 105).
edge(23, 163).
edge(12, 124).
edge(17, 109).
edge(64, 151).
edge(4, 126).
edge(93, 95).
edge(78, 136).
edge(39, 53).
edge(96, 166).
edge(0, 72).
edge(35, 167).
edge(62, 79).
edge(23, 87).
edge(102, 135).
edge(102, 156).
edge(95, 166).
edge(75, 112).
edge(152, 166).
edge(119, 160).
edge(50, 54).
edge(10, 100).
edge(46, 175).
edge(14, 115).
edge(42, 139).
edge(55, 172).
edge(112, 159).
edge(21, 43).
edge(23, 48).
edge(124, 165).
edge(13, 113).
edge(52, 146).
edge(17, 84).
edge(0, 85).
edge(146, 153).
edge(72, 137).
edge(24, 56).
edge(154, 158).
edge(42, 43).
edge(4, 122).
edge(49, 111).
edge(130, 172).
edge(12, 98).
edge(85, 109).
edge(36, 56).
edge(21, 26).
edge(13, 61).
edge(148, 170).
edge(20, 173).
edge(16, 120).
edge(54, 119).
edge(50, 64).
edge(75, 164).
edge(28, 155).
edge(128, 140).
edge(67, 171).
edge(111, 170).
edge(26, 35).
edge(7, 67).
edge(45, 163).
edge(26, 107).
edge(25, 148).
edge(105, 170).
edge(3, 86).
edge(116, 136).
edge(56, 85).
edge(28, 144).
edge(34, 57).
edge(36, 156).
edge(153, 169).
edge(23, 175).
edge(61, 116).
edge(28, 79).
edge(60, 112).
edge(17, 46).
edge(160, 164).
edge(83, 150).
edge(44, 138).
edge(19, 113).
edge(19, 22).
edge(1, 36).
edge(10, 160).
edge(89, 99).
edge(50, 130).
edge(89, 98).
edge(135, 147).
edge(35, 78).
edge(22, 177).
edge(18, 20).
edge(101, 136).
edge(104, 138).
edge(36, 69).
edge(132, 133).
edge(5, 130).
edge(30, 143).
edge(52, 111).
edge(169, 173).
edge(8, 75).
edge(36, 60).
edge(22, 137).
edge(52, 163).
edge(12, 65).
edge(156, 161).
edge(24, 165).
edge(38, 156).
edge(77, 135).
edge(115, 124).
edge(58, 163).
edge(123, 145).
edge(67, 149).
edge(9, 113).
edge(64, 133).
edge(29, 81).
edge(27, 66).
edge(43, 56).
edge(66, 163).
edge(96, 157).
edge(2, 107).
edge(41, 164).
edge(145, 162).
edge(21, 66).
edge(25, 92).
edge(111, 164).
edge(58, 155).
edge(11, 31).
edge(40, 47).
edge(3, 133).
edge(53, 93).
edge(76, 175).
edge(4, 172).
edge(54, 120).
edge(72, 149).
edge(117, 119).
edge(29, 70).
edge(101, 133).
edge(2, 176).
edge(116, 166).
edge(47, 148).
edge(24, 138).
edge(40, 151).
edge(45, 56).
edge(112, 142).
edge(36, 85).
edge(37, 46).
edge(86, 136).
edge(110, 113).
edge(97, 173).
edge(22, 170).
edge(6, 86).
edge(51, 82).
edge(60, 74).
edge(76, 134).
edge(15, 155).
edge(143, 153).
edge(74, 99).
edge(22, 162).
edge(13, 161).
edge(29, 66).
edge(39, 78).
edge(114, 163).
edge(12, 101).
edge(7, 21).
edge(14, 63).
edge(134, 166).
edge(21, 114).
edge(36, 54).
edge(120, 160).
edge(2, 94).
edge(128, 172).
edge(1, 158).
edge(51, 103).
edge(7, 70).
edge(12, 41).
edge(12, 15).
edge(110, 136).
edge(51, 121).
edge(14, 132).
edge(101, 113).
edge(29, 114).
edge(3, 107).
edge(27, 47).
edge(78, 134).
edge(69, 137).
edge(41, 115).
edge(25, 60).
edge(55, 142).
edge(163, 174).
edge(53, 144).
edge(79, 162).
edge(84, 91).
edge(42, 110).
edge(7, 31).
edge(60, 157).
edge(61, 127).
edge(78, 163).
edge(107, 157).
edge(48, 68).
edge(6, 91).
edge(80, 151).
edge(40, 133).
edge(74, 114).
edge(11, 16).
edge(6, 168).
edge(62, 147).
edge(81, 113).
edge(46, 127).
edge(30, 123).
edge(16, 145).
edge(45, 113).
edge(23, 137).
edge(92, 148).
edge(11, 123).
edge(10, 13).
edge(39, 177).
edge(36, 165).
edge(53, 138).
edge(41, 81).
edge(90, 162).
edge(87, 99).
edge(65, 174).
edge(45, 95).
edge(23, 65).
edge(89, 92).
edge(49, 177).
edge(76, 157).
edge(98, 132).
edge(13, 16).
edge(158, 161).
edge(52, 66).
edge(116, 125).
edge(41, 84).
edge(87, 146).
edge(55, 148).
edge(27, 126).
edge(95, 109).
edge(149, 175).
edge(38, 87).
edge(76, 107).
edge(24, 151).
edge(121, 132).
edge(24, 177).
edge(76, 133).
edge(19, 66).
edge(25, 171).
edge(114, 143).
edge(95, 98).
edge(7, 64).
edge(120, 141).
edge(59, 159).
edge(112, 160).
edge(25, 86).
edge(20, 87).
edge(4, 75).
edge(38, 43).
edge(46, 170).
edge(22, 173).
edge(13, 48).
edge(43, 163).
edge(23, 76).
edge(138, 157).
edge(120, 142).
edge(39, 64).
edge(10, 112).
edge(4, 155).
edge(39, 129).
edge(132, 164).
edge(90, 107).
edge(8, 52).
edge(76, 148).
edge(60, 64).
edge(3, 53).
edge(30, 150).
edge(18, 161).
edge(72, 103).
edge(32, 75).
edge(120, 145).
edge(42, 86).
edge(27, 81).
edge(25, 74).
edge(10, 30).
edge(151, 161).
edge(50, 81).
edge(50, 65).
edge(35, 99).
edge(21, 128).
edge(20, 103).
edge(49, 135).
edge(39, 126).
edge(107, 135).
edge(24, 163).
edge(4, 101).
edge(25, 54).
edge(1, 32).
edge(23, 162).
edge(108, 169).
edge(40, 148).
edge(82, 173).
edge(16, 75).
edge(13, 32).
edge(58, 111).
edge(19, 56).
edge(21, 56).
edge(111, 169).
edge(39, 91).
edge(117, 162).
edge(17, 135).
edge(63, 125).
edge(15, 136).
edge(70, 134).
edge(106, 175).
edge(104, 148).
edge(8, 62).
edge(77, 144).
edge(98, 175).
edge(14, 174).
edge(18, 163).
edge(31, 92).
edge(116, 141).
edge(45, 164).
edge(57, 128).
edge(18, 28).
edge(27, 29).
edge(44, 52).
edge(96, 132).
edge(58, 128).
edge(58, 165).
edge(19, 53).
edge(122, 177).
edge(97, 132).
edge(79, 164).
edge(23, 157).
edge(93, 123).
edge(61, 64).
edge(60, 95).
edge(67, 91).
edge(127, 141).
edge(111, 146).
edge(124, 149).
edge(0, 30).
edge(107, 147).
edge(129, 164).
edge(99, 160).
edge(108, 144).
edge(4, 119).
edge(53, 98).
edge(27, 89).
edge(3, 81).
edge(62, 97).
edge(136, 166).
edge(11, 70).
edge(8, 20).
edge(13, 85).
edge(57, 174).
edge(130, 163).
edge(7, 80).
edge(65, 134).
edge(124, 171).
edge(81, 104).
edge(21, 34).
edge(83, 98).
edge(39, 127).
edge(81, 82).
edge(123, 168).
edge(62, 115).
edge(23, 168).
edge(48, 63).
edge(86, 89).
edge(48, 54).
edge(24, 117).
edge(0, 79).
edge(20, 49).
edge(159, 160).
edge(53, 99).
edge(3, 72).
edge(15, 65).
edge(47, 121).
edge(64, 168).
edge(4, 116).
edge(24, 52).
edge(0, 171).
edge(47, 144).
edge(38, 161).
edge(41, 148).
edge(54, 165).
edge(94, 171).
edge(75, 166).
edge(10, 172).
edge(43, 66).
edge(58, 71).
edge(81, 139).
edge(10, 50).
edge(116, 164).
edge(43, 69).
edge(44, 135).
edge(14, 61).
edge(34, 126).
edge(131, 132).
edge(70, 114).
edge(34, 89).
edge(51, 65).
edge(106, 131).
edge(47, 53).
edge(26, 95).
edge(139, 156).
edge(98, 103).
edge(44, 91).
edge(49, 100).
edge(38, 88).
edge(81, 106).
edge(87, 121).
edge(27, 123).
edge(64, 69).
edge(62, 136).
edge(2, 66).
edge(132, 166).
edge(6, 66).
edge(27, 36).
edge(11, 33).
edge(127, 130).
edge(123, 135).
edge(57, 120).
edge(0, 105).
edge(142, 164).
edge(141, 172).
edge(41, 103).
edge(8, 158).
edge(9, 11).
edge(26, 177).
edge(6, 92).
edge(92, 97).
edge(64, 127).
edge(41, 86).
edge(45, 170).
edge(77, 121).
edge(89, 177).
edge(18, 108).
edge(20, 114).
edge(25, 154).
edge(12, 57).
edge(1, 108).
edge(45, 66).
edge(49, 155).
edge(128, 139).
edge(11, 156).
edge(85, 165).
edge(26, 169).
edge(148, 152).
edge(17, 51).
edge(65, 114).
edge(1, 61).
edge(14, 60).
edge(44, 104).
edge(73, 148).
edge(46, 159).
edge(63, 70).
edge(13, 154).
edge(46, 93).
edge(18, 128).
edge(52, 164).
edge(100, 151).
edge(1, 129).
edge(92, 166).
edge(21, 79).
edge(12, 44).
edge(65, 154).
edge(55, 58).
edge(40, 110).
edge(2, 121).
edge(29, 141).
edge(32, 53).
edge(17, 47).
edge(70, 103).
edge(37, 48).
edge(75, 170).
edge(20, 131).
edge(112, 141).
edge(104, 119).
edge(113, 124).
edge(64, 96).
edge(129, 142).
edge(66, 108).
edge(51, 104).
edge(85, 121).
edge(113, 168).
edge(3, 57).
edge(15, 19).
edge(24, 32).
edge(101, 164).
edge(43, 49).
edge(50, 84).
edge(14, 80).
edge(57, 88).
edge(48, 100).
edge(5, 25).
edge(29, 86).
edge(14, 166).
edge(93, 153).
edge(53, 95).
edge(97, 133).
edge(55, 78).
edge(27, 31).
edge(13, 82).
edge(28, 113).
edge(10, 75).
edge(81, 102).
edge(115, 136).
edge(31, 144).
edge(7, 129).
edge(46, 59).
edge(27, 158).
edge(5, 173).
edge(54, 144).
edge(52, 114).
edge(4, 134).
edge(8, 174).
edge(91, 166).
edge(49, 102).
edge(61, 162).
edge(70, 177).
edge(86, 110).
edge(95, 145).
edge(49, 140).
edge(60, 66).
edge(143, 159).
edge(55, 135).
edge(65, 148).
edge(104, 140).
edge(38, 126).
edge(107, 131).
edge(18, 106).
edge(45, 98).
edge(43, 120).
edge(0, 110).
edge(99, 101).
edge(32, 136).
edge(85, 95).
edge(58, 131).
edge(66, 77).
edge(128, 135).
edge(79, 176).
edge(97, 150).
edge(8, 151).
edge(24, 73).
edge(93, 139).
edge(52, 162).
edge(38, 85).
edge(6, 109).
edge(13, 129).
edge(58, 78).
edge(7, 47).
edge(42, 52).
edge(82, 174).
edge(7, 23).
edge(110, 134).
edge(27, 146).
edge(13, 50).
edge(14, 103).
edge(106, 157).
edge(81, 162).
edge(102, 108).
edge(5, 31).
edge(29, 108).
edge(119, 134).
edge(39, 41).
edge(107, 158).
edge(61, 91).
edge(135, 174).
edge(1, 11).
edge(105, 146).
edge(63, 111).
edge(119, 165).
edge(4, 158).
edge(10, 38).
edge(40, 124).
edge(76, 79).
edge(67, 157).
edge(59, 60).
edge(113, 121).
edge(78, 138).
edge(136, 155).
edge(14, 96).
edge(83, 86).
edge(150, 154).
edge(121, 126).
edge(8, 166).
edge(17, 67).
edge(31, 99).
edge(130, 177).
edge(110, 130).
edge(68, 93).
edge(13, 24).
edge(24, 131).
edge(137, 159).
edge(33, 66).
edge(9, 99).
edge(149, 155).
edge(136, 141).
edge(54, 116).
edge(56, 86).
edge(73, 170).
edge(92, 160).
edge(99, 137).
edge(29, 151).
edge(21, 127).
edge(133, 159).
edge(16, 17).
edge(0, 91).
edge(158, 160).
edge(62, 173).
edge(93, 170).
edge(142, 177).
edge(5, 139).
edge(64, 102).
edge(42, 135).
edge(10, 157).
edge(24, 166).
edge(18, 155).
edge(48, 174).
edge(115, 176).
edge(118, 146).
edge(89, 118).
edge(70, 136).
edge(102, 149).
edge(49, 70).
edge(19, 84).
edge(143, 176).
edge(2, 48).
edge(41, 133).
edge(56, 108).
edge(117, 133).
edge(21, 123).
edge(146, 148).
edge(141, 148).
edge(155, 175).
edge(46, 143).
edge(16, 56).
edge(23, 133).
edge(59, 173).
edge(22, 150).
edge(38, 131).
edge(3, 33).
edge(55, 59).
edge(16, 154).
edge(36, 49).
edge(123, 153).
edge(118, 163).
edge(159, 175).
edge(31, 39).
edge(10, 156).
edge(31, 38).
edge(44, 95).
edge(113, 176).
edge(45, 144).
edge(6, 163).
edge(41, 150).
edge(38, 159).
edge(19, 98).
edge(6, 58).
edge(122, 146).
edge(102, 118).
edge(25, 29).
edge(10, 114).
edge(19, 57).
edge(29, 115).
edge(71, 87).
edge(38, 113).
edge(146, 163).
edge(106, 109).
edge(1, 154).
edge(89, 134).
edge(75, 143).
edge(68, 123).
edge(128, 160).
edge(121, 125).
edge(9, 89).
edge(0, 160).
edge(12, 102).
edge(77, 136).
edge(1, 97).
edge(77, 128).
edge(4, 22).
edge(114, 127).
edge(12, 160).
edge(140, 170).
edge(19, 115).
edge(46, 142).
edge(37, 44).
edge(37, 174).
edge(34, 161).
edge(25, 150).
edge(67, 83).
edge(34, 36).
edge(116, 133).
edge(104, 149).
edge(26, 83).
edge(68, 127).
edge(107, 170).
edge(11, 39).
edge(163, 164).
edge(144, 170).
edge(86, 149).
edge(21, 132).
edge(50, 139).
edge(62, 92).
edge(8, 169).
edge(22, 107).
edge(38, 112).
edge(60, 96).
edge(61, 94).
edge(58, 97).
edge(18, 44).
edge(82, 124).
edge(76, 98).
edge(0, 21).
edge(91, 132).
edge(77, 105).
edge(69, 158).
edge(51, 129).
edge(23, 102).
edge(140, 171).
edge(82, 102).
edge(40, 100).
edge(46, 90).
edge(70, 113).
edge(76, 131).
edge(117, 136).
edge(15, 42).
edge(134, 137).
edge(30, 40).
edge(120, 174).
edge(22, 90).
edge(125, 162).
edge(61, 145).
edge(33, 41).
edge(70, 131).
edge(103, 126).
edge(52, 174).
edge(27, 73).
edge(7, 81).
edge(65, 98).
edge(20, 149).
edge(113, 142).
edge(10, 42).
edge(77, 118).
edge(43, 176).
edge(42, 66).
edge(46, 74).
edge(26, 150).
edge(55, 164).
edge(30, 70).
edge(30, 61).
edge(13, 170).
edge(88, 142).
edge(76, 80).
edge(90, 124).
edge(31, 97).
edge(118, 132).
edge(58, 80).
edge(74, 77).
edge(100, 117).
edge(89, 109).
edge(31, 174).
edge(100, 102).
edge(16, 21).
edge(121, 151).
edge(18, 101).
edge(125, 142).
edge(82, 138).
edge(118, 162).
edge(144, 149).
edge(55, 131).
edge(46, 70).
edge(26, 90).
edge(108, 154).
edge(128, 143).
edge(97, 154).
edge(89, 123).
edge(69, 79).
edge(136, 142).
edge(89, 159).
edge(149, 158).
edge(167, 173).
edge(117, 172).
edge(141, 177).
edge(81, 89).
edge(32, 150).
edge(20, 79).
edge(12, 116).
edge(31, 167).
edge(100, 127).
edge(80, 135).
edge(65, 172).
edge(33, 68).
edge(105, 153).
edge(65, 129).
edge(21, 52).
edge(4, 65).
edge(136, 168).
edge(66, 134).
edge(114, 160).
edge(54, 177).
edge(89, 121).
edge(30, 146).
edge(109, 165).
edge(49, 96).
edge(11, 41).
edge(19, 73).
edge(2, 28).
edge(56, 132).
edge(9, 177).
edge(38, 174).
edge(138, 140).
edge(5, 11).
edge(48, 81).
edge(37, 79).
edge(99, 159).
edge(7, 32).
edge(4, 46).
edge(47, 58).
edge(0, 113).
edge(81, 125).
edge(121, 131).
edge(48, 160).
edge(64, 86).
edge(101, 173).
edge(35, 159).
edge(33, 95).
edge(2, 120).
edge(23, 99).
edge(141, 145).
edge(102, 123).
edge(24, 126).
edge(88, 139).
edge(110, 150).
edge(52, 74).
edge(21, 23).
edge(82, 86).
edge(58, 126).
edge(8, 14).
edge(57, 105).
edge(12, 129).
edge(162, 168).
edge(56, 73).
edge(17, 114).
edge(42, 171).
edge(30, 168).
edge(149, 160).
edge(29, 101).
edge(57, 124).
edge(45, 102).
edge(24, 150).
edge(23, 31).
edge(30, 111).
edge(9, 174).
edge(72, 131).
edge(42, 123).
edge(11, 58).
edge(76, 159).
edge(39, 67).
edge(43, 177).
edge(66, 114).
edge(82, 142).
edge(32, 121).
edge(31, 113).
edge(20, 130).
edge(147, 176).
edge(84, 86).
edge(41, 46).
edge(89, 120).
edge(140, 164).
edge(70, 99).
edge(149, 168).
edge(53, 133).
edge(48, 155).
edge(30, 106).
edge(49, 137).
edge(87, 98).
edge(116, 119).
edge(21, 59).
edge(3, 82).
edge(96, 144).
edge(28, 74).
edge(48, 176).
edge(117, 156).
edge(59, 131).
edge(154, 156).
edge(36, 122).
edge(141, 150).
edge(71, 163).
edge(130, 150).
edge(38, 149).
edge(97, 111).
edge(18, 93).
edge(67, 84).
edge(8, 92).
edge(25, 149).
edge(42, 159).
edge(119, 123).
edge(71, 79).
edge(42, 160).
edge(26, 51).
edge(30, 94).
edge(130, 151).
edge(143, 144).
edge(12, 128).
edge(40, 144).
edge(69, 119).
edge(48, 77).
edge(155, 177).
edge(68, 83).
edge(81, 156).
edge(33, 170).
edge(59, 140).
edge(110, 167).
edge(77, 82).
edge(84, 126).
edge(26, 37).
edge(25, 139).
edge(59, 76).
edge(92, 163).
edge(95, 156).
edge(30, 165).
edge(38, 166).
edge(40, 69).
edge(1, 167).
edge(95, 108).
edge(17, 38).
edge(53, 155).
edge(35, 88).
edge(83, 114).
edge(17, 33).
edge(24, 103).
edge(20, 53).
edge(23, 101).
edge(59, 67).
edge(109, 168).
edge(99, 147).
edge(41, 123).
edge(48, 66).
edge(5, 32).
edge(27, 74).
edge(92, 135).
edge(23, 94).
edge(25, 66).
edge(62, 137).
edge(124, 128).
edge(25, 163).
edge(3, 64).
edge(58, 137).
edge(85, 117).
edge(23, 106).
edge(47, 124).
edge(79, 146).
edge(44, 86).
edge(89, 152).
edge(124, 132).
edge(39, 107).
edge(39, 162).
edge(59, 96).
edge(18, 144).
edge(80, 97).
edge(96, 168).
edge(29, 93).
edge(108, 137).
edge(22, 34).
edge(51, 88).
edge(74, 152).
edge(45, 124).
edge(92, 122).
edge(10, 72).
edge(3, 98).
edge(172, 174).
edge(44, 90).
edge(7, 164).
edge(13, 38).
edge(76, 136).
edge(60, 90).
edge(94, 108).
edge(26, 67).
edge(98, 163).
edge(56, 93).
edge(19, 86).
edge(59, 97).
edge(152, 169).
edge(47, 136).
edge(146, 175).
edge(100, 123).
edge(73, 160).
edge(25, 78).
edge(53, 101).
edge(115, 177).
edge(89, 151).
edge(21, 65).
edge(73, 118).
edge(48, 137).
edge(53, 72).
edge(5, 59).
edge(35, 168).
edge(44, 68).
edge(87, 163).
edge(158, 162).
edge(72, 111).
edge(75, 103).
edge(93, 104).
edge(29, 40).
edge(148, 157).
edge(123, 165).
edge(42, 88).
edge(45, 141).
edge(127, 146).
edge(62, 83).
edge(19, 169).
edge(62, 100).
edge(60, 161).
edge(84, 89).
edge(123, 175).
edge(105, 158).
edge(23, 35).
edge(15, 50).
edge(69, 154).
edge(66, 118).
edge(110, 125).
edge(68, 145).
edge(97, 159).
edge(18, 76).
edge(30, 75).
edge(3, 174).
edge(6, 101).
edge(116, 157).
edge(29, 120).
edge(50, 151).
edge(73, 124).
edge(7, 48).
edge(9, 119).
edge(42, 48).
edge(80, 100).
edge(6, 149).
edge(128, 141).
edge(65, 96).
edge(77, 150).
edge(42, 147).
edge(15, 131).
edge(1, 87).
edge(44, 128).
edge(143, 152).
edge(67, 164).
edge(48, 157).
edge(23, 171).
edge(83, 93).
edge(75, 139).
edge(18, 159).
edge(12, 94).
edge(5, 38).
edge(78, 82).
edge(126, 148).
edge(94, 101).
edge(39, 71).
edge(13, 157).
edge(53, 105).
edge(48, 92).
edge(8, 130).
edge(9, 124).
edge(125, 153).
edge(57, 135).
edge(53, 117).
edge(74, 134).
edge(77, 134).
edge(123, 148).
edge(8, 49).
edge(34, 81).
edge(97, 160).
edge(59, 73).
edge(91, 100).
edge(155, 159).
edge(7, 35).
edge(148, 151).
edge(63, 128).
edge(37, 111).
edge(51, 102).
edge(45, 93).
edge(16, 88).
edge(86, 146).
edge(40, 131).
edge(72, 75).
edge(35, 70).
edge(43, 89).
edge(45, 61).
edge(69, 109).
edge(144, 150).
edge(85, 87).
edge(1, 85).
edge(3, 143).
edge(22, 49).
edge(119, 132).
edge(31, 77).
edge(79, 99).
edge(79, 135).
edge(78, 143).
edge(83, 153).
edge(10, 118).
edge(33, 120).
edge(19, 25).
edge(36, 153).
edge(32, 105).
edge(62, 177).
edge(27, 53).
edge(156, 166).
edge(3, 25).
edge(42, 121).
edge(47, 125).
edge(93, 165).
edge(19, 34).
edge(15, 152).
edge(12, 167).
edge(8, 139).
edge(125, 152).
edge(48, 150).
edge(68, 156).
edge(5, 177).
edge(94, 98).
edge(35, 77).
edge(119, 161).
edge(8, 97).
edge(108, 130).
edge(49, 125).
edge(106, 165).
edge(28, 51).
edge(54, 156).
edge(88, 145).
edge(33, 53).
edge(95, 150).
edge(50, 115).
edge(40, 129).
edge(40, 142).
edge(26, 129).
edge(102, 162).
edge(37, 70).
edge(102, 138).
edge(97, 164).
edge(135, 163).
edge(21, 83).
edge(106, 111).
edge(20, 95).
edge(133, 134).
edge(19, 30).
edge(74, 107).
edge(5, 21).
edge(42, 151).
edge(54, 150).
edge(1, 90).
edge(4, 63).
edge(34, 176).
edge(117, 134).
edge(87, 104).
edge(55, 159).
edge(21, 40).
edge(55, 154).
edge(42, 113).
edge(69, 127).
edge(52, 82).
edge(9, 40).
edge(31, 89).
edge(37, 116).
edge(92, 124).
edge(117, 174).
edge(86, 98).
edge(89, 104).
edge(7, 136).
edge(21, 177).
edge(136, 158).
edge(0, 97).
edge(96, 118).
edge(72, 159).
edge(68, 163).
edge(20, 120).
edge(34, 48).
edge(138, 163).
edge(117, 141).
edge(33, 94).
edge(20, 167).
edge(136, 156).
edge(77, 115).
edge(42, 167).
edge(99, 127).
edge(83, 121).
edge(28, 84).
edge(84, 159).
edge(37, 149).
edge(96, 114).
edge(39, 104).
edge(108, 166).
edge(5, 88).
edge(133, 137).
edge(61, 141).
edge(16, 34).
edge(27, 172).
edge(91, 122).
edge(25, 59).
edge(86, 99).
edge(28, 149).
edge(25, 105).
edge(1, 121).
edge(28, 77).
edge(11, 172).
edge(122, 159).
edge(120, 138).
edge(54, 105).
edge(110, 117).
edge(26, 30).
edge(47, 79).
edge(38, 95).
edge(51, 124).
edge(22, 25).
edge(134, 158).
edge(18, 121).
edge(35, 105).
edge(61, 67).
edge(102, 177).
edge(67, 173).
edge(86, 131).
edge(106, 139).
edge(7, 78).
edge(56, 79).
edge(109, 126).
edge(135, 164).
edge(36, 88).
edge(12, 143).
edge(68, 130).
edge(65, 170).
edge(12, 73).
edge(53, 176).
edge(62, 112).
edge(96, 99).
edge(58, 100).
edge(52, 108).
edge(82, 83).
edge(50, 144).
edge(12, 88).
edge(83, 95).
edge(114, 172).
edge(31, 128).
edge(75, 168).
edge(6, 98).
edge(19, 155).
edge(103, 155).
edge(1, 48).
edge(76, 127).
edge(63, 116).
edge(30, 138).
edge(28, 41).
edge(16, 33).
edge(73, 76).
edge(87, 111).
edge(62, 130).
edge(97, 135).
edge(54, 56).
edge(36, 116).
edge(119, 147).
edge(3, 154).
edge(64, 153).
edge(26, 141).
edge(104, 109).
edge(6, 121).
edge(12, 161).
edge(150, 173).
edge(83, 144).
edge(12, 99).
edge(16, 161).
edge(38, 141).
edge(84, 93).
edge(21, 131).
edge(10, 154).
edge(74, 172).
edge(46, 98).
edge(138, 159).
edge(80, 155).
edge(3, 49).
edge(15, 112).
edge(104, 135).
edge(71, 142).
edge(103, 138).
edge(151, 159).
edge(106, 146).
edge(0, 74).
edge(15, 77).
edge(58, 135).
edge(100, 129).
edge(10, 83).
edge(10, 48).
edge(102, 132).
edge(85, 112).
edge(39, 105).
edge(36, 101).
edge(1, 103).
edge(2, 72).
edge(84, 149).
edge(11, 22).
edge(8, 76).
edge(59, 89).
edge(73, 90).
edge(3, 97).
edge(56, 124).
edge(1, 65).
edge(124, 138).
edge(35, 145).
edge(6, 146).
edge(44, 101).
edge(24, 119).
edge(107, 130).
edge(115, 139).
edge(3, 129).
edge(15, 130).
edge(77, 151).
edge(84, 164).
edge(121, 128).
edge(17, 157).
edge(29, 168).
edge(82, 99).
edge(57, 131).
edge(66, 98).
edge(27, 65).
edge(3, 91).
edge(142, 166).
edge(112, 154).
edge(42, 146).
edge(34, 107).
edge(93, 144).
edge(120, 167).
edge(99, 140).
edge(7, 150).
edge(65, 118).
edge(23, 118).
edge(35, 140).
edge(66, 177).
edge(100, 107).
edge(44, 92).
edge(136, 143).
edge(24, 121).
edge(70, 118).
edge(101, 129).
edge(79, 100).
edge(129, 169).
edge(120, 132).
edge(28, 154).
edge(113, 162).
edge(146, 162).
edge(4, 120).
edge(0, 142).
edge(86, 102).
edge(59, 149).
edge(35, 156).
edge(22, 104).
edge(29, 107).
edge(14, 70).
edge(67, 152).
edge(7, 60).
edge(6, 19).
edge(45, 148).
edge(46, 99).
edge(12, 148).
edge(48, 74).
edge(19, 60).
edge(148, 176).
edge(172, 176).
edge(54, 91).
edge(28, 43).
edge(111, 126).
edge(62, 166).
edge(6, 42).
edge(49, 98).
edge(58, 114).
edge(4, 57).
edge(91, 176).
edge(105, 164).
edge(9, 20).
edge(30, 41).
edge(17, 126).
edge(74, 131).
edge(36, 162).
edge(41, 85).
edge(99, 130).
edge(9, 30).
edge(128, 147).
edge(71, 90).
edge(110, 174).
edge(6, 174).
edge(68, 74).
edge(24, 96).
edge(68, 77).
edge(6, 170).
edge(95, 125).
edge(99, 116).
edge(2, 111).
edge(28, 125).
edge(3, 101).
edge(113, 138).
edge(170, 174).
edge(104, 106).
edge(37, 62).
edge(67, 127).
edge(26, 60).
edge(3, 177).
edge(136, 161).
edge(13, 68).
edge(6, 116).
edge(95, 141).
edge(32, 112).
edge(104, 146).
edge(44, 60).
edge(5, 102).
edge(23, 59).
edge(32, 123).
edge(24, 124).
edge(0, 67).
edge(124, 147).
edge(124, 126).
edge(15, 105).
edge(27, 155).
edge(50, 97).
edge(72, 90).
edge(97, 143).
edge(137, 163).
edge(32, 72).
edge(73, 82).
edge(9, 147).
edge(45, 78).
edge(6, 122).
edge(58, 94).
edge(4, 92).
edge(1, 144).
edge(6, 131).
edge(12, 137).
edge(11, 37).
edge(9, 128).
edge(58, 98).
edge(86, 91).
edge(10, 131).
edge(69, 145).
edge(148, 150).
edge(20, 123).
edge(5, 51).
edge(16, 158).
edge(56, 169).
edge(114, 170).
edge(124, 152).
edge(13, 152).
edge(30, 42).
edge(7, 104).
edge(14, 98).
edge(44, 51).
edge(56, 67).
edge(56, 94).
edge(111, 120).
edge(63, 99).
edge(107, 137).
edge(4, 90).
edge(130, 155).
edge(2, 144).
edge(9, 123).
edge(73, 167).
edge(160, 177).
edge(80, 177).
edge(92, 147).
edge(26, 123).
edge(27, 76).
edge(98, 125).
edge(45, 128).
edge(62, 151).
edge(39, 113).
edge(15, 34).
edge(83, 91).
edge(39, 92).
edge(2, 26).
edge(63, 148).
edge(170, 176).
edge(49, 170).
edge(12, 64).
edge(12, 166).
edge(106, 143).
edge(117, 155).
edge(41, 172).
edge(103, 148).
edge(2, 162).
edge(100, 116).
edge(18, 79).
edge(90, 141).
edge(78, 146).
edge(31, 134).
edge(35, 122).
edge(18, 113).
edge(62, 176).
edge(58, 75).
edge(0, 65).
edge(103, 119).
edge(83, 92).
edge(3, 116).
edge(75, 127).
edge(107, 119).
edge(14, 105).
edge(59, 165).
edge(2, 118).
edge(140, 151).
edge(38, 61).
edge(10, 80).
edge(43, 62).
edge(71, 110).
edge(56, 102).
edge(34, 100).
edge(19, 137).
edge(50, 159).
edge(3, 8).
edge(14, 93).
edge(69, 132).
edge(78, 113).
edge(133, 163).
edge(43, 109).
edge(146, 165).
edge(33, 91).
edge(44, 49).
edge(11, 117).
edge(51, 139).
edge(43, 108).
edge(112, 119).
edge(40, 165).
edge(114, 138).
edge(65, 141).
edge(23, 152).
edge(56, 57).
edge(16, 165).
edge(33, 72).
edge(142, 145).
edge(44, 70).
edge(36, 173).
edge(30, 114).
edge(64, 78).
edge(85, 143).
edge(62, 81).
edge(120, 127).
edge(171, 177).
edge(52, 90).
edge(12, 176).
edge(53, 122).
edge(26, 148).
edge(21, 105).
edge(23, 92).
edge(64, 113).
edge(25, 42).
edge(2, 151).
edge(144, 153).
edge(59, 160).
edge(40, 70).
edge(21, 67).
edge(13, 47).
edge(36, 46).
edge(26, 126).
edge(10, 67).
edge(64, 139).
edge(70, 105).
edge(56, 70).
edge(39, 73).
edge(55, 101).
edge(123, 167).
edge(5, 98).
edge(3, 158).
edge(42, 132).
edge(41, 155).
edge(74, 126).
edge(43, 158).
edge(85, 146).
edge(61, 173).
edge(35, 44).
edge(97, 125).
edge(64, 85).
edge(23, 135).
edge(103, 160).
edge(106, 127).
edge(90, 130).
edge(105, 140).
edge(92, 168).
edge(25, 136).
edge(25, 101).
edge(0, 151).
edge(22, 23).
edge(42, 59).
edge(8, 157).
edge(51, 141).
edge(131, 145).
edge(120, 152).
edge(118, 128).
edge(132, 165).
edge(51, 167).
edge(110, 115).
edge(139, 142).
edge(84, 87).
edge(43, 58).
edge(2, 99).
edge(37, 131).
edge(68, 96).
edge(82, 151).
edge(32, 169).
edge(92, 170).
edge(63, 98).
edge(33, 60).
edge(68, 157).
edge(66, 102).
edge(46, 122).
edge(13, 148).
edge(86, 123).
edge(107, 125).
edge(120, 136).
edge(34, 118).
edge(105, 169).
edge(27, 90).
edge(94, 106).
edge(6, 110).
edge(67, 104).
edge(22, 88).
edge(41, 159).
edge(85, 111).
edge(76, 120).
edge(75, 141).
edge(148, 169).
edge(117, 146).
edge(46, 97).
edge(71, 135).
edge(139, 173).
edge(7, 105).
edge(74, 100).
edge(126, 164).
edge(2, 41).
edge(40, 93).
edge(118, 158).
edge(92, 107).
edge(0, 37).
edge(134, 168).
edge(45, 158).
edge(16, 81).
edge(44, 50).
edge(113, 125).
edge(26, 49).
edge(56, 164).
edge(107, 162).
edge(78, 132).
edge(37, 64).
edge(21, 24).
edge(85, 106).
edge(76, 165).
edge(67, 145).
edge(19, 29).
edge(17, 169).
edge(93, 98).
edge(112, 122).
edge(155, 165).
edge(78, 94).
edge(45, 142).
edge(38, 67).
edge(2, 11).
edge(21, 108).
edge(29, 43).
edge(14, 163).
edge(37, 99).
edge(14, 28).
edge(13, 158).
edge(94, 165).
edge(129, 158).
edge(2, 95).
edge(34, 163).
edge(122, 148).
edge(43, 74).
edge(102, 117).
edge(22, 174).
edge(90, 125).
edge(92, 167).
edge(19, 59).
edge(101, 107).
edge(66, 83).
edge(87, 168).
edge(108, 173).
edge(67, 143).
edge(13, 156).
edge(78, 91).
edge(137, 138).
edge(1, 40).
edge(60, 164).
edge(48, 58).
edge(139, 170).
edge(15, 96).
edge(78, 95).
edge(6, 30).
edge(82, 108).
edge(73, 114).
edge(3, 38).
edge(101, 175).
edge(33, 131).
edge(57, 172).
edge(137, 166).
edge(6, 150).
edge(133, 146).
edge(16, 23).
edge(147, 174).
edge(1, 135).
edge(18, 125).
edge(73, 121).
edge(59, 82).
edge(148, 163).
edge(73, 84).
edge(6, 79).
edge(52, 99).
edge(6, 88).
edge(9, 74).
edge(40, 168).
edge(59, 156).
edge(42, 141).
edge(67, 78).
edge(145, 154).
edge(12, 43).
edge(26, 118).
edge(82, 123).
edge(23, 72).
edge(43, 75).
edge(116, 168).
edge(39, 111).
edge(71, 100).
edge(24, 164).
edge(135, 160).
edge(136, 148).
edge(69, 73).
edge(141, 149).
edge(38, 102).
edge(12, 86).
edge(91, 138).
edge(90, 105).
edge(63, 162).
edge(30, 36).
edge(54, 60).
edge(5, 120).
edge(111, 153).
edge(1, 45).
edge(39, 99).
edge(10, 121).
edge(120, 146).
edge(25, 93).
edge(42, 117).
edge(94, 149).
edge(28, 109).
edge(5, 160).
edge(80, 143).
edge(43, 96).
edge(42, 65).
edge(0, 18).
edge(49, 101).
edge(148, 154).
edge(18, 73).
edge(10, 71).
edge(36, 120).
edge(2, 83).
edge(59, 63).
edge(146, 166).
edge(31, 95).
edge(5, 24).
edge(29, 60).
edge(151, 156).
edge(36, 105).
edge(122, 143).
edge(48, 93).
edge(80, 130).
edge(18, 103).
edge(93, 162).
edge(24, 100).
edge(63, 149).
edge(96, 163).
edge(29, 49).
edge(18, 92).
edge(105, 137).
edge(68, 162).
edge(99, 108).
edge(92, 177).
edge(17, 171).
edge(62, 144).
edge(116, 132).
edge(154, 170).
edge(19, 145).
edge(13, 64).
edge(87, 169).
edge(66, 117).
edge(5, 97).
edge(23, 42).
edge(90, 153).
edge(65, 164).
edge(76, 140).
edge(101, 118).
edge(123, 131).
edge(70, 72).
edge(8, 33).
edge(42, 45).
edge(155, 164).
edge(109, 110).
edge(58, 158).
edge(43, 59).
edge(34, 63).
edge(77, 96).
edge(56, 78).
edge(45, 154).
edge(26, 62).
edge(127, 158).
edge(31, 173).
edge(47, 174).
edge(135, 176).
edge(57, 72).
edge(44, 118).
edge(47, 91).
edge(7, 99).
edge(161, 165).
edge(73, 129).
edge(115, 159).
edge(69, 177).
edge(77, 176).
edge(2, 54).
edge(15, 118).
edge(3, 7).
edge(17, 131).
edge(114, 134).
edge(12, 89).
edge(108, 175).
edge(14, 78).
edge(25, 57).
edge(42, 158).
edge(20, 115).
edge(132, 144).
edge(105, 166).
edge(13, 165).
edge(11, 24).
edge(54, 157).
edge(16, 173).
edge(25, 165).
edge(163, 166).
edge(52, 93).
edge(130, 161).
edge(122, 134).
edge(96, 171).
edge(59, 146).
edge(21, 143).
edge(37, 52).
edge(48, 154).
edge(43, 162).
edge(29, 133).
edge(46, 164).
edge(63, 113).
edge(53, 159).
edge(106, 176).
edge(50, 173).
edge(68, 147).
edge(80, 114).
edge(16, 132).
edge(64, 154).
edge(42, 162).
edge(25, 110).
edge(21, 48).
edge(55, 163).
edge(83, 131).
edge(79, 173).
edge(51, 158).
edge(35, 160).
edge(97, 155).
edge(51, 169).
edge(77, 124).
edge(52, 56).
edge(39, 88).
edge(94, 160).
edge(79, 114).
edge(53, 104).
edge(3, 58).
edge(66, 136).
edge(10, 86).
edge(50, 168).
edge(105, 152).
edge(90, 158).
edge(114, 171).
edge(25, 138).
edge(137, 148).
edge(115, 148).
edge(88, 128).
edge(21, 68).
edge(27, 68).
edge(21, 71).
edge(75, 129).
edge(66, 144).
edge(145, 155).
edge(56, 163).
edge(44, 83).
edge(114, 168).
edge(49, 136).
edge(94, 96).
edge(43, 125).
edge(58, 85).
edge(11, 132).
edge(75, 87).
edge(20, 156).
edge(101, 141).
edge(100, 142).
edge(102, 145).
edge(131, 177).
edge(47, 102).
edge(160, 176).
edge(41, 94).
edge(105, 136).
edge(123, 159).
edge(70, 94).
edge(59, 121).
edge(113, 133).
edge(48, 70).
edge(106, 126).
edge(68, 84).
edge(126, 155).
edge(31, 73).
edge(22, 38).
edge(13, 79).
edge(45, 97).
edge(112, 137).
edge(61, 168).
edge(43, 135).
edge(45, 117).
edge(1, 112).
edge(3, 63).
edge(72, 94).
edge(46, 112).
edge(104, 171).
edge(35, 103).
edge(49, 131).
edge(53, 123).
edge(67, 159).
edge(128, 173).
edge(28, 37).
edge(20, 100).
edge(65, 146).
edge(26, 97).
edge(6, 13).
edge(45, 129).
edge(83, 163).
edge(48, 59).
edge(55, 75).
edge(123, 149).
edge(4, 127).
edge(9, 168).
edge(36, 71).
edge(99, 167).
edge(20, 116).
edge(5, 45).
edge(86, 128).
edge(6, 17).
edge(61, 84).
edge(143, 163).
edge(86, 140).
edge(53, 67).
edge(83, 165).
edge(145, 176).
edge(86, 114).
edge(116, 163).
edge(90, 95).
edge(115, 170).
edge(18, 152).
edge(28, 139).
edge(68, 143).
edge(89, 155).
edge(50, 103).
edge(133, 161).
edge(7, 162).
edge(111, 168).
edge(78, 128).
edge(130, 176).
edge(38, 50).
edge(141, 174).
edge(84, 161).
edge(17, 34).
edge(17, 121).
edge(169, 174).
edge(74, 98).
edge(152, 167).
edge(125, 134).
edge(41, 80).
edge(6, 127).
edge(97, 110).
edge(106, 152).
edge(33, 61).
edge(98, 105).
edge(38, 106).
edge(87, 162).
edge(25, 161).
edge(13, 104).
edge(36, 139).
edge(161, 174).
edge(76, 111).
edge(41, 131).
edge(19, 120).
edge(2, 88).
edge(47, 138).
edge(13, 54).
edge(128, 138).
edge(13, 96).
edge(5, 71).
edge(127, 174).
edge(67, 90).
edge(55, 126).
edge(163, 169).
edge(54, 172).
edge(31, 136).
edge(25, 162).
edge(102, 131).
edge(50, 133).
edge(83, 116).
edge(66, 168).
edge(52, 149).
edge(26, 74).
edge(67, 166).
edge(5, 169).
edge(18, 52).
edge(41, 42).
edge(93, 102).
edge(42, 95).
edge(120, 130).
edge(84, 119).
edge(14, 54).
edge(8, 66).
edge(3, 173).
edge(13, 163).
edge(39, 93).
edge(35, 120).
edge(67, 102).
edge(21, 124).
edge(86, 126).
edge(41, 144).
edge(7, 147).
edge(16, 31).
edge(25, 65).
edge(41, 171).
edge(97, 122).
edge(105, 138).
edge(75, 79).
edge(8, 123).
edge(45, 110).
edge(160, 161).
edge(70, 147).
edge(102, 137).
edge(63, 110).
edge(17, 136).
edge(38, 139).
edge(47, 153).
edge(45, 127).
edge(11, 82).
edge(83, 162).
edge(146, 174).
edge(57, 143).
edge(72, 121).
edge(63, 93).
edge(35, 75).
edge(70, 121).
edge(26, 144).
edge(16, 30).
edge(98, 141).
edge(141, 171).
edge(95, 155).
edge(20, 104).
edge(88, 100).
edge(113, 153).
edge(12, 13).
edge(121, 129).
edge(39, 109).
edge(144, 146).
edge(17, 166).
edge(9, 144).
edge(11, 146).
edge(55, 138).
edge(142, 171).
edge(154, 169).
edge(89, 125).
edge(69, 94).
edge(31, 126).
edge(2, 157).
edge(14, 176).
edge(7, 56).
edge(94, 127).
edge(75, 162).
edge(24, 118).
edge(24, 40).
edge(90, 116).
edge(156, 157).
edge(61, 160).
edge(75, 153).
edge(25, 131).
edge(73, 135).
edge(9, 151).
edge(5, 142).
edge(105, 106).
edge(87, 106).
edge(9, 112).
edge(133, 145).
edge(16, 101).
edge(42, 73).
edge(5, 117).
edge(86, 95).
edge(76, 169).
edge(110, 153).
edge(152, 163).
edge(34, 98).
edge(106, 164).
edge(91, 130).
edge(128, 145).
edge(104, 143).
edge(26, 73).
edge(68, 164).
edge(32, 116).
edge(140, 175).
edge(7, 93).
edge(76, 90).
edge(46, 63).
edge(9, 62).
edge(21, 170).
edge(23, 32).
edge(70, 123).
edge(56, 141).
edge(92, 106).
edge(18, 133).
edge(37, 63).
edge(23, 52).
edge(32, 172).
edge(62, 91).
edge(109, 127).
edge(120, 150).
edge(41, 118).
edge(2, 29).
edge(36, 41).
edge(4, 100).
edge(44, 160).
edge(110, 154).
edge(14, 147).
edge(58, 127).
edge(127, 171).
edge(21, 33).
edge(45, 167).
edge(56, 147).
edge(45, 133).
edge(22, 77).
edge(75, 167).
edge(11, 166).
edge(25, 46).
edge(17, 127).
edge(1, 37).
edge(32, 147).
edge(39, 139).
edge(34, 47).
edge(94, 164).
edge(50, 98).
edge(36, 150).
edge(77, 154).
edge(42, 47).
edge(57, 176).
edge(56, 134).
edge(21, 29).
edge(132, 161).
edge(146, 176).
edge(139, 146).
edge(113, 154).
edge(19, 103).
edge(41, 79).
edge(3, 138).
edge(13, 117).
edge(56, 119).
edge(43, 106).
edge(19, 71).
edge(13, 111).
edge(77, 166).
edge(24, 63).
edge(86, 113).
edge(19, 136).
edge(16, 126).
edge(173, 176).
edge(149, 150).
edge(6, 171).
edge(139, 141).
edge(16, 82).
edge(142, 154).
edge(33, 148).
edge(5, 57).
edge(93, 97).
edge(8, 137).
edge(96, 161).
edge(43, 85).
edge(90, 175).
edge(54, 114).
edge(112, 147).
edge(27, 143).
edge(27, 125).
edge(126, 175).
edge(31, 76).
edge(19, 61).
edge(45, 140).
edge(24, 168).
edge(26, 142).
edge(49, 159).
edge(111, 142).
edge(2, 32).
edge(132, 162).
edge(138, 172).
edge(67, 79).
edge(38, 153).
edge(4, 114).
edge(55, 69).
edge(143, 154).
edge(12, 58).
edge(161, 173).
edge(46, 87).
edge(24, 46).
edge(140, 173).
edge(94, 128).
edge(84, 102).
edge(27, 92).
edge(86, 92).
edge(120, 133).
edge(20, 69).
edge(66, 103).
edge(78, 114).
edge(120, 171).
edge(8, 15).
edge(56, 69).
edge(7, 86).
edge(11, 101).
edge(51, 118).
edge(8, 57).
edge(95, 127).
edge(60, 132).
edge(17, 36).
edge(145, 158).
edge(37, 61).
edge(26, 33).
edge(27, 176).
edge(76, 115).
edge(21, 61).
edge(119, 144).
edge(63, 115).
edge(142, 152).
edge(72, 96).
edge(91, 128).
edge(10, 155).
edge(63, 103).
edge(107, 116).
edge(4, 33).
edge(98, 106).
edge(17, 162).
edge(39, 169).
edge(35, 155).
edge(9, 172).
edge(60, 82).
edge(89, 110).
edge(66, 110).
edge(28, 136).
edge(61, 132).
edge(34, 151).
edge(43, 103).
edge(52, 70).
edge(9, 81).
edge(30, 39).
edge(22, 149).
edge(113, 177).
edge(31, 151).
edge(105, 133).
edge(118, 159).
edge(3, 166).
edge(31, 158).
edge(27, 157).
edge(50, 158).
edge(59, 117).
edge(93, 164).
edge(168, 174).
edge(9, 166).
edge(61, 133).
edge(88, 140).
edge(53, 57).
edge(103, 158).
edge(38, 163).
edge(110, 147).
edge(61, 115).
edge(11, 124).
edge(70, 173).
edge(27, 61).
edge(12, 33).
edge(12, 145).
edge(54, 146).
edge(54, 112).
edge(130, 156).
edge(12, 38).
edge(52, 101).
edge(130, 134).
edge(63, 137).
edge(30, 125).
edge(137, 140).
edge(31, 168).
edge(13, 14).
edge(29, 169).
edge(47, 115).
edge(26, 125).
edge(49, 149).
edge(96, 170).
edge(44, 166).
edge(65, 116).
edge(34, 85).
edge(0, 166).
edge(115, 173).
edge(100, 143).
edge(144, 151).
edge(66, 100).
edge(58, 173).
edge(31, 132).
edge(19, 157).
edge(57, 86).
edge(52, 78).
edge(0, 125).
edge(52, 148).
edge(75, 172).
edge(66, 121).
edge(116, 122).
edge(128, 175).
edge(1, 104).
edge(133, 167).
edge(1, 42).
edge(20, 152).
edge(162, 166).
edge(74, 118).
edge(96, 117).
edge(125, 166).
edge(18, 74).
edge(11, 62).
edge(64, 111).
edge(65, 108).
edge(71, 80).
edge(6, 45).
edge(145, 168).
edge(3, 80).
edge(23, 43).
edge(77, 168).
edge(68, 119).
edge(41, 75).
edge(30, 76).
edge(104, 105).
edge(86, 117).
edge(45, 59).
edge(18, 164).
edge(55, 124).
edge(11, 141).
edge(96, 124).
edge(4, 145).
edge(61, 149).
edge(7, 38).
edge(17, 128).
edge(77, 109).
edge(5, 115).
edge(19, 130).
edge(20, 133).
edge(119, 153).
edge(3, 92).
edge(147, 172).
edge(3, 59).
edge(91, 116).
edge(49, 90).
edge(79, 131).
edge(17, 175).
edge(10, 98).
edge(10, 12).
edge(34, 97).
edge(57, 154).
edge(8, 159).
edge(3, 13).
edge(21, 63).
edge(14, 162).
edge(78, 88).
edge(8, 51).
edge(36, 136).
edge(71, 147).
edge(43, 77).
edge(97, 137).
edge(67, 133).
edge(112, 172).
edge(108, 132).
edge(45, 122).
edge(13, 34).
edge(37, 81).
edge(96, 155).
edge(80, 123).
edge(45, 150).
edge(60, 165).
edge(30, 128).
edge(33, 35).
edge(92, 98).
edge(75, 173).
edge(27, 115).
edge(22, 55).
edge(88, 109).
edge(79, 112).
edge(52, 87).
edge(37, 88).
edge(143, 167).
edge(79, 106).
edge(56, 139).
edge(79, 93).
edge(26, 140).
edge(98, 136).
edge(14, 127).
edge(42, 58).
edge(49, 103).
edge(42, 118).
edge(46, 85).
edge(15, 162).
edge(13, 122).
edge(52, 172).
edge(145, 169).
edge(69, 165).
edge(33, 123).
edge(104, 136).
edge(47, 151).
edge(39, 120).
edge(108, 176).
edge(36, 63).
edge(34, 84).
edge(74, 109).
edge(31, 36).
edge(82, 122).
edge(77, 107).
edge(3, 28).
edge(11, 17).
edge(115, 126).
edge(63, 94).
edge(49, 61).
edge(130, 164).
edge(0, 155).
edge(86, 167).
edge(24, 152).
edge(83, 104).
edge(68, 117).
edge(148, 162).
edge(84, 166).
edge(47, 147).
edge(159, 169).
edge(17, 76).
edge(120, 147).
edge(12, 82).
edge(61, 101).
edge(77, 81).
edge(16, 114).
edge(55, 153).
edge(56, 150).
edge(42, 78).
edge(31, 96).
edge(11, 104).
edge(1, 168).
edge(61, 72).
edge(12, 92).
edge(17, 31).
edge(32, 140).
edge(28, 167).
edge(31, 177).
edge(4, 87).
edge(87, 130).
edge(39, 166).
edge(10, 51).
edge(103, 153).
edge(92, 155).
edge(7, 61).
edge(110, 128).
edge(78, 165).
edge(13, 69).
edge(98, 123).
edge(121, 160).
edge(64, 116).
edge(97, 166).
edge(29, 111).
edge(128, 165).
edge(3, 132).
edge(63, 77).
edge(30, 100).
edge(3, 147).
edge(2, 140).
edge(2, 20).
edge(23, 85).
edge(55, 109).
edge(99, 177).
edge(2, 152).
edge(27, 87).
edge(70, 137).
edge(93, 117).
edge(31, 175).
edge(89, 150).
edge(3, 18).
edge(44, 172).
edge(3, 14).
edge(4, 176).
edge(2, 84).
edge(88, 174).
edge(24, 99).
edge(92, 154).
edge(38, 177).
edge(16, 99).
edge(19, 147).
edge(118, 129).
edge(70, 117).
edge(26, 162).
edge(9, 28).
edge(78, 84).
edge(151, 176).
edge(116, 142).
edge(36, 107).
edge(82, 134).
edge(49, 143).
edge(12, 80).
edge(43, 101).
edge(127, 142).
edge(36, 61).
edge(106, 130).
edge(42, 99).
edge(90, 143).
edge(31, 45).
edge(39, 87).
edge(1, 66).
edge(62, 66).
edge(51, 112).
edge(5, 92).
edge(93, 145).
edge(5, 152).
edge(88, 173).
edge(115, 142).
edge(15, 71).
edge(150, 174).
edge(12, 81).
edge(158, 163).
edge(14, 35).
edge(35, 87).
edge(117, 121).
edge(115, 158).
edge(2, 17).
edge(4, 167).
edge(74, 168).
edge(30, 129).
edge(46, 167).
edge(30, 113).
edge(47, 65).
edge(17, 132).
edge(20, 125).
edge(57, 99).
edge(9, 152).
edge(107, 165).
edge(6, 33).
edge(14, 20).
edge(161, 171).
edge(133, 158).
edge(66, 165).
edge(4, 169).
edge(12, 164).
edge(103, 145).
edge(43, 50).
edge(44, 155).
edge(9, 138).
edge(140, 160).
edge(111, 177).
edge(39, 146).
edge(96, 100).
edge(101, 171).
edge(64, 148).
edge(8, 64).
edge(0, 174).
edge(22, 68).
edge(1, 102).
edge(124, 161).
edge(131, 158).
edge(61, 73).
edge(9, 171).
edge(1, 18).
edge(70, 73).
edge(60, 163).
edge(25, 41).
edge(68, 149).
edge(45, 64).
edge(29, 91).
edge(37, 92).
edge(101, 152).
edge(118, 140).
edge(37, 114).
edge(25, 79).
edge(16, 98).
edge(65, 82).
edge(83, 176).
edge(64, 152).
edge(39, 82).
edge(91, 131).
edge(50, 117).
edge(74, 142).
edge(49, 56).
edge(110, 119).
edge(16, 149).
edge(61, 119).
edge(5, 30).
edge(84, 169).
edge(33, 173).
edge(121, 153).
edge(37, 102).
edge(107, 139).
edge(112, 150).
edge(143, 155).
edge(90, 149).
edge(36, 40).
edge(14, 27).
edge(13, 51).
edge(68, 125).
edge(126, 130).
edge(106, 115).
edge(88, 93).
edge(135, 138).
edge(22, 97).
edge(96, 119).
edge(12, 60).
edge(18, 41).
edge(59, 169).
edge(51, 165).
edge(60, 111).
edge(45, 84).
edge(107, 146).
edge(111, 133).
edge(19, 105).
edge(106, 137).
edge(60, 69).
edge(76, 92).
edge(52, 151).
edge(79, 137).
edge(98, 140).
edge(32, 132).
edge(79, 130).
edge(18, 36).
edge(29, 78).
edge(70, 176).
edge(17, 104).
edge(109, 148).
edge(25, 61).
edge(10, 105).
edge(13, 89).
edge(57, 129).
edge(56, 151).
edge(6, 49).
edge(26, 175).
edge(76, 128).
edge(69, 106).
edge(146, 150).
edge(83, 129).
edge(79, 84).
edge(116, 147).
edge(105, 163).
edge(95, 122).
edge(20, 137).
edge(49, 82).
edge(116, 134).
edge(37, 123).
edge(6, 113).
edge(61, 74).
edge(16, 170).
edge(52, 92).
edge(13, 78).
edge(12, 130).
edge(8, 10).
edge(11, 28).
edge(11, 34).
edge(42, 115).
edge(119, 177).
edge(53, 90).
edge(70, 100).
edge(97, 113).
edge(31, 62).
edge(122, 140).
edge(24, 120).
edge(104, 160).
edge(105, 144).
edge(14, 114).
edge(33, 138).
edge(49, 116).
edge(131, 139).
edge(1, 7).
edge(22, 58).
edge(3, 79).
edge(155, 160).
edge(136, 169).
edge(88, 168).
edge(54, 78).
edge(81, 96).
edge(96, 162).
edge(76, 117).
edge(29, 131).
edge(59, 132).
edge(6, 83).
edge(60, 137).
edge(99, 154).
edge(18, 61).
edge(7, 168).
edge(52, 95).
edge(26, 113).
edge(58, 160).
edge(116, 161).
edge(48, 131).
edge(1, 107).
edge(95, 157).
edge(103, 136).
edge(51, 73).
edge(21, 92).
edge(91, 97).
edge(72, 77).
edge(121, 162).
edge(40, 84).
edge(61, 158).
edge(13, 109).
edge(67, 172).
edge(50, 125).
edge(80, 116).
edge(130, 145).
edge(79, 159).
edge(83, 154).
edge(58, 122).
edge(66, 96).
edge(131, 154).
edge(48, 51).
edge(81, 167).
edge(63, 108).
edge(106, 153).
edge(157, 172).
edge(136, 159).
edge(30, 155).
edge(39, 128).
edge(140, 149).
edge(48, 73).
edge(84, 97).
edge(48, 139).
edge(149, 174).
edge(113, 166).
edge(16, 127).
edge(46, 177).
edge(11, 158).
edge(83, 103).
edge(59, 66).
edge(62, 141).
edge(68, 105).
edge(15, 43).
edge(52, 147).
edge(20, 62).
edge(24, 42).
edge(124, 169).
edge(23, 115).
edge(139, 174).
edge(61, 89).
edge(114, 152).
edge(135, 168).
edge(82, 105).
edge(53, 173).
edge(69, 161).
edge(86, 103).
edge(88, 89).
edge(58, 76).
edge(120, 125).
edge(111, 157).
edge(55, 94).
edge(108, 140).
edge(106, 163).
edge(60, 149).
edge(11, 111).
edge(75, 155).
edge(34, 42).
edge(99, 138).
edge(19, 76).
edge(60, 107).
edge(30, 78).
edge(35, 136).
edge(30, 110).
edge(45, 87).
edge(56, 111).
edge(108, 122).
edge(7, 18).
edge(1, 12).
edge(93, 166).
edge(16, 150).
edge(15, 97).
edge(59, 142).
edge(28, 98).
edge(52, 169).
edge(1, 159).
edge(120, 159).
edge(103, 125).
edge(148, 155).
edge(32, 40).
edge(72, 150).
edge(8, 142).
edge(136, 174).
edge(107, 163).
edge(30, 58).
edge(86, 137).
edge(12, 91).
edge(28, 40).
edge(6, 143).
edge(78, 123).
edge(139, 148).
edge(114, 157).
edge(8, 77).
edge(118, 167).
edge(51, 107).
edge(27, 100).
edge(72, 172).
edge(72, 163).
edge(24, 160).
edge(4, 168).
edge(25, 108).
edge(5, 9).
edge(14, 171).
edge(19, 38).
edge(91, 146).
edge(151, 167).
edge(70, 78).
edge(28, 48).
edge(95, 116).
edge(8, 102).
edge(107, 168).
edge(0, 163).
edge(90, 91).
edge(98, 110).
edge(60, 148).
edge(64, 73).
edge(66, 164).
edge(124, 177).
edge(4, 125).
edge(17, 143).
edge(35, 100).
edge(56, 162).
edge(63, 173).
edge(21, 149).
edge(70, 90).
edge(13, 159).
edge(18, 124).
edge(49, 171).
edge(73, 165).
edge(54, 167).
edge(51, 105).
edge(157, 175).
edge(19, 88).
edge(101, 123).
edge(79, 132).
edge(77, 141).
edge(67, 87).
edge(41, 117).
edge(69, 85).
edge(45, 138).
edge(30, 48).
edge(8, 132).
edge(55, 113).
edge(28, 50).
edge(96, 107).
edge(44, 154).
edge(30, 118).
edge(140, 158).
edge(15, 168).
edge(84, 139).
edge(63, 122).
edge(9, 93).
edge(88, 137).
edge(158, 177).
edge(15, 57).
edge(138, 176).
edge(21, 164).
edge(75, 133).
edge(88, 113).
edge(47, 67).
edge(41, 116).
edge(110, 170).
edge(18, 77).
edge(26, 172).
edge(24, 116).
edge(3, 26).
edge(29, 174).
edge(83, 97).
edge(20, 63).
edge(34, 45).
edge(51, 161).
edge(45, 58).
edge(17, 72).
edge(48, 49).
edge(58, 120).
edge(106, 167).
edge(33, 101).
edge(22, 148).
edge(138, 139).
edge(100, 109).
edge(146, 147).
edge(37, 60).
edge(11, 139).
edge(61, 75).
edge(117, 166).
edge(20, 139).
edge(57, 118).
edge(114, 153).
edge(49, 106).
edge(5, 94).
edge(26, 79).
edge(90, 165).
edge(88, 135).
edge(11, 57).
edge(119, 138).
edge(91, 153).
edge(70, 154).
edge(11, 86).
edge(123, 161).
edge(82, 167).
edge(0, 34).
edge(114, 116).
edge(61, 177).
edge(133, 142).
edge(139, 143).
edge(144, 176).
edge(74, 151).
edge(28, 101).
edge(66, 93).
edge(70, 95).
edge(39, 74).
edge(64, 90).
edge(55, 68).
edge(24, 39).
edge(90, 148).
edge(128, 155).
edge(33, 128).
edge(107, 171).
edge(45, 131).
edge(42, 90).
edge(20, 65).
edge(4, 74).
edge(78, 166).
edge(62, 107).
edge(21, 134).
edge(84, 143).
edge(135, 142).
edge(2, 34).
edge(176, 177).
edge(164, 165).
edge(124, 140).
edge(41, 89).
edge(130, 131).
edge(27, 151).
edge(76, 93).
edge(84, 92).
edge(60, 118).
edge(60, 104).
edge(44, 80).
edge(81, 122).
edge(32, 70).
edge(166, 177).
edge(6, 9).
edge(15, 49).
edge(37, 172).
edge(33, 111).
edge(95, 132).
edge(89, 96).
edge(65, 109).
edge(8, 54).
edge(144, 171).
edge(8, 162).
edge(67, 101).
edge(54, 166).
edge(92, 164).
edge(3, 69).
edge(11, 65).
edge(88, 158).
edge(65, 71).
edge(110, 176).
edge(118, 143).
edge(77, 78).
edge(110, 145).
edge(77, 84).
edge(27, 154).
edge(74, 113).
edge(43, 73).
edge(67, 119).
edge(10, 125).
edge(100, 163).
edge(3, 157).
edge(7, 65).
edge(78, 164).
edge(8, 87).
edge(38, 94).
edge(4, 110).
edge(54, 58).
edge(155, 170).
edge(116, 174).
edge(129, 137).
edge(29, 110).
edge(18, 94).
edge(85, 140).
edge(11, 53).
edge(25, 26).
edge(44, 169).
edge(41, 72).
edge(77, 164).
edge(117, 132).
edge(14, 42).
edge(19, 126).
edge(27, 51).
edge(62, 70).
edge(39, 55).
edge(70, 172).
edge(11, 81).
edge(136, 175).
edge(43, 47).
edge(51, 109).
edge(110, 142).
edge(28, 160).
edge(69, 152).
edge(38, 64).
edge(9, 24).
edge(46, 61).
edge(7, 68).
edge(75, 148).
edge(124, 134).
edge(62, 121).
edge(14, 82).
edge(102, 174).
edge(103, 176).
edge(38, 120).
edge(86, 97).
edge(53, 91).
edge(56, 144).
edge(7, 135).
edge(5, 6).
edge(86, 176).
edge(39, 137).
edge(33, 122).
edge(108, 114).
edge(42, 44).
edge(1, 138).
edge(64, 159).
edge(24, 50).
edge(38, 165).
edge(154, 165).
edge(20, 126).
edge(10, 64).
edge(6, 141).
edge(98, 116).
edge(44, 85).
edge(26, 94).
edge(20, 59).
edge(87, 156).
edge(120, 137).
edge(24, 95).
edge(81, 100).
edge(39, 174).
edge(10, 41).
edge(30, 73).
edge(62, 102).
edge(24, 58).
edge(31, 142).
edge(12, 175).
edge(123, 136).
edge(99, 125).
edge(18, 136).
edge(0, 7).
edge(83, 155).
edge(28, 69).
edge(35, 39).
edge(116, 126).
edge(42, 165).
edge(69, 110).
edge(114, 164).
edge(55, 81).
edge(96, 167).
edge(53, 73).
edge(16, 162).
edge(1, 2).
edge(89, 157).
edge(55, 117).
edge(58, 109).
edge(41, 87).
edge(87, 103).
edge(78, 177).
edge(33, 153).
edge(58, 95).
edge(70, 157).
edge(54, 149).
edge(41, 51).
edge(6, 80).
edge(37, 59).
edge(2, 173).
edge(78, 139).
edge(113, 161).
edge(36, 38).
edge(65, 100).
edge(14, 73).
edge(110, 149).
edge(34, 155).
edge(63, 172).
edge(3, 120).
edge(101, 157).
edge(162, 165).
edge(1, 47).
edge(78, 159).
edge(62, 117).
edge(8, 105).
edge(165, 172).
edge(7, 109).
edge(128, 163).
edge(23, 88).
edge(89, 156).
edge(40, 143).
edge(7, 75).
edge(90, 156).
edge(44, 48).
edge(38, 129).
edge(19, 112).
edge(105, 176).
edge(159, 174).
edge(17, 91).
edge(14, 29).
edge(32, 57).
edge(20, 170).
edge(0, 23).
edge(66, 124).
edge(113, 147).
edge(75, 169).
edge(72, 115).
edge(130, 140).
edge(69, 141).
edge(0, 55).
edge(75, 160).
edge(28, 90).
edge(110, 138).
edge(50, 127).
edge(77, 174).
edge(63, 150).
edge(28, 76).
edge(15, 99).
edge(42, 119).
edge(31, 81).
edge(4, 104).
edge(36, 92).
edge(31, 85).
edge(122, 124).
edge(151, 174).
edge(51, 72).
edge(81, 105).
edge(125, 169).
edge(5, 8).
edge(47, 145).
edge(174, 175).
edge(92, 171).
edge(98, 118).
edge(93, 118).
edge(14, 104).
edge(46, 106).
edge(40, 164).
edge(60, 128).
edge(12, 96).
edge(29, 45).
edge(98, 109).
edge(73, 175).
edge(62, 101).
edge(80, 144).
edge(50, 60).
edge(21, 142).
edge(76, 141).
edge(123, 124).
edge(50, 169).
edge(75, 136).
edge(47, 117).
edge(50, 147).
edge(55, 99).
edge(75, 126).
edge(92, 140).
edge(25, 129).
edge(22, 61).
edge(47, 167).
edge(39, 86).
edge(16, 168).
edge(2, 30).
edge(56, 128).
edge(69, 142).
edge(130, 175).
edge(30, 69).
edge(19, 152).
edge(123, 141).
edge(52, 63).
edge(158, 166).
edge(5, 18).
edge(121, 168).
edge(37, 144).
edge(167, 168).
edge(70, 127).
edge(51, 115).
edge(73, 131).
edge(2, 115).
edge(130, 170).
edge(13, 21).
edge(56, 138).
edge(63, 165).
edge(122, 136).
edge(113, 158).
edge(34, 177).
edge(82, 162).
edge(75, 88).
edge(97, 123).
edge(118, 156).
edge(110, 129).
edge(82, 113).
edge(32, 69).
edge(39, 62).
edge(51, 175).
edge(71, 145).
edge(144, 148).
edge(126, 139).
edge(104, 117).
edge(121, 163).
edge(5, 74).
edge(156, 164).
edge(10, 25).
edge(31, 133).
edge(77, 99).
edge(39, 153).
edge(34, 78).
edge(24, 87).
edge(20, 106).
edge(25, 151).
edge(35, 90).
edge(101, 104).
edge(11, 43).
edge(15, 85).
edge(26, 146).
edge(34, 162).
edge(97, 156).
edge(18, 97).
edge(63, 89).
edge(57, 149).
edge(76, 149).
edge(86, 147).
edge(27, 88).
edge(94, 131).
edge(59, 92).
edge(74, 139).
edge(82, 107).
edge(98, 130).
edge(131, 170).
edge(155, 173).
edge(23, 125).
edge(1, 99).
edge(99, 150).
edge(45, 132).
edge(18, 72).
edge(104, 164).
edge(111, 137).
edge(108, 134).
edge(15, 157).
edge(39, 102).
edge(28, 163).
edge(23, 111).
edge(23, 144).
edge(124, 136).
edge(38, 119).
edge(57, 160).
edge(96, 153).
edge(10, 139).
edge(47, 96).
edge(118, 136).
edge(138, 152).
edge(74, 75).
edge(122, 164).
edge(120, 121).
edge(18, 151).
edge(54, 134).
edge(74, 119).
edge(39, 95).
edge(20, 51).
edge(26, 110).
edge(50, 113).
edge(33, 149).
edge(112, 176).
edge(71, 140).
edge(40, 176).
edge(62, 94).
edge(18, 126).
edge(138, 145).
edge(32, 170).
edge(101, 126).
edge(4, 103).
edge(74, 160).
edge(80, 125).
edge(45, 103).
edge(57, 64).
edge(26, 152).
edge(44, 145).
edge(29, 35).
edge(3, 83).
edge(53, 65).
edge(9, 57).
edge(0, 24).
edge(8, 135).
edge(19, 69).
edge(118, 119).
edge(83, 135).
edge(74, 106).
edge(37, 80).
edge(29, 83).
edge(7, 131).
edge(20, 97).
edge(115, 147).
edge(47, 105).
edge(91, 129).
edge(47, 88).
edge(7, 134).
edge(82, 133).
edge(111, 123).
edge(68, 80).
edge(16, 151).
edge(89, 148).
edge(87, 115).
edge(78, 130).
edge(127, 169).
edge(23, 149).
edge(15, 172).
edge(33, 75).
edge(110, 152).
edge(149, 177).
edge(114, 150).
edge(14, 72).
edge(55, 169).
edge(1, 6).
edge(82, 143).
edge(78, 172).
edge(22, 66).
edge(47, 99).
edge(11, 49).
edge(96, 152).
edge(7, 116).
edge(52, 136).
edge(30, 130).
edge(38, 44).
edge(59, 130).
edge(42, 55).
edge(44, 177).
edge(10, 171).
edge(0, 88).
edge(68, 99).
edge(49, 118).
edge(19, 153).
edge(25, 34).
edge(13, 166).
edge(27, 164).
edge(16, 169).
edge(50, 85).
edge(56, 64).
edge(118, 127).
edge(93, 175).
edge(12, 17).
edge(100, 172).
edge(55, 157).
edge(34, 64).
edge(134, 171).
edge(147, 171).
edge(141, 163).
edge(91, 151).
edge(40, 147).
edge(30, 108).
edge(22, 93).
edge(58, 146).
edge(72, 177).
edge(136, 153).
edge(39, 124).
edge(49, 124).
edge(3, 68).
edge(56, 101).
edge(141, 175).
edge(22, 139).
edge(105, 157).
edge(57, 116).
edge(112, 164).
edge(57, 61).
edge(20, 52).
edge(42, 67).
edge(97, 142).
edge(102, 129).
edge(131, 157).
edge(128, 153).
edge(154, 171).
edge(3, 136).
edge(47, 64).
edge(64, 117).
edge(69, 133).
edge(114, 141).
edge(66, 153).
edge(5, 67).
edge(84, 156).
edge(33, 121).
edge(97, 152).
edge(23, 44).
edge(43, 61).
edge(83, 118).
edge(14, 31).
edge(147, 164).
edge(153, 164).
edge(2, 105).
edge(21, 110).
edge(109, 154).
edge(31, 65).
edge(18, 86).
edge(48, 104).
edge(5, 41).
edge(0, 84).
edge(8, 147).
edge(24, 41).
edge(92, 126).
edge(73, 176).
edge(89, 175).
edge(101, 168).
edge(135, 165).
edge(35, 62).
edge(9, 159).
edge(12, 142).
edge(13, 59).
edge(54, 89).
edge(8, 13).
edge(20, 140).
edge(41, 125).
edge(16, 110).
edge(32, 109).
edge(97, 147).
edge(81, 158).
edge(58, 150).
edge(92, 128).
edge(42, 126).
edge(72, 141).
edge(97, 106).
edge(26, 66).
edge(1, 35).
edge(97, 138).
edge(31, 125).
edge(119, 152).
edge(4, 24).
edge(68, 72).
edge(75, 175).
edge(55, 174).
edge(85, 105).
edge(30, 32).
edge(42, 94).
edge(41, 104).
edge(80, 81).
edge(66, 70).
edge(17, 159).
edge(81, 166).
edge(0, 98).
edge(7, 66).
edge(32, 115).
edge(123, 154).
edge(24, 77).
edge(143, 175).
edge(52, 168).
edge(140, 167).
edge(68, 121).
edge(15, 25).
edge(13, 124).
edge(32, 163).
edge(50, 75).
edge(0, 144).
edge(43, 87).
edge(135, 141).
edge(136, 162).
edge(87, 154).
edge(95, 126).
edge(37, 163).
edge(55, 95).
edge(31, 94).
edge(45, 147).
edge(2, 50).
edge(38, 81).
edge(55, 136).
edge(30, 79).
edge(69, 159).
edge(20, 43).
edge(37, 129).
edge(79, 113).
edge(2, 24).
edge(46, 132).
edge(31, 32).
edge(22, 164).
edge(9, 33).
edge(65, 76).
edge(19, 175).
edge(82, 127).
edge(20, 48).
edge(137, 145).
edge(0, 169).
edge(59, 62).
edge(22, 140).
edge(137, 162).
edge(101, 112).
edge(30, 144).
edge(43, 174).
edge(0, 32).
edge(94, 153).
edge(8, 86).
edge(51, 144).
edge(132, 170).
edge(42, 76).
edge(18, 127).
edge(55, 67).
edge(68, 98).
edge(111, 116).
edge(37, 112).
edge(17, 99).
edge(130, 169).
edge(13, 44).
edge(147, 153).
edge(138, 149).
edge(32, 87).
edge(44, 164).
edge(146, 161).
edge(21, 126).
edge(17, 86).
edge(45, 79).
edge(3, 22).
edge(130, 149).
edge(38, 54).
edge(46, 62).
edge(64, 147).
edge(51, 163).
edge(18, 160).
edge(4, 173).
edge(82, 175).
edge(121, 174).
edge(76, 139).
edge(126, 156).
edge(103, 139).
edge(84, 121).
edge(47, 114).
edge(73, 149).
edge(72, 170).
edge(63, 120).
edge(57, 157).
edge(112, 127).
edge(15, 160).
edge(138, 153).
edge(114, 121).
edge(48, 97).
edge(102, 160).
edge(91, 155).
edge(33, 155).
edge(88, 141).
edge(76, 158).
edge(64, 110).
edge(94, 151).
edge(78, 142).
edge(73, 104).
edge(49, 88).
edge(24, 48).
edge(117, 127).
edge(62, 155).
edge(13, 145).
edge(15, 143).
edge(47, 62).
edge(126, 151).
edge(76, 91).
edge(42, 77).
edge(0, 158).
edge(9, 98).
edge(7, 57).
edge(31, 138).
edge(48, 99).
edge(18, 84).
edge(47, 86).
edge(93, 113).
edge(24, 49).
edge(44, 134).
edge(18, 57).
edge(58, 144).
edge(31, 102).
edge(128, 176).
edge(110, 166).
edge(67, 169).
edge(86, 168).
edge(53, 110).
edge(91, 123).
edge(84, 98).
edge(6, 53).
edge(95, 142).
edge(90, 110).
edge(35, 59).
edge(31, 44).
edge(37, 155).
edge(1, 120).
edge(83, 96).
edge(29, 82).
edge(103, 142).
edge(102, 116).
edge(8, 131).
edge(110, 127).
edge(99, 104).
edge(166, 169).
edge(39, 85).
edge(51, 125).
edge(132, 149).
edge(15, 70).
edge(56, 155).
edge(108, 142).
edge(15, 79).
edge(29, 153).
edge(44, 73).
edge(0, 157).
edge(8, 121).
edge(11, 140).
edge(59, 83).
edge(76, 171).
edge(0, 172).
edge(20, 99).
edge(79, 167).
edge(85, 132).
edge(143, 165).
edge(95, 101).
edge(48, 78).
edge(8, 129).
edge(0, 161).
edge(98, 149).
edge(122, 171).
edge(19, 50).
edge(44, 89).
edge(71, 107).
edge(126, 160).
edge(50, 143).
edge(128, 152).
edge(102, 176).
edge(20, 25).
edge(61, 136).
edge(99, 107).
edge(56, 72).
edge(12, 25).
edge(69, 131).
edge(116, 120).
edge(24, 161).
edge(43, 173).
edge(55, 168).
edge(10, 140).
edge(55, 123).
edge(4, 115).
edge(22, 142).
edge(82, 164).
edge(7, 74).
edge(68, 166).
edge(6, 126).
edge(43, 100).
edge(85, 134).
edge(58, 70).
edge(30, 105).
edge(87, 171).
edge(35, 65).
edge(70, 144).
edge(127, 160).
edge(1, 130).
edge(97, 148).
edge(99, 139).
edge(21, 119).
edge(52, 177).
edge(77, 102).
edge(12, 141).
edge(132, 152).
edge(12, 177).
edge(91, 125).
edge(51, 59).
edge(105, 123).
edge(98, 137).
edge(34, 106).
edge(27, 56).
edge(25, 177).
edge(85, 101).
edge(51, 95).
edge(6, 72).
edge(64, 160).
edge(35, 41).
edge(82, 125).
edge(41, 69).
edge(128, 149).
edge(112, 117).
edge(118, 133).
edge(92, 158).
edge(31, 117).
edge(34, 150).
edge(50, 170).
edge(108, 136).
edge(27, 75).
edge(71, 106).
edge(112, 124).
edge(6, 100).
edge(10, 32).
edge(16, 40).
edge(25, 48).
edge(139, 150).
edge(123, 138).
edge(121, 130).
edge(11, 157).
edge(42, 169).
edge(15, 36).
edge(131, 151).
edge(36, 43).
edge(71, 159).
edge(15, 39).
edge(41, 135).
edge(95, 153).
edge(11, 128).
edge(38, 97).
edge(2, 47).
edge(149, 164).
edge(150, 163).
edge(63, 71).
edge(137, 141).
edge(14, 101).
edge(57, 137).
edge(23, 105).
edge(134, 151).
edge(68, 114).
edge(62, 85).
edge(92, 104).
edge(110, 120).
edge(43, 136).
edge(61, 114).
edge(125, 147).
edge(10, 162).
edge(22, 127).
edge(64, 145).
edge(77, 108).
edge(84, 152).
edge(99, 157).
edge(29, 79).
edge(60, 145).
edge(7, 24).
edge(48, 153).
edge(48, 116).
edge(52, 161).
edge(4, 174).
edge(114, 155).
edge(23, 156).
edge(124, 163).
edge(66, 125).
edge(55, 83).
edge(127, 175).
edge(63, 123).
edge(49, 147).
edge(9, 163).
edge(0, 130).
edge(124, 170).
edge(60, 122).
edge(6, 175).
edge(17, 35).
edge(122, 167).
edge(26, 89).
edge(6, 120).
edge(50, 134).
edge(53, 96).
edge(97, 176).
edge(134, 152).
edge(139, 168).
edge(15, 67).
edge(109, 125).
edge(70, 128).
edge(18, 105).
edge(100, 113).
edge(93, 156).
edge(44, 120).
edge(113, 139).
edge(71, 165).
edge(34, 173).
edge(41, 124).
edge(145, 164).
edge(103, 131).
edge(17, 19).
edge(100, 165).
edge(52, 61).
edge(136, 137).
edge(53, 83).
edge(101, 114).
edge(35, 97).
edge(72, 151).
edge(33, 139).
edge(64, 124).
edge(0, 82).
edge(3, 84).
edge(89, 149).
edge(12, 168).
edge(101, 109).
edge(8, 47).
edge(20, 89).
edge(6, 28).
edge(139, 177).
edge(16, 61).
edge(97, 174).
edge(48, 127).
edge(27, 101).
edge(84, 136).
edge(129, 153).
edge(60, 83).
edge(74, 95).
edge(33, 87).
edge(131, 150).
edge(107, 167).
edge(95, 96).
edge(30, 145).
edge(76, 156).
edge(120, 124).
edge(38, 62).
edge(9, 132).
edge(29, 50).
edge(64, 155).
edge(73, 128).
edge(29, 53).
edge(9, 121).
edge(142, 151).
edge(50, 111).
edge(60, 93).
edge(63, 118).
edge(17, 140).
edge(36, 119).
edge(22, 158).
edge(21, 57).
edge(33, 100).
edge(18, 104).
edge(8, 46).
edge(31, 71).
edge(25, 87).
edge(99, 119).
edge(12, 121).
edge(42, 116).
edge(16, 79).
edge(3, 88).
edge(27, 150).
edge(94, 102).
edge(45, 104).
edge(27, 62).
edge(5, 23).
edge(103, 149).
edge(61, 104).
edge(35, 45).
edge(82, 161).
edge(7, 25).
edge(156, 165).
edge(79, 122).
edge(31, 66).
edge(29, 148).
edge(1, 125).
edge(62, 76).
edge(78, 169).
edge(37, 40).
edge(36, 64).
edge(97, 145).
edge(103, 144).
edge(124, 148).
edge(85, 174).
edge(50, 86).
edge(48, 122).
edge(83, 115).
edge(74, 144).
edge(84, 129).
edge(3, 87).
edge(80, 92).
edge(48, 98).
edge(46, 151).
edge(58, 125).
edge(3, 23).
edge(67, 167).
edge(55, 107).
edge(3, 117).
edge(11, 61).
edge(37, 113).
edge(76, 162).
edge(40, 132).
edge(44, 144).
edge(74, 86).
edge(6, 151).
edge(74, 97).
edge(118, 130).
edge(13, 39).
edge(94, 117).
edge(28, 166).
edge(58, 83).
edge(37, 50).
edge(79, 101).
edge(12, 110).
edge(44, 99).
edge(21, 159).
edge(91, 150).
edge(39, 66).
edge(13, 137).
edge(99, 166).
edge(68, 151).
edge(14, 145).
edge(116, 128).
edge(85, 90).
edge(36, 172).
edge(24, 173).
edge(135, 154).
edge(115, 137).
edge(104, 175).
edge(7, 165).
edge(31, 56).
edge(102, 165).
edge(12, 125).
edge(23, 130).
edge(79, 153).
edge(6, 119).
edge(56, 97).
edge(80, 109).
edge(30, 163).
edge(97, 102).
edge(70, 86).
edge(43, 64).
edge(35, 112).
edge(9, 126).
edge(2, 164).
edge(21, 156).
edge(34, 133).
edge(26, 40).
edge(131, 156).
edge(39, 108).
edge(122, 174).
edge(4, 68).
edge(35, 150).
edge(74, 173).
edge(0, 104).
edge(13, 151).
edge(16, 87).
edge(88, 92).
edge(47, 158).
edge(14, 150).
edge(44, 153).
edge(150, 159).
edge(2, 70).
edge(167, 176).
edge(4, 138).
edge(69, 70).
edge(46, 56).
edge(38, 58).
edge(75, 105).
edge(36, 126).
edge(21, 118).
edge(80, 127).
edge(36, 83).
edge(112, 170).
edge(157, 165).
edge(71, 83).
edge(23, 89).
edge(38, 128).
edge(143, 157).
edge(51, 108).
edge(65, 87).
edge(65, 143).
edge(46, 114).
edge(72, 117).
edge(4, 175).
edge(40, 121).
edge(4, 41).
edge(13, 143).
edge(110, 169).
edge(27, 110).
edge(40, 99).
edge(32, 65).
edge(53, 81).
edge(92, 144).
edge(38, 69).
edge(45, 125).
edge(10, 22).
edge(15, 111).
edge(46, 107).
edge(29, 106).
edge(56, 77).
edge(98, 147).
edge(126, 138).
edge(22, 113).
edge(84, 150).
edge(14, 36).
edge(18, 120).
edge(13, 140).
edge(26, 128).
edge(12, 95).
edge(100, 169).
edge(26, 52).
edge(81, 150).
edge(15, 164).
edge(114, 131).
edge(1, 174).
edge(4, 91).
edge(75, 130).
edge(61, 138).
edge(60, 172).
edge(87, 88).
edge(43, 154).
edge(73, 166).
edge(74, 146).
edge(140, 147).
edge(9, 32).
edge(2, 39).
edge(48, 110).
edge(58, 161).
edge(117, 128).
edge(59, 118).
edge(22, 118).
edge(55, 72).
edge(73, 77).
edge(27, 141).
edge(72, 102).
edge(103, 169).
edge(43, 172).
edge(8, 100).
edge(22, 35).
edge(23, 37).
edge(50, 112).
edge(35, 170).
edge(23, 124).
edge(7, 145).
edge(1, 93).
edge(19, 132).
edge(26, 92).
edge(5, 119).
edge(59, 167).
edge(0, 109).
edge(89, 97).
edge(27, 107).
edge(65, 169).
edge(12, 140).
edge(135, 169).
edge(69, 123).
edge(84, 177).
edge(24, 54).
edge(24, 82).
edge(5, 47).
edge(80, 126).
edge(44, 149).
edge(81, 177).
edge(142, 161).
edge(60, 138).
edge(28, 92).
edge(52, 141).
edge(29, 51).
edge(101, 135).
edge(38, 118).
edge(134, 155).
edge(77, 92).
edge(92, 101).
edge(48, 129).
edge(83, 167).
edge(71, 108).
edge(32, 108).
edge(112, 134).
edge(57, 90).
edge(39, 57).
edge(34, 91).
edge(111, 118).
edge(103, 130).
edge(18, 119).
edge(10, 173).
edge(46, 113).
edge(86, 129).
edge(58, 104).
edge(58, 79).
edge(56, 156).
edge(18, 142).
edge(87, 128).
edge(120, 166).
edge(44, 119).
edge(5, 158).
edge(89, 154).
edge(48, 84).
edge(69, 95).
edge(49, 81).
edge(162, 164).
edge(81, 103).
edge(100, 153).
edge(72, 89).
edge(10, 138).
edge(51, 152).
edge(19, 161).
edge(126, 140).
edge(63, 85).
edge(8, 19).
edge(10, 174).
edge(38, 105).
edge(45, 114).
edge(22, 165).
edge(3, 131).
edge(35, 134).
edge(2, 86).
edge(128, 156).
edge(1, 9).
edge(53, 154).
edge(25, 124).
edge(12, 67).
edge(55, 140).
edge(83, 149).
edge(59, 127).
edge(102, 106).
edge(158, 172).
edge(99, 100).
edge(106, 117).
edge(49, 99).
edge(68, 104).
edge(140, 177).
edge(34, 170).
edge(9, 26).
edge(62, 123).
edge(28, 89).
edge(8, 72).
edge(87, 133).
edge(18, 80).
edge(83, 85).
edge(28, 128).
edge(132, 158).
edge(27, 67).
edge(115, 119).
edge(108, 112).
edge(2, 112).
edge(52, 119).
edge(6, 132).
edge(94, 99).
edge(53, 174).
edge(45, 173).
edge(117, 126).
edge(31, 114).
edge(48, 96).
edge(11, 137).
edge(81, 83).
edge(1, 4).
edge(17, 81).
edge(37, 128).
edge(94, 123).
edge(91, 171).
edge(81, 92).
edge(26, 130).
edge(132, 137).
edge(100, 176).
edge(18, 25).
edge(124, 139).
edge(81, 154).
edge(65, 111).
edge(34, 70).
edge(46, 103).
edge(22, 74).
edge(64, 70).
edge(77, 139).
edge(31, 103).
edge(113, 114).
edge(66, 92).
edge(1, 127).
edge(118, 157).
edge(66, 128).
edge(29, 135).
edge(80, 160).
edge(76, 84).
edge(15, 60).
edge(23, 54).
edge(26, 176).
edge(43, 88).
edge(6, 65).
edge(9, 122).
edge(50, 163).
edge(20, 110).
edge(72, 162).
edge(46, 89).
edge(75, 89).
edge(0, 143).
edge(30, 97).
edge(7, 95).
edge(34, 113).
edge(8, 106).
edge(53, 146).
edge(68, 140).
edge(48, 169).
edge(143, 169).
edge(33, 86).
edge(45, 111).
edge(45, 63).
edge(22, 24).
edge(65, 147).
edge(96, 164).
edge(0, 63).
edge(85, 144).
edge(69, 147).
edge(2, 142).
edge(4, 99).
edge(9, 176).
edge(88, 133).
edge(4, 5).
edge(144, 174).
edge(75, 97).
edge(134, 141).
edge(15, 149).
edge(65, 115).
edge(59, 164).
edge(99, 146).
edge(3, 142).
edge(90, 113).
edge(28, 32).
edge(20, 122).
edge(136, 167).
edge(71, 89).
edge(17, 89).
edge(14, 126).
edge(113, 156).
edge(107, 177).
edge(95, 110).
edge(28, 131).
edge(40, 42).
edge(86, 138).
edge(115, 168).
edge(114, 176).
edge(14, 34).
edge(31, 165).
edge(18, 112).
edge(75, 91).
edge(51, 140).
edge(58, 115).
edge(5, 70).
edge(32, 39).
edge(35, 47).
edge(52, 117).
edge(96, 102).
edge(152, 159).
edge(144, 168).
edge(10, 152).
edge(45, 143).
edge(7, 171).
edge(9, 44).
edge(62, 106).
edge(14, 74).
edge(28, 93).
edge(49, 107).
edge(3, 151).
edge(11, 102).
edge(4, 162).
edge(32, 83).
edge(135, 159).
edge(30, 89).
edge(84, 135).
edge(48, 118).
edge(69, 166).
edge(89, 166).
edge(64, 92).
edge(39, 54).
edge(108, 150).
edge(135, 153).
edge(47, 171).
edge(131, 134).
edge(30, 77).
edge(36, 152).
edge(49, 122).
edge(69, 136).
edge(18, 116).
edge(11, 32).
edge(115, 129).
edge(2, 78).
edge(69, 176).
edge(49, 85).
edge(84, 141).
edge(37, 157).
edge(88, 157).
edge(32, 128).
edge(11, 159).
edge(105, 172).
edge(51, 111).
edge(37, 132).
edge(136, 170).
edge(103, 109).
edge(92, 125).
edge(124, 153).
edge(15, 135).
edge(73, 88).
edge(49, 76).
edge(9, 86).
edge(86, 175).
edge(13, 102).
edge(69, 153).
edge(19, 48).
edge(158, 171).
edge(23, 98).
edge(148, 177).
edge(18, 43).
edge(128, 144).
edge(26, 76).
edge(38, 78).
edge(70, 141).
edge(13, 146).
edge(25, 135).
edge(10, 126).
edge(103, 140).
edge(29, 62).
edge(3, 169).
edge(15, 35).
edge(65, 113).
edge(100, 157).
edge(126, 137).
edge(3, 89).
edge(33, 115).
edge(81, 142).
edge(52, 83).
edge(40, 94).
edge(0, 68).
edge(25, 122).
edge(39, 44).
edge(52, 125).
edge(28, 142).
edge(63, 124).
edge(148, 168).
edge(68, 75).
edge(102, 128).
edge(125, 129).
edge(26, 69).
edge(10, 161).
edge(0, 141).
edge(132, 135).
edge(35, 56).
edge(29, 73).
edge(54, 103).
edge(96, 123).
edge(75, 137).
edge(45, 155).
edge(24, 122).
edge(102, 103).
edge(17, 129).
edge(29, 128).
edge(13, 138).
edge(20, 151).
edge(62, 153).
edge(101, 148).
edge(76, 129).
edge(64, 135).
edge(103, 118).
edge(34, 66).
edge(11, 154).
edge(111, 128).
edge(92, 127).
edge(94, 110).
edge(50, 78).
edge(14, 32).
edge(56, 168).
edge(95, 118).
edge(139, 140).
edge(6, 139).
edge(60, 68).
edge(21, 31).
edge(22, 153).
edge(127, 177).
edge(129, 136).
edge(141, 159).
edge(6, 166).
edge(102, 121).
edge(47, 103).
edge(46, 60).
edge(37, 124).
edge(39, 119).
edge(5, 81).
edge(107, 140).
edge(146, 168).
edge(26, 96).
edge(3, 118).
edge(69, 91).
edge(32, 159).
edge(54, 163).
edge(76, 176).
edge(10, 46).
edge(56, 173).
edge(69, 125).
edge(4, 30).
edge(35, 177).
edge(28, 132).
edge(80, 163).
edge(43, 128).
edge(37, 118).
edge(22, 28).
edge(56, 176).
edge(59, 147).
edge(27, 118).
edge(25, 72).
edge(20, 164).
edge(78, 106).
edge(26, 121).
edge(94, 156).
edge(67, 95).
edge(18, 135).
edge(52, 106).
edge(98, 126).
edge(83, 108).
edge(88, 167).
edge(95, 175).
edge(44, 62).
edge(66, 138).
edge(74, 103).
edge(84, 100).
edge(86, 169).
edge(15, 90).
edge(14, 65).
edge(27, 144).
edge(71, 134).
edge(55, 127).
edge(60, 176).
edge(40, 92).
edge(5, 52).
edge(46, 65).
edge(63, 141).
edge(40, 72).
edge(32, 142).
edge(151, 169).
edge(23, 172).
edge(72, 93).
edge(70, 135).
edge(43, 168).
edge(36, 108).
edge(28, 124).
edge(32, 61).
edge(28, 134).
edge(54, 131).
edge(19, 159).
edge(78, 107).
edge(12, 151).
edge(62, 152).
edge(26, 42).
edge(78, 156).
edge(28, 138).
edge(78, 102).
edge(21, 140).
edge(81, 172).
edge(8, 71).
edge(27, 128).
edge(83, 100).
edge(40, 59).
edge(36, 115).
edge(85, 107).
edge(104, 137).
edge(41, 128).
edge(96, 131).
edge(49, 91).
edge(1, 92).
edge(54, 101).
edge(99, 126).
edge(56, 62).
edge(59, 102).
edge(109, 162).
edge(20, 57).
edge(56, 157).
edge(109, 135).
edge(32, 149).
edge(160, 174).
edge(49, 54).
edge(159, 176).
edge(118, 173).
edge(6, 148).
edge(49, 63).
edge(15, 170).
edge(32, 67).
edge(15, 173).
edge(62, 131).
edge(153, 175).
edge(79, 109).
edge(87, 177).
edge(33, 125).
edge(29, 80).
edge(26, 82).
edge(15, 75).
edge(48, 144).
edge(8, 98).
edge(32, 66).
edge(27, 41).
edge(134, 135).
edge(119, 127).
edge(94, 154).
edge(29, 156).
edge(61, 113).
edge(19, 139).
edge(97, 130).
edge(9, 106).
edge(75, 149).
edge(10, 74).
edge(30, 152).
edge(93, 148).
edge(127, 156).
edge(51, 91).
edge(146, 173).
edge(82, 120).
edge(56, 153).
edge(132, 177).
edge(86, 144).
edge(137, 154).
edge(72, 158).
edge(35, 74).
edge(43, 129).
edge(2, 126).
edge(38, 173).
edge(85, 94).
edge(34, 123).
edge(4, 53).
edge(129, 131).
edge(91, 159).
edge(160, 163).
edge(25, 160).
edge(21, 60).
edge(82, 154).
edge(80, 99).
edge(50, 93).
edge(81, 160).
edge(130, 146).
edge(67, 156).
edge(101, 145).
edge(26, 59).
edge(119, 171).
edge(11, 116).
edge(65, 166).
edge(6, 156).
edge(5, 141).
edge(129, 147).
edge(15, 171).
edge(80, 87).
edge(75, 140).
edge(60, 144).
edge(60, 62).
edge(24, 109).
edge(7, 114).
edge(127, 155).
edge(125, 155).
edge(50, 137).
edge(28, 130).
edge(83, 143).
edge(102, 124).
edge(4, 79).
edge(10, 73).
edge(64, 120).
edge(109, 145).
edge(63, 169).
edge(69, 140).
edge(52, 116).
edge(2, 13).
edge(3, 130).
edge(133, 155).
edge(41, 101).
edge(40, 166).
edge(100, 101).
edge(2, 3).
edge(112, 153).
edge(16, 67).
edge(58, 90).
edge(41, 74).
edge(17, 153).
edge(52, 107).
edge(90, 177).
edge(42, 106).
edge(59, 65).
edge(159, 170).
edge(44, 93).
edge(15, 166).
edge(131, 140).
edge(108, 116).
edge(15, 69).
edge(50, 96).
edge(79, 98).
edge(114, 151).
edge(43, 51).
edge(72, 138).
edge(50, 95).
edge(69, 172).
edge(78, 83).
edge(59, 113).
edge(60, 116).
edge(119, 176).
edge(5, 28).
edge(18, 110).
edge(8, 25).
edge(3, 61).
edge(0, 154).
edge(25, 37).
edge(16, 104).
edge(89, 146).
edge(68, 106).
edge(36, 159).
edge(33, 48).
edge(143, 171).
edge(63, 79).
edge(14, 128).
edge(56, 63).
edge(122, 150).
edge(83, 90).
edge(5, 99).
edge(1, 155).
edge(123, 142).
edge(108, 161).
edge(20, 109).
edge(64, 121).
edge(130, 138).
edge(14, 85).
edge(101, 144).
edge(2, 153).
edge(2, 114).
edge(17, 64).
edge(62, 165).
edge(11, 144).
edge(49, 121).
edge(19, 28).
edge(100, 150).
edge(32, 73).
edge(73, 87).
edge(34, 121).
edge(15, 132).
edge(67, 77).
edge(104, 170).
edge(88, 138).
edge(21, 175).
edge(10, 107).
edge(26, 85).
edge(112, 125).
edge(70, 119).
edge(10, 110).
edge(7, 87).
edge(90, 100).
edge(18, 114).
edge(71, 91).
edge(20, 34).
edge(49, 146).
edge(29, 146).
edge(29, 103).
edge(90, 111).
edge(46, 86).
edge(97, 139).
edge(50, 176).
edge(31, 58).
edge(49, 71).
edge(5, 13).
edge(0, 59).
edge(81, 174).
edge(72, 157).
edge(20, 108).
edge(41, 161).
edge(15, 44).
edge(42, 150).
edge(20, 83).
edge(32, 131).
edge(12, 169).
edge(62, 157).
edge(24, 27).
edge(93, 142).
edge(28, 29).
edge(20, 74).
edge(53, 125).
edge(14, 22).
edge(25, 143).
edge(138, 171).
edge(24, 62).
edge(152, 155).
edge(108, 110).
edge(1, 114).
edge(22, 83).
edge(116, 143).
edge(42, 145).
edge(40, 177).
edge(8, 146).
edge(66, 113).
edge(87, 93).
edge(29, 122).
edge(4, 96).
edge(134, 159).
edge(72, 136).
edge(56, 149).
edge(118, 126).
edge(99, 148).
edge(53, 82).
edge(129, 146).
edge(39, 151).
edge(79, 89).
edge(19, 160).
edge(147, 175).
edge(10, 45).
edge(126, 167).
edge(69, 174).
edge(158, 175).
edge(121, 155).
edge(65, 95).
edge(50, 53).
edge(54, 90).
edge(67, 94).
edge(42, 70).
edge(14, 24).
edge(85, 149).
edge(1, 166).
edge(26, 99).
edge(145, 150).
edge(35, 107).
edge(66, 95).
edge(27, 50).
edge(22, 103).
edge(116, 121).
edge(27, 166).
edge(73, 127).
edge(67, 117).
edge(15, 81).
edge(52, 170).
edge(62, 80).
edge(60, 166).
edge(74, 159).
edge(13, 153).
edge(5, 149).
edge(17, 138).
edge(35, 132).
edge(140, 145).
edge(81, 147).
edge(130, 139).
edge(48, 165).
edge(129, 145).
edge(88, 162).
edge(60, 152).
edge(61, 77).
edge(26, 72).
edge(86, 163).
edge(17, 113).
edge(51, 64).
edge(133, 176).
edge(62, 89).
edge(25, 130).
edge(97, 165).
edge(78, 126).
edge(8, 50).
edge(14, 67).
edge(43, 161).
edge(132, 175).
edge(8, 143).
edge(38, 168).
edge(157, 160).
edge(30, 104).
edge(22, 89).
edge(44, 151).
edge(16, 177).
edge(71, 141).
edge(99, 121).
edge(127, 172).
edge(5, 129).
edge(142, 172).
edge(144, 166).
edge(101, 166).
edge(32, 153).
edge(19, 102).
edge(141, 176).
edge(1, 14).
edge(6, 172).
edge(9, 45).
edge(8, 80).
edge(50, 69).
edge(16, 131).
edge(64, 164).
edge(90, 140).
edge(87, 174).
edge(31, 166).
edge(1, 43).
edge(76, 143).
edge(156, 175).
edge(2, 103).
edge(91, 157).
edge(24, 123).
edge(8, 38).
edge(94, 147).
edge(25, 104).
edge(15, 163).
edge(28, 70).
edge(24, 162).
edge(76, 177).
edge(49, 152).
edge(20, 148).
edge(20, 165).
edge(99, 164).
edge(72, 79).
edge(36, 97).
edge(3, 39).
edge(66, 156).
edge(109, 137).
edge(27, 116).
edge(99, 131).
edge(88, 121).
edge(16, 125).
edge(77, 157).
edge(76, 164).
edge(45, 121).
edge(74, 101).
edge(73, 140).
edge(57, 169).
edge(31, 101).
edge(39, 156).
edge(15, 139).
edge(4, 133).
edge(32, 120).
edge(59, 94).
edge(127, 136).
edge(6, 94).
edge(29, 63).
edge(6, 60).
edge(18, 102).
edge(109, 144).
edge(73, 174).
edge(16, 137).
edge(105, 108).
edge(26, 63).
edge(63, 167).
edge(54, 72).
edge(137, 170).
edge(112, 116).
edge(40, 119).
edge(57, 76).
edge(107, 118).
edge(13, 93).
edge(58, 152).
edge(12, 90).
edge(27, 45).
edge(32, 152).
edge(14, 51).
edge(47, 139).
edge(78, 118).
edge(14, 81).
edge(59, 98).
edge(45, 146).
edge(148, 175).
edge(65, 66).
edge(58, 82).
edge(129, 157).
edge(7, 96).
edge(5, 105).
edge(68, 154).
edge(103, 154).
edge(36, 145).
edge(54, 127).
edge(172, 175).
edge(15, 68).
edge(11, 15).
edge(77, 101).
edge(7, 121).
edge(73, 102).
edge(60, 78).
edge(154, 172).
edge(29, 100).
edge(103, 113).
edge(132, 157).
edge(7, 132).
edge(70, 116).
edge(9, 58).
edge(53, 100).
edge(123, 164).
edge(25, 33).
edge(11, 35).
edge(33, 81).
edge(90, 135).
edge(11, 63).
edge(5, 91).
edge(124, 173).
edge(48, 53).
edge(100, 118).
edge(6, 32).
edge(48, 135).
edge(60, 174).
edge(86, 143).
edge(127, 170).
edge(89, 122).
edge(37, 84).
edge(14, 151).
edge(74, 78).
edge(111, 144).
edge(137, 146).
edge(65, 151).
edge(78, 87).
edge(151, 164).
edge(33, 47).
edge(3, 165).
edge(92, 152).
edge(67, 163).
edge(36, 133).
edge(13, 65).
edge(24, 142).
edge(24, 80).
edge(99, 120).
edge(22, 141).
edge(40, 49).
edge(9, 101).
edge(32, 146).
edge(136, 146).
edge(57, 104).
edge(46, 155).
edge(47, 126).
edge(114, 169).
edge(10, 66).
edge(64, 141).
edge(31, 141).
edge(12, 162).
edge(36, 161).
edge(151, 163).
edge(65, 165).
edge(114, 148).
edge(68, 85).
edge(23, 75).
edge(23, 57).
edge(47, 60).
edge(45, 49).
edge(22, 117).
edge(92, 133).
edge(15, 116).
edge(26, 84).
edge(105, 175).
edge(125, 151).
edge(90, 127).
edge(10, 26).
edge(126, 166).
edge(33, 55).
edge(1, 151).
edge(95, 115).
edge(6, 77).
edge(56, 112).
edge(161, 175).
edge(106, 123).
edge(156, 174).
edge(30, 134).
edge(42, 170).
edge(20, 64).
edge(105, 115).
edge(21, 64).
edge(74, 137).
edge(95, 148).
edge(37, 39).
edge(1, 131).
edge(165, 167).
edge(27, 109).
edge(120, 155).
edge(115, 133).
edge(42, 85).
edge(57, 155).
edge(29, 68).
edge(11, 114).
edge(80, 169).
edge(20, 32).
edge(78, 144).
edge(13, 41).
edge(148, 167).
edge(65, 74).
edge(69, 139).
edge(25, 168).
edge(19, 134).
edge(36, 131).
edge(137, 165).
edge(52, 59).
edge(5, 150).
edge(94, 146).
edge(77, 86).
edge(8, 168).
edge(0, 19).
edge(8, 30).
edge(37, 161).
edge(23, 140).
edge(88, 120).
edge(80, 156).
edge(4, 19).
edge(73, 103).
edge(0, 62).
edge(129, 174).
edge(23, 153).
edge(3, 115).
edge(46, 128).
edge(30, 171).
edge(144, 156).
edge(105, 134).
edge(46, 115).
edge(109, 129).
edge(65, 140).
edge(6, 76).
edge(15, 115).
edge(50, 61).
edge(135, 166).
edge(140, 174).
edge(53, 128).
edge(58, 171).
edge(11, 162).
edge(46, 64).
edge(55, 167).
edge(49, 112).
edge(5, 161).
edge(39, 76).
edge(8, 23).
edge(135, 152).
edge(17, 73).
edge(83, 168).
edge(10, 148).
edge(125, 172).
edge(37, 100).
edge(10, 59).
edge(105, 131).
edge(16, 84).
edge(117, 147).
edge(108, 153).
edge(25, 45).
edge(0, 2).
edge(85, 89).
edge(20, 50).
edge(29, 126).
edge(172, 173).
edge(46, 102).
edge(68, 101).
edge(5, 109).
edge(101, 153).
edge(124, 141).
edge(56, 104).
edge(35, 52).
edge(32, 45).
edge(64, 138).
edge(1, 73).
edge(28, 153).
edge(0, 46).
edge(26, 45).
edge(39, 114).
edge(31, 164).
edge(75, 116).
edge(63, 163).
edge(45, 83).
edge(26, 108).
edge(69, 92).
edge(65, 132).
edge(34, 90).
edge(119, 128).
edge(125, 177).
edge(48, 132).
edge(55, 112).
edge(28, 110).
edge(2, 143).
edge(146, 164).
edge(11, 98).
edge(13, 118).
edge(61, 163).
edge(40, 98).
edge(52, 123).
edge(55, 120).
edge(95, 173).
edge(25, 89).
edge(5, 108).
edge(6, 114).
edge(82, 136).
edge(150, 157).
edge(42, 89).
edge(91, 134).
edge(34, 158).
edge(39, 173).
edge(108, 143).
edge(114, 122).
edge(33, 117).
edge(68, 73).
edge(47, 157).
edge(35, 148).
edge(30, 31).
edge(93, 146).
edge(38, 53).
edge(47, 149).
edge(63, 68).
edge(100, 122).
edge(35, 164).
edge(25, 53).
edge(10, 149).
edge(75, 124).
edge(2, 76).
edge(89, 165).
edge(15, 16).
edge(68, 133).
edge(51, 54).
edge(102, 175).
edge(51, 143).
edge(65, 149).
edge(65, 104).
edge(41, 96).
edge(112, 175).
edge(132, 140).
edge(148, 153).
edge(46, 172).
edge(96, 128).
edge(84, 109).
edge(97, 98).
edge(41, 60).
edge(62, 145).
edge(126, 161).
edge(3, 32).
edge(20, 134).
edge(10, 85).
edge(77, 147).
edge(11, 71).
edge(9, 72).
edge(127, 152).
edge(97, 112).
edge(36, 52).
edge(21, 145).
edge(57, 80).
edge(20, 73).
edge(72, 105).
edge(27, 83).
edge(62, 139).
edge(14, 111).
edge(17, 85).
edge(57, 67).
edge(58, 107).
edge(47, 52).
edge(66, 78).
edge(22, 43).
edge(84, 120).
edge(77, 146).
edge(34, 51).
edge(8, 153).
edge(57, 117).
edge(51, 68).
edge(7, 33).
edge(69, 126).
edge(70, 106).
edge(138, 141).
edge(7, 123).
edge(9, 63).
edge(99, 151).
edge(42, 153).
edge(111, 129).
edge(117, 131).
edge(4, 163).
edge(162, 169).
edge(26, 158).
edge(48, 158).
edge(93, 129).
edge(14, 94).
edge(11, 30).
edge(135, 143).
edge(16, 159).
edge(14, 133).
edge(121, 138).
edge(24, 66).
edge(14, 170).
edge(63, 109).
edge(11, 76).
edge(133, 171).
edge(67, 126).
edge(25, 111).
edge(85, 100).
edge(21, 30).
edge(145, 156).
edge(42, 46).
edge(51, 131).
edge(27, 38).
edge(35, 131).
edge(63, 156).
edge(1, 54).
edge(61, 151).
edge(84, 140).
edge(23, 136).
edge(158, 169).
edge(10, 28).
edge(99, 122).
edge(50, 161).
edge(87, 148).
edge(141, 142).
edge(35, 58).
edge(143, 168).
edge(4, 160).
edge(5, 58).
edge(33, 43).
edge(44, 58).
edge(73, 177).
edge(56, 68).
edge(42, 124).
edge(32, 111).
edge(110, 159).
edge(83, 110).
edge(13, 141).
edge(37, 162).
edge(67, 105).
edge(12, 75).
edge(81, 175).
edge(156, 170).
edge(11, 38).
edge(21, 173).
edge(4, 97).
edge(0, 4).
edge(94, 97).
edge(52, 155).
edge(18, 71).
edge(66, 169).
edge(64, 150).
edge(100, 115).
edge(56, 174).
edge(25, 64).
edge(124, 150).
edge(131, 133).
edge(5, 96).
edge(82, 148).
edge(79, 154).
edge(74, 81).
edge(23, 170).
edge(56, 127).
edge(108, 174).
edge(110, 118).
edge(87, 110).
edge(48, 164).
edge(92, 139).
edge(34, 138).
edge(7, 37).
edge(140, 165).
edge(31, 78).
edge(62, 172).
edge(19, 82).
edge(11, 42).
edge(27, 133).
edge(21, 115).
edge(72, 112).
edge(119, 126).
edge(114, 140).
edge(90, 101).
edge(105, 139).
edge(4, 83).
edge(19, 166).
edge(23, 36).
edge(30, 167).
edge(39, 165).
edge(42, 161).
edge(67, 97).
edge(47, 130).
edge(86, 151).
edge(3, 29).
edge(33, 62).
edge(111, 158).
edge(77, 103).
edge(19, 37).
edge(47, 59).
edge(24, 127).
edge(59, 114).
edge(72, 95).
edge(3, 46).
edge(61, 135).
edge(96, 145).
edge(111, 139).
edge(76, 160).
edge(62, 138).
edge(69, 150).
edge(30, 64).
edge(112, 139).
edge(9, 111).
edge(33, 137).
edge(118, 174).
edge(16, 93).
edge(13, 167).
edge(90, 147).
edge(24, 25).
edge(87, 124).
edge(121, 145).
edge(21, 90).
edge(26, 75).
edge(156, 171).
edge(20, 101).
edge(109, 159).
edge(8, 152).
edge(22, 72).
edge(121, 177).
weight(0, 23).
weight(1, 16).
weight(2, 9).
weight(3, 5).
weight(4, 24).
weight(5, 2).
weight(6, 19).
weight(7, 9).
weight(8, 10).
weight(9, 1).
weight(10, 15).
weight(11, 23).
weight(12, 13).
weight(13, 6).
weight(14, 3).
weight(15, 13).
weight(16, 5).
weight(17, 23).
weight(18, 11).
weight(19, 10).
weight(20, 24).
weight(21, 5).
weight(22, 18).
weight(23, 21).
weight(24, 18).
weight(25, 2).
weight(26, 1).
weight(27, 11).
weight(28, 4).
weight(29, 8).
weight(30, 22).
weight(31, 24).
weight(32, 4).
weight(33, 19).
weight(34, 4).
weight(35, 19).
weight(36, 15).
weight(37, 6).
weight(38, 20).
weight(39, 13).
weight(40, 15).
weight(41, 16).
weight(42, 1).
weight(43, 13).
weight(44, 12).
weight(45, 11).
weight(46, 9).
weight(47, 13).
weight(48, 2).
weight(49, 19).
weight(50, 10).
weight(51, 4).
weight(52, 19).
weight(53, 1).
weight(54, 11).
weight(55, 17).
weight(56, 6).
weight(57, 18).
weight(58, 6).
weight(59, 19).
weight(60, 9).
weight(61, 9).
weight(62, 12).
weight(63, 12).
weight(64, 11).
weight(65, 4).
weight(66, 10).
weight(67, 1).
weight(68, 13).
weight(69, 13).
weight(70, 3).
weight(71, 16).
weight(72, 5).
weight(73, 16).
weight(74, 8).
weight(75, 21).
weight(76, 14).
weight(77, 11).
weight(78, 1).
weight(79, 12).
weight(80, 12).
weight(81, 19).
weight(82, 23).
weight(83, 18).
weight(84, 2).
weight(85, 17).
weight(86, 14).
weight(87, 11).
weight(88, 14).
weight(89, 22).
weight(90, 8).
weight(91, 23).
weight(92, 4).
weight(93, 23).
weight(94, 2).
weight(95, 14).
weight(96, 19).
weight(97, 21).
weight(98, 8).
weight(99, 18).
weight(100, 19).
weight(101, 2).
weight(102, 23).
weight(103, 10).
weight(104, 19).
weight(105, 23).
weight(106, 5).
weight(107, 21).
weight(108, 4).
weight(109, 20).
weight(110, 5).
weight(111, 9).
weight(112, 3).
weight(113, 14).
weight(114, 16).
weight(115, 19).
weight(116, 10).
weight(117, 10).
weight(118, 22).
weight(119, 24).
weight(120, 2).
weight(121, 19).
weight(122, 16).
weight(123, 21).
weight(124, 17).
weight(125, 10).
weight(126, 3).
weight(127, 23).
weight(128, 20).
weight(129, 10).
weight(130, 7).
weight(131, 2).
weight(132, 23).
weight(133, 22).
weight(134, 22).
weight(135, 15).
weight(136, 15).
weight(137, 13).
weight(138, 7).
weight(139, 9).
weight(140, 15).
weight(141, 23).
weight(142, 12).
weight(143, 21).
weight(144, 4).
weight(145, 3).
weight(146, 8).
weight(147, 4).
weight(148, 6).
weight(149, 1).
weight(150, 9).
weight(151, 12).
weight(152, 1).
weight(153, 22).
weight(154, 8).
weight(155, 23).
weight(156, 9).
weight(157, 7).
weight(158, 2).
weight(159, 16).
weight(160, 23).
weight(161, 12).
weight(162, 20).
weight(163, 21).
weight(164, 3).
weight(165, 18).
weight(166, 8).
weight(167, 1).
weight(168, 4).
weight(169, 16).
weight(170, 6).
weight(171, 19).
weight(172, 21).
weight(173, 13).
weight(174, 9).
weight(175, 8).
weight(176, 19).
weight(177, 22).

{in(V)} :- node(V).
:- in(U), in(V), U < V, not edge(U,V).
:~ not in(V), weight(V,W). [W@1,V]
