node(0..148).
edge(13, 86).
edge(60, 126).
edge(3, 96).
edge(22, 147).
edge(62, 76).
edge(90, 133).
edge(41, 97).
edge(16, 47).
edge(20, 28).
edge(30, 107).
edge(13, 112).
edge(53, 88).
edge(10, 114).
edge(44, 141).
edge(110, 123).
edge(39, 132).
edge(20, 97).
edge(90, 140).
edge(99, 140).
edge(37, 91).
edge(13, 146).
edge(109, 113).
edge(145, 146).
edge(2, 103).
edge(53, 143).
edge(11, 50).
edge(59, 102).
edge(43, 97).
edge(7, 69).
edge(76, 117).
edge(29, 70).
edge(85, 130).
edge(87, 140).
edge(3, 114).
edge(89, 107).
edge(28, 51).
edge(44, 59).
edge(13, 19).
edge(14, 18).
edge(81, 143).
edge(3, 73).
edge(54, 78).
edge(14, 42).
edge(80, 115).
edge(44, 115).
edge(51, 53).
edge(48, 113).
edge(1, 129).
edge(8, 71).
edge(77, 105).
edge(2, 112).
edge(37, 115).
edge(20, 125).
edge(8, 18).
edge(76, 147).
edge(0, 59).
edge(10, 132).
edge(15, 64).
edge(11, 52).
edge(45, 109).
edge(72, 140).
edge(27, 136).
edge(31, 37).
edge(3, 59).
edge(128, 146).
edge(30, 110).
edge(101, 146).
edge(76, 94).
edge(62, 84).
edge(87, 142).
edge(65, 109).
edge(33, 81).
edge(78, 143).
edge(104, 109).
edge(31, 102).
edge(58, 100).
edge(12, 67).
edge(2, 135).
edge(9, 118).
edge(12, 23).
edge(1, 106).
edge(26, 63).
edge(67, 83).
edge(13, 68).
edge(19, 88).
edge(50, 62).
edge(73, 113).
edge(103, 143).
edge(23, 26).
edge(91, 140).
edge(85, 118).
edge(26, 87).
edge(35, 86).
edge(84, 118).
edge(65, 123).
edge(121, 135).
edge(30, 92).
edge(59, 83).
edge(98, 113).
edge(52, 92).
edge(21, 74).
edge(100, 111).
edge(93, 97).
edge(47, 84).
edge(118, 130).
edge(51, 59).
edge(25, 100).
edge(12, 137).
edge(28, 124).
edge(49, 110).
edge(76, 145).
edge(57, 59).
edge(37, 87).
edge(27, 63).
edge(122, 144).
edge(18, 64).
edge(63, 77).
edge(101, 120).
edge(86, 135).
edge(97, 127).
edge(32, 85).
edge(67, 88).
edge(16, 147).
edge(10, 71).
edge(8, 36).
edge(126, 134).
edge(4, 70).
edge(55, 84).
edge(10, 117).
edge(64, 78).
edge(34, 138).
edge(80, 93).
edge(62, 115).
edge(10, 72).
edge(18, 96).
edge(41, 137).
edge(75, 83).
edge(95, 128).
edge(14, 146).
edge(28, 123).
edge(32, 86).
edge(61, 86).
edge(109, 132).
edge(34, 127).
edge(24, 135).
edge(18, 103).
edge(56, 136).
edge(41, 119).
edge(58, 95).
edge(62, 83).
edge(73, 116).
edge(44, 118).
edge(73, 108).
edge(107, 124).
edge(54, 100).
edge(32, 53).
edge(31, 56).
edge(82, 99).
edge(16, 122).
edge(96, 129).
edge(70, 84).
edge(46, 92).
edge(38, 81).
edge(71, 123).
edge(13, 59).
edge(0, 143).
edge(41, 86).
edge(48, 106).
edge(18, 81).
edge(62, 104).
edge(138, 148).
edge(10, 119).
edge(8, 106).
edge(23, 138).
edge(98, 139).
edge(57, 87).
edge(45, 100).
edge(72, 82).
edge(19, 48).
edge(84, 134).
edge(60, 131).
edge(20, 140).
edge(41, 89).
edge(103, 118).
edge(115, 122).
edge(55, 58).
edge(38, 64).
edge(94, 131).
edge(0, 116).
edge(36, 52).
edge(3, 84).
edge(90, 122).
edge(59, 125).
edge(52, 138).
edge(13, 82).
edge(90, 95).
edge(29, 49).
edge(65, 95).
edge(1, 3).
edge(40, 75).
edge(34, 48).
edge(66, 94).
edge(36, 82).
edge(21, 100).
edge(96, 103).
edge(51, 79).
edge(63, 97).
edge(46, 97).
edge(36, 41).
edge(63, 119).
edge(109, 121).
edge(66, 75).
edge(43, 114).
edge(26, 117).
edge(10, 126).
edge(26, 118).
edge(48, 79).
edge(42, 126).
edge(9, 33).
edge(69, 71).
edge(9, 126).
edge(13, 47).
edge(20, 63).
edge(31, 62).
edge(61, 144).
edge(9, 75).
edge(7, 22).
edge(32, 109).
edge(9, 44).
edge(49, 112).
edge(40, 138).
edge(65, 107).
edge(85, 136).
edge(80, 90).
edge(19, 50).
edge(83, 118).
edge(56, 97).
edge(17, 137).
edge(32, 112).
edge(45, 86).
edge(45, 50).
edge(16, 62).
edge(83, 142).
edge(33, 138).
edge(19, 99).
edge(46, 68).
edge(75, 113).
edge(51, 138).
edge(78, 115).
edge(18, 28).
edge(44, 146).
edge(91, 145).
edge(43, 137).
edge(12, 72).
edge(22, 130).
edge(99, 109).
edge(69, 83).
edge(0, 50).
edge(77, 96).
edge(82, 120).
edge(96, 113).
edge(11, 142).
edge(116, 143).
edge(25, 112).
edge(103, 130).
edge(90, 125).
edge(104, 130).
edge(48, 138).
edge(139, 144).
edge(15, 59).
edge(60, 76).
edge(63, 74).
edge(107, 143).
edge(22, 124).
edge(54, 85).
edge(21, 70).
edge(13, 18).
edge(24, 94).
edge(89, 90).
edge(0, 102).
edge(10, 99).
edge(72, 142).
edge(15, 51).
edge(47, 139).
edge(10, 134).
edge(114, 124).
edge(29, 45).
edge(79, 127).
edge(63, 89).
edge(67, 140).
edge(11, 126).
edge(4, 56).
edge(13, 123).
edge(6, 128).
edge(49, 78).
edge(64, 108).
edge(10, 111).
edge(49, 141).
edge(33, 63).
edge(0, 7).
edge(7, 16).
edge(19, 98).
edge(22, 111).
edge(58, 91).
edge(85, 98).
edge(88, 148).
edge(101, 135).
edge(69, 116).
edge(33, 95).
edge(4, 113).
edge(114, 125).
edge(69, 148).
edge(0, 112).
edge(15, 62).
edge(35, 44).
edge(39, 125).
edge(87, 104).
edge(130, 141).
edge(7, 100).
edge(51, 120).
edge(26, 95).
edge(34, 132).
edge(40, 85).
edge(48, 81).
edge(74, 76).
edge(42, 89).
edge(35, 107).
edge(105, 139).
edge(10, 145).
edge(1, 50).
edge(35, 133).
edge(44, 47).
edge(4, 97).
edge(95, 125).
edge(95, 110).
edge(68, 145).
edge(0, 10).
edge(22, 116).
edge(118, 136).
edge(33, 145).
edge(34, 116).
edge(38, 59).
edge(9, 18).
edge(69, 135).
edge(54, 125).
edge(14, 46).
edge(140, 144).
edge(39, 96).
edge(64, 80).
edge(7, 78).
edge(22, 42).
edge(102, 127).
edge(61, 96).
edge(1, 77).
edge(12, 131).
edge(41, 130).
edge(79, 131).
edge(2, 16).
edge(53, 73).
edge(34, 59).
edge(97, 116).
edge(20, 87).
edge(81, 126).
edge(70, 74).
edge(2, 24).
edge(121, 137).
edge(39, 62).
edge(59, 138).
edge(26, 132).
edge(53, 72).
edge(96, 99).
edge(2, 93).
edge(63, 68).
edge(37, 83).
edge(1, 29).
edge(16, 37).
edge(67, 80).
edge(57, 136).
edge(48, 110).
edge(15, 63).
edge(90, 139).
edge(24, 109).
edge(5, 34).
edge(10, 32).
edge(127, 135).
edge(5, 81).
edge(47, 118).
edge(7, 120).
edge(20, 43).
edge(4, 144).
edge(43, 71).
edge(114, 115).
edge(122, 143).
edge(62, 67).
edge(29, 120).
edge(22, 99).
edge(28, 58).
edge(69, 104).
edge(14, 103).
edge(5, 137).
edge(72, 147).
edge(29, 31).
edge(20, 42).
edge(131, 143).
edge(0, 58).
edge(13, 90).
edge(118, 126).
edge(103, 129).
edge(7, 54).
edge(104, 125).
edge(36, 115).
edge(81, 137).
edge(121, 123).
edge(6, 123).
edge(4, 129).
edge(2, 70).
edge(74, 98).
edge(34, 58).
edge(0, 23).
edge(83, 143).
edge(51, 75).
edge(32, 100).
edge(64, 77).
edge(4, 39).
edge(2, 42).
edge(67, 97).
edge(25, 104).
edge(16, 31).
edge(27, 113).
edge(13, 56).
edge(46, 52).
edge(25, 63).
edge(69, 143).
edge(17, 88).
edge(4, 82).
edge(27, 71).
edge(33, 112).
edge(38, 97).
edge(115, 127).
edge(19, 78).
edge(23, 34).
edge(3, 67).
edge(53, 94).
edge(89, 133).
edge(56, 107).
edge(39, 75).
edge(48, 136).
edge(27, 140).
edge(34, 94).
edge(2, 71).
edge(18, 92).
edge(120, 135).
edge(34, 120).
edge(52, 124).
edge(22, 66).
edge(31, 113).
edge(114, 127).
edge(25, 87).
edge(90, 136).
edge(0, 15).
edge(14, 59).
edge(16, 50).
edge(101, 106).
edge(80, 84).
edge(107, 133).
edge(31, 135).
edge(120, 131).
edge(13, 54).
edge(24, 67).
edge(67, 125).
edge(75, 112).
edge(24, 142).
edge(29, 89).
edge(95, 108).
edge(35, 50).
edge(25, 48).
edge(5, 37).
edge(7, 118).
edge(25, 33).
edge(30, 132).
edge(51, 130).
edge(21, 101).
edge(96, 140).
edge(26, 78).
edge(63, 134).
edge(58, 101).
edge(40, 111).
edge(64, 136).
edge(65, 124).
edge(5, 58).
edge(32, 51).
edge(107, 131).
edge(64, 100).
edge(4, 120).
edge(38, 80).
edge(51, 97).
edge(83, 135).
edge(29, 123).
edge(15, 82).
edge(132, 148).
edge(127, 141).
edge(100, 148).
edge(22, 85).
edge(58, 116).
edge(6, 69).
edge(107, 137).
edge(24, 26).
edge(42, 129).
edge(62, 77).
edge(78, 84).
edge(8, 54).
edge(63, 90).
edge(81, 94).
edge(110, 112).
edge(7, 76).
edge(116, 140).
edge(113, 140).
edge(131, 132).
edge(5, 125).
edge(57, 106).
edge(34, 112).
edge(22, 137).
edge(80, 98).
edge(25, 142).
edge(50, 117).
edge(11, 49).
edge(63, 84).
edge(65, 112).
edge(17, 73).
edge(43, 74).
edge(43, 85).
edge(26, 90).
edge(68, 136).
edge(39, 118).
edge(82, 84).
edge(1, 37).
edge(90, 132).
edge(48, 78).
edge(8, 66).
edge(30, 69).
edge(3, 104).
edge(41, 52).
edge(112, 139).
edge(33, 84).
edge(27, 84).
edge(33, 72).
edge(55, 131).
edge(24, 101).
edge(11, 123).
edge(4, 114).
edge(1, 79).
edge(32, 147).
edge(41, 84).
edge(0, 71).
edge(85, 99).
edge(101, 142).
edge(13, 72).
edge(52, 117).
edge(0, 29).
edge(78, 87).
edge(3, 136).
edge(72, 148).
edge(137, 147).
edge(72, 101).
edge(62, 138).
edge(65, 135).
edge(48, 51).
edge(94, 144).
edge(33, 47).
edge(11, 118).
edge(22, 75).
edge(36, 130).
edge(83, 91).
edge(125, 127).
edge(55, 104).
edge(10, 124).
edge(27, 59).
edge(66, 77).
edge(110, 130).
edge(34, 66).
edge(54, 74).
edge(38, 56).
edge(17, 91).
edge(13, 95).
edge(60, 61).
edge(15, 32).
edge(0, 119).
edge(26, 125).
edge(63, 80).
edge(4, 62).
edge(58, 61).
edge(45, 88).
edge(3, 133).
edge(57, 102).
edge(54, 70).
edge(24, 141).
edge(63, 83).
edge(134, 142).
edge(71, 128).
edge(73, 140).
edge(73, 90).
edge(28, 31).
edge(3, 99).
edge(96, 127).
edge(19, 44).
edge(11, 33).
edge(11, 102).
edge(25, 37).
edge(19, 101).
edge(6, 93).
edge(33, 140).
edge(115, 128).
edge(85, 131).
edge(7, 105).
edge(69, 140).
edge(43, 64).
edge(38, 71).
edge(10, 98).
edge(28, 68).
edge(87, 113).
edge(27, 114).
edge(55, 140).
edge(4, 6).
edge(43, 92).
edge(129, 134).
edge(33, 123).
edge(87, 112).
edge(12, 46).
edge(8, 26).
edge(9, 137).
edge(56, 121).
edge(29, 94).
edge(80, 117).
edge(105, 134).
edge(26, 32).
edge(63, 75).
edge(17, 92).
edge(73, 118).
edge(29, 81).
edge(46, 60).
edge(96, 132).
edge(6, 99).
edge(67, 132).
edge(14, 93).
edge(40, 107).
edge(37, 85).
edge(68, 143).
edge(33, 115).
edge(58, 80).
edge(44, 55).
edge(41, 132).
edge(13, 28).
edge(7, 137).
edge(3, 127).
edge(94, 137).
edge(132, 142).
edge(116, 142).
edge(43, 57).
edge(36, 114).
edge(116, 136).
edge(92, 123).
edge(93, 107).
edge(47, 63).
edge(104, 126).
edge(75, 131).
edge(69, 147).
edge(34, 53).
edge(52, 114).
edge(47, 103).
edge(65, 78).
edge(21, 77).
edge(41, 80).
edge(3, 18).
edge(27, 123).
edge(56, 126).
edge(46, 114).
edge(38, 73).
edge(119, 148).
edge(24, 98).
edge(29, 37).
edge(6, 104).
edge(26, 41).
edge(84, 140).
edge(77, 93).
edge(22, 104).
edge(115, 141).
edge(68, 93).
edge(63, 140).
edge(10, 50).
edge(26, 75).
edge(60, 125).
edge(52, 70).
edge(6, 117).
edge(87, 99).
edge(46, 131).
edge(16, 116).
edge(118, 138).
edge(60, 98).
edge(76, 102).
edge(21, 135).
edge(59, 122).
edge(49, 140).
edge(101, 139).
edge(101, 145).
edge(6, 134).
edge(46, 73).
edge(29, 85).
edge(59, 69).
edge(7, 110).
edge(114, 137).
edge(73, 138).
edge(48, 75).
edge(20, 143).
edge(99, 105).
edge(106, 140).
edge(53, 57).
edge(105, 133).
edge(14, 38).
edge(126, 133).
edge(114, 119).
edge(18, 95).
edge(26, 126).
edge(17, 80).
edge(27, 70).
edge(83, 120).
edge(75, 128).
edge(11, 128).
edge(94, 104).
edge(8, 136).
edge(55, 120).
edge(55, 70).
edge(49, 100).
edge(14, 70).
edge(14, 23).
edge(82, 131).
edge(56, 57).
edge(2, 82).
edge(37, 129).
edge(25, 107).
edge(44, 137).
edge(72, 99).
edge(41, 127).
edge(18, 93).
edge(25, 65).
edge(23, 83).
edge(90, 144).
edge(48, 131).
edge(16, 68).
edge(24, 58).
edge(20, 129).
edge(17, 44).
edge(31, 64).
edge(14, 126).
edge(24, 44).
edge(76, 92).
edge(109, 135).
edge(8, 117).
edge(107, 145).
edge(0, 145).
edge(16, 85).
edge(30, 136).
edge(79, 123).
edge(93, 126).
edge(129, 142).
edge(13, 26).
edge(9, 70).
edge(13, 38).
edge(86, 99).
edge(84, 100).
edge(71, 78).
edge(61, 138).
edge(69, 117).
edge(135, 138).
edge(50, 76).
edge(18, 70).
edge(4, 34).
edge(0, 94).
edge(98, 119).
edge(8, 51).
edge(93, 101).
edge(89, 135).
edge(20, 144).
edge(82, 129).
edge(66, 96).
edge(28, 135).
edge(85, 92).
edge(35, 135).
edge(17, 76).
edge(84, 146).
edge(53, 121).
edge(52, 56).
edge(91, 114).
edge(19, 32).
edge(34, 50).
edge(24, 68).
edge(40, 68).
edge(37, 105).
edge(81, 96).
edge(74, 124).
edge(21, 29).
edge(69, 142).
edge(58, 124).
edge(34, 86).
edge(23, 112).
edge(41, 146).
edge(6, 13).
edge(2, 107).
edge(87, 89).
edge(130, 146).
edge(81, 131).
edge(70, 92).
edge(83, 119).
edge(86, 105).
edge(19, 112).
edge(7, 145).
edge(40, 74).
edge(50, 68).
edge(29, 99).
edge(12, 50).
edge(10, 116).
edge(19, 53).
edge(48, 90).
edge(108, 115).
edge(6, 54).
edge(143, 147).
edge(95, 123).
edge(31, 44).
edge(113, 136).
edge(26, 99).
edge(66, 98).
edge(31, 143).
edge(106, 126).
edge(26, 112).
edge(71, 96).
edge(17, 18).
edge(48, 140).
edge(103, 134).
edge(4, 99).
edge(85, 146).
edge(16, 141).
edge(66, 130).
edge(65, 128).
edge(69, 89).
edge(64, 92).
edge(69, 106).
edge(53, 76).
edge(9, 104).
edge(23, 90).
edge(18, 68).
edge(10, 43).
edge(6, 97).
edge(37, 82).
edge(45, 146).
edge(5, 99).
edge(30, 62).
edge(52, 94).
edge(2, 67).
edge(142, 146).
edge(41, 114).
edge(36, 72).
edge(15, 145).
edge(38, 95).
edge(0, 4).
edge(136, 141).
edge(26, 137).
edge(25, 138).
edge(119, 144).
edge(0, 12).
edge(33, 111).
edge(5, 67).
edge(95, 130).
edge(24, 27).
edge(0, 26).
edge(59, 121).
edge(48, 61).
edge(62, 65).
edge(74, 82).
edge(3, 57).
edge(78, 135).
edge(91, 95).
edge(14, 25).
edge(50, 118).
edge(132, 138).
edge(21, 95).
edge(90, 112).
edge(75, 109).
edge(75, 125).
edge(1, 18).
edge(36, 49).
edge(26, 114).
edge(100, 129).
edge(0, 85).
edge(116, 133).
edge(10, 22).
edge(40, 56).
edge(57, 63).
edge(87, 125).
edge(36, 143).
edge(31, 76).
edge(34, 83).
edge(68, 137).
edge(42, 52).
edge(44, 54).
edge(102, 110).
edge(8, 112).
edge(24, 41).
edge(97, 124).
edge(12, 69).
edge(38, 94).
edge(82, 91).
edge(31, 100).
edge(83, 146).
edge(37, 94).
edge(112, 117).
edge(18, 80).
edge(2, 49).
edge(71, 97).
edge(54, 94).
edge(32, 108).
edge(119, 147).
edge(74, 101).
edge(38, 91).
edge(45, 95).
edge(20, 69).
edge(10, 65).
edge(72, 81).
edge(3, 30).
edge(71, 148).
edge(30, 75).
edge(62, 145).
edge(3, 20).
edge(45, 76).
edge(7, 85).
edge(3, 110).
edge(117, 133).
edge(14, 17).
edge(67, 99).
edge(112, 140).
edge(26, 36).
edge(7, 19).
edge(77, 140).
edge(76, 79).
edge(48, 53).
edge(105, 108).
edge(14, 143).
edge(57, 119).
edge(45, 57).
edge(30, 77).
edge(49, 138).
edge(105, 119).
edge(76, 84).
edge(42, 48).
edge(102, 124).
edge(62, 116).
edge(37, 139).
edge(56, 117).
edge(62, 132).
edge(71, 146).
edge(33, 103).
edge(67, 143).
edge(39, 69).
edge(80, 109).
edge(21, 52).
edge(124, 140).
edge(21, 75).
edge(74, 145).
edge(24, 82).
edge(3, 148).
edge(94, 109).
edge(90, 92).
edge(70, 87).
edge(33, 61).
edge(69, 134).
edge(102, 141).
edge(15, 37).
edge(43, 115).
edge(1, 105).
edge(5, 131).
edge(112, 126).
edge(37, 108).
edge(49, 75).
edge(2, 6).
edge(140, 146).
edge(47, 58).
edge(2, 31).
edge(0, 117).
edge(53, 114).
edge(71, 101).
edge(21, 63).
edge(68, 104).
edge(69, 81).
edge(65, 79).
edge(95, 117).
edge(90, 121).
edge(79, 143).
edge(27, 85).
edge(13, 75).
edge(38, 127).
edge(60, 68).
edge(20, 56).
edge(31, 89).
edge(4, 138).
edge(13, 139).
edge(120, 121).
edge(44, 63).
edge(24, 136).
edge(10, 47).
edge(94, 95).
edge(43, 141).
edge(97, 107).
edge(113, 147).
edge(105, 111).
edge(21, 85).
edge(48, 91).
edge(54, 130).
edge(4, 33).
edge(79, 138).
edge(90, 101).
edge(6, 56).
edge(38, 47).
edge(11, 41).
edge(20, 102).
edge(21, 143).
edge(77, 127).
edge(13, 15).
edge(32, 139).
edge(4, 86).
edge(56, 91).
edge(7, 84).
edge(82, 111).
edge(25, 46).
edge(53, 58).
edge(21, 108).
edge(11, 35).
edge(12, 145).
edge(49, 97).
edge(19, 96).
edge(58, 108).
edge(54, 90).
edge(76, 128).
edge(44, 117).
edge(20, 106).
edge(22, 65).
edge(23, 101).
edge(44, 147).
edge(18, 19).
edge(36, 43).
edge(39, 45).
edge(98, 142).
edge(80, 145).
edge(67, 107).
edge(43, 46).
edge(61, 81).
edge(71, 77).
edge(34, 142).
edge(2, 130).
edge(17, 141).
edge(6, 103).
edge(34, 139).
edge(46, 91).
edge(19, 123).
edge(87, 120).
edge(89, 91).
edge(7, 139).
edge(52, 102).
edge(76, 123).
edge(24, 143).
edge(57, 114).
edge(5, 90).
edge(11, 133).
edge(84, 122).
edge(42, 133).
edge(96, 126).
edge(12, 138).
edge(73, 143).
edge(33, 76).
edge(44, 135).
edge(26, 86).
edge(7, 74).
edge(1, 122).
edge(85, 137).
edge(26, 66).
edge(107, 127).
edge(63, 104).
edge(5, 115).
edge(20, 130).
edge(54, 61).
edge(56, 115).
edge(7, 75).
edge(32, 121).
edge(35, 103).
edge(91, 113).
edge(79, 105).
edge(85, 135).
edge(79, 99).
edge(29, 84).
edge(5, 139).
edge(5, 15).
edge(102, 109).
edge(28, 115).
edge(33, 143).
edge(66, 76).
edge(3, 24).
edge(46, 63).
edge(113, 134).
edge(50, 122).
edge(27, 75).
edge(45, 75).
edge(6, 108).
edge(121, 127).
edge(77, 101).
edge(68, 91).
edge(104, 131).
edge(48, 50).
edge(4, 78).
edge(34, 73).
edge(3, 115).
edge(6, 85).
edge(42, 51).
edge(22, 34).
edge(66, 128).
edge(27, 89).
edge(32, 56).
edge(37, 130).
edge(21, 148).
edge(54, 147).
edge(5, 138).
edge(101, 144).
edge(76, 86).
edge(61, 116).
edge(67, 75).
edge(43, 127).
edge(21, 51).
edge(78, 82).
edge(14, 73).
edge(95, 103).
edge(59, 79).
edge(42, 96).
edge(42, 69).
edge(16, 45).
edge(17, 67).
edge(124, 125).
edge(36, 112).
edge(28, 79).
edge(10, 55).
edge(37, 57).
edge(73, 144).
edge(106, 141).
edge(8, 131).
edge(40, 117).
edge(123, 142).
edge(20, 135).
edge(99, 141).
edge(77, 123).
edge(56, 77).
edge(114, 121).
edge(78, 109).
edge(88, 140).
edge(55, 136).
edge(18, 40).
edge(132, 145).
edge(68, 103).
edge(44, 142).
edge(13, 48).
edge(127, 140).
edge(45, 107).
edge(65, 69).
edge(86, 138).
edge(54, 116).
edge(115, 129).
edge(88, 130).
edge(127, 132).
edge(24, 62).
edge(107, 111).
edge(55, 87).
edge(3, 124).
edge(79, 101).
edge(27, 122).
edge(79, 96).
edge(72, 119).
edge(56, 147).
edge(12, 56).
edge(52, 105).
edge(36, 76).
edge(5, 53).
edge(5, 77).
edge(110, 139).
edge(38, 45).
edge(26, 71).
edge(30, 53).
edge(36, 87).
edge(17, 51).
edge(57, 66).
edge(2, 104).
edge(60, 78).
edge(15, 143).
edge(15, 116).
edge(61, 95).
edge(117, 128).
edge(75, 146).
edge(48, 145).
edge(45, 89).
edge(97, 104).
edge(85, 105).
edge(66, 109).
edge(10, 108).
edge(22, 140).
edge(6, 7).
edge(1, 93).
edge(70, 82).
edge(21, 56).
edge(71, 93).
edge(74, 75).
edge(36, 92).
edge(54, 128).
edge(94, 138).
edge(107, 147).
edge(63, 120).
edge(49, 77).
edge(4, 145).
edge(96, 147).
edge(72, 123).
edge(44, 113).
edge(2, 23).
edge(47, 56).
edge(28, 114).
edge(38, 67).
edge(74, 81).
edge(6, 147).
edge(34, 79).
edge(60, 96).
edge(65, 106).
edge(108, 146).
edge(105, 128).
edge(17, 118).
edge(38, 143).
edge(8, 143).
edge(53, 55).
edge(45, 110).
edge(15, 146).
edge(132, 137).
edge(3, 70).
edge(8, 69).
edge(30, 148).
edge(21, 137).
edge(142, 148).
edge(124, 128).
edge(74, 133).
edge(93, 145).
edge(61, 109).
edge(67, 123).
edge(0, 110).
edge(2, 12).
edge(14, 125).
edge(69, 126).
edge(4, 77).
edge(44, 76).
edge(11, 143).
edge(31, 59).
edge(66, 106).
edge(19, 94).
edge(68, 124).
edge(13, 17).
edge(123, 143).
edge(68, 73).
edge(6, 53).
edge(24, 133).
edge(45, 114).
edge(19, 65).
edge(127, 136).
edge(57, 93).
edge(49, 132).
edge(30, 121).
edge(88, 109).
edge(64, 127).
edge(74, 105).
edge(92, 128).
edge(49, 95).
edge(39, 66).
edge(66, 90).
edge(49, 63).
edge(56, 134).
edge(12, 18).
edge(18, 105).
edge(104, 108).
edge(135, 140).
edge(47, 123).
edge(22, 129).
edge(14, 79).
edge(22, 77).
edge(28, 35).
edge(127, 129).
edge(119, 132).
edge(26, 85).
edge(52, 140).
edge(5, 6).
edge(13, 128).
edge(69, 111).
edge(26, 135).
edge(111, 122).
edge(12, 117).
edge(23, 24).
edge(46, 136).
edge(109, 147).
edge(45, 64).
edge(43, 50).
edge(2, 91).
edge(16, 55).
edge(75, 99).
edge(62, 86).
edge(9, 36).
edge(94, 99).
edge(66, 99).
edge(3, 109).
edge(105, 112).
edge(13, 115).
edge(37, 125).
edge(12, 130).
edge(6, 58).
edge(45, 79).
edge(27, 87).
edge(57, 58).
edge(19, 116).
edge(69, 84).
edge(7, 55).
edge(6, 61).
edge(111, 137).
edge(3, 15).
edge(125, 133).
edge(21, 37).
edge(65, 88).
edge(18, 54).
edge(55, 74).
edge(50, 63).
edge(94, 108).
edge(16, 44).
edge(86, 89).
edge(87, 146).
edge(2, 148).
edge(97, 137).
edge(18, 22).
edge(9, 96).
edge(34, 42).
edge(64, 109).
edge(56, 100).
edge(22, 28).
edge(13, 131).
edge(56, 131).
edge(46, 71).
edge(6, 39).
edge(69, 77).
edge(14, 37).
edge(29, 107).
edge(24, 125).
edge(27, 64).
edge(11, 91).
edge(82, 97).
edge(55, 90).
edge(8, 35).
edge(53, 70).
edge(46, 88).
edge(97, 128).
edge(15, 74).
edge(11, 144).
edge(43, 135).
edge(39, 136).
edge(86, 117).
edge(8, 68).
edge(0, 74).
edge(56, 144).
edge(125, 146).
edge(47, 82).
edge(106, 113).
edge(84, 126).
edge(131, 144).
edge(22, 38).
edge(15, 123).
edge(38, 115).
edge(25, 91).
edge(23, 29).
edge(36, 105).
edge(113, 145).
edge(50, 97).
edge(26, 33).
edge(15, 36).
edge(126, 130).
edge(2, 18).
edge(0, 3).
edge(106, 131).
edge(32, 69).
edge(32, 129).
edge(31, 118).
edge(25, 41).
edge(88, 100).
edge(32, 125).
edge(124, 145).
edge(3, 100).
edge(56, 102).
edge(103, 122).
edge(70, 113).
edge(7, 70).
edge(1, 24).
edge(17, 59).
edge(78, 90).
edge(37, 134).
edge(14, 84).
edge(107, 130).
edge(46, 65).
edge(100, 134).
edge(1, 69).
edge(92, 124).
edge(98, 129).
edge(6, 100).
edge(25, 146).
edge(27, 38).
edge(53, 84).
edge(44, 121).
edge(65, 142).
edge(21, 123).
edge(37, 47).
edge(0, 84).
edge(37, 127).
edge(13, 77).
edge(65, 147).
edge(126, 128).
edge(12, 60).
edge(36, 58).
edge(4, 75).
edge(61, 102).
edge(107, 126).
edge(86, 143).
edge(100, 123).
edge(43, 96).
edge(20, 38).
edge(1, 135).
edge(91, 111).
edge(71, 119).
edge(56, 71).
edge(103, 125).
edge(63, 115).
edge(63, 85).
edge(54, 146).
edge(22, 135).
edge(14, 124).
edge(63, 88).
edge(5, 148).
edge(99, 120).
edge(78, 130).
edge(30, 41).
edge(59, 107).
edge(68, 90).
edge(77, 85).
edge(26, 148).
edge(21, 66).
edge(45, 120).
edge(11, 119).
edge(69, 102).
edge(33, 136).
edge(1, 28).
edge(108, 125).
edge(56, 73).
edge(24, 104).
edge(57, 67).
edge(23, 32).
edge(107, 142).
edge(24, 42).
edge(87, 137).
edge(92, 132).
edge(27, 95).
edge(15, 99).
edge(19, 103).
edge(35, 62).
edge(0, 49).
edge(16, 77).
edge(26, 64).
edge(84, 147).
edge(37, 101).
edge(47, 126).
edge(54, 91).
edge(115, 148).
edge(39, 44).
edge(7, 117).
edge(116, 125).
edge(20, 49).
edge(62, 71).
edge(58, 63).
edge(10, 15).
edge(16, 120).
edge(45, 66).
edge(18, 115).
edge(58, 146).
edge(115, 145).
edge(68, 99).
edge(6, 11).
edge(95, 96).
edge(86, 129).
edge(46, 53).
edge(78, 126).
edge(80, 143).
edge(93, 100).
edge(102, 119).
edge(38, 72).
edge(2, 21).
edge(30, 43).
edge(76, 96).
edge(34, 54).
edge(53, 90).
edge(30, 114).
edge(64, 124).
edge(52, 58).
edge(2, 134).
edge(53, 82).
edge(9, 51).
edge(33, 42).
edge(12, 99).
edge(84, 103).
edge(14, 80).
edge(44, 89).
edge(3, 75).
edge(27, 74).
edge(12, 105).
edge(26, 34).
edge(18, 127).
edge(37, 71).
edge(86, 134).
edge(24, 91).
edge(79, 107).
edge(61, 119).
edge(111, 141).
edge(36, 97).
edge(40, 147).
edge(82, 112).
edge(59, 115).
edge(21, 26).
edge(15, 18).
edge(55, 112).
edge(15, 65).
edge(102, 105).
edge(14, 76).
edge(16, 145).
edge(38, 50).
edge(56, 61).
edge(14, 135).
edge(16, 130).
edge(92, 107).
edge(4, 49).
edge(50, 85).
edge(79, 128).
edge(87, 138).
edge(6, 132).
edge(53, 67).
edge(134, 148).
edge(46, 81).
edge(23, 54).
edge(1, 142).
edge(25, 39).
edge(87, 100).
edge(117, 143).
edge(32, 88).
edge(44, 144).
edge(109, 141).
edge(56, 81).
edge(53, 132).
edge(13, 42).
edge(99, 107).
edge(90, 124).
edge(21, 98).
edge(17, 70).
edge(81, 103).
edge(22, 108).
edge(9, 54).
edge(112, 123).
edge(46, 110).
edge(58, 130).
edge(45, 96).
edge(8, 29).
edge(3, 50).
edge(34, 148).
edge(71, 120).
edge(76, 108).
edge(4, 72).
edge(78, 134).
edge(43, 144).
edge(42, 124).
edge(58, 87).
edge(1, 127).
edge(119, 143).
edge(4, 126).
edge(27, 46).
edge(33, 144).
edge(40, 66).
edge(3, 51).
edge(87, 94).
edge(65, 132).
edge(10, 28).
edge(16, 28).
edge(41, 64).
edge(75, 106).
edge(20, 123).
edge(47, 54).
edge(8, 65).
edge(39, 73).
edge(102, 117).
edge(70, 86).
edge(39, 65).
edge(128, 140).
edge(13, 80).
edge(6, 10).
edge(60, 139).
edge(80, 144).
edge(38, 79).
edge(94, 129).
edge(35, 118).
edge(61, 100).
edge(20, 99).
edge(83, 93).
edge(3, 29).
edge(39, 52).
edge(54, 97).
edge(84, 124).
edge(57, 62).
edge(73, 95).
edge(46, 139).
edge(21, 97).
edge(5, 102).
edge(7, 146).
edge(9, 91).
edge(67, 93).
edge(6, 25).
edge(38, 114).
edge(50, 51).
edge(105, 143).
edge(62, 136).
edge(3, 139).
edge(119, 123).
edge(114, 126).
edge(34, 114).
edge(73, 106).
edge(3, 119).
edge(60, 135).
edge(23, 67).
edge(31, 53).
edge(9, 122).
edge(45, 90).
edge(113, 141).
edge(28, 81).
edge(14, 66).
edge(24, 46).
edge(73, 96).
edge(31, 94).
edge(37, 56).
edge(131, 134).
edge(109, 119).
edge(93, 142).
edge(97, 133).
edge(12, 49).
edge(1, 97).
edge(37, 119).
edge(86, 95).
edge(18, 123).
edge(73, 76).
edge(70, 123).
edge(13, 122).
edge(109, 146).
edge(36, 77).
edge(58, 111).
edge(1, 43).
edge(9, 123).
edge(83, 141).
edge(71, 86).
edge(63, 64).
edge(116, 130).
edge(83, 117).
edge(72, 141).
edge(48, 55).
edge(124, 144).
edge(30, 81).
edge(103, 110).
edge(30, 67).
edge(14, 123).
edge(71, 144).
edge(41, 110).
edge(11, 77).
edge(106, 137).
edge(78, 147).
edge(31, 52).
edge(79, 146).
edge(91, 102).
edge(23, 110).
edge(53, 81).
edge(71, 83).
edge(8, 27).
edge(52, 96).
edge(17, 64).
edge(12, 90).
edge(9, 53).
edge(46, 58).
edge(35, 128).
edge(50, 114).
edge(38, 147).
edge(28, 73).
edge(79, 139).
edge(77, 83).
edge(18, 114).
edge(115, 130).
edge(19, 108).
edge(68, 102).
edge(18, 85).
edge(71, 142).
edge(88, 133).
edge(1, 102).
edge(56, 60).
edge(54, 132).
edge(32, 37).
edge(102, 106).
edge(65, 98).
edge(26, 129).
edge(6, 17).
edge(24, 48).
edge(15, 96).
edge(54, 96).
edge(22, 95).
edge(2, 98).
edge(97, 111).
edge(7, 113).
edge(14, 58).
edge(132, 139).
edge(14, 138).
edge(58, 70).
edge(109, 142).
edge(86, 145).
edge(103, 135).
edge(25, 147).
edge(46, 74).
edge(66, 112).
edge(28, 30).
edge(35, 147).
edge(90, 103).
edge(20, 115).
edge(2, 137).
edge(73, 88).
edge(78, 100).
edge(20, 134).
edge(89, 101).
edge(66, 139).
edge(19, 35).
edge(67, 98).
edge(71, 74).
edge(73, 128).
edge(30, 112).
edge(12, 70).
edge(49, 89).
edge(67, 68).
edge(18, 148).
edge(12, 101).
edge(111, 130).
edge(10, 130).
edge(3, 112).
edge(24, 112).
edge(83, 101).
edge(12, 134).
edge(35, 51).
edge(82, 103).
edge(29, 136).
edge(76, 100).
edge(18, 137).
edge(89, 100).
edge(85, 119).
edge(66, 132).
edge(73, 130).
edge(22, 46).
edge(22, 31).
edge(18, 128).
edge(34, 75).
edge(37, 54).
edge(117, 134).
edge(92, 103).
edge(60, 106).
edge(14, 69).
edge(110, 126).
edge(49, 53).
edge(73, 142).
edge(16, 46).
edge(111, 114).
edge(45, 143).
edge(49, 66).
edge(61, 140).
edge(83, 121).
edge(34, 57).
edge(5, 145).
edge(39, 121).
edge(30, 131).
edge(28, 98).
edge(11, 53).
edge(49, 145).
edge(19, 85).
edge(0, 65).
edge(2, 141).
edge(94, 123).
edge(64, 93).
edge(77, 119).
edge(90, 108).
edge(20, 93).
edge(5, 112).
edge(40, 137).
edge(110, 111).
edge(67, 127).
edge(22, 81).
edge(26, 60).
edge(32, 140).
edge(18, 134).
edge(103, 139).
edge(117, 137).
edge(78, 136).
edge(62, 126).
edge(117, 124).
edge(17, 53).
edge(61, 110).
edge(38, 146).
edge(13, 124).
edge(58, 73).
edge(87, 126).
edge(83, 148).
edge(37, 93).
edge(4, 85).
edge(109, 115).
edge(45, 69).
edge(33, 52).
edge(21, 125).
edge(47, 95).
edge(55, 72).
edge(96, 104).
edge(34, 71).
edge(54, 126).
edge(100, 144).
edge(79, 104).
edge(23, 146).
edge(29, 142).
edge(125, 139).
edge(55, 73).
edge(13, 46).
edge(62, 102).
edge(64, 68).
edge(17, 109).
edge(33, 56).
edge(57, 121).
edge(95, 115).
edge(80, 130).
edge(44, 139).
edge(85, 124).
edge(126, 140).
edge(12, 141).
edge(35, 77).
edge(112, 129).
edge(1, 109).
edge(16, 26).
edge(2, 19).
edge(77, 86).
edge(48, 112).
edge(39, 106).
edge(15, 77).
edge(72, 79).
edge(50, 112).
edge(22, 113).
edge(79, 112).
edge(93, 102).
edge(41, 53).
edge(44, 125).
edge(0, 46).
edge(21, 60).
edge(58, 98).
edge(20, 76).
edge(111, 117).
edge(65, 76).
edge(113, 121).
edge(62, 128).
edge(14, 48).
edge(70, 88).
edge(18, 89).
edge(35, 145).
edge(59, 60).
edge(9, 13).
edge(60, 127).
edge(41, 93).
edge(70, 116).
edge(42, 131).
edge(12, 80).
edge(10, 109).
edge(18, 146).
edge(66, 110).
edge(24, 53).
edge(24, 25).
edge(30, 142).
edge(40, 119).
edge(7, 23).
edge(21, 94).
edge(98, 131).
edge(39, 104).
edge(59, 108).
edge(68, 133).
edge(93, 95).
edge(45, 91).
edge(4, 106).
edge(15, 33).
edge(31, 108).
edge(97, 99).
edge(98, 102).
edge(18, 117).
edge(32, 102).
edge(26, 76).
edge(3, 138).
edge(50, 60).
edge(65, 72).
edge(32, 50).
edge(41, 94).
edge(38, 139).
edge(21, 109).
edge(44, 101).
edge(91, 115).
edge(16, 87).
edge(96, 128).
edge(50, 84).
edge(27, 32).
edge(17, 37).
edge(20, 118).
edge(9, 72).
edge(6, 90).
edge(22, 29).
edge(15, 115).
edge(12, 47).
edge(27, 79).
edge(67, 111).
edge(110, 122).
edge(31, 54).
edge(29, 34).
edge(4, 121).
edge(17, 25).
edge(65, 86).
edge(61, 113).
edge(13, 98).
edge(6, 14).
edge(20, 121).
edge(33, 93).
edge(36, 113).
edge(19, 70).
edge(92, 122).
edge(5, 101).
edge(58, 128).
edge(61, 63).
edge(90, 145).
edge(53, 65).
edge(4, 13).
edge(41, 44).
edge(22, 97).
edge(62, 89).
edge(135, 144).
edge(112, 135).
edge(45, 135).
edge(18, 121).
edge(67, 124).
edge(49, 107).
edge(19, 71).
edge(64, 97).
edge(50, 81).
edge(82, 86).
edge(10, 92).
edge(19, 83).
edge(72, 73).
edge(33, 110).
edge(65, 74).
edge(8, 64).
edge(57, 126).
edge(37, 68).
edge(42, 66).
edge(16, 101).
edge(5, 116).
edge(114, 116).
edge(50, 129).
edge(110, 119).
edge(66, 73).
edge(62, 110).
edge(75, 87).
edge(41, 66).
edge(27, 43).
edge(14, 77).
edge(86, 146).
edge(81, 98).
edge(49, 136).
edge(16, 59).
edge(15, 118).
edge(23, 97).
edge(79, 111).
edge(87, 114).
edge(34, 90).
edge(12, 122).
edge(8, 13).
edge(51, 108).
edge(26, 109).
edge(8, 103).
edge(99, 101).
edge(33, 97).
edge(40, 108).
edge(21, 24).
edge(34, 135).
edge(55, 125).
edge(58, 67).
edge(22, 88).
edge(27, 141).
edge(1, 147).
edge(10, 38).
edge(5, 100).
edge(13, 114).
edge(85, 94).
edge(24, 63).
edge(16, 91).
edge(21, 115).
edge(55, 60).
edge(2, 4).
edge(15, 108).
edge(36, 124).
edge(50, 127).
edge(16, 134).
edge(1, 8).
edge(22, 43).
edge(36, 74).
edge(2, 124).
edge(61, 83).
edge(69, 93).
edge(80, 105).
edge(134, 143).
edge(62, 70).
edge(45, 147).
edge(128, 147).
edge(3, 91).
edge(56, 116).
edge(19, 118).
edge(5, 123).
edge(56, 129).
edge(47, 51).
edge(29, 146).
edge(24, 127).
edge(9, 90).
edge(36, 104).
edge(2, 58).
edge(101, 147).
edge(49, 76).
edge(21, 114).
edge(30, 88).
edge(12, 45).
edge(47, 83).
edge(2, 3).
edge(113, 124).
edge(74, 90).
edge(59, 148).
edge(26, 111).
edge(70, 141).
edge(10, 81).
edge(129, 140).
edge(44, 123).
edge(119, 142).
edge(46, 54).
edge(91, 130).
edge(36, 70).
edge(61, 134).
edge(0, 108).
edge(35, 127).
edge(25, 43).
edge(12, 16).
edge(9, 48).
edge(78, 104).
edge(90, 97).
edge(134, 137).
edge(34, 99).
edge(48, 120).
edge(107, 109).
edge(113, 115).
edge(83, 131).
edge(26, 147).
edge(10, 135).
edge(109, 136).
edge(11, 98).
edge(1, 23).
edge(9, 57).
edge(41, 121).
edge(7, 99).
edge(45, 134).
edge(16, 129).
edge(41, 56).
edge(44, 138).
edge(97, 138).
edge(11, 55).
edge(24, 61).
edge(65, 87).
edge(94, 121).
edge(11, 12).
edge(61, 73).
edge(60, 71).
edge(87, 133).
edge(28, 131).
edge(66, 121).
edge(20, 77).
edge(49, 60).
edge(52, 141).
edge(73, 86).
edge(86, 97).
edge(44, 116).
edge(106, 107).
edge(14, 104).
edge(70, 95).
edge(73, 124).
edge(107, 110).
edge(36, 42).
edge(11, 93).
edge(103, 106).
edge(56, 112).
edge(21, 104).
edge(66, 88).
edge(90, 142).
edge(100, 122).
edge(77, 87).
edge(59, 100).
edge(15, 91).
edge(50, 109).
edge(105, 132).
edge(22, 145).
edge(100, 139).
edge(93, 105).
edge(20, 26).
edge(124, 135).
edge(106, 142).
edge(10, 35).
edge(97, 118).
edge(121, 146).
edge(62, 133).
edge(27, 128).
edge(73, 109).
edge(6, 122).
edge(56, 66).
edge(25, 79).
edge(125, 147).
edge(26, 116).
edge(40, 87).
edge(20, 138).
edge(62, 141).
edge(71, 130).
edge(34, 38).
edge(109, 127).
edge(92, 113).
edge(41, 136).
edge(64, 128).
edge(16, 24).
edge(90, 94).
edge(60, 90).
edge(9, 74).
edge(78, 142).
edge(18, 86).
edge(10, 83).
edge(31, 38).
edge(13, 126).
edge(49, 85).
edge(52, 126).
edge(45, 97).
edge(74, 94).
edge(16, 29).
edge(38, 129).
edge(99, 116).
edge(129, 130).
edge(1, 22).
edge(84, 114).
edge(17, 113).
edge(13, 84).
edge(60, 79).
edge(69, 125).
edge(69, 144).
edge(13, 147).
edge(82, 87).
edge(39, 51).
edge(35, 65).
edge(108, 143).
edge(59, 73).
edge(66, 74).
edge(26, 136).
edge(44, 45).
edge(3, 74).
edge(40, 97).
edge(34, 68).
edge(7, 33).
edge(117, 118).
edge(8, 111).
edge(39, 89).
edge(53, 135).
edge(49, 102).
edge(16, 124).
edge(108, 113).
edge(103, 128).
edge(18, 147).
edge(9, 145).
edge(66, 83).
edge(18, 78).
edge(76, 99).
edge(121, 147).
edge(16, 97).
edge(12, 126).
edge(20, 33).
edge(29, 30).
edge(80, 121).
edge(14, 24).
edge(142, 147).
edge(29, 44).
edge(86, 123).
edge(106, 119).
edge(59, 132).
edge(16, 104).
edge(55, 109).
edge(73, 75).
edge(16, 75).
edge(106, 127).
edge(11, 76).
edge(71, 99).
edge(21, 55).
edge(14, 122).
edge(120, 129).
edge(28, 34).
edge(104, 135).
edge(7, 68).
edge(62, 131).
edge(86, 112).
edge(54, 109).
edge(76, 148).
edge(0, 136).
edge(91, 124).
edge(65, 113).
edge(10, 26).
edge(75, 140).
edge(103, 140).
edge(60, 63).
edge(50, 101).
edge(94, 101).
edge(103, 145).
edge(96, 143).
edge(3, 77).
edge(86, 121).
edge(42, 93).
edge(24, 121).
edge(47, 87).
edge(10, 69).
edge(31, 131).
edge(118, 137).
edge(29, 60).
edge(116, 121).
edge(86, 125).
edge(103, 123).
edge(25, 83).
edge(31, 46).
edge(99, 100).
edge(24, 113).
edge(54, 135).
edge(120, 126).
edge(61, 141).
edge(65, 100).
edge(68, 88).
edge(33, 37).
edge(106, 118).
edge(18, 126).
edge(43, 117).
edge(46, 144).
edge(11, 14).
edge(22, 63).
edge(31, 63).
edge(0, 30).
edge(1, 90).
edge(80, 141).
edge(91, 97).
edge(15, 107).
edge(11, 25).
edge(3, 52).
edge(56, 68).
edge(17, 142).
edge(37, 112).
edge(0, 45).
edge(0, 66).
edge(48, 92).
edge(26, 37).
edge(73, 132).
edge(19, 24).
edge(138, 146).
edge(109, 144).
edge(88, 135).
edge(12, 63).
edge(117, 146).
edge(54, 95).
edge(17, 135).
edge(4, 79).
edge(37, 64).
edge(41, 111).
edge(87, 144).
edge(46, 132).
edge(96, 137).
edge(135, 145).
edge(16, 17).
edge(51, 65).
edge(17, 36).
edge(5, 109).
edge(57, 137).
edge(46, 85).
edge(3, 130).
edge(31, 87).
edge(69, 70).
edge(60, 118).
edge(126, 145).
edge(4, 142).
edge(21, 79).
edge(38, 130).
edge(33, 62).
edge(123, 139).
edge(40, 45).
edge(78, 129).
edge(39, 131).
edge(84, 95).
edge(18, 132).
edge(66, 89).
edge(96, 116).
edge(30, 76).
edge(82, 146).
edge(70, 83).
edge(39, 138).
edge(18, 39).
edge(3, 98).
edge(17, 148).
edge(14, 71).
edge(115, 134).
edge(32, 33).
edge(125, 135).
edge(96, 135).
edge(73, 115).
edge(105, 146).
edge(84, 132).
edge(64, 67).
edge(9, 82).
edge(43, 142).
edge(74, 78).
edge(11, 109).
edge(14, 106).
edge(36, 101).
edge(80, 146).
edge(11, 16).
edge(72, 80).
edge(6, 32).
edge(35, 39).
edge(79, 116).
edge(54, 98).
edge(77, 143).
edge(42, 138).
edge(74, 126).
edge(77, 117).
edge(113, 132).
edge(35, 68).
edge(78, 108).
edge(9, 76).
edge(34, 63).
edge(60, 132).
edge(35, 90).
edge(77, 104).
edge(44, 69).
edge(25, 109).
edge(19, 25).
edge(3, 26).
edge(84, 93).
edge(81, 84).
edge(27, 139).
edge(10, 18).
edge(21, 112).
edge(25, 108).
edge(29, 119).
edge(97, 144).
edge(29, 100).
edge(8, 31).
edge(15, 104).
edge(14, 33).
edge(62, 119).
edge(28, 71).
edge(10, 49).
edge(73, 117).
edge(21, 119).
edge(6, 15).
edge(21, 131).
edge(75, 110).
edge(52, 130).
edge(49, 114).
edge(30, 40).
edge(10, 125).
edge(111, 125).
edge(22, 134).
edge(40, 121).
edge(63, 127).
edge(7, 111).
edge(33, 120).
edge(64, 85).
edge(57, 75).
edge(9, 124).
edge(50, 82).
edge(21, 126).
edge(84, 116).
edge(2, 9).
edge(117, 119).
edge(118, 123).
edge(10, 67).
edge(95, 129).
edge(111, 148).
edge(0, 89).
edge(40, 124).
edge(0, 139).
edge(29, 97).
edge(65, 121).
edge(0, 87).
edge(38, 118).
edge(51, 107).
edge(38, 76).
edge(49, 72).
edge(31, 51).
edge(64, 114).
edge(41, 70).
edge(12, 22).
edge(44, 111).
edge(49, 113).
edge(21, 47).
edge(116, 135).
edge(126, 132).
edge(79, 100).
edge(98, 116).
edge(15, 137).
edge(1, 74).
edge(8, 146).
edge(20, 35).
edge(8, 57).
edge(12, 36).
edge(13, 61).
edge(91, 142).
edge(51, 91).
edge(105, 145).
edge(49, 79).
edge(73, 78).
edge(18, 102).
edge(47, 73).
edge(74, 109).
edge(46, 130).
edge(132, 134).
edge(77, 130).
edge(47, 79).
edge(134, 135).
edge(87, 123).
edge(19, 120).
edge(62, 109).
edge(71, 112).
edge(76, 122).
edge(115, 136).
edge(5, 74).
edge(1, 131).
edge(26, 108).
edge(107, 108).
edge(0, 120).
edge(18, 141).
edge(0, 52).
edge(57, 105).
edge(44, 80).
edge(53, 130).
edge(18, 140).
edge(1, 138).
edge(9, 87).
edge(71, 141).
edge(32, 95).
edge(24, 107).
edge(2, 7).
edge(99, 119).
edge(117, 132).
edge(53, 75).
edge(70, 139).
edge(1, 144).
edge(1, 89).
edge(74, 115).
edge(15, 85).
edge(95, 138).
edge(136, 144).
edge(21, 65).
edge(43, 138).
edge(102, 118).
edge(9, 140).
edge(71, 136).
edge(137, 143).
edge(82, 125).
edge(63, 138).
edge(16, 115).
edge(75, 118).
edge(98, 105).
edge(74, 85).
edge(62, 101).
edge(7, 67).
edge(50, 64).
edge(47, 133).
edge(52, 83).
edge(70, 108).
edge(0, 95).
edge(25, 137).
edge(25, 42).
edge(121, 140).
edge(2, 20).
edge(75, 91).
edge(45, 82).
edge(80, 120).
edge(35, 55).
edge(19, 46).
edge(100, 121).
edge(44, 109).
edge(88, 132).
edge(13, 24).
edge(39, 129).
edge(78, 124).
edge(43, 78).
edge(116, 148).
edge(5, 68).
edge(117, 122).
edge(4, 146).
edge(106, 144).
edge(0, 28).
edge(78, 95).
edge(28, 89).
edge(103, 136).
edge(74, 140).
edge(75, 96).
edge(43, 49).
edge(87, 91).
edge(11, 114).
edge(52, 135).
edge(29, 74).
edge(6, 91).
edge(4, 20).
edge(56, 58).
edge(81, 116).
edge(4, 111).
edge(16, 110).
edge(89, 141).
edge(104, 122).
edge(49, 115).
edge(60, 117).
edge(14, 132).
edge(1, 61).
edge(2, 95).
edge(29, 36).
edge(17, 86).
edge(124, 138).
edge(18, 62).
edge(92, 117).
edge(35, 105).
edge(81, 130).
edge(39, 84).
edge(15, 21).
edge(6, 23).
edge(45, 99).
edge(102, 123).
edge(84, 131).
edge(58, 83).
edge(46, 128).
edge(43, 131).
edge(18, 63).
edge(44, 106).
edge(2, 43).
edge(23, 144).
edge(100, 103).
edge(98, 101).
edge(42, 110).
edge(25, 95).
edge(27, 118).
edge(60, 129).
edge(95, 100).
edge(26, 93).
edge(79, 121).
edge(63, 122).
edge(44, 77).
edge(92, 112).
edge(5, 35).
edge(111, 140).
edge(9, 115).
edge(66, 100).
edge(6, 143).
edge(57, 74).
edge(45, 129).
edge(28, 147).
edge(69, 120).
edge(79, 90).
edge(47, 136).
edge(3, 58).
edge(46, 129).
edge(120, 122).
edge(115, 119).
edge(41, 139).
edge(143, 148).
edge(37, 111).
edge(93, 132).
edge(49, 103).
edge(17, 96).
edge(87, 127).
edge(67, 113).
edge(51, 80).
edge(92, 109).
edge(35, 132).
edge(10, 52).
edge(86, 120).
edge(29, 43).
edge(0, 36).
edge(57, 68).
edge(35, 115).
edge(34, 65).
edge(13, 135).
edge(76, 134).
edge(15, 60).
edge(16, 84).
edge(60, 80).
edge(115, 123).
edge(21, 46).
edge(24, 60).
edge(113, 143).
edge(59, 120).
edge(13, 142).
edge(46, 87).
edge(101, 107).
edge(93, 136).
edge(5, 39).
edge(81, 142).
edge(34, 39).
edge(39, 128).
edge(84, 119).
edge(53, 131).
edge(21, 45).
edge(98, 104).
edge(98, 99).
edge(55, 78).
edge(82, 114).
edge(13, 30).
edge(48, 141).
edge(46, 142).
edge(116, 119).
edge(81, 88).
edge(37, 62).
edge(16, 56).
edge(96, 146).
edge(91, 129).
edge(74, 129).
edge(40, 86).
edge(8, 110).
edge(59, 135).
edge(3, 146).
edge(95, 127).
edge(6, 48).
edge(91, 128).
edge(85, 107).
edge(81, 120).
edge(18, 47).
edge(47, 78).
edge(119, 125).
edge(57, 77).
edge(94, 113).
edge(76, 106).
edge(1, 67).
edge(44, 120).
edge(17, 117).
edge(7, 104).
edge(42, 76).
edge(11, 134).
edge(0, 18).
edge(18, 72).
edge(15, 29).
edge(81, 122).
edge(49, 119).
edge(38, 77).
edge(64, 101).
edge(42, 95).
edge(12, 100).
edge(2, 74).
edge(6, 144).
edge(5, 12).
edge(14, 55).
edge(104, 106).
edge(35, 111).
edge(79, 118).
edge(1, 71).
edge(6, 120).
edge(13, 71).
edge(55, 146).
edge(0, 51).
edge(6, 110).
edge(11, 51).
edge(12, 121).
edge(76, 126).
edge(88, 117).
edge(3, 23).
edge(27, 52).
edge(57, 76).
edge(37, 39).
edge(8, 118).
edge(30, 63).
edge(47, 111).
edge(10, 146).
edge(27, 93).
edge(71, 85).
edge(17, 57).
edge(91, 101).
edge(112, 145).
edge(14, 99).
edge(97, 131).
edge(3, 132).
edge(21, 129).
edge(108, 117).
edge(7, 66).
edge(1, 121).
edge(4, 90).
edge(33, 38).
edge(2, 133).
edge(67, 117).
edge(42, 71).
edge(8, 20).
edge(36, 117).
edge(62, 120).
edge(99, 147).
edge(54, 143).
edge(4, 67).
edge(84, 121).
edge(32, 103).
edge(58, 147).
edge(2, 113).
edge(9, 92).
edge(10, 80).
edge(60, 114).
edge(52, 133).
edge(128, 132).
edge(99, 132).
edge(121, 141).
edge(102, 144).
edge(18, 43).
edge(20, 74).
edge(21, 147).
edge(95, 107).
edge(4, 60).
edge(10, 20).
edge(31, 81).
edge(82, 83).
edge(25, 61).
edge(36, 106).
edge(128, 136).
edge(57, 120).
edge(116, 137).
edge(41, 128).
edge(132, 140).
edge(90, 138).
edge(106, 112).
edge(18, 25).
edge(20, 147).
edge(108, 114).
edge(18, 91).
edge(41, 76).
edge(1, 107).
edge(41, 108).
edge(44, 60).
edge(92, 143).
edge(31, 99).
edge(53, 115).
edge(53, 113).
edge(27, 68).
edge(60, 95).
edge(69, 145).
edge(83, 96).
edge(39, 77).
edge(51, 98).
edge(69, 121).
edge(77, 114).
edge(74, 144).
edge(10, 61).
edge(140, 145).
edge(7, 82).
edge(1, 72).
edge(2, 11).
edge(17, 112).
edge(58, 121).
edge(9, 37).
edge(44, 71).
edge(78, 116).
edge(17, 38).
edge(84, 117).
edge(23, 82).
edge(50, 71).
edge(81, 105).
edge(19, 40).
edge(101, 134).
edge(90, 128).
edge(33, 129).
edge(0, 57).
edge(39, 55).
edge(11, 148).
edge(22, 84).
edge(10, 60).
edge(17, 84).
edge(19, 37).
edge(52, 82).
edge(54, 68).
edge(5, 76).
edge(54, 75).
edge(77, 126).
edge(74, 88).
edge(86, 113).
edge(54, 140).
edge(8, 139).
edge(86, 100).
edge(60, 147).
edge(21, 141).
edge(16, 135).
edge(1, 52).
edge(30, 125).
edge(64, 66).
edge(83, 88).
edge(35, 109).
edge(34, 126).
edge(17, 130).
edge(7, 44).
edge(103, 124).
edge(112, 132).
edge(10, 142).
edge(5, 79).
edge(87, 101).
edge(4, 101).
edge(39, 53).
edge(56, 101).
edge(79, 88).
edge(14, 72).
edge(3, 9).
edge(56, 119).
edge(79, 89).
edge(75, 117).
edge(73, 99).
edge(76, 140).
edge(64, 86).
edge(89, 124).
edge(32, 132).
edge(61, 68).
edge(30, 78).
edge(13, 101).
edge(55, 143).
edge(48, 122).
edge(10, 62).
edge(64, 141).
edge(54, 84).
edge(14, 91).
edge(28, 62).
edge(65, 119).
edge(96, 105).
edge(98, 133).
edge(57, 122).
edge(123, 138).
edge(43, 136).
edge(54, 87).
edge(22, 106).
edge(29, 132).
edge(20, 122).
edge(39, 97).
edge(93, 133).
edge(103, 144).
edge(17, 124).
edge(19, 102).
edge(136, 137).
edge(49, 134).
edge(66, 142).
edge(78, 144).
edge(28, 88).
edge(48, 126).
edge(10, 41).
edge(38, 105).
edge(41, 92).
edge(4, 44).
edge(41, 141).
edge(25, 90).
edge(74, 97).
edge(51, 94).
edge(11, 47).
edge(37, 118).
edge(5, 80).
edge(86, 115).
edge(34, 76).
edge(12, 144).
edge(65, 70).
edge(129, 143).
edge(5, 61).
edge(27, 132).
edge(0, 111).
edge(63, 142).
edge(6, 105).
edge(48, 147).
edge(99, 131).
edge(53, 145).
edge(56, 145).
edge(72, 137).
edge(73, 85).
edge(20, 48).
edge(40, 142).
edge(139, 140).
edge(117, 130).
edge(76, 135).
edge(5, 72).
edge(14, 75).
edge(16, 41).
edge(16, 137).
edge(29, 56).
edge(0, 81).
edge(72, 130).
edge(63, 66).
edge(87, 105).
edge(37, 102).
edge(86, 131).
edge(92, 95).
edge(69, 97).
edge(32, 105).
edge(102, 137).
edge(93, 119).
edge(33, 49).
edge(75, 108).
edge(74, 84).
edge(56, 86).
edge(30, 42).
edge(54, 86).
edge(113, 126).
edge(12, 59).
edge(31, 47).
edge(50, 106).
edge(29, 41).
edge(75, 81).
edge(28, 64).
edge(32, 127).
edge(71, 133).
edge(16, 72).
edge(126, 147).
edge(71, 121).
edge(27, 129).
edge(109, 148).
edge(35, 144).
edge(139, 148).
edge(22, 117).
edge(29, 102).
edge(2, 108).
edge(15, 39).
edge(59, 94).
edge(39, 76).
edge(67, 92).
edge(131, 137).
edge(2, 86).
edge(125, 148).
edge(36, 37).
edge(33, 104).
edge(84, 92).
edge(58, 131).
edge(38, 49).
edge(86, 109).
edge(41, 45).
edge(99, 123).
edge(3, 41).
edge(86, 111).
edge(9, 43).
edge(12, 81).
edge(3, 36).
edge(76, 87).
edge(8, 122).
edge(8, 84).
edge(23, 132).
edge(72, 96).
edge(102, 107).
edge(6, 33).
edge(36, 71).
edge(14, 110).
edge(9, 109).
edge(74, 121).
edge(46, 72).
edge(18, 94).
edge(47, 142).
edge(23, 38).
edge(91, 144).
edge(114, 132).
edge(81, 90).
edge(11, 40).
edge(53, 68).
edge(130, 135).
edge(64, 87).
edge(68, 117).
edge(30, 100).
edge(10, 11).
edge(14, 67).
edge(19, 45).
edge(44, 87).
edge(63, 128).
edge(20, 113).
edge(27, 50).
edge(67, 137).
edge(106, 124).
edge(4, 8).
edge(67, 69).
edge(30, 59).
edge(1, 34).
edge(11, 117).
edge(126, 138).
edge(34, 136).
edge(95, 121).
edge(47, 55).
edge(88, 144).
edge(23, 131).
edge(23, 98).
edge(109, 120).
edge(99, 113).
edge(21, 31).
edge(60, 89).
edge(127, 133).
edge(43, 86).
edge(63, 130).
edge(8, 145).
edge(111, 115).
edge(27, 94).
edge(34, 84).
edge(26, 69).
edge(61, 99).
edge(94, 118).
edge(92, 125).
edge(36, 137).
edge(55, 95).
edge(77, 95).
edge(61, 137).
edge(29, 46).
edge(124, 142).
edge(41, 69).
edge(27, 124).
edge(63, 81).
edge(72, 122).
edge(17, 134).
edge(40, 122).
edge(15, 58).
edge(97, 115).
edge(20, 146).
edge(65, 116).
edge(15, 140).
edge(30, 133).
edge(33, 146).
edge(57, 129).
edge(67, 119).
edge(33, 77).
edge(49, 71).
edge(54, 77).
edge(49, 98).
edge(8, 12).
edge(51, 66).
edge(105, 125).
edge(49, 121).
edge(112, 143).
edge(3, 60).
edge(57, 144).
edge(62, 123).
edge(41, 106).
edge(122, 138).
edge(123, 128).
edge(104, 143).
edge(109, 139).
edge(25, 57).
edge(36, 84).
edge(15, 66).
edge(50, 105).
edge(36, 69).
edge(40, 132).
edge(4, 22).
edge(40, 118).
edge(8, 44).
edge(30, 147).
edge(36, 86).
edge(73, 137).
edge(6, 60).
edge(33, 94).
edge(60, 99).
edge(53, 92).
edge(71, 91).
edge(16, 40).
edge(22, 53).
edge(13, 125).
edge(45, 124).
edge(7, 14).
edge(118, 124).
edge(42, 90).
edge(52, 100).
edge(46, 121).
edge(5, 105).
edge(53, 127).
edge(89, 121).
edge(74, 100).
edge(82, 110).
edge(88, 138).
edge(113, 114).
edge(15, 131).
edge(42, 97).
edge(124, 148).
edge(80, 110).
edge(6, 77).
edge(42, 103).
edge(42, 61).
edge(63, 91).
edge(74, 130).
edge(80, 134).
edge(0, 2).
edge(9, 40).
edge(9, 84).
edge(110, 132).
edge(111, 116).
edge(72, 138).
edge(17, 140).
edge(20, 108).
edge(67, 145).
edge(2, 52).
edge(128, 139).
edge(134, 147).
edge(38, 101).
edge(29, 106).
edge(34, 74).
edge(24, 72).
edge(105, 110).
edge(47, 147).
edge(9, 60).
edge(74, 118).
edge(26, 140).
edge(45, 65).
edge(55, 77).
edge(48, 121).
edge(70, 80).
edge(35, 81).
edge(19, 26).
edge(1, 80).
edge(17, 110).
edge(60, 87).
edge(31, 83).
edge(35, 60).
edge(40, 69).
edge(40, 133).
edge(95, 111).
edge(36, 100).
edge(75, 124).
edge(30, 57).
edge(114, 141).
edge(42, 137).
edge(48, 96).
edge(72, 91).
edge(73, 81).
edge(56, 99).
edge(72, 146).
edge(18, 32).
edge(21, 44).
edge(8, 144).
edge(20, 64).
edge(60, 72).
edge(77, 134).
edge(13, 70).
edge(8, 74).
edge(116, 131).
edge(44, 132).
edge(78, 141).
edge(127, 134).
edge(102, 132).
edge(66, 131).
edge(73, 123).
edge(78, 94).
edge(49, 87).
edge(65, 99).
edge(111, 142).
edge(120, 128).
edge(91, 126).
edge(102, 134).
edge(89, 145).
edge(40, 84).
edge(57, 92).
edge(2, 79).
edge(37, 100).
edge(62, 95).
edge(66, 67).
edge(48, 56).
edge(38, 133).
edge(71, 72).
edge(70, 106).
edge(70, 118).
edge(82, 142).
edge(9, 28).
edge(21, 127).
edge(55, 126).
edge(70, 126).
edge(92, 114).
edge(49, 143).
edge(34, 52).
edge(108, 141).
edge(15, 23).
edge(51, 84).
edge(54, 117).
edge(24, 54).
edge(72, 144).
edge(22, 121).
edge(19, 141).
edge(74, 137).
edge(9, 56).
edge(54, 63).
edge(60, 66).
edge(27, 66).
edge(8, 82).
edge(16, 94).
edge(43, 60).
edge(65, 104).
edge(1, 108).
edge(22, 78).
edge(44, 61).
edge(74, 132).
edge(97, 143).
edge(17, 97).
edge(49, 146).
edge(48, 99).
edge(65, 94).
edge(76, 78).
edge(111, 112).
edge(125, 141).
edge(64, 71).
edge(0, 5).
edge(106, 147).
edge(5, 141).
edge(0, 98).
edge(25, 75).
edge(40, 44).
edge(4, 131).
edge(78, 86).
edge(88, 94).
edge(25, 55).
edge(24, 147).
edge(4, 35).
edge(35, 43).
edge(38, 44).
edge(36, 119).
edge(43, 100).
edge(53, 95).
edge(94, 111).
edge(37, 72).
edge(16, 114).
edge(104, 107).
edge(5, 85).
edge(12, 112).
edge(13, 16).
edge(10, 139).
edge(57, 70).
edge(16, 99).
edge(49, 83).
edge(7, 8).
edge(90, 109).
edge(122, 134).
edge(90, 118).
edge(84, 133).
edge(5, 48).
edge(7, 89).
edge(13, 137).
edge(139, 141).
edge(35, 83).
edge(52, 123).
edge(21, 28).
edge(65, 145).
edge(83, 127).
edge(82, 135).
edge(39, 123).
edge(23, 79).
edge(65, 71).
edge(52, 109).
edge(73, 135).
edge(26, 50).
edge(68, 85).
edge(90, 105).
edge(40, 72).
edge(27, 33).
edge(138, 143).
edge(41, 135).
edge(97, 134).
edge(81, 82).
edge(26, 59).
edge(3, 120).
edge(96, 139).
edge(108, 137).
edge(40, 145).
edge(115, 125).
edge(51, 69).
edge(22, 91).
edge(27, 117).
edge(65, 91).
edge(16, 100).
edge(18, 51).
edge(13, 136).
edge(78, 96).
edge(22, 61).
edge(11, 46).
edge(74, 123).
edge(116, 127).
edge(114, 120).
edge(87, 88).
edge(54, 118).
edge(98, 121).
edge(8, 16).
edge(71, 135).
edge(109, 140).
edge(128, 134).
edge(123, 132).
edge(1, 134).
edge(95, 101).
edge(7, 148).
edge(85, 113).
edge(5, 25).
edge(104, 136).
edge(46, 83).
edge(62, 92).
edge(27, 121).
edge(51, 139).
edge(96, 118).
edge(5, 54).
edge(23, 62).
edge(50, 90).
edge(30, 124).
edge(79, 140).
edge(8, 42).
edge(85, 95).
edge(101, 130).
edge(51, 85).
edge(10, 85).
edge(8, 93).
edge(35, 114).
edge(71, 94).
edge(31, 109).
edge(52, 132).
edge(68, 125).
edge(51, 105).
edge(38, 145).
edge(52, 53).
edge(65, 125).
edge(52, 73).
edge(32, 90).
edge(20, 41).
edge(69, 96).
edge(136, 148).
edge(1, 41).
edge(35, 99).
edge(116, 124).
edge(29, 73).
edge(35, 110).
edge(88, 134).
edge(16, 111).
edge(19, 66).
edge(84, 112).
edge(1, 38).
edge(31, 69).
edge(38, 61).
edge(70, 134).
edge(133, 142).
edge(21, 145).
edge(60, 65).
edge(4, 139).
edge(56, 88).
edge(1, 119).
edge(100, 146).
edge(85, 141).
edge(120, 144).
edge(28, 113).
edge(22, 44).
edge(15, 86).
edge(129, 139).
edge(29, 68).
edge(82, 124).
edge(34, 43).
edge(19, 76).
edge(107, 123).
edge(77, 89).
edge(5, 26).
edge(61, 84).
edge(104, 147).
edge(5, 21).
edge(4, 141).
edge(51, 61).
edge(43, 130).
edge(5, 43).
edge(80, 133).
edge(95, 134).
edge(9, 59).
edge(97, 100).
edge(34, 140).
edge(57, 91).
edge(63, 116).
edge(1, 73).
edge(90, 131).
edge(137, 141).
edge(16, 118).
edge(33, 96).
edge(55, 129).
edge(131, 147).
edge(56, 96).
edge(11, 44).
edge(70, 129).
edge(58, 110).
edge(53, 122).
edge(11, 110).
edge(49, 127).
edge(32, 119).
edge(18, 116).
edge(26, 45).
edge(59, 126).
edge(20, 29).
edge(122, 141).
edge(26, 35).
edge(34, 47).
edge(63, 144).
edge(7, 29).
edge(45, 63).
edge(46, 84).
edge(58, 144).
edge(82, 89).
edge(75, 100).
edge(21, 134).
edge(92, 129).
edge(42, 60).
edge(57, 130).
edge(40, 99).
edge(45, 105).
edge(107, 144).
edge(37, 38).
edge(27, 88).
edge(105, 113).
edge(10, 46).
edge(56, 65).
edge(28, 109).
edge(3, 72).
edge(133, 136).
edge(50, 57).
edge(55, 138).
edge(50, 100).
edge(28, 146).
edge(125, 143).
edge(86, 107).
edge(38, 53).
edge(58, 97).
edge(24, 31).
edge(32, 134).
edge(102, 148).
edge(24, 37).
edge(76, 85).
edge(93, 141).
edge(13, 106).
edge(17, 143).
edge(8, 25).
edge(18, 36).
edge(5, 86).
edge(57, 112).
edge(95, 124).
edge(22, 146).
edge(73, 111).
edge(38, 75).
edge(103, 148).
edge(85, 140).
edge(3, 144).
edge(24, 120).
edge(42, 145).
edge(20, 40).
edge(9, 10).
edge(10, 19).
edge(87, 130).
edge(25, 82).
edge(63, 76).
edge(54, 137).
edge(51, 52).
edge(15, 61).
edge(55, 145).
edge(55, 111).
edge(98, 145).
edge(28, 111).
edge(45, 70).
edge(60, 119).
edge(59, 104).
edge(111, 135).
edge(1, 126).
edge(118, 145).
edge(21, 146).
edge(23, 48).
edge(65, 141).
edge(79, 87).
edge(38, 42).
edge(14, 119).
edge(97, 145).
edge(88, 123).
edge(42, 147).
edge(43, 129).
edge(39, 41).
edge(20, 112).
edge(82, 139).
edge(44, 124).
edge(49, 101).
edge(31, 45).
edge(42, 136).
edge(91, 121).
edge(109, 123).
edge(18, 90).
edge(13, 81).
edge(37, 140).
edge(39, 133).
edge(122, 125).
edge(19, 140).
edge(16, 19).
edge(92, 100).
edge(19, 31).
edge(21, 40).
edge(68, 131).
edge(100, 124).
edge(60, 123).
edge(5, 60).
edge(106, 110).
edge(48, 135).
edge(27, 82).
edge(102, 121).
edge(2, 62).
edge(72, 75).
edge(35, 42).
edge(5, 121).
edge(63, 86).
edge(8, 91).
edge(6, 20).
edge(12, 42).
edge(56, 103).
edge(56, 75).
edge(72, 87).
edge(68, 100).
edge(105, 115).
edge(78, 89).
edge(54, 138).
edge(24, 89).
edge(85, 87).
edge(74, 92).
edge(52, 75).
edge(27, 73).
edge(36, 68).
edge(50, 52).
edge(34, 105).
edge(4, 47).
edge(20, 22).
edge(5, 96).
edge(11, 97).
edge(41, 82).
edge(35, 112).
edge(21, 102).
edge(23, 55).
edge(5, 31).
edge(22, 125).
edge(31, 71).
edge(92, 136).
edge(34, 119).
edge(37, 89).
edge(25, 122).
edge(14, 90).
edge(4, 133).
edge(28, 47).
edge(35, 73).
edge(126, 144).
edge(12, 106).
edge(89, 134).
edge(47, 127).
edge(84, 128).
edge(43, 119).
edge(105, 130).
edge(0, 97).
edge(26, 131).
edge(112, 146).
edge(93, 108).
edge(140, 142).
edge(16, 23).
edge(85, 127).
edge(0, 78).
edge(70, 94).
edge(7, 142).
edge(12, 85).
edge(49, 82).
edge(86, 90).
edge(22, 109).
edge(32, 43).
edge(35, 84).
edge(11, 45).
edge(14, 56).
edge(62, 69).
edge(26, 113).
edge(82, 133).
edge(55, 102).
edge(19, 47).
edge(60, 121).
edge(29, 101).
edge(109, 122).
edge(47, 105).
edge(62, 63).
edge(40, 41).
edge(11, 63).
edge(36, 65).
edge(128, 143).
edge(105, 126).
edge(44, 127).
edge(74, 103).
edge(116, 147).
edge(44, 105).
edge(41, 85).
edge(23, 139).
edge(20, 90).
edge(81, 127).
edge(5, 83).
edge(98, 147).
edge(55, 103).
edge(9, 106).
edge(114, 134).
edge(6, 142).
edge(22, 33).
edge(31, 112).
edge(19, 36).
edge(25, 29).
edge(6, 36).
edge(26, 49).
edge(130, 133).
edge(110, 133).
edge(19, 49).
edge(13, 83).
edge(34, 55).
edge(133, 147).
edge(47, 100).
edge(15, 48).
edge(97, 103).
edge(27, 148).
edge(39, 64).
edge(12, 66).
edge(80, 116).
edge(23, 59).
edge(12, 87).
edge(2, 122).
edge(28, 96).
edge(77, 107).
edge(119, 127).
edge(42, 86).
edge(1, 98).
edge(94, 120).
edge(64, 72).
edge(71, 134).
edge(1, 19).
edge(51, 104).
edge(19, 128).
edge(19, 130).
edge(3, 88).
edge(62, 125).
edge(35, 71).
edge(21, 76).
edge(100, 128).
edge(65, 137).
edge(82, 134).
edge(40, 129).
edge(37, 55).
edge(108, 147).
edge(13, 92).
edge(27, 97).
edge(41, 48).
edge(57, 83).
edge(104, 115).
edge(91, 93).
edge(20, 128).
edge(25, 60).
edge(60, 142).
edge(42, 121).
edge(74, 136).
edge(111, 144).
edge(32, 98).
edge(81, 139).
edge(54, 72).
edge(43, 118).
edge(42, 83).
edge(31, 147).
edge(119, 128).
edge(47, 62).
edge(49, 67).
edge(75, 132).
edge(84, 108).
edge(79, 84).
edge(27, 138).
edge(30, 134).
edge(15, 20).
edge(85, 89).
edge(4, 16).
edge(44, 74).
edge(9, 71).
edge(33, 98).
edge(9, 38).
edge(41, 99).
edge(15, 71).
edge(65, 133).
edge(72, 111).
edge(103, 141).
edge(6, 89).
edge(64, 103).
edge(6, 79).
edge(120, 125).
edge(55, 66).
edge(11, 103).
edge(29, 139).
edge(105, 114).
edge(11, 13).
edge(29, 108).
edge(87, 128).
edge(104, 140).
edge(98, 110).
edge(17, 20).
edge(8, 140).
edge(57, 98).
edge(13, 14).
edge(63, 78).
edge(81, 107).
edge(98, 136).
edge(88, 99).
edge(17, 31).
edge(71, 140).
edge(3, 101).
edge(54, 64).
edge(64, 84).
edge(38, 119).
edge(94, 97).
edge(39, 100).
edge(55, 110).
edge(33, 35).
edge(23, 25).
edge(1, 87).
edge(24, 145).
edge(76, 95).
edge(98, 124).
edge(82, 118).
edge(21, 113).
edge(9, 67).
edge(104, 145).
edge(24, 100).
edge(56, 140).
edge(71, 145).
edge(26, 48).
edge(41, 62).
edge(7, 48).
edge(40, 65).
edge(82, 106).
edge(3, 64).
edge(95, 119).
edge(9, 16).
edge(0, 35).
edge(92, 131).
edge(16, 60).
edge(63, 133).
edge(20, 127).
edge(102, 122).
edge(93, 96).
edge(54, 134).
edge(126, 136).
edge(14, 74).
edge(83, 116).
edge(108, 138).
edge(40, 140).
edge(3, 11).
edge(48, 125).
edge(76, 125).
edge(3, 123).
edge(37, 97).
edge(45, 98).
edge(67, 136).
edge(26, 127).
edge(75, 123).
edge(15, 122).
edge(85, 86).
edge(89, 132).
edge(66, 107).
edge(3, 147).
edge(108, 110).
edge(22, 139).
edge(74, 83).
edge(69, 115).
edge(24, 81).
edge(102, 129).
edge(102, 138).
edge(85, 116).
edge(80, 137).
edge(81, 106).
edge(12, 29).
edge(33, 121).
edge(65, 120).
edge(8, 128).
edge(63, 72).
edge(5, 49).
edge(18, 145).
edge(15, 125).
edge(120, 123).
edge(62, 105).
edge(79, 113).
edge(29, 147).
edge(99, 145).
edge(73, 94).
edge(36, 60).
edge(81, 87).
edge(30, 122).
edge(76, 88).
edge(57, 141).
edge(12, 111).
edge(44, 50).
edge(55, 135).
edge(23, 108).
edge(23, 124).
edge(6, 45).
edge(96, 97).
edge(75, 129).
edge(66, 125).
edge(43, 47).
edge(109, 125).
edge(7, 60).
edge(19, 34).
edge(100, 108).
edge(3, 95).
edge(13, 79).
edge(55, 79).
edge(134, 145).
edge(123, 130).
edge(83, 104).
edge(82, 85).
edge(73, 89).
edge(32, 45).
edge(58, 141).
edge(70, 117).
edge(101, 131).
edge(33, 82).
edge(107, 112).
edge(71, 79).
edge(20, 83).
edge(69, 141).
edge(34, 123).
edge(25, 120).
edge(20, 94).
edge(28, 83).
edge(23, 135).
edge(42, 143).
edge(2, 54).
edge(32, 44).
edge(8, 53).
edge(30, 143).
edge(52, 91).
edge(22, 126).
edge(6, 72).
edge(49, 96).
edge(5, 38).
edge(60, 113).
edge(46, 56).
edge(100, 109).
edge(24, 97).
edge(8, 47).
edge(74, 93).
edge(43, 120).
edge(98, 117).
edge(28, 110).
edge(29, 66).
edge(59, 72).
edge(33, 39).
edge(108, 139).
edge(24, 78).
edge(2, 46).
edge(67, 71).
edge(25, 113).
edge(106, 148).
edge(15, 83).
edge(31, 80).
edge(7, 21).
edge(12, 53).
edge(117, 136).
edge(48, 97).
edge(1, 124).
edge(89, 130).
edge(30, 34).
edge(89, 116).
edge(23, 60).
edge(24, 40).
edge(13, 97).
edge(114, 138).
edge(18, 112).
edge(33, 55).
edge(35, 91).
edge(61, 132).
edge(4, 51).
edge(92, 138).
edge(31, 61).
edge(58, 127).
edge(122, 133).
edge(69, 119).
edge(66, 118).
edge(22, 47).
edge(71, 147).
edge(12, 27).
edge(70, 137).
edge(19, 135).
edge(3, 87).
edge(33, 109).
edge(29, 117).
edge(41, 133).
edge(50, 126).
edge(10, 79).
edge(64, 81).
edge(17, 108).
edge(6, 133).
edge(50, 144).
edge(17, 65).
edge(56, 78).
edge(13, 116).
edge(34, 101).
edge(99, 148).
edge(16, 128).
edge(39, 83).
edge(33, 88).
edge(8, 108).
edge(19, 62).
edge(80, 106).
edge(20, 104).
edge(23, 44).
edge(23, 102).
edge(66, 141).
edge(111, 138).
edge(68, 115).
edge(70, 128).
edge(37, 48).
edge(58, 109).
edge(19, 89).
edge(12, 86).
edge(57, 140).
edge(15, 24).
edge(93, 122).
edge(53, 79).
edge(3, 34).
edge(20, 95).
edge(14, 109).
edge(104, 121).
edge(25, 145).
edge(79, 109).
edge(17, 58).
edge(63, 147).
edge(31, 119).
edge(55, 124).
edge(23, 56).
edge(32, 40).
edge(25, 70).
edge(103, 120).
edge(31, 115).
edge(4, 19).
edge(69, 137).
edge(105, 109).
edge(39, 122).
edge(47, 117).
edge(35, 123).
edge(89, 102).
edge(23, 104).
edge(8, 76).
edge(91, 105).
edge(66, 104).
edge(86, 88).
edge(21, 36).
edge(2, 120).
edge(7, 25).
edge(36, 141).
edge(12, 103).
edge(83, 122).
edge(0, 126).
edge(26, 128).
edge(2, 59).
edge(67, 82).
edge(30, 49).
edge(8, 90).
edge(33, 135).
edge(9, 107).
edge(69, 110).
edge(61, 108).
edge(136, 142).
edge(19, 143).
edge(53, 124).
edge(114, 122).
edge(61, 103).
edge(121, 143).
edge(39, 43).
edge(69, 100).
edge(97, 146).
edge(84, 105).
edge(30, 56).
edge(111, 136).
edge(143, 144).
edge(100, 126).
edge(4, 38).
edge(54, 110).
edge(22, 79).
edge(110, 148).
edge(50, 61).
edge(5, 120).
edge(14, 115).
edge(60, 145).
edge(18, 66).
edge(135, 137).
edge(45, 138).
edge(17, 75).
edge(18, 55).
edge(38, 90).
edge(1, 110).
edge(52, 129).
edge(81, 123).
edge(129, 136).
edge(121, 132).
edge(12, 129).
edge(27, 42).
edge(120, 147).
edge(45, 111).
edge(10, 129).
edge(91, 98).
edge(40, 114).
edge(80, 148).
edge(33, 114).
edge(99, 127).
edge(79, 133).
edge(14, 128).
edge(35, 67).
edge(28, 145).
edge(60, 107).
edge(52, 108).
edge(127, 138).
edge(17, 78).
edge(118, 148).
edge(86, 103).
edge(53, 103).
edge(42, 87).
edge(96, 107).
edge(35, 97).
edge(86, 114).
edge(32, 116).
edge(43, 77).
edge(114, 135).
edge(92, 116).
edge(0, 83).
edge(14, 35).
edge(6, 18).
edge(3, 97).
edge(83, 138).
edge(13, 99).
edge(118, 142).
edge(59, 89).
edge(81, 101).
edge(19, 139).
edge(103, 147).
edge(65, 90).
edge(24, 110).
edge(13, 76).
edge(28, 67).
edge(69, 113).
edge(126, 127).
edge(72, 108).
edge(35, 126).
edge(23, 51).
edge(30, 93).
edge(57, 88).
edge(1, 78).
edge(8, 37).
edge(29, 63).
edge(18, 46).
edge(47, 109).
edge(36, 142).
edge(41, 142).
edge(27, 119).
edge(21, 34).
edge(84, 127).
edge(28, 97).
edge(89, 144).
edge(62, 137).
edge(36, 46).
edge(52, 107).
edge(25, 110).
edge(45, 61).
edge(5, 124).
edge(8, 86).
edge(83, 125).
edge(29, 88).
edge(14, 134).
edge(31, 32).
edge(32, 77).
edge(35, 41).
edge(9, 78).
edge(101, 104).
edge(38, 93).
edge(38, 87).
edge(20, 68).
edge(15, 47).
edge(95, 102).
edge(44, 49).
edge(31, 66).
edge(15, 31).
edge(43, 126).
edge(54, 131).
edge(54, 136).
edge(27, 92).
edge(25, 117).
edge(49, 73).
edge(85, 100).
edge(42, 91).
edge(116, 120).
edge(42, 141).
edge(17, 107).
edge(102, 126).
edge(107, 114).
edge(18, 29).
edge(31, 138).
edge(14, 54).
edge(42, 130).
edge(24, 148).
edge(42, 101).
edge(42, 70).
edge(26, 55).
edge(15, 30).
edge(109, 138).
edge(36, 96).
edge(17, 34).
edge(43, 104).
edge(104, 119).
edge(69, 127).
edge(0, 19).
edge(35, 59).
edge(83, 144).
edge(5, 88).
edge(68, 123).
edge(106, 121).
edge(57, 84).
edge(53, 142).
edge(32, 52).
edge(29, 50).
edge(107, 113).
edge(46, 108).
edge(101, 141).
edge(71, 73).
edge(109, 126).
edge(4, 135).
edge(107, 140).
edge(103, 105).
edge(68, 142).
edge(22, 80).
edge(5, 47).
edge(15, 78).
edge(5, 22).
edge(127, 147).
edge(13, 89).
edge(33, 102).
edge(55, 147).
edge(10, 88).
edge(69, 123).
edge(51, 62).
edge(72, 129).
edge(25, 93).
edge(69, 86).
edge(11, 129).
edge(24, 128).
edge(35, 46).
edge(23, 107).
edge(22, 40).
edge(130, 132).
edge(70, 136).
edge(58, 125).
edge(8, 17).
edge(46, 120).
edge(67, 112).
edge(49, 99).
edge(57, 96).
edge(0, 54).
edge(9, 24).
edge(97, 135).
edge(20, 137).
edge(27, 106).
edge(48, 143).
edge(9, 52).
edge(111, 147).
edge(8, 125).
edge(55, 94).
edge(67, 131).
edge(5, 130).
edge(67, 85).
edge(93, 127).
edge(2, 25).
edge(87, 119).
edge(86, 124).
edge(42, 92).
edge(64, 113).
edge(41, 103).
edge(111, 134).
edge(33, 59).
edge(59, 93).
edge(28, 138).
edge(2, 106).
edge(62, 75).
edge(52, 121).
edge(15, 95).
edge(17, 132).
edge(41, 78).
edge(52, 90).
edge(49, 55).
edge(66, 85).
edge(40, 61).
edge(51, 122).
edge(17, 146).
edge(62, 146).
edge(96, 138).
edge(95, 122).
edge(48, 102).
edge(92, 101).
edge(40, 43).
edge(52, 110).
edge(34, 109).
edge(82, 116).
edge(75, 95).
edge(20, 79).
edge(6, 124).
edge(48, 132).
edge(56, 111).
edge(104, 128).
edge(123, 146).
edge(4, 69).
edge(24, 140).
edge(5, 65).
edge(12, 43).
edge(101, 117).
edge(67, 90).
edge(14, 145).
edge(29, 98).
edge(38, 137).
edge(96, 109).
edge(95, 148).
edge(86, 87).
edge(58, 75).
edge(14, 22).
edge(0, 115).
edge(55, 80).
edge(58, 59).
edge(64, 139).
edge(7, 94).
edge(34, 91).
edge(13, 34).
edge(69, 133).
edge(83, 136).
edge(70, 93).
edge(79, 92).
edge(115, 117).
edge(48, 95).
edge(84, 110).
edge(50, 74).
edge(58, 81).
edge(37, 79).
edge(18, 26).
edge(0, 31).
edge(25, 73).
edge(74, 147).
edge(38, 110).
edge(18, 61).
edge(45, 101).
edge(25, 97).
edge(14, 43).
edge(35, 48).
edge(75, 97).
edge(2, 105).
edge(123, 141).
edge(11, 146).
edge(64, 120).
edge(83, 129).
edge(110, 115).
edge(43, 68).
edge(21, 68).
edge(2, 143).
edge(2, 76).
edge(23, 41).
edge(0, 22).
edge(66, 133).
edge(3, 125).
edge(126, 143).
edge(61, 97).
edge(67, 116).
edge(34, 110).
edge(101, 114).
edge(22, 87).
edge(43, 93).
edge(61, 123).
edge(12, 71).
edge(71, 114).
edge(43, 81).
edge(32, 38).
edge(87, 134).
edge(10, 127).
edge(32, 96).
edge(52, 95).
edge(44, 99).
edge(62, 118).
edge(19, 69).
edge(7, 129).
edge(37, 103).
edge(19, 73).
edge(89, 92).
edge(83, 106).
edge(10, 95).
edge(107, 119).
edge(2, 47).
edge(20, 105).
edge(17, 102).
edge(2, 57).
edge(91, 99).
edge(11, 145).
edge(8, 141).
edge(35, 57).
edge(30, 68).
edge(11, 130).
edge(44, 91).
edge(64, 118).
edge(49, 54).
edge(95, 118).
edge(50, 72).
edge(36, 126).
edge(15, 75).
edge(23, 91).
edge(5, 144).
edge(10, 137).
edge(81, 141).
edge(14, 137).
edge(104, 120).
edge(23, 121).
edge(55, 65).
edge(36, 45).
edge(30, 91).
edge(24, 56).
edge(0, 72).
edge(14, 28).
edge(54, 73).
edge(109, 130).
edge(22, 141).
edge(51, 63).
edge(30, 102).
edge(53, 62).
edge(8, 33).
edge(7, 102).
edge(60, 102).
edge(118, 140).
edge(23, 46).
edge(52, 88).
edge(25, 27).
edge(32, 118).
edge(44, 86).
edge(91, 136).
edge(42, 85).
edge(38, 108).
edge(92, 118).
edge(127, 144).
edge(123, 147).
edge(115, 147).
edge(7, 43).
edge(15, 89).
edge(84, 120).
edge(19, 136).
edge(118, 129).
edge(48, 137).
edge(8, 148).
edge(31, 35).
edge(87, 90).
edge(76, 114).
edge(3, 16).
edge(11, 115).
edge(40, 128).
edge(95, 145).
edge(16, 71).
edge(110, 118).
edge(43, 80).
edge(60, 148).
edge(111, 131).
edge(49, 93).
edge(139, 146).
edge(59, 136).
edge(89, 115).
edge(31, 107).
edge(49, 137).
edge(91, 118).
edge(8, 95).
edge(38, 58).
edge(69, 99).
edge(70, 138).
edge(11, 95).
edge(23, 122).
edge(81, 113).
edge(52, 146).
edge(100, 106).
edge(26, 38).
edge(120, 142).
edge(27, 108).
edge(41, 125).
edge(47, 80).
edge(12, 41).
edge(130, 143).
edge(64, 99).
edge(4, 25).
edge(93, 121).
edge(21, 80).
edge(30, 129).
edge(4, 89).
edge(93, 130).
edge(89, 127).
edge(80, 101).
edge(46, 137).
edge(1, 21).
edge(37, 76).
edge(0, 11).
edge(64, 142).
edge(81, 148).
edge(14, 50).
edge(81, 146).
edge(16, 102).
edge(84, 148).
edge(107, 134).
edge(82, 144).
edge(8, 22).
edge(79, 145).
edge(4, 107).
edge(41, 104).
edge(33, 118).
edge(5, 94).
edge(84, 86).
edge(8, 78).
edge(23, 100).
edge(45, 118).
edge(27, 98).
edge(45, 67).
edge(16, 146).
edge(62, 85).
edge(40, 103).
edge(37, 121).
edge(16, 106).
edge(36, 138).
edge(75, 142).
edge(80, 87).
edge(81, 132).
edge(53, 74).
edge(12, 123).
edge(20, 53).
edge(7, 59).
edge(40, 59).
edge(48, 117).
edge(21, 25).
edge(2, 121).
edge(41, 43).
edge(7, 93).
edge(31, 85).
edge(58, 113).
edge(28, 44).
edge(17, 115).
edge(81, 112).
edge(37, 58).
edge(34, 56).
edge(12, 39).
edge(15, 27).
edge(26, 51).
edge(52, 119).
edge(23, 78).
edge(89, 110).
edge(11, 96).
edge(17, 133).
edge(10, 12).
edge(32, 114).
edge(65, 66).
edge(85, 90).
edge(118, 144).
edge(80, 108).
edge(60, 136).
edge(61, 148).
edge(40, 94).
edge(14, 148).
edge(30, 104).
edge(112, 114).
edge(44, 81).
edge(15, 38).
edge(28, 82).
edge(0, 6).
edge(29, 51).
edge(13, 53).
edge(51, 67).
edge(21, 67).
edge(37, 138).
edge(59, 77).
edge(36, 79).
edge(32, 39).
edge(8, 96).
edge(52, 77).
edge(15, 98).
edge(42, 128).
edge(67, 77).
edge(138, 141).
edge(35, 78).
edge(49, 129).
edge(40, 42).
edge(85, 102).
edge(16, 22).
edge(21, 130).
edge(74, 135).
edge(1, 9).
edge(38, 69).
edge(29, 145).
edge(14, 89).
edge(26, 110).
edge(6, 31).
edge(102, 136).
edge(13, 138).
edge(14, 57).
edge(72, 76).
edge(1, 47).
edge(84, 106).
edge(7, 26).
edge(59, 106).
edge(51, 82).
edge(29, 72).
edge(8, 79).
edge(98, 138).
edge(70, 75).
edge(93, 98).
edge(42, 57).
edge(7, 125).
edge(44, 84).
edge(45, 74).
edge(6, 88).
edge(41, 65).
edge(42, 123).
edge(110, 113).
edge(102, 143).
edge(70, 104).
edge(77, 135).
edge(79, 136).
edge(12, 109).
edge(67, 86).
edge(32, 106).
edge(104, 132).
edge(9, 22).
edge(32, 65).
edge(68, 97).
edge(47, 75).
edge(108, 127).
edge(36, 109).
edge(42, 45).
edge(33, 68).
edge(106, 138).
edge(0, 27).
edge(74, 138).
edge(66, 116).
edge(63, 113).
edge(26, 91).
edge(88, 104).
edge(76, 119).
edge(138, 147).
edge(83, 145).
edge(93, 131).
edge(9, 85).
edge(37, 117).
edge(49, 124).
edge(79, 141).
edge(27, 109).
edge(125, 131).
edge(116, 144).
edge(27, 36).
edge(74, 108).
edge(103, 108).
edge(141, 142).
edge(101, 125).
edge(62, 127).
edge(90, 110).
edge(5, 147).
edge(9, 32).
edge(7, 80).
edge(71, 107).
edge(7, 144).
edge(17, 104).
edge(14, 94).
edge(95, 98).
edge(49, 59).
edge(75, 133).
edge(79, 102).
edge(90, 135).
edge(0, 14).
edge(122, 145).
edge(10, 37).
edge(81, 108).
edge(17, 61).
edge(33, 130).
edge(84, 137).
edge(55, 63).
edge(60, 109).
edge(116, 139).
edge(24, 134).
edge(42, 81).
edge(8, 67).
edge(36, 127).
edge(36, 91).
edge(28, 59).
edge(15, 55).
edge(59, 62).
edge(63, 106).
edge(117, 144).
edge(66, 78).
edge(81, 91).
edge(122, 148).
edge(65, 92).
edge(60, 116).
edge(59, 113).
edge(41, 120).
edge(22, 100).
edge(5, 135).
edge(95, 139).
edge(25, 77).
edge(43, 105).
edge(7, 12).
edge(80, 89).
edge(6, 26).
edge(94, 133).
edge(33, 147).
edge(65, 118).
edge(59, 87).
edge(73, 77).
edge(22, 59).
edge(20, 21).
edge(90, 115).
edge(41, 124).
edge(101, 102).
edge(68, 70).
edge(83, 113).
edge(65, 139).
edge(23, 72).
edge(25, 26).
edge(84, 97).
edge(129, 146).
edge(25, 127).
edge(9, 68).
edge(9, 86).
edge(98, 123).
edge(60, 108).
edge(112, 138).
edge(82, 117).
edge(21, 139).
edge(50, 59).
edge(3, 35).
edge(48, 104).
edge(90, 126).
edge(105, 120).
edge(112, 144).
edge(112, 136).
edge(53, 140).
edge(18, 37).
edge(57, 148).
edge(10, 104).
edge(29, 55).
edge(17, 136).
edge(21, 42).
edge(39, 68).
edge(77, 79).
edge(63, 109).
edge(96, 101).
edge(130, 138).
edge(67, 133).
edge(45, 85).
edge(100, 105).
edge(111, 143).
edge(4, 68).
edge(28, 63).
edge(23, 113).
edge(14, 29).
edge(80, 99).
edge(35, 82).
edge(36, 50).
edge(77, 100).
edge(116, 122).
edge(108, 132).
edge(11, 105).
edge(64, 89).
edge(42, 98).
edge(46, 124).
edge(52, 134).
edge(100, 118).
edge(12, 133).
edge(28, 86).
edge(19, 82).
edge(23, 57).
edge(76, 146).
edge(5, 7).
edge(38, 102).
edge(63, 146).
edge(58, 93).
edge(23, 86).
edge(15, 133).
edge(19, 59).
edge(22, 37).
edge(1, 35).
edge(4, 10).
edge(86, 133).
edge(36, 47).
edge(131, 140).
edge(61, 62).
edge(62, 140).
edge(17, 122).
edge(14, 30).
edge(2, 142).
edge(13, 130).
edge(9, 79).
edge(28, 94).
edge(0, 90).
edge(36, 98).
edge(7, 107).
edge(28, 55).
edge(8, 21).
edge(24, 86).
edge(49, 133).
edge(53, 108).
edge(36, 123).
edge(20, 27).
edge(51, 68).
edge(44, 126).
edge(70, 79).
edge(67, 129).
edge(70, 81).
edge(99, 135).
edge(18, 76).
edge(13, 27).
edge(14, 52).
edge(123, 136).
edge(64, 126).
edge(107, 135).
edge(46, 106).
edge(8, 116).
edge(6, 40).
edge(85, 132).
edge(15, 43).
edge(11, 111).
edge(27, 144).
edge(23, 136).
edge(63, 114).
edge(25, 68).
edge(87, 147).
edge(4, 74).
edge(38, 116).
edge(49, 88).
edge(57, 139).
edge(80, 96).
edge(20, 131).
edge(34, 100).
edge(4, 23).
edge(68, 83).
edge(58, 122).
edge(44, 140).
edge(24, 126).
edge(34, 44).
edge(30, 96).
edge(20, 55).
edge(77, 145).
edge(2, 75).
edge(61, 131).
edge(94, 98).
edge(95, 109).
edge(11, 127).
edge(4, 30).
edge(57, 110).
edge(0, 37).
edge(7, 18).
edge(18, 50).
edge(59, 61).
edge(1, 63).
edge(2, 110).
edge(56, 90).
edge(26, 141).
edge(94, 140).
edge(7, 45).
edge(6, 8).
edge(42, 53).
edge(20, 39).
edge(94, 110).
edge(88, 112).
edge(40, 106).
edge(64, 98).
edge(72, 98).
edge(76, 142).
edge(118, 135).
edge(39, 142).
edge(72, 97).
edge(10, 144).
edge(29, 141).
edge(46, 116).
edge(55, 139).
edge(79, 114).
edge(64, 83).
edge(46, 148).
edge(55, 76).
edge(31, 103).
edge(108, 134).
edge(1, 26).
edge(38, 100).
edge(50, 140).
edge(41, 109).
edge(58, 118).
edge(46, 109).
edge(2, 116).
edge(18, 111).
edge(36, 125).
edge(19, 80).
edge(96, 114).
edge(106, 116).
edge(52, 57).
edge(67, 103).
edge(103, 127).
edge(104, 137).
edge(85, 129).
edge(122, 130).
edge(34, 60).
edge(39, 72).
edge(18, 110).
edge(4, 118).
edge(1, 115).
edge(39, 114).
edge(7, 27).
edge(13, 113).
edge(42, 84).
edge(12, 146).
edge(3, 69).
edge(10, 148).
edge(24, 80).
edge(137, 138).
edge(127, 128).
edge(61, 88).
edge(51, 96).
edge(58, 74).
edge(29, 58).
edge(58, 104).
edge(6, 59).
edge(14, 130).
edge(13, 40).
edge(69, 136).
edge(10, 94).
edge(70, 130).
edge(97, 113).
edge(23, 134).
edge(21, 39).
edge(99, 129).
edge(6, 19).
edge(16, 96).
edge(77, 113).
edge(45, 142).
edge(62, 90).
edge(24, 99).
edge(84, 143).
edge(28, 57).
edge(121, 122).
edge(91, 131).
edge(37, 90).
edge(71, 126).
edge(39, 59).
edge(62, 100).
edge(2, 80).
edge(92, 140).
edge(114, 123).
edge(73, 74).
edge(26, 103).
edge(104, 105).
edge(25, 84).
edge(81, 134).
edge(35, 37).
edge(28, 127).
edge(27, 45).
edge(3, 86).
edge(33, 124).
edge(27, 126).
edge(78, 125).
edge(45, 58).
edge(2, 37).
edge(9, 27).
edge(115, 131).
edge(54, 115).
edge(29, 93).
edge(90, 129).
edge(27, 135).
edge(12, 24).
edge(53, 148).
edge(106, 123).
edge(22, 118).
edge(25, 106).
edge(98, 146).
edge(80, 123).
edge(2, 72).
edge(81, 89).
edge(9, 31).
edge(98, 128).
edge(2, 123).
edge(138, 140).
edge(71, 116).
edge(8, 87).
edge(120, 148).
edge(79, 130).
edge(28, 43).
edge(138, 145).
edge(49, 90).
edge(60, 62).
edge(97, 140).
edge(97, 148).
edge(66, 105).
edge(56, 123).
edge(58, 115).
edge(38, 78).
edge(96, 142).
edge(22, 52).
edge(90, 123).
edge(92, 130).
edge(58, 88).
edge(12, 82).
edge(81, 92).
edge(27, 146).
edge(12, 104).
edge(16, 132).
edge(5, 42).
edge(50, 99).
edge(90, 127).
edge(91, 110).
edge(11, 19).
edge(23, 70).
edge(8, 56).
edge(23, 36).
edge(105, 142).
edge(50, 108).
edge(56, 89).
edge(10, 70).
edge(8, 43).
edge(8, 124).
edge(91, 116).
edge(55, 81).
edge(5, 23).
edge(39, 115).
edge(42, 113).
edge(40, 148).
edge(80, 122).
edge(45, 136).
edge(8, 133).
edge(84, 113).
edge(64, 73).
edge(128, 130).
edge(44, 68).
edge(11, 27).
edge(10, 27).
edge(65, 144).
edge(17, 129).
edge(5, 46).
edge(44, 134).
edge(39, 87).
edge(12, 48).
edge(104, 146).
edge(66, 68).
edge(82, 96).
edge(40, 115).
edge(14, 120).
edge(33, 51).
edge(4, 46).
edge(18, 97).
edge(89, 104).
edge(30, 130).
edge(2, 129).
edge(7, 96).
edge(114, 140).
edge(93, 146).
edge(34, 70).
edge(58, 89).
edge(50, 141).
edge(71, 98).
edge(28, 140).
edge(38, 123).
edge(51, 76).
edge(1, 145).
edge(7, 143).
edge(4, 9).
edge(0, 40).
edge(51, 72).
edge(31, 128).
edge(96, 144).
edge(78, 140).
edge(73, 148).
edge(113, 144).
edge(20, 65).
edge(3, 92).
edge(113, 122).
edge(1, 46).
edge(83, 109).
edge(5, 136).
edge(112, 121).
edge(17, 49).
edge(62, 97).
edge(43, 124).
edge(48, 101).
edge(46, 134).
edge(110, 144).
edge(11, 131).
edge(12, 21).
edge(97, 147).
edge(0, 56).
edge(51, 147).
edge(21, 91).
edge(105, 136).
edge(81, 118).
edge(33, 90).
edge(76, 93).
edge(96, 117).
edge(122, 129).
edge(45, 148).
edge(26, 46).
edge(75, 92).
edge(81, 129).
edge(68, 129).
edge(100, 131).
edge(3, 32).
edge(15, 105).
edge(54, 112).
edge(67, 95).
edge(31, 70).
edge(48, 94).
edge(27, 54).
edge(76, 105).
edge(115, 133).
edge(105, 118).
edge(11, 26).
edge(61, 107).
edge(120, 143).
edge(0, 73).
edge(90, 104).
edge(85, 125).
edge(2, 128).
edge(57, 73).
edge(39, 61).
edge(68, 92).
edge(24, 87).
edge(69, 73).
edge(29, 83).
edge(16, 142).
edge(67, 134).
edge(6, 41).
edge(46, 118).
edge(53, 116).
edge(6, 83).
edge(80, 91).
edge(102, 111).
edge(46, 77).
edge(66, 143).
edge(45, 104).
edge(51, 145).
edge(16, 143).
edge(21, 96).
edge(51, 103).
edge(133, 145).
edge(9, 46).
edge(87, 108).
edge(100, 102).
edge(29, 86).
edge(0, 43).
edge(110, 121).
edge(58, 64).
edge(35, 89).
edge(27, 37).
edge(86, 92).
edge(97, 130).
edge(62, 103).
edge(47, 125).
edge(77, 128).
edge(25, 38).
edge(4, 65).
edge(17, 21).
edge(5, 16).
edge(48, 130).
edge(40, 54).
edge(114, 143).
edge(12, 31).
edge(20, 139).
edge(82, 126).
edge(2, 88).
edge(44, 51).
edge(55, 108).
edge(18, 139).
edge(12, 79).
edge(47, 94).
edge(61, 76).
edge(43, 62).
edge(2, 66).
edge(29, 140).
edge(49, 111).
edge(6, 82).
edge(44, 130).
edge(17, 116).
edge(19, 122).
edge(48, 86).
edge(59, 75).
edge(28, 69).
edge(109, 128).
edge(27, 47).
edge(8, 28).
edge(20, 70).
edge(10, 120).
edge(54, 111).
edge(9, 39).
edge(100, 112).
edge(87, 98).
edge(68, 113).
edge(17, 68).
edge(66, 69).
edge(3, 90).
edge(3, 103).
edge(64, 90).
edge(104, 134).
edge(110, 145).
edge(123, 135).
edge(98, 127).
edge(21, 43).
edge(88, 146).
edge(56, 70).
edge(5, 71).
edge(14, 81).
edge(136, 143).
edge(33, 44).
edge(79, 91).
edge(23, 123).
edge(98, 132).
edge(10, 133).
edge(54, 120).
edge(65, 85).
edge(99, 126).
edge(68, 122).
edge(27, 77).
edge(58, 86).
edge(41, 122).
edge(8, 135).
edge(112, 119).
edge(79, 80).
edge(62, 73).
edge(38, 60).
edge(36, 120).
edge(20, 81).
edge(65, 68).
edge(120, 130).
edge(27, 67).
edge(105, 138).
edge(4, 58).
edge(17, 32).
edge(9, 111).
edge(33, 36).
edge(135, 142).
edge(38, 41).
edge(84, 144).
edge(87, 116).
edge(116, 132).
edge(41, 59).
edge(34, 82).
edge(20, 133).
edge(32, 42).
edge(55, 83).
edge(4, 18).
edge(2, 146).
edge(39, 143).
edge(86, 126).
edge(9, 148).
edge(7, 147).
edge(68, 87).
edge(95, 144).
edge(42, 139).
edge(81, 136).
edge(78, 148).
edge(9, 77).
edge(131, 145).
edge(74, 131).
edge(92, 135).
edge(47, 138).
edge(63, 131).
edge(31, 104).
edge(2, 138).
edge(48, 54).
edge(40, 60).
edge(43, 79).
edge(6, 42).
edge(29, 33).
edge(74, 99).
edge(41, 100).
edge(14, 136).
edge(64, 75).
edge(48, 60).
edge(112, 115).
edge(144, 148).
edge(87, 97).
edge(109, 116).
edge(68, 81).
edge(103, 114).
edge(7, 106).
edge(10, 140).
edge(71, 129).
edge(31, 116).
edge(0, 63).
edge(43, 87).
edge(15, 132).
edge(12, 83).
edge(16, 39).
edge(51, 87).
edge(9, 130).
edge(32, 99).
edge(59, 91).
edge(68, 94).
edge(61, 146).
edge(14, 92).
edge(63, 94).
edge(32, 124).
edge(72, 78).
edge(37, 66).
edge(16, 83).
edge(24, 47).
edge(83, 134).
edge(32, 142).
edge(63, 102).
edge(33, 107).
edge(127, 142).
edge(5, 118).
edge(101, 113).
edge(13, 65).
edge(11, 48).
edge(122, 131).
edge(65, 115).
edge(26, 28).
edge(91, 92).
edge(8, 46).
edge(11, 80).
edge(12, 132).
edge(31, 88).
edge(71, 105).
edge(103, 138).
edge(93, 120).
edge(88, 137).
edge(96, 131).
edge(28, 93).
edge(43, 111).
edge(34, 78).
edge(38, 140).
edge(76, 82).
edge(18, 48).
edge(69, 105).
edge(83, 105).
edge(120, 137).
edge(0, 123).
edge(18, 122).
edge(8, 39).
edge(64, 102).
edge(7, 35).
edge(33, 85).
edge(42, 108).
edge(106, 122).
edge(86, 119).
edge(67, 74).
edge(1, 20).
edge(45, 116).
edge(82, 108).
edge(34, 133).
edge(82, 113).
edge(23, 103).
edge(45, 92).
edge(12, 89).
edge(12, 62).
edge(46, 62).
edge(27, 81).
edge(119, 131).
edge(31, 72).
edge(10, 110).
edge(42, 102).
edge(38, 96).
edge(8, 137).
edge(31, 148).
edge(28, 101).
edge(7, 50).
edge(92, 133).
edge(39, 81).
edge(72, 116).
edge(20, 107).
edge(50, 93).
edge(17, 121).
edge(63, 118).
edge(27, 101).
edge(61, 124).
edge(18, 119).
edge(94, 130).
edge(61, 92).
edge(25, 103).
edge(87, 103).
edge(8, 101).
edge(110, 131).
edge(28, 130).
edge(115, 146).
edge(16, 131).
edge(51, 100).
edge(49, 106).
edge(77, 118).
edge(72, 104).
edge(85, 106).
edge(92, 108).
edge(40, 88).
edge(97, 139).
edge(19, 114).
edge(75, 141).
edge(39, 70).
edge(73, 136).
edge(29, 71).
edge(50, 142).
edge(54, 58).
edge(4, 130).
edge(76, 97).
edge(79, 108).
edge(98, 144).
edge(102, 135).
edge(78, 101).
edge(77, 121).
edge(23, 73).
edge(18, 82).
edge(36, 80).
edge(96, 141).
edge(0, 67).
edge(25, 144).
edge(108, 129).
edge(29, 75).
edge(109, 112).
edge(37, 60).
edge(8, 114).
edge(35, 63).
edge(12, 40).
edge(37, 107).
edge(64, 104).
edge(17, 111).
edge(6, 112).
edge(3, 126).
edge(102, 142).
edge(19, 61).
edge(35, 96).
edge(20, 96).
edge(9, 113).
edge(52, 76).
edge(38, 134).
edge(98, 107).
edge(39, 60).
edge(12, 77).
edge(25, 56).
edge(120, 140).
edge(61, 143).
edge(78, 85).
edge(113, 118).
edge(84, 107).
edge(110, 128).
edge(15, 41).
edge(8, 142).
edge(21, 84).
edge(35, 69).
edge(68, 119).
edge(42, 144).
edge(35, 61).
edge(9, 30).
edge(11, 147).
edge(14, 47).
edge(8, 14).
edge(28, 72).
edge(17, 145).
edge(11, 138).
edge(44, 82).
edge(60, 84).
edge(35, 148).
edge(37, 126).
edge(2, 60).
edge(17, 28).
edge(49, 92).
edge(59, 146).
edge(25, 62).
edge(24, 105).
edge(114, 118).
edge(42, 107).
edge(3, 47).
edge(22, 93).
edge(31, 110).
edge(41, 91).
edge(17, 144).
edge(21, 116).
edge(70, 103).
edge(101, 148).
edge(24, 119).
edge(31, 142).
edge(28, 128).
edge(40, 93).
edge(5, 70).
edge(85, 91).
edge(26, 81).
edge(23, 71).
edge(72, 95).
edge(55, 98).
edge(61, 93).
edge(3, 42).
edge(5, 69).
edge(33, 73).
edge(30, 74).
edge(77, 136).
edge(118, 147).
edge(31, 130).
edge(71, 127).
edge(78, 131).
edge(89, 97).
edge(57, 143).
edge(87, 110).
edge(3, 145).
edge(108, 148).
edge(118, 133).
edge(0, 32).
edge(127, 145).
edge(66, 122).
edge(43, 98).
edge(93, 118).
edge(31, 33).
edge(47, 92).
edge(52, 115).
edge(12, 28).
edge(68, 86).
edge(41, 112).
edge(0, 17).
edge(47, 59).
edge(89, 123).
edge(40, 100).
edge(61, 120).
edge(99, 143).
edge(5, 129).
edge(36, 139).
edge(38, 131).
edge(89, 94).
edge(124, 146).
edge(7, 10).
edge(110, 127).
edge(4, 80).
edge(118, 134).
edge(108, 131).
edge(18, 131).
edge(58, 106).
edge(5, 143).
edge(45, 113).
edge(29, 32).
edge(63, 124).
edge(40, 101).
edge(32, 123).
edge(44, 92).
edge(22, 70).
edge(10, 66).
edge(16, 79).
edge(42, 54).
edge(13, 127).
edge(14, 87).
edge(53, 144).
edge(21, 99).
edge(1, 85).
edge(77, 110).
edge(72, 110).
edge(59, 119).
edge(74, 107).
edge(5, 108).
edge(48, 107).
edge(62, 122).
edge(0, 101).
edge(75, 114).
edge(22, 101).
edge(21, 87).
edge(19, 75).
edge(18, 143).
edge(14, 133).
edge(75, 130).
edge(16, 78).
edge(42, 111).
edge(29, 122).
edge(69, 94).
edge(20, 136).
edge(15, 16).
edge(61, 80).
edge(94, 143).
edge(53, 69).
edge(11, 99).
edge(48, 118).
edge(5, 140).
edge(12, 148).
edge(127, 130).
edge(82, 109).
edge(26, 58).
edge(21, 106).
edge(136, 146).
edge(69, 72).
edge(15, 90).
edge(0, 133).
edge(55, 121).
edge(37, 135).
edge(39, 95).
edge(65, 81).
edge(12, 113).
edge(95, 120).
edge(6, 113).
edge(5, 24).
edge(0, 113).
edge(35, 92).
edge(63, 105).
edge(110, 137).
edge(121, 138).
edge(61, 104).
edge(34, 88).
edge(40, 80).
edge(11, 54).
edge(82, 101).
edge(44, 62).
edge(51, 134).
edge(131, 139).
edge(107, 115).
edge(85, 126).
edge(9, 35).
edge(42, 135).
edge(100, 135).
edge(132, 135).
edge(104, 142).
edge(20, 145).
edge(3, 118).
edge(7, 63).
edge(29, 53).
edge(74, 139).
edge(99, 110).
edge(3, 5).
edge(44, 52).
edge(75, 86).
edge(41, 71).
edge(116, 118).
edge(26, 29).
edge(113, 146).
edge(39, 110).
edge(80, 139).
edge(101, 115).
edge(9, 100).
edge(12, 58).
edge(117, 142).
edge(19, 147).
edge(58, 138).
edge(21, 142).
edge(25, 81).
edge(86, 110).
edge(5, 126).
edge(59, 71).
edge(56, 137).
edge(13, 20).
edge(31, 79).
edge(34, 72).
edge(91, 106).
edge(64, 129).
edge(20, 50).
edge(78, 80).
edge(52, 139).
edge(65, 111).
edge(30, 71).
edge(50, 70).
edge(33, 41).
edge(9, 121).
edge(31, 134).
edge(18, 118).
edge(7, 65).
edge(8, 97).
edge(73, 82).
edge(5, 51).
edge(23, 106).
edge(55, 148).
edge(24, 59).
edge(8, 75).
edge(45, 77).
edge(8, 88).
edge(121, 129).
edge(35, 102).
edge(76, 138).
edge(42, 82).
edge(85, 122).
edge(15, 26).
edge(110, 142).
edge(47, 145).
edge(34, 85).
edge(13, 23).
edge(22, 67).
edge(12, 119).
edge(18, 65).
edge(30, 116).
edge(50, 116).
edge(87, 148).
edge(75, 138).
edge(94, 122).
edge(16, 74).
edge(119, 146).
edge(32, 141).
edge(59, 88).
edge(17, 41).
edge(88, 103).
edge(78, 146).
edge(14, 40).
edge(70, 97).
edge(82, 102).
edge(10, 16).
edge(17, 54).
edge(64, 138).
edge(50, 77).
edge(98, 111).
edge(49, 147).
edge(12, 88).
edge(12, 33).
edge(110, 124).
edge(35, 117).
edge(10, 122).
edge(29, 80).
edge(41, 126).
edge(14, 51).
edge(45, 128).
edge(5, 132).
edge(27, 28).
edge(10, 58).
edge(93, 103).
edge(2, 140).
edge(32, 92).
edge(88, 113).
edge(43, 58).
edge(86, 127).
edge(57, 61).
edge(30, 135).
edge(34, 45).
edge(13, 144).
edge(102, 116).
edge(9, 108).
edge(25, 53).
edge(90, 96).
edge(1, 117).
edge(70, 146).
edge(15, 112).
edge(103, 133).
edge(21, 136).
edge(5, 93).
edge(33, 75).
edge(6, 29).
edge(109, 134).
edge(90, 93).
edge(85, 145).
edge(84, 104).
edge(51, 111).
edge(2, 90).
edge(74, 79).
edge(19, 33).
edge(33, 128).
edge(5, 55).
edge(84, 111).
edge(61, 133).
edge(15, 25).
edge(17, 46).
edge(112, 125).
edge(78, 123).
edge(57, 60).
edge(34, 145).
edge(121, 130).
edge(63, 111).
edge(5, 44).
edge(43, 106).
edge(33, 126).
edge(22, 92).
edge(63, 69).
edge(80, 119).
edge(91, 104).
edge(36, 108).
edge(76, 107).
edge(16, 67).
edge(28, 74).
edge(38, 62).
edge(30, 109).
edge(66, 117).
edge(3, 28).
edge(3, 80).
edge(100, 127).
edge(57, 69).
edge(89, 113).
edge(134, 141).
edge(94, 96).
edge(0, 99).
edge(59, 112).
edge(96, 102).
edge(95, 147).
edge(10, 107).
edge(35, 119).
edge(78, 83).
edge(15, 19).
edge(43, 108).
edge(78, 133).
edge(20, 23).
edge(9, 19).
edge(5, 91).
edge(63, 101).
edge(105, 129).
edge(44, 148).
edge(32, 104).
edge(1, 6).
edge(92, 134).
edge(53, 110).
edge(98, 115).
edge(11, 38).
edge(121, 145).
edge(94, 148).
edge(97, 105).
edge(14, 141).
edge(18, 53).
edge(42, 80).
edge(31, 111).
edge(15, 97).
edge(75, 116).
edge(80, 81).
edge(23, 94).
edge(43, 45).
edge(87, 132).
edge(26, 94).
edge(131, 133).
edge(17, 50).
edge(7, 49).
edge(52, 80).
edge(20, 72).
edge(35, 143).
edge(45, 112).
edge(68, 82).
edge(13, 29).
edge(14, 34).
edge(107, 146).
edge(22, 90).
edge(24, 122).
edge(59, 134).
edge(31, 92).
edge(86, 118).
edge(56, 127).
edge(73, 146).
edge(11, 108).
edge(7, 112).
edge(59, 111).
edge(27, 131).
edge(48, 70).
edge(47, 61).
edge(48, 142).
edge(42, 132).
edge(30, 108).
edge(34, 129).
edge(31, 77).
edge(81, 85).
edge(49, 126).
edge(47, 53).
edge(122, 135).
edge(94, 124).
edge(78, 113).
edge(22, 27).
edge(25, 128).
edge(37, 110).
edge(14, 78).
edge(27, 105).
edge(100, 113).
edge(0, 39).
edge(79, 82).
edge(94, 125).
edge(60, 88).
edge(105, 117).
edge(54, 141).
edge(1, 139).
edge(29, 135).
edge(1, 113).
edge(18, 31).
edge(58, 65).
edge(56, 141).
edge(114, 129).
edge(45, 68).
edge(15, 70).
edge(113, 125).
edge(16, 32).
edge(55, 85).
edge(116, 117).
edge(37, 146).
edge(136, 147).
edge(5, 78).
edge(35, 47).
edge(75, 144).
edge(48, 68).
edge(131, 138).
edge(24, 52).
edge(39, 49).
edge(83, 132).
edge(14, 82).
edge(50, 119).
edge(41, 81).
edge(82, 143).
edge(65, 108).
edge(16, 123).
edge(57, 125).
edge(92, 139).
edge(23, 137).
edge(76, 113).
edge(8, 83).
edge(56, 108).
edge(46, 86).
edge(42, 127).
edge(20, 98).
edge(108, 122).
edge(82, 132).
edge(6, 81).
edge(20, 142).
edge(16, 53).
edge(75, 148).
edge(0, 48).
edge(61, 74).
edge(1, 54).
edge(68, 121).
edge(135, 141).
edge(102, 113).
edge(51, 144).
edge(3, 38).
edge(14, 85).
edge(29, 52).
edge(46, 146).
edge(40, 46).
edge(54, 71).
edge(82, 136).
edge(4, 53).
edge(95, 114).
edge(88, 142).
edge(73, 102).
edge(39, 93).
edge(8, 94).
edge(26, 84).
edge(71, 111).
edge(9, 20).
edge(60, 146).
edge(53, 54).
edge(3, 129).
edge(28, 29).
edge(37, 148).
edge(35, 100).
edge(22, 35).
edge(79, 132).
edge(57, 128).
edge(13, 132).
edge(72, 136).
edge(23, 126).
edge(37, 92).
edge(80, 128).
edge(42, 68).
edge(4, 43).
edge(53, 123).
edge(45, 80).
edge(108, 128).
edge(8, 63).
edge(50, 136).
edge(18, 27).
edge(2, 127).
edge(66, 80).
edge(55, 134).
edge(59, 147).
edge(85, 147).
edge(46, 115).
edge(51, 124).
edge(83, 99).
edge(93, 123).
edge(132, 141).
edge(46, 135).
edge(35, 94).
edge(94, 146).
edge(0, 135).
edge(56, 72).
edge(1, 137).
edge(72, 135).
edge(71, 110).
edge(46, 80).
edge(43, 75).
edge(16, 20).
edge(10, 143).
edge(102, 128).
edge(28, 105).
edge(123, 134).
edge(91, 125).
edge(32, 82).
edge(124, 133).
edge(118, 119).
edge(143, 145).
edge(17, 103).
edge(72, 103).
edge(118, 131).
edge(36, 111).
edge(71, 137).
edge(41, 107).
edge(73, 87).
edge(61, 135).
edge(27, 41).
edge(36, 57).
edge(42, 47).
edge(88, 111).
edge(18, 60).
edge(33, 50).
edge(110, 141).
edge(47, 89).
edge(13, 35).
edge(58, 143).
edge(48, 59).
edge(5, 20).
edge(88, 93).
edge(97, 112).
edge(91, 96).
edge(36, 44).
edge(71, 138).
edge(101, 136).
edge(19, 63).
edge(7, 114).
edge(82, 148).
edge(20, 78).
edge(40, 77).
edge(42, 62).
edge(0, 68).
edge(133, 141).
edge(2, 144).
edge(3, 83).
edge(15, 49).
edge(39, 107).
edge(109, 110).
edge(52, 63).
edge(69, 75).
edge(30, 146).
edge(72, 92).
edge(59, 117).
edge(72, 93).
edge(2, 109).
edge(35, 72).
edge(117, 125).
edge(32, 101).
edge(22, 82).
edge(19, 133).
edge(46, 61).
edge(81, 140).
edge(2, 53).
edge(30, 89).
edge(13, 134).
edge(35, 85).
edge(113, 131).
edge(47, 102).
edge(68, 74).
edge(98, 109).
edge(96, 130).
edge(63, 129).
edge(16, 126).
edge(20, 46).
edge(14, 121).
edge(10, 103).
edge(16, 121).
edge(44, 66).
edge(31, 136).
edge(41, 57).
edge(53, 59).
edge(127, 137).
edge(1, 31).
edge(131, 148).
edge(103, 146).
edge(7, 119).
edge(58, 142).
edge(111, 120).
edge(70, 131).
edge(74, 116).
edge(3, 142).
edge(36, 56).
edge(4, 137).
edge(73, 125).
edge(54, 119).
edge(40, 49).
edge(84, 87).
edge(22, 128).
edge(69, 124).
edge(141, 144).
edge(13, 25).
edge(62, 107).
edge(99, 130).
edge(120, 127).
edge(23, 63).
edge(81, 110).
edge(33, 69).
edge(11, 32).
edge(6, 21).
edge(34, 111).
edge(57, 89).
edge(36, 89).
edge(2, 85).
edge(20, 116).
edge(92, 126).
edge(80, 138).
edge(22, 26).
edge(113, 116).
edge(12, 76).
edge(25, 98).
edge(55, 57).
edge(63, 110).
edge(94, 126).
edge(118, 139).
edge(28, 65).
edge(100, 142).
edge(67, 108).
edge(4, 92).
edge(52, 62).
edge(10, 54).
edge(47, 57).
edge(17, 48).
edge(61, 118).
edge(80, 135).
edge(11, 42).
edge(2, 17).
edge(51, 121).
edge(39, 101).
edge(88, 106).
edge(27, 31).
edge(17, 39).
edge(64, 107).
edge(55, 99).
weight(0, 3).
weight(1, 4).
weight(2, 20).
weight(3, 3).
weight(4, 16).
weight(5, 12).
weight(6, 11).
weight(7, 20).
weight(8, 10).
weight(9, 11).
weight(10, 11).
weight(11, 13).
weight(12, 4).
weight(13, 9).
weight(14, 2).
weight(15, 12).
weight(16, 2).
weight(17, 6).
weight(18, 2).
weight(19, 7).
weight(20, 8).
weight(21, 20).
weight(22, 6).
weight(23, 3).
weight(24, 1).
weight(25, 11).
weight(26, 18).
weight(27, 2).
weight(28, 18).
weight(29, 18).
weight(30, 20).
weight(31, 8).
weight(32, 15).
weight(33, 4).
weight(34, 16).
weight(35, 11).
weight(36, 3).
weight(37, 2).
weight(38, 7).
weight(39, 17).
weight(40, 6).
weight(41, 17).
weight(42, 8).
weight(43, 13).
weight(44, 1).
weight(45, 13).
weight(46, 18).
weight(47, 4).
weight(48, 11).
weight(49, 13).
weight(50, 19).
weight(51, 18).
weight(52, 20).
weight(53, 10).
weight(54, 14).
weight(55, 18).
weight(56, 5).
weight(57, 4).
weight(58, 4).
weight(59, 4).
weight(60, 19).
weight(61, 15).
weight(62, 12).
weight(63, 4).
weight(64, 11).
weight(65, 9).
weight(66, 8).
weight(67, 15).
weight(68, 20).
weight(69, 3).
weight(70, 16).
weight(71, 2).
weight(72, 15).
weight(73, 18).
weight(74, 10).
weight(75, 17).
weight(76, 18).
weight(77, 15).
weight(78, 10).
weight(79, 9).
weight(80, 6).
weight(81, 15).
weight(82, 15).
weight(83, 20).
weight(84, 18).
weight(85, 4).
weight(86, 7).
weight(87, 2).
weight(88, 10).
weight(89, 19).
weight(90, 18).
weight(91, 18).
weight(92, 5).
weight(93, 20).
weight(94, 4).
weight(95, 18).
weight(96, 16).
weight(97, 8).
weight(98, 8).
weight(99, 10).
weight(100, 14).
weight(101, 19).
weight(102, 15).
weight(103, 12).
weight(104, 20).
weight(105, 7).
weight(106, 19).
weight(107, 18).
weight(108, 2).
weight(109, 17).
weight(110, 6).
weight(111, 20).
weight(112, 19).
weight(113, 18).
weight(114, 19).
weight(115, 7).
weight(116, 6).
weight(117, 11).
weight(118, 1).
weight(119, 2).
weight(120, 7).
weight(121, 18).
weight(122, 20).
weight(123, 14).
weight(124, 8).
weight(125, 7).
weight(126, 14).
weight(127, 15).
weight(128, 20).
weight(129, 11).
weight(130, 2).
weight(131, 1).
weight(132, 12).
weight(133, 18).
weight(134, 5).
weight(135, 20).
weight(136, 14).
weight(137, 8).
weight(138, 16).
weight(139, 2).
weight(140, 13).
weight(141, 19).
weight(142, 6).
weight(143, 1).
weight(144, 12).
weight(145, 4).
weight(146, 5).
weight(147, 15).
weight(148, 16).

{in(V)} :- node(V).
:- in(U), in(V), U < V, not edge(U,V).
:~ not in(V), weight(V,W). [W@1,V]
