node(0..165).
edge(29, 161).
edge(122, 156).
edge(44, 91).
edge(19, 94).
edge(61, 145).
edge(73, 92).
edge(61, 144).
edge(67, 122).
edge(39, 60).
edge(54, 134).
edge(88, 112).
edge(11, 60).
edge(97, 161).
edge(54, 126).
edge(131, 134).
edge(129, 163).
edge(33, 114).
edge(46, 135).
edge(9, 68).
edge(16, 145).
edge(73, 74).
edge(4, 114).
edge(103, 154).
edge(105, 115).
edge(100, 132).
edge(8, 85).
edge(47, 143).
edge(54, 157).
edge(66, 164).
edge(7, 40).
edge(131, 151).
edge(61, 152).
edge(57, 108).
edge(6, 104).
edge(51, 66).
edge(11, 162).
edge(47, 64).
edge(104, 116).
edge(2, 101).
edge(4, 130).
edge(63, 162).
edge(42, 72).
edge(107, 148).
edge(48, 80).
edge(57, 59).
edge(6, 59).
edge(69, 160).
edge(3, 157).
edge(122, 137).
edge(60, 93).
edge(72, 96).
edge(110, 142).
edge(117, 128).
edge(69, 137).
edge(5, 56).
edge(13, 51).
edge(31, 39).
edge(113, 116).
edge(50, 125).
edge(78, 141).
edge(117, 137).
edge(81, 163).
edge(138, 145).
edge(7, 148).
edge(39, 73).
edge(23, 43).
edge(61, 82).
edge(5, 143).
edge(54, 68).
edge(58, 60).
edge(126, 130).
edge(53, 99).
edge(110, 118).
edge(49, 122).
edge(19, 143).
edge(108, 112).
edge(15, 134).
edge(133, 147).
edge(38, 40).
edge(94, 113).
edge(40, 66).
edge(55, 139).
edge(66, 149).
edge(65, 89).
edge(62, 99).
edge(26, 102).
edge(43, 128).
edge(96, 121).
edge(36, 107).
edge(13, 65).
edge(39, 93).
edge(13, 40).
edge(14, 163).
edge(9, 69).
edge(14, 150).
edge(68, 76).
edge(35, 154).
edge(3, 130).
edge(17, 80).
edge(56, 149).
edge(55, 104).
edge(20, 51).
edge(53, 83).
edge(66, 116).
edge(101, 152).
edge(101, 138).
edge(111, 164).
edge(40, 67).
edge(60, 90).
edge(69, 121).
edge(75, 156).
edge(59, 132).
edge(60, 137).
edge(26, 83).
edge(75, 102).
edge(5, 164).
edge(0, 115).
edge(30, 66).
edge(55, 160).
edge(21, 22).
edge(34, 153).
edge(13, 70).
edge(90, 159).
edge(106, 164).
edge(50, 116).
edge(32, 135).
edge(117, 146).
edge(37, 46).
edge(135, 159).
edge(80, 128).
edge(84, 89).
edge(160, 161).
edge(50, 74).
edge(132, 151).
edge(73, 107).
edge(30, 47).
edge(123, 125).
edge(41, 115).
edge(35, 116).
edge(42, 105).
edge(151, 165).
edge(20, 49).
edge(57, 71).
edge(38, 150).
edge(35, 37).
edge(66, 120).
edge(85, 121).
edge(99, 125).
edge(5, 133).
edge(103, 118).
edge(7, 86).
edge(29, 140).
edge(51, 160).
edge(58, 122).
edge(37, 94).
edge(26, 54).
edge(18, 101).
edge(70, 135).
edge(109, 119).
edge(54, 152).
edge(28, 102).
edge(37, 128).
edge(73, 161).
edge(63, 65).
edge(90, 93).
edge(75, 132).
edge(20, 114).
edge(10, 86).
edge(88, 125).
edge(86, 135).
edge(69, 78).
edge(48, 49).
edge(3, 6).
edge(16, 39).
edge(67, 100).
edge(53, 57).
edge(87, 95).
edge(34, 109).
edge(15, 104).
edge(140, 141).
edge(13, 91).
edge(32, 68).
edge(51, 139).
edge(81, 150).
edge(19, 40).
edge(114, 155).
edge(93, 142).
edge(7, 31).
edge(15, 161).
edge(84, 86).
edge(37, 145).
edge(49, 79).
edge(20, 77).
edge(127, 156).
edge(11, 136).
edge(52, 78).
edge(9, 44).
edge(12, 24).
edge(0, 125).
edge(132, 156).
edge(121, 124).
edge(85, 147).
edge(53, 71).
edge(108, 156).
edge(49, 101).
edge(32, 155).
edge(117, 154).
edge(74, 148).
edge(48, 84).
edge(104, 145).
edge(38, 50).
edge(47, 70).
edge(62, 94).
edge(21, 149).
edge(117, 133).
edge(25, 93).
edge(15, 55).
edge(16, 81).
edge(70, 150).
edge(111, 128).
edge(74, 86).
edge(47, 87).
edge(23, 111).
edge(62, 84).
edge(18, 43).
edge(22, 54).
edge(50, 156).
edge(60, 136).
edge(111, 155).
edge(34, 115).
edge(4, 98).
edge(16, 153).
edge(82, 135).
edge(6, 117).
edge(50, 155).
edge(86, 142).
edge(50, 86).
edge(2, 33).
edge(59, 144).
edge(59, 76).
edge(19, 52).
edge(2, 70).
edge(117, 149).
edge(94, 108).
edge(29, 77).
edge(68, 163).
edge(97, 116).
edge(16, 133).
edge(66, 89).
edge(75, 105).
edge(32, 92).
edge(77, 88).
edge(57, 91).
edge(116, 161).
edge(76, 133).
edge(15, 56).
edge(71, 83).
edge(95, 148).
edge(34, 75).
edge(94, 161).
edge(34, 148).
edge(2, 60).
edge(21, 82).
edge(19, 125).
edge(11, 61).
edge(60, 125).
edge(55, 144).
edge(54, 151).
edge(15, 130).
edge(14, 146).
edge(96, 119).
edge(62, 127).
edge(120, 146).
edge(3, 8).
edge(80, 134).
edge(29, 53).
edge(13, 114).
edge(1, 24).
edge(56, 119).
edge(4, 52).
edge(74, 140).
edge(53, 95).
edge(3, 89).
edge(4, 86).
edge(42, 125).
edge(29, 131).
edge(18, 24).
edge(51, 88).
edge(104, 135).
edge(4, 42).
edge(12, 121).
edge(135, 161).
edge(27, 153).
edge(53, 96).
edge(29, 96).
edge(147, 152).
edge(54, 98).
edge(112, 158).
edge(19, 47).
edge(115, 146).
edge(79, 128).
edge(122, 129).
edge(82, 116).
edge(77, 122).
edge(14, 132).
edge(28, 115).
edge(134, 135).
edge(96, 144).
edge(112, 142).
edge(56, 152).
edge(78, 105).
edge(105, 126).
edge(3, 21).
edge(4, 16).
edge(24, 151).
edge(86, 95).
edge(5, 78).
edge(43, 164).
edge(26, 130).
edge(24, 156).
edge(93, 164).
edge(5, 31).
edge(106, 117).
edge(31, 144).
edge(67, 159).
edge(122, 146).
edge(85, 103).
edge(30, 156).
edge(2, 54).
edge(8, 22).
edge(65, 155).
edge(46, 159).
edge(92, 143).
edge(50, 153).
edge(6, 30).
edge(92, 97).
edge(5, 6).
edge(6, 160).
edge(8, 44).
edge(52, 150).
edge(9, 161).
edge(21, 57).
edge(82, 112).
edge(25, 33).
edge(61, 73).
edge(48, 76).
edge(55, 135).
edge(123, 141).
edge(33, 98).
edge(21, 33).
edge(12, 113).
edge(20, 30).
edge(15, 135).
edge(80, 105).
edge(35, 80).
edge(39, 62).
edge(26, 138).
edge(16, 33).
edge(64, 117).
edge(55, 96).
edge(82, 127).
edge(30, 88).
edge(47, 72).
edge(139, 146).
edge(35, 60).
edge(48, 88).
edge(76, 158).
edge(129, 164).
edge(65, 73).
edge(84, 111).
edge(68, 113).
edge(111, 131).
edge(8, 108).
edge(47, 52).
edge(65, 103).
edge(1, 71).
edge(140, 165).
edge(158, 164).
edge(23, 135).
edge(147, 154).
edge(2, 116).
edge(12, 161).
edge(20, 149).
edge(26, 66).
edge(5, 159).
edge(79, 125).
edge(97, 137).
edge(33, 112).
edge(47, 150).
edge(41, 114).
edge(47, 164).
edge(11, 137).
edge(2, 94).
edge(122, 162).
edge(48, 113).
edge(78, 142).
edge(30, 102).
edge(37, 137).
edge(37, 68).
edge(19, 73).
edge(5, 20).
edge(23, 150).
edge(98, 144).
edge(57, 96).
edge(125, 144).
edge(62, 119).
edge(5, 22).
edge(36, 109).
edge(116, 154).
edge(152, 153).
edge(12, 110).
edge(82, 148).
edge(159, 161).
edge(87, 110).
edge(59, 159).
edge(7, 84).
edge(9, 117).
edge(34, 165).
edge(153, 159).
edge(2, 100).
edge(58, 128).
edge(18, 104).
edge(132, 137).
edge(4, 158).
edge(29, 98).
edge(113, 164).
edge(19, 76).
edge(31, 94).
edge(62, 112).
edge(35, 111).
edge(17, 142).
edge(81, 106).
edge(67, 130).
edge(14, 111).
edge(42, 106).
edge(37, 92).
edge(123, 153).
edge(69, 117).
edge(141, 159).
edge(123, 165).
edge(92, 126).
edge(26, 47).
edge(27, 76).
edge(138, 163).
edge(134, 142).
edge(39, 71).
edge(26, 35).
edge(92, 148).
edge(30, 135).
edge(80, 132).
edge(42, 67).
edge(76, 124).
edge(21, 97).
edge(86, 119).
edge(54, 144).
edge(5, 55).
edge(10, 31).
edge(72, 99).
edge(39, 82).
edge(59, 85).
edge(15, 126).
edge(0, 153).
edge(102, 116).
edge(11, 116).
edge(125, 160).
edge(18, 161).
edge(99, 160).
edge(119, 160).
edge(107, 140).
edge(10, 85).
edge(114, 128).
edge(11, 138).
edge(119, 136).
edge(33, 59).
edge(9, 65).
edge(41, 130).
edge(18, 85).
edge(81, 123).
edge(0, 128).
edge(146, 156).
edge(122, 155).
edge(8, 57).
edge(38, 126).
edge(11, 26).
edge(55, 67).
edge(18, 93).
edge(95, 153).
edge(25, 117).
edge(51, 116).
edge(50, 118).
edge(52, 120).
edge(18, 121).
edge(11, 44).
edge(138, 157).
edge(56, 61).
edge(66, 115).
edge(86, 110).
edge(72, 87).
edge(53, 73).
edge(67, 112).
edge(62, 92).
edge(69, 94).
edge(106, 149).
edge(82, 92).
edge(41, 87).
edge(38, 131).
edge(93, 154).
edge(54, 79).
edge(53, 140).
edge(24, 68).
edge(44, 109).
edge(49, 110).
edge(37, 157).
edge(2, 153).
edge(41, 71).
edge(43, 100).
edge(84, 95).
edge(68, 79).
edge(55, 86).
edge(84, 128).
edge(103, 156).
edge(16, 117).
edge(19, 51).
edge(118, 164).
edge(110, 148).
edge(120, 138).
edge(5, 7).
edge(68, 150).
edge(12, 160).
edge(117, 148).
edge(4, 84).
edge(106, 151).
edge(26, 163).
edge(43, 98).
edge(47, 123).
edge(103, 163).
edge(15, 88).
edge(68, 114).
edge(158, 161).
edge(91, 99).
edge(88, 152).
edge(31, 132).
edge(132, 134).
edge(26, 87).
edge(42, 90).
edge(107, 133).
edge(135, 148).
edge(62, 160).
edge(23, 24).
edge(117, 120).
edge(16, 26).
edge(65, 70).
edge(72, 156).
edge(24, 77).
edge(28, 39).
edge(21, 121).
edge(71, 121).
edge(26, 136).
edge(148, 152).
edge(75, 115).
edge(9, 109).
edge(6, 87).
edge(53, 111).
edge(138, 160).
edge(51, 161).
edge(100, 146).
edge(40, 128).
edge(129, 143).
edge(19, 49).
edge(53, 100).
edge(29, 32).
edge(4, 44).
edge(70, 139).
edge(45, 140).
edge(10, 138).
edge(4, 67).
edge(23, 34).
edge(13, 150).
edge(25, 151).
edge(77, 133).
edge(20, 89).
edge(41, 45).
edge(163, 165).
edge(105, 145).
edge(124, 162).
edge(158, 165).
edge(79, 107).
edge(73, 139).
edge(15, 111).
edge(21, 40).
edge(0, 100).
edge(79, 152).
edge(42, 50).
edge(68, 125).
edge(37, 155).
edge(3, 128).
edge(0, 57).
edge(118, 127).
edge(32, 122).
edge(106, 128).
edge(22, 95).
edge(18, 36).
edge(64, 72).
edge(54, 56).
edge(60, 118).
edge(2, 99).
edge(17, 53).
edge(5, 131).
edge(43, 117).
edge(54, 106).
edge(112, 136).
edge(29, 107).
edge(71, 94).
edge(7, 25).
edge(5, 127).
edge(111, 115).
edge(95, 100).
edge(34, 157).
edge(63, 135).
edge(68, 124).
edge(53, 130).
edge(20, 99).
edge(44, 70).
edge(121, 152).
edge(66, 110).
edge(67, 77).
edge(49, 118).
edge(0, 37).
edge(81, 138).
edge(67, 114).
edge(17, 43).
edge(50, 75).
edge(87, 141).
edge(22, 65).
edge(87, 150).
edge(60, 123).
edge(1, 28).
edge(2, 86).
edge(60, 122).
edge(48, 161).
edge(47, 50).
edge(126, 164).
edge(71, 123).
edge(140, 153).
edge(25, 86).
edge(128, 129).
edge(12, 145).
edge(8, 83).
edge(5, 62).
edge(2, 6).
edge(34, 123).
edge(89, 92).
edge(7, 90).
edge(86, 144).
edge(19, 165).
edge(76, 148).
edge(108, 115).
edge(75, 144).
edge(48, 153).
edge(124, 135).
edge(61, 98).
edge(0, 18).
edge(20, 31).
edge(85, 97).
edge(58, 153).
edge(107, 125).
edge(39, 91).
edge(20, 62).
edge(29, 143).
edge(37, 61).
edge(4, 124).
edge(68, 139).
edge(36, 94).
edge(55, 112).
edge(79, 142).
edge(77, 132).
edge(94, 101).
edge(26, 42).
edge(66, 137).
edge(89, 154).
edge(60, 92).
edge(21, 146).
edge(10, 40).
edge(82, 156).
edge(156, 162).
edge(14, 141).
edge(19, 27).
edge(27, 116).
edge(44, 159).
edge(44, 56).
edge(110, 125).
edge(13, 113).
edge(147, 149).
edge(133, 136).
edge(15, 70).
edge(8, 65).
edge(8, 116).
edge(84, 119).
edge(28, 105).
edge(26, 119).
edge(29, 59).
edge(54, 122).
edge(27, 139).
edge(11, 93).
edge(47, 134).
edge(31, 92).
edge(99, 150).
edge(19, 35).
edge(9, 20).
edge(12, 30).
edge(37, 121).
edge(4, 53).
edge(64, 75).
edge(120, 161).
edge(13, 61).
edge(104, 112).
edge(91, 107).
edge(139, 161).
edge(6, 80).
edge(85, 154).
edge(103, 104).
edge(56, 90).
edge(88, 92).
edge(27, 65).
edge(69, 132).
edge(111, 151).
edge(19, 36).
edge(91, 143).
edge(12, 123).
edge(94, 119).
edge(128, 153).
edge(71, 101).
edge(57, 118).
edge(6, 54).
edge(121, 127).
edge(147, 162).
edge(117, 135).
edge(29, 112).
edge(132, 161).
edge(107, 113).
edge(91, 164).
edge(60, 161).
edge(115, 147).
edge(71, 128).
edge(87, 119).
edge(23, 53).
edge(83, 85).
edge(27, 79).
edge(93, 97).
edge(15, 96).
edge(43, 118).
edge(63, 88).
edge(139, 153).
edge(131, 145).
edge(35, 105).
edge(43, 120).
edge(115, 162).
edge(11, 74).
edge(2, 23).
edge(67, 137).
edge(4, 85).
edge(126, 149).
edge(58, 114).
edge(125, 147).
edge(61, 136).
edge(22, 156).
edge(89, 146).
edge(80, 127).
edge(30, 98).
edge(107, 134).
edge(136, 138).
edge(52, 136).
edge(88, 140).
edge(26, 57).
edge(112, 140).
edge(34, 79).
edge(77, 149).
edge(89, 123).
edge(56, 121).
edge(19, 98).
edge(118, 139).
edge(77, 97).
edge(32, 46).
edge(12, 38).
edge(73, 160).
edge(7, 122).
edge(53, 136).
edge(64, 66).
edge(78, 100).
edge(18, 152).
edge(87, 106).
edge(5, 124).
edge(8, 80).
edge(15, 64).
edge(115, 158).
edge(11, 40).
edge(43, 114).
edge(62, 115).
edge(36, 111).
edge(32, 113).
edge(24, 161).
edge(48, 120).
edge(50, 140).
edge(66, 91).
edge(89, 144).
edge(1, 110).
edge(96, 100).
edge(35, 164).
edge(86, 137).
edge(41, 52).
edge(74, 138).
edge(82, 142).
edge(43, 51).
edge(140, 154).
edge(116, 148).
edge(93, 138).
edge(36, 69).
edge(23, 63).
edge(134, 144).
edge(11, 12).
edge(20, 113).
edge(36, 164).
edge(38, 87).
edge(41, 64).
edge(66, 134).
edge(36, 132).
edge(134, 146).
edge(111, 117).
edge(135, 160).
edge(28, 159).
edge(111, 134).
edge(41, 150).
edge(29, 65).
edge(53, 148).
edge(123, 124).
edge(42, 142).
edge(91, 120).
edge(21, 36).
edge(37, 55).
edge(80, 133).
edge(42, 113).
edge(55, 76).
edge(68, 147).
edge(11, 152).
edge(23, 97).
edge(5, 128).
edge(31, 81).
edge(9, 142).
edge(121, 160).
edge(82, 145).
edge(37, 132).
edge(61, 84).
edge(2, 103).
edge(76, 154).
edge(8, 52).
edge(36, 89).
edge(126, 131).
edge(15, 62).
edge(81, 145).
edge(109, 117).
edge(90, 110).
edge(56, 99).
edge(57, 145).
edge(126, 154).
edge(46, 94).
edge(2, 48).
edge(2, 107).
edge(0, 11).
edge(78, 145).
edge(48, 109).
edge(90, 155).
edge(21, 137).
edge(109, 152).
edge(128, 140).
edge(97, 130).
edge(37, 64).
edge(2, 161).
edge(136, 140).
edge(7, 38).
edge(52, 125).
edge(42, 132).
edge(48, 51).
edge(91, 111).
edge(68, 118).
edge(147, 160).
edge(45, 94).
edge(44, 73).
edge(68, 154).
edge(34, 66).
edge(39, 164).
edge(53, 80).
edge(28, 144).
edge(7, 74).
edge(73, 88).
edge(23, 118).
edge(10, 70).
edge(1, 127).
edge(91, 123).
edge(49, 103).
edge(112, 165).
edge(1, 142).
edge(79, 159).
edge(59, 78).
edge(62, 106).
edge(89, 157).
edge(74, 96).
edge(102, 155).
edge(57, 164).
edge(58, 139).
edge(71, 111).
edge(33, 73).
edge(73, 125).
edge(5, 89).
edge(99, 162).
edge(136, 158).
edge(43, 127).
edge(26, 118).
edge(14, 65).
edge(57, 134).
edge(58, 67).
edge(74, 83).
edge(54, 113).
edge(98, 136).
edge(78, 153).
edge(49, 128).
edge(38, 85).
edge(12, 109).
edge(22, 79).
edge(91, 128).
edge(1, 153).
edge(6, 22).
edge(101, 107).
edge(90, 157).
edge(36, 43).
edge(61, 92).
edge(35, 106).
edge(32, 50).
edge(11, 15).
edge(24, 113).
edge(79, 158).
edge(64, 70).
edge(76, 83).
edge(91, 118).
edge(12, 33).
edge(112, 145).
edge(29, 42).
edge(100, 102).
edge(70, 129).
edge(65, 85).
edge(50, 120).
edge(58, 123).
edge(59, 127).
edge(34, 155).
edge(118, 134).
edge(60, 97).
edge(157, 165).
edge(126, 146).
edge(13, 77).
edge(26, 143).
edge(18, 40).
edge(31, 41).
edge(32, 37).
edge(24, 39).
edge(4, 140).
edge(114, 130).
edge(58, 130).
edge(16, 52).
edge(22, 81).
edge(131, 159).
edge(76, 120).
edge(138, 140).
edge(73, 155).
edge(18, 69).
edge(77, 79).
edge(8, 12).
edge(136, 162).
edge(28, 95).
edge(93, 122).
edge(127, 138).
edge(63, 141).
edge(2, 140).
edge(5, 83).
edge(23, 54).
edge(25, 114).
edge(70, 91).
edge(17, 136).
edge(155, 163).
edge(5, 33).
edge(32, 71).
edge(44, 74).
edge(122, 123).
edge(49, 156).
edge(104, 158).
edge(1, 128).
edge(142, 151).
edge(9, 73).
edge(137, 157).
edge(105, 106).
edge(23, 160).
edge(57, 124).
edge(52, 114).
edge(112, 141).
edge(35, 165).
edge(7, 60).
edge(107, 112).
edge(42, 122).
edge(51, 164).
edge(45, 165).
edge(89, 125).
edge(52, 70).
edge(58, 158).
edge(106, 143).
edge(10, 11).
edge(113, 152).
edge(28, 57).
edge(78, 156).
edge(48, 78).
edge(1, 84).
edge(16, 112).
edge(7, 51).
edge(78, 127).
edge(17, 112).
edge(142, 159).
edge(9, 83).
edge(80, 108).
edge(97, 127).
edge(65, 160).
edge(56, 143).
edge(12, 163).
edge(126, 142).
edge(98, 133).
edge(87, 143).
edge(132, 150).
edge(59, 128).
edge(25, 162).
edge(23, 58).
edge(88, 118).
edge(10, 76).
edge(99, 137).
edge(52, 111).
edge(4, 72).
edge(54, 114).
edge(102, 117).
edge(60, 130).
edge(90, 134).
edge(91, 129).
edge(77, 123).
edge(143, 161).
edge(39, 111).
edge(26, 126).
edge(93, 123).
edge(80, 130).
edge(19, 160).
edge(12, 37).
edge(54, 115).
edge(69, 144).
edge(62, 144).
edge(73, 124).
edge(43, 94).
edge(14, 118).
edge(108, 151).
edge(42, 58).
edge(26, 123).
edge(34, 63).
edge(71, 117).
edge(98, 104).
edge(70, 79).
edge(121, 144).
edge(23, 91).
edge(4, 25).
edge(46, 163).
edge(31, 100).
edge(10, 38).
edge(18, 135).
edge(113, 131).
edge(85, 144).
edge(3, 85).
edge(106, 161).
edge(20, 21).
edge(118, 162).
edge(34, 92).
edge(72, 121).
edge(10, 55).
edge(45, 141).
edge(97, 145).
edge(8, 25).
edge(35, 89).
edge(55, 147).
edge(72, 138).
edge(9, 30).
edge(13, 147).
edge(78, 102).
edge(105, 130).
edge(137, 154).
edge(20, 68).
edge(59, 62).
edge(92, 150).
edge(0, 161).
edge(39, 86).
edge(38, 102).
edge(6, 148).
edge(4, 33).
edge(5, 23).
edge(50, 102).
edge(87, 92).
edge(45, 71).
edge(20, 27).
edge(74, 98).
edge(84, 165).
edge(0, 131).
edge(79, 111).
edge(31, 34).
edge(30, 99).
edge(159, 160).
edge(9, 77).
edge(57, 112).
edge(85, 150).
edge(86, 160).
edge(3, 37).
edge(2, 105).
edge(111, 116).
edge(0, 42).
edge(42, 116).
edge(114, 118).
edge(10, 149).
edge(86, 154).
edge(46, 47).
edge(28, 158).
edge(36, 97).
edge(56, 113).
edge(25, 148).
edge(83, 92).
edge(52, 98).
edge(54, 105).
edge(94, 96).
edge(56, 110).
edge(56, 57).
edge(103, 106).
edge(21, 142).
edge(4, 97).
edge(45, 109).
edge(48, 82).
edge(85, 133).
edge(44, 77).
edge(25, 58).
edge(70, 113).
edge(14, 138).
edge(48, 142).
edge(16, 19).
edge(4, 48).
edge(13, 82).
edge(49, 159).
edge(70, 74).
edge(143, 146).
edge(51, 106).
edge(47, 124).
edge(26, 150).
edge(28, 37).
edge(58, 74).
edge(133, 143).
edge(143, 150).
edge(12, 153).
edge(46, 131).
edge(137, 155).
edge(3, 145).
edge(105, 164).
edge(40, 73).
edge(90, 117).
edge(32, 132).
edge(66, 142).
edge(107, 119).
edge(38, 67).
edge(27, 155).
edge(4, 122).
edge(15, 105).
edge(78, 125).
edge(2, 148).
edge(141, 152).
edge(71, 130).
edge(44, 146).
edge(37, 81).
edge(118, 154).
edge(56, 96).
edge(32, 141).
edge(6, 42).
edge(60, 63).
edge(30, 128).
edge(45, 55).
edge(65, 81).
edge(121, 126).
edge(94, 137).
edge(11, 78).
edge(37, 148).
edge(62, 147).
edge(122, 153).
edge(120, 137).
edge(90, 165).
edge(115, 126).
edge(41, 84).
edge(24, 42).
edge(41, 143).
edge(35, 57).
edge(73, 85).
edge(14, 71).
edge(48, 54).
edge(91, 160).
edge(48, 56).
edge(107, 121).
edge(136, 141).
edge(134, 148).
edge(11, 20).
edge(35, 64).
edge(86, 155).
edge(45, 139).
edge(80, 102).
edge(105, 144).
edge(66, 108).
edge(133, 141).
edge(13, 33).
edge(56, 108).
edge(41, 83).
edge(107, 123).
edge(38, 116).
edge(111, 138).
edge(33, 95).
edge(12, 64).
edge(30, 160).
edge(14, 134).
edge(52, 53).
edge(71, 78).
edge(27, 110).
edge(38, 98).
edge(132, 143).
edge(76, 89).
edge(56, 145).
edge(137, 143).
edge(38, 125).
edge(102, 161).
edge(62, 151).
edge(95, 150).
edge(112, 152).
edge(11, 38).
edge(4, 31).
edge(69, 70).
edge(60, 95).
edge(97, 99).
edge(137, 164).
edge(41, 139).
edge(87, 94).
edge(74, 80).
edge(25, 87).
edge(69, 140).
edge(15, 46).
edge(17, 48).
edge(41, 165).
edge(101, 125).
edge(121, 150).
edge(29, 43).
edge(95, 161).
edge(55, 153).
edge(134, 160).
edge(46, 80).
edge(37, 100).
edge(7, 37).
edge(29, 152).
edge(13, 19).
edge(74, 91).
edge(4, 15).
edge(62, 121).
edge(34, 130).
edge(74, 133).
edge(98, 149).
edge(74, 152).
edge(28, 78).
edge(121, 136).
edge(61, 80).
edge(28, 101).
edge(3, 4).
edge(108, 124).
edge(113, 141).
edge(75, 119).
edge(1, 141).
edge(41, 86).
edge(50, 97).
edge(51, 149).
edge(38, 139).
edge(128, 139).
edge(36, 48).
edge(47, 101).
edge(4, 100).
edge(7, 57).
edge(93, 147).
edge(95, 141).
edge(22, 25).
edge(32, 96).
edge(44, 148).
edge(3, 22).
edge(69, 130).
edge(46, 85).
edge(16, 114).
edge(24, 123).
edge(95, 149).
edge(13, 55).
edge(34, 68).
edge(17, 125).
edge(29, 58).
edge(128, 138).
edge(70, 133).
edge(59, 115).
edge(25, 111).
edge(43, 161).
edge(38, 105).
edge(92, 118).
edge(16, 111).
edge(83, 103).
edge(39, 113).
edge(148, 150).
edge(60, 152).
edge(23, 136).
edge(71, 150).
edge(76, 109).
edge(70, 130).
edge(20, 74).
edge(45, 48).
edge(39, 127).
edge(23, 70).
edge(59, 100).
edge(34, 100).
edge(23, 151).
edge(10, 144).
edge(85, 155).
edge(94, 143).
edge(47, 76).
edge(24, 110).
edge(53, 64).
edge(49, 89).
edge(41, 48).
edge(38, 93).
edge(7, 141).
edge(81, 90).
edge(25, 94).
edge(96, 122).
edge(58, 149).
edge(38, 127).
edge(109, 123).
edge(52, 163).
edge(21, 126).
edge(103, 161).
edge(2, 149).
edge(48, 158).
edge(81, 154).
edge(22, 130).
edge(61, 109).
edge(97, 106).
edge(123, 156).
edge(56, 130).
edge(38, 151).
edge(6, 40).
edge(4, 150).
edge(16, 129).
edge(149, 160).
edge(4, 49).
edge(53, 113).
edge(13, 45).
edge(104, 163).
edge(92, 117).
edge(7, 12).
edge(73, 99).
edge(88, 105).
edge(62, 91).
edge(111, 148).
edge(42, 133).
edge(28, 93).
edge(18, 26).
edge(59, 72).
edge(60, 111).
edge(4, 107).
edge(16, 157).
edge(107, 110).
edge(12, 128).
edge(73, 112).
edge(52, 124).
edge(68, 97).
edge(54, 139).
edge(3, 75).
edge(20, 141).
edge(50, 110).
edge(19, 25).
edge(47, 53).
edge(87, 140).
edge(4, 119).
edge(113, 146).
edge(62, 64).
edge(71, 131).
edge(142, 143).
edge(32, 126).
edge(3, 74).
edge(59, 117).
edge(49, 106).
edge(91, 104).
edge(20, 137).
edge(52, 66).
edge(97, 105).
edge(138, 143).
edge(59, 67).
edge(62, 69).
edge(32, 150).
edge(67, 103).
edge(54, 87).
edge(61, 86).
edge(36, 68).
edge(48, 117).
edge(57, 132).
edge(7, 139).
edge(78, 130).
edge(1, 42).
edge(14, 29).
edge(8, 15).
edge(40, 79).
edge(18, 148).
edge(19, 116).
edge(10, 119).
edge(36, 71).
edge(11, 101).
edge(26, 44).
edge(91, 151).
edge(13, 23).
edge(41, 58).
edge(44, 156).
edge(108, 147).
edge(88, 148).
edge(47, 79).
edge(8, 142).
edge(49, 115).
edge(5, 36).
edge(78, 103).
edge(28, 83).
edge(13, 158).
edge(30, 165).
edge(150, 158).
edge(8, 92).
edge(56, 75).
edge(88, 161).
edge(46, 143).
edge(40, 122).
edge(11, 47).
edge(108, 165).
edge(21, 132).
edge(24, 121).
edge(95, 103).
edge(71, 153).
edge(32, 39).
edge(138, 150).
edge(50, 60).
edge(100, 153).
edge(121, 133).
edge(54, 102).
edge(52, 83).
edge(110, 146).
edge(9, 55).
edge(2, 115).
edge(45, 89).
edge(122, 142).
edge(5, 96).
edge(102, 130).
edge(38, 95).
edge(107, 152).
edge(28, 142).
edge(109, 126).
edge(75, 158).
edge(130, 144).
edge(151, 152).
edge(38, 141).
edge(99, 109).
edge(137, 139).
edge(26, 99).
edge(28, 161).
edge(49, 157).
edge(33, 86).
edge(3, 80).
edge(18, 99).
edge(36, 54).
edge(25, 147).
edge(69, 136).
edge(10, 89).
edge(23, 146).
edge(59, 164).
edge(11, 73).
edge(18, 35).
edge(102, 145).
edge(69, 119).
edge(16, 51).
edge(81, 151).
edge(20, 148).
edge(14, 165).
edge(0, 140).
edge(56, 148).
edge(98, 116).
edge(120, 140).
edge(47, 95).
edge(32, 94).
edge(2, 90).
edge(122, 128).
edge(67, 85).
edge(75, 108).
edge(17, 94).
edge(65, 104).
edge(53, 109).
edge(93, 165).
edge(69, 98).
edge(6, 45).
edge(20, 76).
edge(0, 7).
edge(0, 94).
edge(72, 125).
edge(0, 26).
edge(118, 142).
edge(11, 130).
edge(125, 151).
edge(39, 88).
edge(42, 134).
edge(15, 122).
edge(35, 159).
edge(41, 68).
edge(29, 48).
edge(2, 59).
edge(28, 141).
edge(73, 106).
edge(55, 93).
edge(99, 154).
edge(23, 87).
edge(9, 97).
edge(59, 109).
edge(103, 155).
edge(33, 160).
edge(34, 152).
edge(97, 101).
edge(24, 33).
edge(63, 111).
edge(17, 159).
edge(89, 122).
edge(157, 162).
edge(75, 106).
edge(99, 130).
edge(57, 135).
edge(26, 104).
edge(14, 137).
edge(65, 86).
edge(109, 115).
edge(5, 18).
edge(155, 160).
edge(6, 150).
edge(33, 101).
edge(22, 138).
edge(103, 165).
edge(3, 52).
edge(17, 52).
edge(41, 144).
edge(109, 137).
edge(19, 44).
edge(14, 70).
edge(99, 112).
edge(96, 150).
edge(108, 132).
edge(77, 129).
edge(143, 155).
edge(7, 55).
edge(54, 138).
edge(90, 146).
edge(58, 80).
edge(98, 108).
edge(11, 128).
edge(59, 63).
edge(4, 80).
edge(120, 123).
edge(106, 135).
edge(12, 13).
edge(76, 122).
edge(107, 146).
edge(68, 95).
edge(107, 156).
edge(117, 138).
edge(68, 83).
edge(71, 99).
edge(2, 89).
edge(59, 145).
edge(14, 34).
edge(7, 93).
edge(27, 32).
edge(80, 156).
edge(27, 73).
edge(32, 74).
edge(6, 13).
edge(5, 98).
edge(3, 61).
edge(72, 97).
edge(42, 112).
edge(10, 84).
edge(13, 119).
edge(87, 126).
edge(59, 123).
edge(57, 85).
edge(57, 63).
edge(115, 141).
edge(145, 164).
edge(6, 112).
edge(106, 123).
edge(57, 104).
edge(27, 104).
edge(91, 147).
edge(23, 78).
edge(48, 160).
edge(66, 107).
edge(54, 73).
edge(45, 95).
edge(17, 30).
edge(17, 58).
edge(107, 131).
edge(4, 157).
edge(13, 129).
edge(47, 163).
edge(119, 123).
edge(10, 108).
edge(62, 73).
edge(46, 153).
edge(35, 70).
edge(17, 162).
edge(64, 123).
edge(12, 57).
edge(7, 79).
edge(48, 156).
edge(42, 131).
edge(59, 82).
edge(31, 116).
edge(4, 102).
edge(74, 147).
edge(107, 117).
edge(22, 98).
edge(17, 100).
edge(12, 140).
edge(133, 155).
edge(100, 138).
edge(79, 153).
edge(21, 164).
edge(112, 128).
edge(41, 61).
edge(117, 155).
edge(39, 98).
edge(7, 70).
edge(46, 81).
edge(75, 95).
edge(62, 129).
edge(42, 43).
edge(22, 87).
edge(104, 126).
edge(130, 152).
edge(43, 154).
edge(28, 48).
edge(56, 80).
edge(4, 7).
edge(56, 155).
edge(58, 81).
edge(114, 132).
edge(36, 163).
edge(41, 131).
edge(31, 95).
edge(18, 159).
edge(67, 139).
edge(115, 138).
edge(65, 110).
edge(6, 65).
edge(68, 89).
edge(121, 131).
edge(98, 152).
edge(105, 156).
edge(12, 67).
edge(6, 165).
edge(72, 133).
edge(49, 104).
edge(7, 105).
edge(9, 105).
edge(2, 139).
edge(68, 94).
edge(7, 76).
edge(72, 117).
edge(88, 115).
edge(63, 76).
edge(42, 65).
edge(67, 165).
edge(9, 49).
edge(30, 116).
edge(2, 74).
edge(97, 117).
edge(117, 130).
edge(64, 148).
edge(19, 58).
edge(35, 115).
edge(135, 136).
edge(92, 107).
edge(87, 123).
edge(29, 106).
edge(45, 126).
edge(51, 94).
edge(71, 148).
edge(37, 42).
edge(12, 118).
edge(76, 112).
edge(8, 154).
edge(47, 165).
edge(154, 161).
edge(25, 100).
edge(29, 165).
edge(112, 164).
edge(11, 41).
edge(36, 160).
edge(8, 115).
edge(25, 121).
edge(20, 153).
edge(35, 137).
edge(9, 93).
edge(144, 164).
edge(13, 63).
edge(5, 130).
edge(104, 105).
edge(33, 122).
edge(22, 140).
edge(28, 92).
edge(82, 161).
edge(113, 135).
edge(55, 122).
edge(110, 126).
edge(79, 123).
edge(7, 82).
edge(98, 102).
edge(27, 121).
edge(6, 53).
edge(22, 158).
edge(63, 115).
edge(1, 19).
edge(145, 152).
edge(108, 141).
edge(103, 108).
edge(68, 72).
edge(27, 136).
edge(37, 65).
edge(20, 91).
edge(141, 164).
edge(49, 71).
edge(40, 110).
edge(86, 105).
edge(0, 54).
edge(72, 74).
edge(124, 163).
edge(46, 105).
edge(128, 147).
edge(76, 95).
edge(39, 70).
edge(70, 156).
edge(74, 79).
edge(43, 107).
edge(75, 130).
edge(117, 125).
edge(56, 71).
edge(21, 54).
edge(16, 88).
edge(108, 120).
edge(125, 162).
edge(77, 142).
edge(138, 147).
edge(10, 124).
edge(15, 110).
edge(78, 131).
edge(57, 84).
edge(8, 68).
edge(26, 64).
edge(21, 81).
edge(114, 141).
edge(34, 62).
edge(7, 149).
edge(14, 78).
edge(54, 130).
edge(4, 152).
edge(83, 116).
edge(9, 80).
edge(33, 35).
edge(106, 129).
edge(19, 104).
edge(24, 150).
edge(113, 128).
edge(17, 144).
edge(7, 77).
edge(76, 146).
edge(1, 5).
edge(102, 151).
edge(24, 78).
edge(0, 124).
edge(48, 71).
edge(31, 105).
edge(38, 165).
edge(28, 82).
edge(26, 101).
edge(7, 64).
edge(98, 150).
edge(100, 131).
edge(5, 111).
edge(2, 79).
edge(35, 163).
edge(55, 165).
edge(48, 114).
edge(51, 100).
edge(130, 131).
edge(11, 69).
edge(2, 154).
edge(37, 126).
edge(1, 37).
edge(1, 145).
edge(29, 102).
edge(0, 150).
edge(41, 156).
edge(25, 125).
edge(30, 155).
edge(85, 138).
edge(73, 98).
edge(124, 125).
edge(24, 31).
edge(152, 154).
edge(80, 96).
edge(70, 73).
edge(141, 165).
edge(37, 139).
edge(60, 155).
edge(95, 110).
edge(30, 78).
edge(79, 151).
edge(2, 121).
edge(88, 132).
edge(84, 156).
edge(86, 114).
edge(92, 110).
edge(35, 139).
edge(63, 124).
edge(19, 138).
edge(67, 75).
edge(24, 79).
edge(125, 149).
edge(69, 110).
edge(12, 112).
edge(114, 125).
edge(132, 146).
edge(26, 137).
edge(45, 146).
edge(106, 131).
edge(21, 74).
edge(113, 117).
edge(50, 111).
edge(5, 29).
edge(7, 32).
edge(13, 31).
edge(37, 40).
edge(50, 105).
edge(9, 64).
edge(16, 55).
edge(35, 52).
edge(132, 141).
edge(63, 161).
edge(63, 117).
edge(5, 113).
edge(24, 38).
edge(29, 75).
edge(2, 131).
edge(88, 107).
edge(0, 162).
edge(56, 151).
edge(109, 163).
edge(29, 116).
edge(48, 108).
edge(47, 97).
edge(82, 136).
edge(39, 135).
edge(45, 50).
edge(30, 127).
edge(87, 120).
edge(45, 56).
edge(40, 127).
edge(17, 39).
edge(12, 50).
edge(32, 89).
edge(11, 151).
edge(31, 89).
edge(103, 128).
edge(94, 155).
edge(42, 120).
edge(36, 146).
edge(31, 46).
edge(41, 153).
edge(65, 76).
edge(110, 144).
edge(63, 107).
edge(11, 159).
edge(54, 97).
edge(55, 124).
edge(29, 51).
edge(119, 152).
edge(27, 152).
edge(55, 111).
edge(8, 151).
edge(18, 126).
edge(25, 91).
edge(84, 132).
edge(39, 107).
edge(72, 165).
edge(24, 82).
edge(40, 71).
edge(123, 128).
edge(38, 110).
edge(17, 141).
edge(84, 136).
edge(39, 149).
edge(89, 139).
edge(91, 149).
edge(18, 102).
edge(51, 87).
edge(100, 118).
edge(16, 32).
edge(10, 32).
edge(10, 71).
edge(79, 104).
edge(118, 121).
edge(16, 20).
edge(2, 159).
edge(87, 144).
edge(63, 68).
edge(18, 97).
edge(96, 161).
edge(21, 63).
edge(124, 164).
edge(76, 100).
edge(13, 111).
edge(7, 159).
edge(25, 80).
edge(37, 82).
edge(0, 158).
edge(25, 112).
edge(81, 143).
edge(105, 134).
edge(102, 154).
edge(18, 50).
edge(85, 132).
edge(77, 95).
edge(80, 86).
edge(33, 57).
edge(15, 156).
edge(93, 150).
edge(50, 162).
edge(124, 131).
edge(57, 70).
edge(42, 97).
edge(43, 159).
edge(133, 165).
edge(6, 18).
edge(83, 144).
edge(58, 61).
edge(35, 44).
edge(88, 143).
edge(58, 73).
edge(23, 44).
edge(43, 95).
edge(57, 105).
edge(7, 152).
edge(78, 81).
edge(4, 90).
edge(116, 151).
edge(89, 158).
edge(41, 113).
edge(85, 136).
edge(18, 160).
edge(120, 164).
edge(78, 164).
edge(7, 154).
edge(16, 94).
edge(80, 131).
edge(48, 64).
edge(17, 152).
edge(55, 81).
edge(106, 133).
edge(46, 99).
edge(96, 134).
edge(50, 62).
edge(13, 137).
edge(27, 36).
edge(15, 29).
edge(131, 152).
edge(35, 118).
edge(41, 92).
edge(88, 157).
edge(27, 83).
edge(2, 127).
edge(111, 113).
edge(123, 138).
edge(98, 146).
edge(3, 48).
edge(12, 47).
edge(69, 150).
edge(146, 148).
edge(4, 26).
edge(40, 158).
edge(120, 143).
edge(156, 163).
edge(132, 149).
edge(28, 67).
edge(90, 119).
edge(63, 121).
edge(52, 95).
edge(62, 97).
edge(11, 121).
edge(132, 158).
edge(11, 126).
edge(146, 159).
edge(5, 151).
edge(30, 44).
edge(12, 63).
edge(15, 49).
edge(19, 114).
edge(29, 73).
edge(65, 140).
edge(48, 152).
edge(37, 115).
edge(55, 120).
edge(67, 129).
edge(128, 156).
edge(48, 98).
edge(0, 51).
edge(33, 70).
edge(81, 87).
edge(89, 104).
edge(3, 125).
edge(127, 128).
edge(14, 61).
edge(83, 139).
edge(65, 122).
edge(31, 68).
edge(44, 164).
edge(8, 20).
edge(55, 145).
edge(133, 140).
edge(17, 158).
edge(12, 84).
edge(0, 5).
edge(139, 141).
edge(36, 49).
edge(32, 51).
edge(82, 104).
edge(77, 116).
edge(5, 24).
edge(21, 32).
edge(3, 121).
edge(9, 126).
edge(41, 129).
edge(47, 147).
edge(75, 136).
edge(87, 102).
edge(23, 129).
edge(50, 157).
edge(34, 91).
edge(102, 123).
edge(32, 130).
edge(98, 129).
edge(13, 132).
edge(0, 50).
edge(9, 115).
edge(51, 86).
edge(6, 89).
edge(44, 141).
edge(57, 161).
edge(69, 86).
edge(110, 114).
edge(121, 148).
edge(135, 153).
edge(93, 103).
edge(62, 137).
edge(66, 148).
edge(98, 122).
edge(10, 107).
edge(87, 149).
edge(3, 93).
edge(21, 62).
edge(29, 158).
edge(39, 66).
edge(15, 23).
edge(39, 165).
edge(14, 144).
edge(74, 117).
edge(109, 165).
edge(9, 122).
edge(64, 112).
edge(127, 143).
edge(1, 95).
edge(42, 91).
edge(131, 139).
edge(144, 154).
edge(84, 159).
edge(77, 101).
edge(59, 156).
edge(40, 84).
edge(36, 149).
edge(56, 161).
edge(66, 96).
edge(15, 95).
edge(12, 94).
edge(96, 124).
edge(36, 143).
edge(64, 89).
edge(108, 148).
edge(0, 147).
edge(125, 138).
edge(36, 88).
edge(38, 111).
edge(72, 130).
edge(50, 138).
edge(85, 90).
edge(75, 109).
edge(85, 113).
edge(110, 143).
edge(10, 117).
edge(103, 164).
edge(59, 70).
edge(7, 145).
edge(10, 21).
edge(139, 142).
edge(36, 53).
edge(34, 88).
edge(45, 151).
edge(96, 129).
edge(78, 123).
edge(19, 155).
edge(55, 80).
edge(21, 49).
edge(26, 165).
edge(15, 19).
edge(15, 143).
edge(15, 137).
edge(100, 152).
edge(0, 163).
edge(22, 68).
edge(39, 117).
edge(14, 83).
edge(110, 147).
edge(70, 140).
edge(33, 136).
edge(5, 50).
edge(9, 107).
edge(49, 131).
edge(6, 111).
edge(26, 154).
edge(47, 92).
edge(6, 14).
edge(4, 40).
edge(115, 156).
edge(50, 158).
edge(24, 41).
edge(130, 160).
edge(16, 106).
edge(114, 156).
edge(134, 163).
edge(99, 114).
edge(37, 84).
edge(93, 149).
edge(76, 142).
edge(52, 155).
edge(138, 162).
edge(44, 68).
edge(26, 96).
edge(85, 95).
edge(31, 70).
edge(93, 161).
edge(100, 119).
edge(88, 113).
edge(40, 51).
edge(41, 122).
edge(3, 62).
edge(8, 150).
edge(104, 137).
edge(20, 155).
edge(15, 144).
edge(21, 158).
edge(21, 58).
edge(61, 100).
edge(122, 135).
edge(81, 117).
edge(42, 149).
edge(22, 32).
edge(83, 165).
edge(21, 122).
edge(45, 132).
edge(15, 89).
edge(22, 56).
edge(61, 115).
edge(87, 112).
edge(49, 93).
edge(90, 111).
edge(25, 134).
edge(83, 115).
edge(94, 123).
edge(144, 158).
edge(64, 129).
edge(16, 45).
edge(2, 146).
edge(68, 134).
edge(19, 57).
edge(36, 145).
edge(20, 115).
edge(19, 59).
edge(91, 157).
edge(94, 130).
edge(3, 116).
edge(24, 159).
edge(19, 32).
edge(31, 101).
edge(142, 153).
edge(104, 129).
edge(115, 154).
edge(7, 133).
edge(52, 105).
edge(35, 152).
edge(70, 161).
edge(44, 48).
edge(7, 131).
edge(76, 165).
edge(45, 160).
edge(50, 94).
edge(45, 70).
edge(0, 89).
edge(54, 165).
edge(20, 22).
edge(90, 122).
edge(14, 19).
edge(50, 135).
edge(29, 104).
edge(110, 128).
edge(88, 155).
edge(3, 19).
edge(102, 158).
edge(5, 38).
edge(13, 90).
edge(87, 96).
edge(97, 129).
edge(84, 147).
edge(118, 146).
edge(41, 134).
edge(58, 120).
edge(6, 17).
edge(59, 139).
edge(70, 155).
edge(17, 54).
edge(96, 98).
edge(80, 120).
edge(132, 160).
edge(92, 145).
edge(19, 64).
edge(59, 130).
edge(17, 38).
edge(26, 120).
edge(84, 101).
edge(1, 76).
edge(71, 144).
edge(22, 109).
edge(92, 98).
edge(96, 127).
edge(20, 45).
edge(35, 86).
edge(14, 86).
edge(48, 144).
edge(103, 129).
edge(46, 150).
edge(9, 41).
edge(103, 121).
edge(33, 149).
edge(6, 159).
edge(49, 145).
edge(139, 157).
edge(29, 50).
edge(118, 137).
edge(41, 124).
edge(87, 139).
edge(130, 148).
edge(2, 118).
edge(117, 145).
edge(13, 146).
edge(136, 150).
edge(52, 139).
edge(6, 43).
edge(77, 147).
edge(104, 155).
edge(40, 160).
edge(14, 40).
edge(50, 136).
edge(44, 49).
edge(0, 114).
edge(2, 138).
edge(16, 36).
edge(5, 65).
edge(33, 46).
edge(42, 129).
edge(24, 125).
edge(86, 111).
edge(60, 143).
edge(135, 138).
edge(37, 119).
edge(68, 161).
edge(56, 146).
edge(47, 140).
edge(31, 45).
edge(23, 161).
edge(56, 85).
edge(12, 129).
edge(106, 125).
edge(117, 159).
edge(82, 134).
edge(66, 145).
edge(115, 118).
edge(4, 117).
edge(68, 132).
edge(29, 122).
edge(92, 121).
edge(65, 114).
edge(10, 153).
edge(0, 59).
edge(63, 152).
edge(30, 141).
edge(11, 76).
edge(2, 14).
edge(3, 149).
edge(146, 154).
edge(20, 159).
edge(15, 60).
edge(46, 61).
edge(16, 108).
edge(3, 76).
edge(47, 156).
edge(110, 164).
edge(40, 57).
edge(5, 39).
edge(18, 131).
edge(142, 149).
edge(53, 103).
edge(22, 30).
edge(11, 75).
edge(27, 128).
edge(28, 139).
edge(108, 154).
edge(21, 104).
edge(18, 72).
edge(68, 110).
edge(42, 49).
edge(19, 115).
edge(79, 85).
edge(22, 141).
edge(42, 82).
edge(152, 163).
edge(8, 147).
edge(0, 84).
edge(92, 120).
edge(119, 121).
edge(43, 140).
edge(56, 120).
edge(4, 30).
edge(2, 119).
edge(28, 50).
edge(71, 72).
edge(25, 72).
edge(5, 92).
edge(79, 162).
edge(44, 59).
edge(110, 165).
edge(17, 103).
edge(65, 75).
edge(43, 71).
edge(1, 12).
edge(80, 94).
edge(23, 50).
edge(22, 88).
edge(92, 129).
edge(105, 116).
edge(89, 117).
edge(38, 142).
edge(4, 55).
edge(53, 75).
edge(64, 105).
edge(34, 146).
edge(57, 137).
edge(2, 13).
edge(66, 67).
edge(19, 30).
edge(60, 108).
edge(127, 149).
edge(28, 112).
edge(45, 47).
edge(17, 143).
edge(54, 80).
edge(151, 157).
edge(66, 124).
edge(63, 69).
edge(58, 85).
edge(96, 164).
edge(124, 127).
edge(17, 60).
edge(19, 46).
edge(68, 151).
edge(29, 162).
edge(92, 102).
edge(41, 93).
edge(98, 130).
edge(112, 155).
edge(18, 133).
edge(66, 71).
edge(16, 154).
edge(14, 44).
edge(115, 132).
edge(27, 87).
edge(18, 41).
edge(9, 136).
edge(21, 68).
edge(85, 94).
edge(36, 64).
edge(25, 34).
edge(115, 129).
edge(12, 131).
edge(0, 82).
edge(40, 87).
edge(37, 88).
edge(1, 89).
edge(43, 160).
edge(1, 105).
edge(43, 111).
edge(102, 146).
edge(6, 99).
edge(22, 144).
edge(35, 142).
edge(110, 127).
edge(108, 161).
edge(46, 112).
edge(10, 93).
edge(69, 131).
edge(62, 136).
edge(3, 114).
edge(3, 57).
edge(35, 43).
edge(118, 159).
edge(101, 110).
edge(43, 74).
edge(70, 127).
edge(47, 61).
edge(76, 125).
edge(82, 94).
edge(122, 160).
edge(34, 48).
edge(34, 69).
edge(19, 102).
edge(71, 126).
edge(2, 75).
edge(14, 131).
edge(81, 91).
edge(109, 139).
edge(73, 108).
edge(16, 162).
edge(130, 146).
edge(9, 85).
edge(52, 54).
edge(45, 52).
edge(13, 39).
edge(91, 122).
edge(4, 81).
edge(36, 47).
edge(3, 66).
edge(100, 129).
edge(65, 158).
edge(69, 129).
edge(33, 81).
edge(22, 77).
edge(62, 83).
edge(53, 142).
edge(11, 114).
edge(116, 153).
edge(133, 135).
edge(47, 131).
edge(108, 122).
edge(134, 153).
edge(116, 144).
edge(43, 138).
edge(24, 102).
edge(7, 59).
edge(38, 57).
edge(35, 78).
edge(35, 107).
edge(61, 77).
edge(49, 53).
edge(50, 76).
edge(2, 43).
edge(28, 80).
edge(72, 149).
edge(27, 67).
edge(11, 59).
edge(14, 115).
edge(54, 99).
edge(46, 165).
edge(132, 162).
edge(45, 69).
edge(108, 139).
edge(70, 137).
edge(80, 137).
edge(82, 90).
edge(39, 85).
edge(83, 101).
edge(113, 124).
edge(77, 138).
edge(15, 154).
edge(17, 97).
edge(46, 52).
edge(34, 144).
edge(40, 152).
edge(100, 157).
edge(26, 38).
edge(27, 54).
edge(53, 81).
edge(38, 155).
edge(37, 113).
edge(9, 53).
edge(7, 88).
edge(163, 164).
edge(78, 111).
edge(1, 4).
edge(29, 133).
edge(137, 152).
edge(120, 147).
edge(2, 165).
edge(139, 160).
edge(1, 51).
edge(91, 154).
edge(20, 131).
edge(101, 128).
edge(18, 154).
edge(103, 149).
edge(28, 111).
edge(55, 94).
edge(10, 164).
edge(84, 93).
edge(8, 21).
edge(42, 85).
edge(32, 93).
edge(2, 29).
edge(29, 118).
edge(155, 157).
edge(34, 76).
edge(16, 28).
edge(17, 154).
edge(56, 118).
edge(11, 87).
edge(59, 116).
edge(75, 145).
edge(8, 145).
edge(41, 47).
edge(29, 121).
edge(19, 66).
edge(38, 115).
edge(42, 54).
edge(43, 58).
edge(45, 148).
edge(118, 130).
edge(13, 67).
edge(41, 125).
edge(73, 101).
edge(11, 119).
edge(13, 53).
edge(107, 147).
edge(91, 95).
edge(56, 109).
edge(26, 151).
edge(63, 110).
edge(88, 133).
edge(81, 146).
edge(112, 137).
edge(3, 65).
edge(22, 39).
edge(8, 152).
edge(28, 69).
edge(10, 122).
edge(60, 73).
edge(118, 153).
edge(10, 112).
edge(126, 160).
edge(15, 102).
edge(36, 125).
edge(59, 146).
edge(94, 132).
edge(78, 106).
edge(139, 152).
edge(12, 143).
edge(41, 109).
edge(75, 164).
edge(57, 60).
edge(81, 109).
edge(67, 154).
edge(115, 128).
edge(21, 156).
edge(24, 141).
edge(46, 158).
edge(18, 57).
edge(65, 144).
edge(52, 63).
edge(80, 155).
edge(139, 147).
edge(53, 147).
edge(38, 75).
edge(76, 115).
edge(88, 102).
edge(60, 121).
edge(24, 35).
edge(78, 151).
edge(6, 156).
edge(83, 160).
edge(24, 54).
edge(18, 31).
edge(3, 34).
edge(15, 50).
edge(131, 133).
edge(102, 150).
edge(32, 146).
edge(84, 144).
edge(66, 101).
edge(4, 138).
edge(71, 163).
edge(34, 94).
edge(70, 71).
edge(3, 127).
edge(67, 99).
edge(49, 160).
edge(3, 45).
edge(9, 153).
edge(34, 134).
edge(83, 88).
edge(36, 118).
edge(3, 164).
edge(33, 154).
edge(47, 93).
edge(60, 106).
edge(76, 153).
edge(22, 45).
edge(98, 140).
edge(0, 130).
edge(89, 164).
edge(114, 163).
edge(14, 162).
edge(60, 96).
edge(8, 23).
edge(74, 153).
edge(41, 110).
edge(86, 133).
edge(3, 132).
edge(48, 110).
edge(4, 56).
edge(145, 154).
edge(49, 92).
edge(30, 68).
edge(74, 137).
edge(14, 76).
edge(19, 31).
edge(46, 74).
edge(41, 99).
edge(33, 156).
edge(81, 83).
edge(96, 132).
edge(1, 75).
edge(59, 140).
edge(16, 144).
edge(50, 66).
edge(109, 160).
edge(86, 151).
edge(0, 156).
edge(0, 29).
edge(57, 114).
edge(11, 91).
edge(17, 46).
edge(39, 76).
edge(63, 133).
edge(44, 114).
edge(101, 151).
edge(10, 120).
edge(34, 139).
edge(104, 156).
edge(2, 132).
edge(12, 56).
edge(37, 131).
edge(114, 161).
edge(0, 119).
edge(110, 132).
edge(71, 77).
edge(16, 140).
edge(13, 66).
edge(49, 138).
edge(11, 49).
edge(19, 137).
edge(50, 112).
edge(29, 125).
edge(10, 110).
edge(49, 139).
edge(92, 153).
edge(54, 74).
edge(78, 98).
edge(23, 148).
edge(74, 102).
edge(34, 121).
edge(49, 146).
edge(46, 148).
edge(137, 142).
edge(133, 153).
edge(103, 159).
edge(79, 109).
edge(81, 142).
edge(84, 113).
edge(43, 134).
edge(115, 163).
edge(15, 73).
edge(42, 145).
edge(28, 46).
edge(7, 50).
edge(99, 138).
edge(126, 153).
edge(17, 120).
edge(23, 41).
edge(111, 159).
edge(25, 145).
edge(52, 129).
edge(22, 23).
edge(64, 157).
edge(27, 49).
edge(1, 22).
edge(2, 50).
edge(36, 153).
edge(41, 140).
edge(71, 109).
edge(10, 95).
edge(47, 73).
edge(144, 162).
edge(13, 142).
edge(54, 108).
edge(24, 45).
edge(131, 141).
edge(58, 119).
edge(63, 128).
edge(66, 157).
edge(34, 55).
edge(79, 164).
edge(37, 41).
edge(113, 149).
edge(53, 143).
edge(113, 165).
edge(106, 108).
edge(12, 99).
edge(113, 150).
edge(10, 128).
edge(30, 85).
edge(97, 124).
edge(62, 126).
edge(17, 81).
edge(74, 151).
edge(7, 92).
edge(58, 91).
edge(134, 140).
edge(62, 81).
edge(15, 107).
edge(43, 141).
edge(37, 51).
edge(59, 107).
edge(111, 161).
edge(23, 98).
edge(134, 151).
edge(156, 165).
edge(14, 100).
edge(15, 77).
edge(36, 98).
edge(126, 147).
edge(107, 118).
edge(39, 123).
edge(136, 163).
edge(14, 81).
edge(79, 160).
edge(95, 157).
edge(57, 81).
edge(74, 132).
edge(2, 145).
edge(15, 81).
edge(35, 151).
edge(9, 29).
edge(20, 39).
edge(32, 140).
edge(125, 152).
edge(107, 149).
edge(0, 142).
edge(45, 90).
edge(24, 81).
edge(54, 67).
edge(1, 39).
edge(13, 59).
edge(114, 143).
edge(6, 100).
edge(96, 104).
edge(6, 46).
edge(51, 153).
edge(55, 128).
edge(48, 89).
edge(33, 103).
edge(71, 133).
edge(48, 134).
edge(19, 61).
edge(51, 122).
edge(61, 120).
edge(77, 103).
edge(100, 117).
edge(99, 147).
edge(92, 134).
edge(106, 140).
edge(5, 8).
edge(100, 111).
edge(124, 151).
edge(49, 134).
edge(15, 119).
edge(4, 38).
edge(96, 109).
edge(8, 69).
edge(46, 104).
edge(53, 157).
edge(5, 94).
edge(36, 87).
edge(69, 82).
edge(42, 128).
edge(48, 94).
edge(82, 159).
edge(93, 130).
edge(43, 48).
edge(81, 94).
edge(55, 66).
edge(23, 133).
edge(3, 28).
edge(52, 162).
edge(21, 152).
edge(47, 55).
edge(3, 94).
edge(82, 111).
edge(121, 149).
edge(106, 132).
edge(123, 126).
edge(24, 87).
edge(24, 97).
edge(118, 133).
edge(39, 84).
edge(12, 164).
edge(73, 95).
edge(29, 55).
edge(97, 147).
edge(31, 161).
edge(13, 62).
edge(116, 162).
edge(10, 28).
edge(43, 165).
edge(13, 100).
edge(7, 101).
edge(53, 55).
edge(22, 127).
edge(2, 3).
edge(135, 156).
edge(26, 46).
edge(132, 139).
edge(13, 141).
edge(88, 99).
edge(38, 63).
edge(55, 83).
edge(89, 110).
edge(5, 129).
edge(20, 151).
edge(10, 42).
edge(59, 101).
edge(17, 72).
edge(66, 161).
edge(53, 132).
edge(32, 159).
edge(9, 23).
edge(30, 103).
edge(7, 97).
edge(102, 115).
edge(68, 137).
edge(102, 138).
edge(82, 89).
edge(128, 145).
edge(72, 102).
edge(113, 154).
edge(57, 69).
edge(39, 155).
edge(13, 133).
edge(129, 134).
edge(24, 117).
edge(43, 73).
edge(4, 47).
edge(19, 87).
edge(135, 154).
edge(39, 81).
edge(23, 25).
edge(24, 59).
edge(79, 121).
edge(83, 152).
edge(57, 79).
edge(65, 121).
edge(121, 122).
edge(7, 78).
edge(147, 164).
edge(44, 162).
edge(69, 88).
edge(86, 148).
edge(21, 113).
edge(46, 141).
edge(15, 80).
edge(62, 117).
edge(79, 139).
edge(45, 101).
edge(31, 110).
edge(103, 125).
edge(26, 34).
edge(37, 43).
edge(63, 160).
edge(115, 142).
edge(12, 133).
edge(91, 137).
edge(16, 130).
edge(23, 48).
edge(9, 141).
edge(26, 52).
edge(69, 135).
edge(15, 145).
edge(13, 48).
edge(107, 116).
edge(51, 97).
edge(29, 103).
edge(79, 81).
edge(7, 30).
edge(15, 155).
edge(39, 160).
edge(64, 90).
edge(85, 102).
edge(16, 27).
edge(116, 127).
edge(49, 142).
edge(5, 86).
edge(84, 161).
edge(56, 116).
edge(14, 149).
edge(50, 151).
edge(2, 150).
edge(109, 129).
edge(11, 90).
edge(45, 164).
edge(104, 120).
edge(42, 156).
edge(4, 94).
edge(30, 56).
edge(4, 24).
edge(66, 128).
edge(41, 94).
edge(11, 42).
edge(66, 75).
edge(7, 65).
edge(17, 135).
edge(147, 161).
edge(43, 86).
edge(3, 18).
edge(88, 147).
edge(97, 110).
edge(28, 65).
edge(146, 152).
edge(19, 80).
edge(66, 86).
edge(3, 109).
edge(22, 70).
edge(106, 162).
edge(37, 71).
edge(117, 151).
edge(1, 33).
edge(15, 90).
edge(21, 112).
edge(32, 90).
edge(46, 60).
edge(8, 59).
edge(2, 57).
edge(14, 109).
edge(47, 54).
edge(59, 103).
edge(24, 89).
edge(12, 135).
edge(81, 124).
edge(115, 153).
edge(110, 133).
edge(58, 113).
edge(20, 56).
edge(12, 93).
edge(61, 74).
edge(82, 155).
edge(52, 164).
edge(63, 120).
edge(113, 142).
edge(63, 157).
edge(27, 143).
edge(134, 141).
edge(119, 165).
edge(57, 87).
edge(60, 88).
edge(114, 149).
edge(25, 51).
edge(71, 134).
edge(75, 121).
edge(51, 77).
edge(21, 106).
edge(48, 143).
edge(128, 133).
edge(59, 118).
edge(49, 96).
edge(100, 134).
edge(28, 127).
edge(20, 158).
edge(55, 107).
edge(46, 121).
edge(2, 11).
edge(72, 160).
edge(38, 62).
edge(59, 119).
edge(43, 113).
edge(45, 86).
edge(8, 114).
edge(50, 109).
edge(14, 112).
edge(84, 152).
edge(129, 154).
edge(137, 159).
edge(45, 51).
edge(99, 118).
edge(85, 104).
edge(24, 114).
edge(78, 157).
edge(87, 148).
edge(37, 98).
edge(105, 154).
edge(24, 90).
edge(85, 114).
edge(35, 49).
edge(82, 146).
edge(31, 35).
edge(62, 140).
edge(62, 159).
edge(76, 130).
edge(65, 162).
edge(93, 148).
edge(105, 160).
edge(90, 96).
edge(138, 164).
edge(40, 85).
edge(104, 117).
edge(60, 150).
edge(30, 86).
edge(49, 62).
edge(51, 104).
edge(76, 131).
edge(78, 80).
edge(58, 102).
edge(1, 93).
edge(31, 55).
edge(116, 128).
edge(68, 157).
edge(75, 98).
edge(109, 127).
edge(86, 150).
edge(25, 110).
edge(116, 133).
edge(112, 129).
edge(3, 155).
edge(103, 140).
edge(56, 135).
edge(65, 154).
edge(37, 57).
edge(63, 91).
edge(34, 61).
edge(36, 75).
edge(122, 154).
edge(2, 162).
edge(23, 47).
edge(11, 155).
edge(91, 125).
edge(45, 142).
edge(34, 59).
edge(83, 147).
edge(92, 93).
edge(32, 106).
edge(42, 53).
edge(122, 132).
edge(55, 150).
edge(128, 158).
edge(116, 141).
edge(120, 149).
edge(153, 164).
edge(67, 70).
edge(13, 128).
edge(8, 45).
edge(31, 51).
edge(9, 134).
edge(97, 148).
edge(29, 119).
edge(50, 149).
edge(93, 131).
edge(13, 73).
edge(93, 146).
edge(64, 113).
edge(36, 121).
edge(2, 126).
edge(57, 147).
edge(7, 104).
edge(57, 133).
edge(14, 85).
edge(147, 158).
edge(61, 156).
edge(9, 91).
edge(13, 20).
edge(7, 151).
edge(93, 116).
edge(3, 35).
edge(10, 159).
edge(59, 121).
edge(78, 144).
edge(96, 107).
edge(45, 110).
edge(6, 94).
edge(15, 38).
edge(22, 107).
edge(53, 154).
edge(35, 76).
edge(24, 56).
edge(60, 91).
edge(48, 148).
edge(9, 125).
edge(132, 163).
edge(4, 18).
edge(32, 66).
edge(100, 127).
edge(2, 19).
edge(64, 130).
edge(24, 64).
edge(124, 136).
edge(12, 80).
edge(70, 115).
edge(2, 45).
edge(152, 162).
edge(47, 155).
edge(97, 98).
edge(20, 108).
edge(81, 131).
edge(24, 25).
edge(8, 30).
edge(21, 50).
edge(113, 132).
edge(28, 97).
edge(9, 143).
edge(39, 41).
edge(57, 94).
edge(23, 99).
edge(9, 79).
edge(1, 62).
edge(112, 132).
edge(6, 109).
edge(82, 165).
edge(29, 137).
edge(29, 127).
edge(29, 138).
edge(39, 51).
edge(100, 164).
edge(93, 95).
edge(81, 89).
edge(62, 164).
edge(10, 59).
edge(130, 137).
edge(8, 46).
edge(22, 42).
edge(21, 157).
edge(51, 74).
edge(52, 110).
edge(16, 86).
edge(54, 141).
edge(21, 66).
edge(84, 102).
edge(79, 80).
edge(7, 43).
edge(50, 84).
edge(39, 158).
edge(112, 144).
edge(23, 140).
edge(6, 34).
edge(28, 136).
edge(95, 136).
edge(64, 67).
edge(13, 157).
edge(85, 120).
edge(0, 117).
edge(129, 142).
edge(60, 89).
edge(86, 108).
edge(17, 51).
edge(11, 105).
edge(28, 58).
edge(12, 144).
edge(37, 154).
edge(66, 69).
edge(50, 165).
edge(36, 127).
edge(0, 45).
edge(21, 87).
edge(25, 56).
edge(91, 144).
edge(91, 110).
edge(15, 94).
edge(33, 153).
edge(25, 123).
edge(125, 157).
edge(24, 53).
edge(112, 114).
edge(123, 143).
edge(148, 164).
edge(143, 154).
edge(4, 141).
edge(27, 84).
edge(6, 126).
edge(23, 73).
edge(75, 89).
edge(69, 159).
edge(86, 146).
edge(37, 152).
edge(98, 142).
edge(61, 123).
edge(18, 146).
edge(3, 51).
edge(72, 151).
edge(28, 44).
edge(45, 74).
edge(116, 120).
edge(21, 84).
edge(65, 79).
edge(41, 128).
edge(4, 82).
edge(129, 144).
edge(55, 77).
edge(100, 160).
edge(27, 59).
edge(52, 141).
edge(18, 80).
edge(6, 139).
edge(43, 139).
edge(8, 63).
edge(84, 141).
edge(12, 92).
edge(2, 28).
edge(28, 47).
edge(20, 117).
edge(84, 134).
edge(117, 129).
edge(89, 162).
edge(7, 106).
edge(22, 33).
edge(92, 146).
edge(16, 78).
edge(53, 129).
edge(23, 52).
edge(57, 126).
edge(146, 147).
edge(61, 154).
edge(51, 73).
edge(85, 129).
edge(3, 161).
edge(15, 67).
edge(69, 75).
edge(44, 94).
edge(33, 85).
edge(5, 68).
edge(133, 161).
edge(100, 105).
edge(19, 128).
edge(7, 153).
edge(18, 113).
edge(96, 138).
edge(13, 87).
edge(47, 120).
edge(86, 153).
edge(50, 159).
edge(94, 126).
edge(25, 54).
edge(37, 60).
edge(95, 129).
edge(43, 136).
edge(13, 161).
edge(6, 55).
edge(1, 154).
edge(96, 114).
edge(71, 159).
edge(41, 149).
edge(134, 150).
edge(66, 113).
edge(5, 81).
edge(55, 162).
edge(143, 156).
edge(50, 121).
edge(61, 102).
edge(57, 61).
edge(64, 153).
edge(114, 160).
edge(36, 46).
edge(25, 131).
edge(32, 70).
edge(40, 48).
edge(69, 102).
edge(75, 128).
edge(122, 124).
edge(1, 111).
edge(83, 98).
edge(13, 27).
edge(59, 93).
edge(141, 155).
edge(8, 148).
edge(116, 134).
edge(69, 127).
edge(11, 28).
edge(7, 137).
edge(14, 23).
edge(76, 108).
edge(63, 103).
edge(55, 97).
edge(58, 132).
edge(48, 81).
edge(70, 142).
edge(17, 114).
edge(20, 32).
edge(45, 121).
edge(118, 163).
edge(28, 113).
edge(100, 143).
edge(40, 90).
edge(52, 144).
edge(45, 131).
edge(17, 92).
edge(15, 20).
edge(96, 110).
edge(133, 138).
edge(75, 155).
edge(14, 143).
edge(123, 146).
edge(13, 134).
edge(34, 143).
edge(79, 150).
edge(32, 33).
edge(55, 99).
edge(125, 158).
edge(3, 102).
edge(83, 111).
edge(5, 76).
edge(57, 109).
edge(15, 39).
edge(49, 117).
edge(54, 93).
edge(58, 140).
edge(7, 8).
edge(13, 139).
edge(4, 45).
edge(76, 164).
edge(74, 163).
edge(38, 161).
edge(139, 154).
edge(128, 160).
edge(26, 110).
edge(10, 154).
edge(7, 45).
edge(52, 57).
edge(87, 98).
edge(89, 152).
edge(112, 117).
edge(114, 164).
edge(51, 58).
edge(13, 104).
edge(105, 165).
edge(8, 120).
edge(69, 84).
edge(35, 88).
edge(112, 115).
edge(139, 150).
edge(30, 133).
edge(73, 76).
edge(94, 117).
edge(112, 151).
edge(83, 153).
edge(16, 46).
edge(60, 124).
edge(15, 114).
edge(92, 156).
edge(96, 106).
edge(36, 37).
edge(37, 123).
edge(85, 125).
edge(93, 157).
edge(33, 96).
edge(58, 66).
edge(16, 54).
edge(48, 52).
edge(41, 107).
edge(9, 106).
edge(47, 85).
edge(19, 103).
edge(9, 75).
edge(78, 148).
edge(25, 104).
edge(80, 100).
edge(8, 95).
edge(31, 155).
edge(13, 102).
edge(50, 98).
edge(31, 107).
edge(108, 110).
edge(30, 104).
edge(18, 147).
edge(105, 123).
edge(19, 142).
edge(78, 82).
edge(72, 109).
edge(44, 86).
edge(42, 121).
edge(106, 158).
edge(24, 46).
edge(99, 108).
edge(108, 123).
edge(141, 142).
edge(113, 156).
edge(90, 142).
edge(112, 139).
edge(88, 131).
edge(82, 117).
edge(51, 75).
edge(117, 141).
edge(87, 152).
edge(91, 161).
edge(30, 148).
edge(75, 88).
edge(3, 148).
edge(26, 85).
edge(40, 130).
edge(1, 85).
edge(11, 34).
edge(50, 128).
edge(69, 139).
edge(12, 101).
edge(109, 125).
edge(75, 104).
edge(16, 58).
edge(89, 118).
edge(30, 92).
edge(39, 74).
edge(87, 130).
edge(48, 100).
edge(57, 153).
edge(84, 123).
edge(129, 152).
edge(10, 163).
edge(35, 77).
edge(28, 61).
edge(12, 65).
edge(34, 161).
edge(6, 131).
edge(52, 133).
edge(19, 43).
edge(55, 119).
edge(105, 140).
edge(26, 153).
edge(31, 78).
edge(57, 123).
edge(27, 63).
edge(45, 97).
edge(36, 55).
edge(32, 101).
edge(8, 101).
edge(17, 37).
edge(22, 64).
edge(63, 102).
edge(83, 99).
edge(12, 19).
edge(13, 107).
edge(21, 37).
edge(18, 29).
edge(5, 161).
edge(12, 125).
edge(132, 148).
edge(93, 143).
edge(72, 81).
edge(114, 134).
edge(24, 149).
edge(151, 153).
edge(74, 118).
edge(34, 164).
edge(7, 61).
edge(41, 133).
edge(7, 11).
edge(46, 115).
edge(150, 160).
edge(22, 58).
edge(61, 146).
edge(55, 148).
edge(49, 107).
edge(66, 85).
edge(45, 79).
edge(19, 74).
edge(72, 123).
edge(10, 103).
edge(40, 49).
edge(2, 93).
edge(39, 90).
edge(47, 78).
edge(69, 104).
edge(40, 68).
edge(18, 58).
edge(28, 163).
edge(69, 151).
edge(11, 57).
edge(85, 122).
edge(101, 124).
edge(17, 27).
edge(40, 112).
edge(69, 141).
edge(3, 135).
edge(10, 99).
edge(4, 120).
edge(65, 96).
edge(49, 116).
edge(11, 106).
edge(25, 126).
edge(66, 79).
edge(17, 128).
edge(84, 88).
edge(110, 141).
edge(100, 151).
edge(91, 153).
edge(49, 68).
edge(1, 3).
edge(85, 165).
edge(13, 108).
edge(31, 36).
edge(22, 113).
edge(34, 97).
edge(10, 106).
edge(104, 150).
edge(51, 109).
edge(44, 124).
edge(45, 157).
edge(13, 86).
edge(102, 104).
edge(141, 154).
edge(84, 133).
edge(17, 66).
edge(10, 90).
edge(81, 130).
edge(69, 97).
edge(51, 159).
edge(10, 162).
edge(61, 122).
edge(12, 44).
edge(37, 66).
edge(21, 29).
edge(26, 95).
edge(44, 153).
edge(15, 34).
edge(40, 113).
edge(11, 51).
edge(107, 132).
edge(2, 163).
edge(1, 91).
edge(40, 53).
edge(132, 157).
edge(32, 72).
edge(109, 150).
edge(105, 162).
edge(108, 109).
edge(76, 111).
edge(15, 117).
edge(25, 99).
edge(40, 155).
edge(34, 67).
edge(0, 165).
edge(20, 119).
edge(37, 158).
edge(15, 26).
edge(3, 139).
edge(2, 129).
edge(51, 68).
edge(27, 56).
edge(61, 119).
edge(60, 113).
edge(2, 55).
edge(44, 83).
edge(144, 156).
edge(120, 144).
edge(120, 124).
edge(110, 151).
edge(12, 154).
edge(95, 126).
edge(19, 110).
edge(149, 154).
edge(127, 152).
edge(99, 156).
edge(50, 72).
edge(8, 93).
edge(131, 142).
edge(99, 159).
edge(24, 70).
edge(28, 108).
edge(11, 95).
edge(68, 126).
edge(23, 49).
edge(41, 82).
edge(120, 142).
edge(65, 102).
edge(39, 163).
edge(140, 143).
edge(12, 55).
edge(67, 158).
edge(36, 76).
edge(13, 99).
edge(29, 71).
edge(11, 96).
edge(1, 48).
edge(37, 38).
edge(3, 137).
edge(110, 150).
edge(45, 59).
edge(23, 93).
edge(2, 77).
edge(61, 63).
edge(40, 114).
edge(93, 112).
edge(135, 140).
edge(5, 60).
edge(121, 159).
edge(52, 103).
edge(7, 127).
edge(42, 138).
edge(103, 144).
edge(91, 163).
edge(74, 145).
edge(74, 85).
edge(28, 51).
edge(71, 81).
edge(35, 74).
edge(72, 105).
edge(78, 94).
edge(79, 129).
edge(96, 157).
edge(112, 153).
edge(50, 134).
edge(106, 165).
edge(72, 91).
edge(123, 127).
edge(144, 149).
edge(46, 76).
edge(93, 128).
edge(25, 109).
edge(99, 104).
edge(11, 133).
edge(67, 127).
edge(10, 125).
edge(22, 69).
edge(20, 110).
edge(106, 120).
edge(50, 107).
edge(22, 163).
edge(11, 102).
edge(8, 32).
edge(5, 144).
edge(10, 30).
edge(17, 91).
edge(102, 106).
edge(44, 98).
edge(90, 115).
edge(69, 89).
edge(83, 142).
edge(51, 91).
edge(72, 112).
edge(65, 135).
edge(35, 125).
edge(21, 71).
edge(34, 162).
edge(41, 88).
edge(90, 124).
edge(54, 85).
edge(26, 30).
edge(64, 161).
edge(116, 142).
edge(1, 46).
edge(33, 58).
edge(121, 134).
edge(56, 78).
edge(70, 80).
edge(33, 69).
edge(32, 57).
edge(5, 123).
edge(25, 69).
edge(49, 56).
edge(22, 44).
edge(77, 145).
edge(61, 163).
edge(25, 156).
edge(29, 160).
edge(40, 143).
edge(103, 145).
edge(98, 106).
edge(52, 122).
edge(129, 139).
edge(26, 142).
edge(74, 156).
edge(39, 115).
edge(101, 113).
edge(125, 133).
edge(57, 111).
edge(1, 101).
edge(94, 116).
edge(40, 154).
edge(1, 158).
edge(63, 136).
edge(7, 125).
edge(18, 38).
edge(81, 148).
edge(43, 62).
edge(31, 156).
edge(70, 125).
edge(23, 72).
edge(8, 140).
edge(24, 142).
edge(3, 39).
edge(96, 149).
edge(72, 104).
edge(6, 82).
edge(18, 21).
edge(134, 165).
edge(21, 96).
edge(25, 163).
edge(8, 126).
edge(91, 136).
edge(69, 153).
edge(19, 41).
edge(110, 163).
edge(81, 100).
edge(65, 116).
edge(56, 102).
edge(46, 162).
edge(100, 120).
edge(93, 139).
edge(30, 110).
edge(41, 80).
edge(0, 23).
edge(141, 163).
edge(62, 72).
edge(80, 88).
edge(73, 109).
edge(5, 49).
edge(64, 149).
edge(55, 69).
edge(120, 148).
edge(25, 37).
edge(36, 60).
edge(10, 64).
edge(94, 149).
edge(45, 105).
edge(63, 132).
edge(22, 157).
edge(51, 163).
edge(32, 84).
edge(20, 133).
edge(3, 87).
edge(39, 49).
edge(85, 119).
edge(54, 75).
edge(65, 145).
edge(70, 104).
edge(73, 122).
edge(66, 102).
edge(107, 165).
edge(72, 120).
edge(16, 164).
edge(22, 51).
edge(96, 126).
edge(85, 127).
edge(35, 72).
edge(30, 130).
edge(49, 82).
edge(72, 144).
edge(30, 81).
edge(31, 154).
edge(81, 164).
edge(51, 119).
edge(81, 121).
edge(63, 72).
edge(83, 106).
edge(2, 36).
edge(14, 153).
edge(117, 126).
edge(20, 143).
edge(140, 162).
edge(67, 80).
edge(32, 99).
edge(15, 68).
edge(70, 153).
edge(21, 35).
edge(47, 77).
edge(8, 91).
edge(20, 150).
edge(11, 37).
edge(3, 92).
edge(14, 148).
edge(4, 35).
edge(1, 41).
edge(91, 98).
edge(60, 84).
edge(60, 114).
edge(93, 110).
edge(9, 71).
edge(47, 116).
edge(70, 145).
edge(74, 161).
edge(23, 116).
edge(90, 116).
edge(56, 131).
edge(100, 112).
edge(82, 123).
edge(43, 132).
edge(2, 83).
edge(13, 103).
edge(56, 141).
edge(12, 156).
edge(90, 153).
edge(106, 110).
edge(36, 142).
edge(104, 164).
edge(114, 122).
edge(8, 34).
edge(10, 78).
edge(50, 150).
edge(23, 83).
edge(68, 116).
edge(63, 143).
edge(18, 77).
edge(99, 134).
edge(19, 50).
edge(23, 80).
edge(8, 146).
edge(6, 21).
edge(15, 57).
edge(21, 124).
edge(27, 122).
edge(71, 142).
edge(55, 159).
edge(82, 91).
edge(6, 78).
edge(45, 111).
edge(26, 39).
edge(5, 125).
edge(115, 160).
edge(56, 115).
edge(34, 84).
edge(25, 48).
edge(9, 150).
edge(23, 157).
edge(1, 47).
edge(99, 155).
edge(83, 151).
edge(19, 91).
edge(115, 134).
edge(72, 101).
edge(44, 65).
edge(4, 20).
edge(11, 86).
edge(29, 46).
edge(64, 102).
edge(125, 148).
edge(110, 129).
edge(77, 156).
edge(59, 64).
edge(11, 14).
edge(116, 121).
edge(0, 63).
edge(17, 113).
edge(2, 104).
edge(47, 62).
edge(104, 131).
edge(38, 144).
edge(44, 116).
edge(4, 126).
edge(107, 114).
edge(71, 88).
edge(45, 114).
edge(93, 159).
edge(68, 103).
edge(37, 122).
edge(87, 145).
edge(49, 59).
edge(150, 155).
edge(16, 155).
edge(72, 111).
edge(17, 90).
edge(82, 163).
edge(104, 159).
edge(16, 74).
edge(75, 86).
edge(27, 123).
edge(105, 152).
edge(132, 140).
edge(95, 120).
edge(20, 104).
edge(90, 143).
edge(107, 151).
edge(44, 151).
edge(19, 152).
edge(115, 139).
edge(65, 134).
edge(67, 88).
edge(58, 164).
edge(64, 80).
edge(54, 91).
edge(20, 25).
edge(23, 137).
edge(71, 102).
edge(22, 74).
edge(2, 110).
edge(52, 112).
edge(74, 110).
edge(9, 39).
edge(70, 99).
edge(80, 158).
edge(15, 33).
edge(43, 123).
edge(85, 117).
edge(16, 64).
edge(56, 84).
edge(42, 114).
edge(8, 79).
edge(3, 108).
edge(4, 87).
edge(63, 109).
edge(42, 151).
edge(13, 153).
edge(110, 155).
edge(111, 127).
edge(12, 23).
edge(5, 150).
edge(48, 58).
edge(104, 138).
edge(101, 121).
edge(0, 3).
edge(122, 147).
edge(33, 45).
edge(55, 149).
edge(0, 111).
edge(92, 103).
edge(4, 36).
edge(16, 38).
edge(71, 79).
edge(30, 63).
edge(68, 71).
edge(12, 150).
edge(63, 112).
edge(93, 102).
edge(11, 97).
edge(42, 52).
edge(70, 124).
edge(100, 121).
edge(112, 149).
edge(15, 108).
edge(21, 26).
edge(54, 103).
edge(27, 66).
edge(137, 163).
edge(41, 91).
edge(13, 115).
edge(53, 116).
edge(33, 65).
edge(7, 29).
edge(109, 154).
edge(72, 127).
edge(40, 132).
edge(160, 165).
edge(72, 119).
edge(90, 118).
edge(67, 140).
edge(8, 76).
edge(26, 49).
edge(56, 132).
edge(45, 103).
edge(64, 81).
edge(35, 38).
edge(124, 140).
edge(35, 66).
edge(64, 116).
edge(30, 109).
edge(56, 64).
edge(63, 116).
edge(107, 158).
edge(0, 33).
edge(126, 133).
edge(73, 134).
edge(19, 99).
edge(8, 128).
edge(117, 163).
edge(29, 60).
edge(116, 150).
edge(16, 56).
edge(131, 156).
edge(28, 104).
edge(44, 132).
edge(52, 146).
edge(86, 101).
edge(18, 157).
edge(11, 109).
edge(29, 88).
edge(23, 100).
edge(102, 153).
edge(68, 145).
edge(49, 102).
edge(82, 88).
edge(44, 160).
edge(23, 107).
edge(133, 159).
edge(97, 121).
edge(40, 149).
edge(93, 129).
edge(72, 76).
edge(10, 25).
edge(7, 54).
edge(10, 69).
edge(118, 160).
edge(81, 158).
edge(45, 162).
edge(5, 108).
edge(42, 51).
edge(116, 135).
edge(70, 100).
edge(65, 124).
edge(61, 155).
edge(0, 139).
edge(14, 128).
edge(52, 69).
edge(11, 110).
edge(9, 158).
edge(108, 113).
edge(96, 133).
edge(27, 156).
edge(16, 69).
edge(30, 51).
edge(39, 145).
edge(65, 97).
edge(19, 121).
edge(62, 88).
edge(57, 78).
edge(68, 155).
edge(65, 93).
edge(22, 35).
edge(10, 20).
edge(115, 159).
edge(60, 72).
edge(36, 86).
edge(12, 31).
edge(97, 144).
edge(54, 88).
edge(77, 127).
edge(55, 87).
edge(135, 163).
edge(42, 78).
edge(5, 44).
edge(51, 99).
edge(88, 114).
edge(9, 98).
edge(59, 126).
edge(36, 115).
edge(11, 118).
edge(102, 152).
edge(105, 150).
edge(118, 152).
edge(35, 68).
edge(84, 108).
edge(54, 89).
edge(18, 34).
edge(22, 148).
edge(71, 137).
edge(71, 138).
edge(40, 164).
edge(26, 32).
edge(64, 79).
edge(56, 72).
edge(25, 45).
edge(110, 138).
edge(84, 149).
edge(10, 101).
edge(65, 94).
edge(85, 148).
edge(44, 118).
edge(61, 130).
edge(96, 108).
edge(5, 51).
edge(23, 31).
edge(134, 156).
edge(116, 138).
edge(28, 140).
edge(49, 105).
edge(130, 139).
edge(107, 150).
edge(113, 137).
edge(50, 65).
edge(55, 141).
edge(72, 103).
edge(59, 69).
edge(38, 43).
edge(21, 73).
edge(67, 92).
edge(101, 146).
edge(6, 124).
edge(44, 100).
edge(39, 97).
edge(36, 61).
edge(39, 83).
edge(27, 107).
edge(13, 57).
edge(43, 150).
edge(43, 147).
edge(20, 107).
edge(17, 137).
edge(92, 139).
edge(129, 138).
edge(96, 135).
edge(67, 94).
edge(82, 164).
edge(20, 105).
edge(73, 158).
edge(114, 139).
edge(22, 165).
edge(7, 87).
edge(60, 141).
edge(91, 96).
edge(12, 122).
edge(95, 143).
edge(44, 149).
edge(0, 64).
edge(36, 51).
edge(6, 9).
edge(33, 163).
edge(81, 122).
edge(63, 97).
edge(19, 56).
edge(55, 113).
edge(109, 145).
edge(43, 149).
edge(108, 127).
edge(1, 9).
edge(21, 93).
edge(40, 46).
edge(30, 33).
edge(102, 159).
edge(76, 118).
edge(51, 95).
edge(41, 81).
edge(141, 158).
edge(32, 157).
edge(105, 157).
edge(121, 140).
edge(77, 81).
edge(19, 163).
edge(42, 147).
edge(7, 120).
edge(108, 125).
edge(40, 135).
edge(54, 78).
edge(47, 136).
edge(95, 118).
edge(46, 87).
edge(26, 159).
edge(93, 137).
edge(89, 136).
edge(44, 64).
edge(19, 151).
edge(12, 132).
edge(18, 106).
edge(101, 158).
edge(150, 151).
edge(38, 138).
edge(81, 101).
edge(106, 156).
edge(15, 98).
edge(30, 37).
edge(14, 147).
edge(27, 165).
edge(16, 147).
edge(78, 91).
edge(83, 93).
edge(29, 37).
edge(15, 59).
edge(12, 102).
edge(5, 19).
edge(89, 151).
edge(42, 118).
edge(8, 105).
edge(67, 78).
edge(49, 55).
edge(0, 108).
edge(22, 134).
edge(74, 99).
edge(43, 116).
edge(83, 146).
edge(126, 137).
edge(36, 70).
edge(58, 104).
edge(124, 154).
edge(152, 165).
edge(44, 113).
edge(16, 84).
edge(117, 144).
edge(47, 161).
edge(109, 133).
edge(127, 153).
edge(50, 163).
edge(54, 123).
edge(111, 165).
edge(14, 90).
edge(46, 110).
edge(46, 84).
edge(41, 136).
edge(33, 68).
edge(96, 146).
edge(49, 141).
edge(107, 142).
edge(54, 104).
edge(131, 155).
edge(8, 16).
edge(65, 112).
edge(113, 130).
edge(92, 96).
edge(36, 96).
edge(52, 94).
edge(43, 72).
edge(4, 37).
edge(43, 101).
edge(112, 134).
edge(0, 80).
edge(58, 127).
edge(89, 115).
edge(66, 141).
edge(29, 154).
edge(65, 147).
edge(6, 123).
edge(1, 60).
edge(9, 40).
edge(7, 73).
edge(20, 52).
edge(18, 70).
edge(138, 144).
edge(75, 160).
edge(84, 91).
edge(6, 67).
edge(101, 139).
edge(145, 149).
edge(26, 141).
edge(108, 126).
edge(118, 124).
edge(67, 161).
edge(12, 71).
edge(8, 84).
edge(30, 163).
edge(1, 30).
edge(9, 22).
edge(113, 144).
edge(56, 136).
edge(80, 149).
edge(67, 111).
edge(109, 112).
edge(30, 124).
edge(63, 164).
edge(38, 158).
edge(0, 109).
edge(66, 95).
edge(41, 127).
edge(9, 160).
edge(0, 159).
edge(142, 163).
edge(74, 130).
edge(24, 93).
edge(11, 148).
edge(80, 165).
edge(108, 138).
edge(62, 74).
edge(25, 59).
edge(31, 115).
edge(10, 13).
edge(62, 161).
edge(15, 45).
edge(94, 163).
edge(22, 135).
edge(70, 165).
edge(49, 151).
edge(48, 96).
edge(110, 130).
edge(2, 95).
edge(59, 151).
edge(126, 132).
edge(34, 89).
edge(40, 94).
edge(16, 156).
edge(14, 117).
edge(15, 82).
edge(71, 157).
edge(16, 149).
edge(23, 56).
edge(56, 81).
edge(49, 78).
edge(33, 134).
edge(46, 154).
edge(30, 73).
edge(59, 104).
edge(40, 145).
edge(88, 108).
edge(38, 112).
edge(98, 154).
edge(42, 63).
edge(31, 145).
edge(28, 128).
edge(71, 143).
edge(12, 130).
edge(0, 151).
edge(134, 145).
edge(0, 70).
edge(59, 143).
edge(80, 124).
edge(45, 119).
edge(15, 146).
edge(44, 145).
edge(15, 40).
edge(43, 151).
edge(53, 74).
edge(56, 59).
edge(30, 61).
edge(94, 153).
edge(66, 87).
edge(2, 69).
edge(71, 122).
edge(52, 106).
edge(37, 107).
edge(15, 32).
edge(77, 148).
edge(66, 151).
edge(7, 129).
edge(1, 57).
edge(19, 21).
edge(31, 131).
edge(57, 139).
edge(100, 115).
edge(52, 77).
edge(137, 148).
edge(90, 103).
edge(24, 140).
edge(49, 127).
edge(115, 145).
edge(31, 84).
edge(139, 143).
edge(53, 106).
edge(4, 12).
edge(4, 71).
edge(111, 149).
edge(141, 162).
edge(24, 115).
edge(15, 112).
edge(36, 45).
edge(27, 161).
edge(29, 99).
edge(64, 138).
edge(79, 89).
edge(88, 127).
edge(73, 133).
edge(4, 46).
edge(119, 149).
edge(71, 127).
edge(101, 122).
edge(83, 100).
edge(9, 147).
edge(28, 98).
edge(58, 59).
edge(64, 141).
edge(17, 95).
edge(8, 64).
edge(44, 133).
edge(37, 79).
edge(101, 159).
edge(10, 157).
edge(2, 5).
edge(82, 122).
edge(3, 9).
edge(80, 129).
edge(77, 124).
edge(25, 146).
edge(27, 71).
edge(31, 96).
edge(93, 134).
edge(37, 101).
edge(14, 75).
edge(91, 140).
edge(90, 150).
edge(109, 135).
edge(5, 37).
edge(40, 117).
edge(125, 145).
edge(113, 121).
edge(105, 122).
edge(28, 89).
edge(140, 156).
edge(145, 146).
edge(85, 151).
edge(134, 159).
edge(0, 143).
edge(10, 60).
edge(125, 155).
edge(97, 126).
edge(36, 83).
edge(65, 72).
edge(47, 109).
edge(118, 119).
edge(29, 109).
edge(49, 95).
edge(14, 48).
edge(20, 152).
edge(39, 118).
edge(42, 68).
edge(122, 164).
edge(64, 127).
edge(103, 120).
edge(78, 89).
edge(10, 51).
edge(48, 62).
edge(29, 147).
edge(11, 144).
edge(72, 132).
edge(27, 134).
edge(5, 79).
edge(41, 104).
edge(0, 74).
edge(99, 102).
edge(92, 111).
edge(56, 138).
edge(28, 72).
edge(70, 131).
edge(101, 142).
edge(54, 71).
edge(81, 105).
edge(16, 109).
edge(87, 157).
edge(139, 140).
edge(50, 117).
edge(41, 152).
edge(83, 140).
edge(87, 163).
edge(16, 160).
edge(23, 163).
edge(35, 95).
edge(17, 74).
edge(41, 116).
edge(148, 156).
edge(12, 105).
edge(52, 116).
edge(17, 88).
edge(109, 143).
edge(19, 113).
edge(82, 109).
edge(78, 161).
edge(7, 81).
edge(123, 148).
edge(16, 163).
edge(39, 56).
edge(17, 61).
edge(94, 135).
edge(98, 100).
edge(53, 118).
edge(16, 30).
edge(77, 158).
edge(42, 46).
edge(60, 100).
edge(33, 64).
edge(162, 165).
edge(111, 154).
edge(84, 143).
edge(130, 153).
edge(6, 93).
edge(14, 105).
edge(88, 150).
edge(21, 23).
edge(103, 151).
edge(64, 99).
edge(1, 161).
edge(20, 48).
edge(35, 84).
edge(29, 49).
edge(78, 108).
edge(15, 76).
edge(77, 157).
edge(13, 25).
edge(16, 96).
edge(68, 91).
edge(26, 40).
edge(88, 134).
edge(27, 144).
edge(38, 56).
edge(5, 88).
edge(93, 125).
edge(26, 84).
edge(40, 77).
edge(35, 48).
edge(86, 128).
edge(35, 92).
edge(93, 96).
edge(45, 137).
edge(82, 147).
edge(112, 125).
edge(128, 157).
edge(64, 142).
edge(89, 163).
edge(33, 148).
edge(30, 42).
edge(28, 52).
edge(38, 71).
edge(54, 62).
edge(74, 160).
edge(141, 156).
edge(21, 102).
edge(93, 113).
edge(71, 161).
edge(12, 61).
edge(31, 97).
edge(3, 107).
edge(19, 95).
edge(23, 156).
edge(53, 121).
edge(24, 73).
edge(119, 131).
edge(27, 135).
edge(10, 130).
edge(120, 151).
edge(86, 149).
edge(14, 129).
edge(33, 165).
edge(9, 152).
edge(48, 55).
edge(5, 87).
edge(148, 165).
edge(117, 119).
edge(37, 143).
edge(5, 53).
edge(4, 109).
edge(64, 136).
edge(92, 149).
edge(34, 147).
edge(43, 163).
edge(4, 111).
edge(56, 133).
edge(134, 138).
edge(96, 140).
edge(61, 148).
edge(64, 92).
edge(6, 115).
edge(31, 48).
edge(16, 150).
edge(49, 108).
edge(20, 96).
edge(136, 160).
edge(46, 89).
edge(12, 81).
edge(34, 99).
edge(42, 66).
edge(18, 81).
edge(7, 115).
edge(118, 148).
edge(21, 30).
edge(105, 117).
edge(19, 112).
edge(85, 130).
edge(44, 53).
edge(35, 81).
edge(97, 120).
edge(10, 88).
edge(114, 145).
edge(11, 67).
edge(24, 137).
edge(47, 103).
edge(45, 81).
edge(32, 161).
edge(123, 157).
edge(64, 159).
edge(48, 128).
edge(81, 141).
edge(23, 45).
edge(17, 25).
edge(0, 164).
edge(20, 29).
edge(17, 62).
edge(86, 93).
edge(36, 103).
edge(11, 163).
edge(32, 110).
edge(56, 129).
edge(55, 90).
edge(77, 117).
edge(25, 42).
edge(8, 158).
edge(31, 111).
edge(40, 43).
edge(88, 110).
edge(52, 153).
edge(66, 70).
edge(25, 61).
edge(95, 132).
edge(67, 101).
edge(5, 158).
edge(60, 74).
edge(19, 68).
edge(92, 133).
edge(1, 78).
edge(1, 96).
edge(145, 156).
edge(16, 67).
edge(26, 97).
edge(31, 122).
edge(38, 83).
edge(89, 101).
edge(56, 112).
edge(64, 95).
edge(11, 132).
edge(53, 67).
edge(69, 87).
edge(34, 141).
edge(47, 117).
edge(7, 48).
edge(47, 94).
edge(69, 161).
edge(66, 162).
edge(59, 68).
edge(4, 41).
edge(117, 152).
edge(59, 149).
edge(1, 134).
edge(18, 28).
edge(22, 60).
edge(116, 155).
edge(37, 130).
edge(72, 152).
edge(51, 82).
edge(17, 126).
edge(6, 151).
edge(26, 61).
edge(106, 134).
edge(42, 117).
edge(92, 144).
edge(76, 102).
edge(99, 136).
edge(37, 102).
edge(71, 132).
edge(10, 114).
edge(28, 134).
edge(30, 154).
edge(69, 93).
edge(55, 127).
edge(69, 71).
edge(148, 162).
edge(87, 91).
edge(121, 162).
edge(54, 82).
edge(68, 85).
edge(84, 129).
edge(146, 165).
edge(21, 114).
edge(16, 127).
edge(29, 100).
edge(27, 117).
edge(90, 128).
edge(146, 163).
edge(31, 141).
edge(5, 165).
edge(156, 158).
edge(77, 121).
edge(37, 85).
edge(22, 105).
edge(84, 110).
edge(9, 74).
edge(24, 138).
edge(99, 115).
edge(88, 100).
edge(13, 22).
edge(58, 124).
edge(32, 85).
edge(95, 158).
edge(44, 57).
edge(79, 113).
edge(15, 157).
edge(114, 119).
edge(140, 149).
edge(4, 147).
edge(10, 92).
edge(22, 49).
edge(33, 125).
edge(39, 40).
edge(62, 134).
edge(89, 111).
edge(109, 130).
edge(84, 140).
edge(14, 94).
edge(68, 101).
edge(37, 134).
edge(29, 105).
edge(100, 110).
edge(33, 77).
edge(150, 162).
edge(123, 159).
edge(33, 42).
edge(37, 129).
edge(7, 128).
edge(3, 43).
edge(30, 100).
edge(6, 155).
edge(15, 159).
edge(138, 165).
edge(10, 165).
edge(74, 144).
edge(95, 142).
edge(32, 97).
edge(2, 49).
edge(38, 48).
edge(44, 126).
edge(67, 135).
edge(21, 70).
edge(35, 90).
edge(66, 90).
edge(146, 155).
edge(27, 82).
edge(107, 120).
edge(105, 135).
edge(11, 92).
edge(39, 134).
edge(133, 152).
edge(38, 124).
edge(6, 23).
edge(121, 145).
edge(14, 57).
edge(134, 155).
edge(20, 134).
edge(3, 140).
edge(65, 149).
edge(0, 16).
edge(119, 161).
edge(36, 130).
edge(1, 137).
edge(11, 142).
edge(127, 148).
edge(41, 105).
edge(90, 149).
edge(41, 46).
edge(16, 40).
edge(72, 163).
edge(1, 79).
edge(41, 54).
edge(82, 121).
edge(76, 160).
edge(19, 88).
edge(29, 64).
edge(77, 140).
edge(86, 92).
edge(96, 123).
edge(5, 32).
edge(45, 49).
edge(44, 81).
edge(97, 133).
edge(66, 127).
edge(14, 15).
edge(4, 83).
edge(55, 136).
edge(105, 146).
edge(129, 150).
edge(20, 83).
edge(69, 145).
edge(26, 37).
edge(33, 44).
edge(8, 104).
edge(51, 148).
edge(21, 46).
edge(38, 44).
edge(11, 63).
edge(22, 50).
edge(0, 154).
edge(60, 68).
edge(66, 76).
edge(23, 62).
edge(46, 140).
edge(42, 75).
edge(85, 157).
edge(38, 157).
edge(148, 160).
edge(34, 41).
edge(50, 132).
edge(106, 148).
edge(11, 115).
edge(66, 93).
edge(37, 70).
edge(108, 144).
edge(49, 154).
edge(27, 148).
edge(13, 143).
edge(95, 102).
edge(35, 58).
edge(30, 76).
edge(87, 104).
edge(75, 143).
edge(58, 126).
edge(154, 163).
edge(89, 93).
edge(40, 156).
edge(70, 118).
edge(42, 146).
edge(7, 26).
edge(79, 146).
edge(53, 133).
edge(46, 75).
edge(49, 69).
edge(0, 155).
edge(41, 50).
edge(105, 151).
edge(72, 139).
edge(154, 165).
edge(29, 78).
edge(69, 80).
edge(53, 78).
edge(36, 113).
edge(59, 73).
edge(7, 155).
edge(74, 143).
edge(92, 105).
edge(57, 65).
edge(17, 145).
edge(25, 159).
edge(14, 55).
edge(15, 141).
edge(0, 138).
edge(97, 131).
edge(85, 111).
edge(13, 135).
edge(37, 45).
edge(64, 106).
edge(29, 150).
edge(90, 141).
edge(26, 115).
edge(3, 147).
edge(14, 63).
edge(18, 19).
edge(99, 100).
edge(65, 80).
edge(63, 64).
edge(78, 140).
edge(89, 116).
edge(42, 139).
edge(136, 137).
edge(17, 130).
edge(14, 20).
edge(53, 58).
edge(38, 101).
edge(78, 99).
edge(35, 46).
edge(19, 63).
edge(97, 159).
edge(50, 88).
edge(70, 110).
edge(23, 51).
edge(36, 92).
edge(61, 128).
edge(18, 110).
edge(68, 123).
edge(1, 17).
edge(100, 165).
edge(3, 58).
edge(33, 151).
edge(38, 130).
edge(33, 61).
edge(7, 112).
edge(116, 157).
edge(62, 123).
edge(55, 117).
edge(42, 107).
edge(40, 44).
edge(53, 159).
edge(19, 148).
edge(94, 99).
edge(15, 37).
edge(135, 142).
edge(139, 148).
edge(97, 136).
edge(72, 157).
edge(42, 148).
edge(75, 110).
edge(69, 90).
edge(89, 96).
edge(42, 163).
edge(41, 146).
edge(33, 130).
edge(94, 106).
edge(132, 145).
edge(30, 157).
edge(47, 84).
edge(42, 165).
edge(47, 135).
edge(10, 151).
edge(10, 22).
edge(101, 118).
edge(26, 155).
edge(5, 146).
edge(78, 143).
edge(119, 146).
edge(0, 12).
edge(102, 133).
edge(69, 108).
edge(25, 83).
edge(55, 73).
edge(33, 158).
edge(23, 46).
edge(35, 75).
edge(27, 137).
edge(95, 115).
edge(22, 115).
edge(32, 67).
edge(9, 15).
edge(1, 113).
edge(54, 110).
edge(18, 91).
edge(43, 119).
edge(12, 27).
edge(36, 104).
edge(109, 111).
edge(105, 118).
edge(6, 38).
edge(97, 150).
edge(49, 65).
edge(86, 118).
edge(22, 76).
edge(6, 88).
edge(71, 146).
edge(49, 121).
edge(74, 155).
edge(78, 85).
edge(69, 164).
edge(110, 162).
edge(53, 153).
edge(110, 145).
edge(61, 135).
edge(69, 114).
edge(84, 137).
edge(102, 157).
edge(10, 137).
edge(76, 88).
edge(130, 135).
edge(144, 165).
edge(6, 153).
edge(48, 75).
edge(90, 145).
edge(23, 130).
edge(141, 151).
edge(118, 128).
edge(59, 98).
edge(30, 83).
edge(28, 60).
edge(105, 159).
edge(83, 131).
edge(13, 49).
edge(19, 70).
edge(100, 130).
edge(68, 93).
edge(31, 148).
edge(17, 149).
edge(98, 137).
edge(48, 99).
edge(22, 37).
edge(136, 148).
edge(81, 159).
edge(13, 64).
edge(92, 159).
edge(35, 131).
edge(22, 118).
edge(99, 141).
edge(88, 89).
edge(61, 141).
edge(104, 118).
edge(53, 79).
edge(25, 119).
edge(36, 52).
edge(63, 78).
edge(48, 146).
edge(27, 114).
edge(34, 98).
edge(75, 157).
edge(22, 41).
edge(36, 90).
edge(73, 105).
edge(129, 137).
edge(148, 163).
edge(28, 76).
edge(40, 125).
edge(29, 124).
edge(37, 58).
edge(4, 151).
edge(44, 111).
edge(41, 60).
edge(26, 88).
edge(22, 142).
edge(19, 119).
edge(0, 73).
edge(63, 71).
edge(16, 126).
edge(31, 69).
edge(123, 137).
edge(7, 140).
edge(20, 63).
edge(13, 72).
edge(130, 133).
edge(155, 159).
edge(58, 145).
edge(2, 85).
edge(32, 45).
edge(134, 157).
edge(86, 121).
edge(48, 70).
edge(32, 147).
edge(44, 144).
edge(7, 58).
edge(89, 107).
edge(46, 133).
edge(33, 126).
edge(80, 91).
edge(140, 159).
edge(23, 77).
edge(2, 157).
edge(24, 44).
edge(7, 147).
edge(1, 151).
edge(40, 139).
edge(99, 128).
edge(94, 140).
edge(18, 84).
edge(48, 92).
edge(46, 136).
edge(18, 95).
edge(102, 136).
edge(51, 146).
edge(15, 84).
edge(154, 164).
edge(58, 68).
edge(16, 120).
edge(7, 53).
edge(22, 67).
edge(5, 109).
edge(50, 52).
edge(113, 163).
edge(4, 89).
edge(36, 128).
edge(35, 61).
edge(20, 78).
edge(81, 97).
edge(84, 154).
edge(28, 32).
edge(96, 101).
edge(133, 145).
edge(119, 129).
edge(115, 117).
edge(46, 128).
edge(27, 38).
edge(3, 56).
edge(8, 77).
edge(112, 150).
edge(33, 47).
edge(46, 126).
edge(58, 115).
edge(12, 96).
edge(3, 159).
edge(8, 88).
edge(81, 140).
edge(87, 107).
edge(24, 108).
edge(6, 47).
edge(39, 122).
edge(37, 86).
edge(81, 102).
edge(120, 165).
edge(60, 119).
edge(56, 86).
edge(68, 88).
edge(36, 147).
edge(50, 129).
edge(32, 136).
edge(26, 63).
edge(143, 159).
edge(41, 57).
edge(4, 34).
edge(38, 78).
edge(57, 93).
edge(35, 73).
edge(127, 134).
edge(11, 156).
edge(68, 105).
edge(124, 153).
edge(82, 133).
edge(33, 164).
edge(21, 135).
edge(60, 144).
edge(82, 107).
edge(4, 29).
edge(113, 134).
edge(64, 94).
edge(25, 118).
edge(87, 131).
edge(101, 123).
edge(91, 124).
edge(104, 109).
edge(36, 57).
edge(32, 111).
edge(15, 74).
edge(23, 125).
edge(9, 26).
edge(65, 148).
edge(33, 155).
edge(95, 112).
edge(51, 81).
edge(2, 34).
edge(93, 140).
edge(125, 127).
edge(4, 27).
edge(31, 54).
edge(79, 101).
edge(73, 164).
edge(37, 151).
edge(100, 148).
edge(90, 108).
edge(15, 85).
edge(92, 160).
edge(28, 126).
edge(139, 149).
edge(21, 161).
edge(10, 150).
edge(83, 130).
edge(101, 112).
edge(24, 133).
edge(21, 128).
edge(20, 33).
edge(16, 37).
edge(124, 149).
edge(26, 86).
edge(64, 139).
edge(1, 129).
edge(47, 126).
edge(10, 53).
edge(48, 150).
edge(35, 160).
edge(61, 114).
edge(4, 50).
edge(78, 135).
edge(68, 87).
edge(86, 147).
edge(2, 63).
edge(24, 84).
edge(39, 65).
edge(28, 71).
edge(28, 107).
edge(79, 124).
edge(136, 159).
edge(132, 133).
edge(44, 125).
edge(29, 159).
edge(1, 143).
edge(80, 150).
edge(35, 140).
edge(47, 67).
edge(94, 141).
edge(53, 145).
edge(28, 143).
edge(51, 64).
edge(13, 98).
edge(107, 115).
edge(0, 90).
edge(22, 48).
edge(25, 139).
edge(6, 85).
edge(24, 134).
edge(29, 87).
edge(79, 140).
edge(137, 160).
edge(27, 57).
edge(68, 77).
edge(9, 92).
edge(1, 52).
edge(28, 145).
edge(120, 157).
edge(121, 163).
edge(15, 18).
edge(33, 141).
edge(38, 90).
edge(42, 164).
edge(137, 162).
edge(14, 159).
edge(3, 83).
edge(89, 99).
edge(54, 57).
edge(51, 52).
edge(57, 155).
edge(69, 106).
edge(95, 123).
edge(131, 161).
edge(109, 136).
edge(14, 41).
edge(145, 147).
edge(31, 77).
edge(68, 143).
edge(11, 27).
edge(10, 141).
edge(114, 137).
edge(67, 164).
edge(34, 132).
edge(130, 145).
edge(4, 123).
edge(6, 92).
edge(8, 135).
edge(151, 164).
edge(16, 43).
edge(106, 138).
edge(27, 37).
edge(58, 117).
edge(111, 139).
edge(53, 165).
edge(6, 32).
edge(85, 135).
edge(42, 155).
edge(92, 128).
edge(12, 126).
edge(1, 26).
edge(123, 164).
edge(53, 91).
edge(2, 78).
edge(92, 140).
edge(21, 107).
edge(11, 25).
edge(31, 135).
edge(63, 108).
edge(6, 129).
edge(118, 165).
edge(72, 85).
edge(119, 124).
edge(60, 70).
edge(40, 105).
edge(140, 161).
edge(11, 160).
edge(36, 65).
edge(15, 54).
edge(27, 72).
edge(24, 49).
edge(97, 108).
edge(17, 76).
edge(14, 49).
edge(62, 110).
edge(25, 85).
edge(96, 165).
edge(46, 71).
edge(40, 126).
edge(26, 111).
edge(29, 90).
edge(80, 151).
edge(7, 23).
edge(44, 61).
edge(54, 156).
edge(18, 86).
edge(54, 163).
edge(80, 161).
edge(33, 72).
edge(109, 131).
edge(37, 161).
edge(8, 43).
edge(95, 113).
edge(58, 118).
edge(75, 152).
edge(113, 143).
edge(37, 97).
edge(48, 73).
edge(7, 164).
edge(61, 106).
edge(146, 164).
edge(28, 36).
edge(93, 106).
edge(73, 126).
edge(53, 155).
edge(66, 138).
edge(62, 85).
edge(19, 120).
edge(40, 141).
edge(104, 133).
edge(16, 23).
edge(65, 126).
edge(30, 71).
edge(82, 162).
edge(6, 64).
edge(98, 103).
edge(20, 65).
edge(107, 109).
edge(43, 108).
edge(6, 103).
edge(119, 157).
edge(68, 152).
edge(1, 77).
edge(133, 160).
edge(94, 104).
edge(12, 66).
edge(86, 164).
edge(1, 86).
edge(28, 35).
edge(44, 47).
edge(33, 159).
edge(31, 163).
edge(80, 93).
edge(127, 146).
edge(103, 160).
edge(114, 144).
edge(62, 146).
edge(14, 79).
edge(8, 36).
edge(102, 110).
edge(36, 41).
edge(34, 112).
edge(12, 82).
edge(49, 80).
edge(49, 54).
edge(2, 108).
edge(121, 137).
edge(56, 60).
edge(12, 86).
edge(146, 162).
edge(105, 113).
edge(51, 147).
edge(73, 116).
edge(90, 163).
edge(85, 101).
edge(19, 158).
edge(36, 161).
edge(12, 60).
edge(52, 59).
edge(28, 150).
edge(30, 43).
edge(5, 42).
edge(80, 162).
edge(105, 161).
edge(56, 94).
edge(31, 99).
edge(9, 130).
edge(20, 46).
edge(33, 62).
edge(156, 159).
edge(47, 130).
edge(146, 153).
edge(111, 150).
edge(123, 134).
edge(25, 161).
edge(81, 165).
edge(24, 118).
edge(88, 149).
edge(93, 108).
edge(75, 76).
edge(80, 139).
edge(23, 66).
edge(54, 61).
edge(114, 151).
edge(24, 30).
edge(7, 163).
edge(12, 75).
edge(19, 129).
edge(24, 50).
edge(30, 77).
edge(13, 93).
edge(43, 91).
edge(3, 129).
edge(53, 54).
edge(68, 122).
edge(7, 24).
edge(11, 52).
edge(46, 88).
edge(33, 84).
edge(59, 162).
edge(63, 150).
edge(16, 89).
edge(137, 153).
edge(110, 123).
edge(33, 129).
edge(80, 113).
edge(65, 117).
edge(56, 68).
edge(71, 87).
edge(39, 133).
edge(55, 121).
edge(61, 79).
edge(43, 87).
edge(109, 158).
edge(141, 144).
edge(44, 139).
edge(13, 84).
edge(90, 129).
edge(126, 150).
edge(23, 124).
edge(98, 109).
edge(78, 101).
edge(72, 84).
edge(89, 102).
edge(42, 56).
edge(5, 147).
edge(20, 87).
edge(136, 161).
edge(18, 62).
edge(37, 135).
edge(68, 107).
edge(80, 114).
edge(81, 144).
edge(133, 139).
edge(112, 157).
edge(19, 157).
edge(32, 134).
edge(7, 160).
edge(53, 164).
edge(66, 156).
edge(130, 165).
edge(103, 158).
edge(43, 121).
edge(52, 90).
edge(142, 156).
edge(3, 90).
edge(73, 165).
edge(102, 118).
edge(73, 86).
edge(12, 40).
edge(31, 127).
edge(16, 158).
edge(94, 148).
edge(40, 69).
edge(49, 111).
edge(130, 150).
edge(131, 154).
edge(9, 132).
edge(98, 147).
edge(18, 54).
edge(61, 117).
edge(38, 88).
edge(13, 58).
edge(37, 89).
edge(59, 148).
edge(3, 99).
edge(32, 35).
edge(78, 120).
edge(39, 153).
edge(74, 127).
edge(76, 79).
edge(29, 67).
edge(20, 129).
edge(15, 116).
edge(24, 72).
edge(103, 150).
edge(50, 160).
edge(98, 123).
edge(2, 46).
edge(11, 70).
edge(103, 105).
edge(21, 129).
edge(58, 110).
edge(5, 14).
edge(69, 148).
edge(13, 127).
edge(56, 103).
edge(29, 68).
edge(136, 156).
edge(31, 59).
edge(10, 161).
edge(90, 148).
edge(113, 115).
edge(97, 113).
edge(62, 153).
edge(44, 84).
edge(37, 78).
edge(40, 107).
edge(51, 71).
edge(4, 99).
edge(59, 137).
edge(99, 152).
edge(63, 148).
edge(141, 160).
edge(108, 129).
edge(1, 49).
edge(37, 110).
edge(127, 144).
edge(1, 149).
edge(73, 97).
edge(80, 144).
edge(99, 116).
edge(100, 125).
edge(145, 165).
edge(97, 149).
edge(0, 17).
edge(80, 148).
edge(124, 141).
edge(99, 123).
edge(66, 130).
edge(105, 139).
edge(93, 101).
edge(22, 27).
edge(50, 79).
edge(13, 131).
edge(65, 78).
edge(11, 111).
edge(3, 115).
edge(7, 113).
edge(137, 138).
edge(59, 122).
edge(92, 165).
edge(52, 81).
edge(5, 118).
edge(38, 53).
edge(30, 65).
edge(20, 50).
edge(17, 22).
edge(44, 52).
edge(32, 88).
edge(142, 145).
edge(53, 92).
edge(3, 13).
edge(116, 125).
edge(90, 92).
edge(85, 146).
edge(4, 106).
edge(84, 130).
edge(27, 100).
edge(100, 155).
edge(119, 138).
edge(67, 163).
edge(129, 158).
edge(8, 74).
edge(86, 156).
edge(9, 133).
edge(50, 113).
edge(45, 58).
edge(48, 149).
edge(90, 102).
edge(117, 153).
edge(25, 102).
edge(38, 86).
edge(22, 73).
edge(70, 160).
edge(6, 61).
edge(128, 161).
edge(45, 134).
edge(31, 67).
edge(75, 125).
edge(32, 121).
edge(91, 115).
edge(61, 90).
edge(66, 165).
edge(30, 146).
edge(58, 92).
edge(19, 156).
edge(134, 139).
edge(40, 109).
edge(57, 73).
edge(90, 158).
edge(79, 157).
edge(109, 159).
edge(88, 144).
edge(25, 65).
edge(18, 153).
edge(106, 122).
edge(0, 91).
edge(30, 137).
edge(38, 148).
edge(1, 130).
edge(119, 150).
edge(75, 118).
edge(56, 158).
edge(45, 88).
edge(75, 94).
edge(25, 150).
edge(64, 87).
edge(16, 21).
edge(84, 125).
edge(21, 155).
edge(63, 114).
edge(75, 81).
edge(7, 103).
edge(55, 72).
edge(21, 25).
edge(58, 133).
edge(22, 121).
edge(109, 132).
edge(39, 129).
edge(29, 74).
edge(120, 130).
edge(87, 160).
edge(47, 65).
edge(147, 148).
edge(70, 128).
edge(84, 85).
edge(43, 65).
edge(1, 123).
edge(1, 58).
edge(88, 151).
edge(2, 88).
edge(49, 129).
edge(99, 132).
edge(14, 43).
edge(98, 139).
edge(51, 145).
edge(108, 131).
edge(5, 116).
edge(27, 91).
edge(0, 98).
edge(42, 100).
edge(22, 97).
edge(25, 47).
edge(32, 105).
edge(64, 78).
edge(100, 124).
edge(69, 101).
edge(99, 101).
edge(29, 113).
edge(17, 121).
edge(19, 162).
edge(60, 158).
edge(94, 100).
edge(88, 128).
edge(0, 104).
edge(37, 141).
edge(96, 163).
edge(104, 151).
edge(12, 34).
edge(9, 120).
edge(95, 99).
edge(84, 106).
edge(32, 83).
edge(2, 22).
edge(13, 163).
edge(2, 4).
edge(36, 40).
edge(32, 144).
edge(10, 82).
edge(31, 82).
edge(23, 113).
edge(6, 75).
edge(1, 40).
edge(5, 25).
edge(92, 95).
edge(48, 93).
edge(21, 145).
edge(103, 109).
edge(12, 25).
edge(59, 114).
edge(23, 142).
edge(84, 99).
edge(2, 35).
edge(26, 56).
edge(37, 164).
edge(3, 38).
edge(23, 82).
edge(120, 136).
edge(9, 88).
edge(77, 159).
edge(13, 149).
edge(3, 162).
edge(105, 138).
edge(60, 98).
edge(28, 84).
edge(69, 73).
edge(3, 55).
edge(0, 107).
edge(96, 118).
edge(45, 113).
edge(129, 153).
edge(92, 141).
edge(33, 100).
edge(62, 66).
edge(11, 84).
edge(123, 140).
edge(7, 107).
edge(29, 35).
edge(20, 60).
edge(91, 112).
edge(64, 126).
edge(114, 121).
edge(62, 114).
edge(1, 122).
edge(1, 163).
edge(30, 120).
edge(26, 127).
edge(70, 101).
edge(25, 68).
edge(28, 160).
edge(103, 142).
edge(52, 137).
edge(103, 130).
edge(57, 146).
edge(16, 98).
edge(13, 138).
edge(22, 90).
edge(5, 41).
edge(5, 122).
edge(44, 90).
edge(23, 164).
edge(18, 65).
edge(41, 123).
edge(30, 75).
edge(28, 66).
edge(84, 162).
edge(6, 147).
edge(119, 127).
edge(31, 40).
edge(45, 64).
edge(96, 131).
edge(37, 144).
edge(66, 94).
edge(104, 147).
edge(54, 101).
edge(29, 47).
edge(120, 135).
edge(1, 63).
edge(97, 143).
edge(84, 104).
edge(18, 129).
edge(130, 132).
edge(45, 163).
edge(63, 142).
edge(122, 125).
edge(62, 65).
edge(98, 114).
edge(111, 123).
edge(22, 162).
edge(151, 162).
edge(46, 91).
edge(46, 127).
edge(51, 70).
edge(60, 139).
edge(48, 95).
edge(51, 113).
edge(15, 17).
edge(21, 101).
edge(5, 84).
edge(12, 18).
edge(33, 147).
edge(91, 165).
edge(6, 102).
edge(79, 132).
edge(1, 124).
edge(19, 111).
edge(100, 133).
edge(38, 55).
edge(6, 7).
edge(79, 133).
edge(53, 119).
edge(31, 149).
edge(95, 98).
edge(38, 64).
edge(77, 162).
edge(93, 153).
edge(12, 88).
edge(22, 124).
edge(100, 107).
edge(1, 125).
edge(18, 30).
edge(2, 84).
edge(122, 159).
edge(23, 109).
edge(30, 40).
edge(61, 91).
edge(140, 163).
edge(71, 75).
edge(50, 130).
edge(43, 102).
edge(143, 153).
edge(30, 62).
edge(82, 137).
edge(59, 80).
edge(68, 146).
edge(35, 114).
edge(36, 152).
edge(9, 66).
edge(85, 156).
edge(21, 139).
edge(61, 94).
edge(7, 111).
edge(102, 139).
edge(64, 133).
edge(85, 131).
edge(27, 69).
edge(14, 133).
edge(0, 144).
edge(88, 91).
edge(72, 108).
edge(2, 38).
edge(60, 69).
edge(69, 152).
edge(57, 122).
edge(17, 115).
edge(49, 91).
edge(79, 100).
edge(14, 155).
edge(69, 81).
edge(79, 141).
edge(113, 157).
edge(51, 130).
edge(55, 65).
edge(17, 42).
edge(43, 97).
edge(67, 86).
edge(14, 122).
edge(142, 152).
edge(2, 64).
edge(133, 164).
edge(1, 92).
edge(51, 67).
edge(16, 92).
edge(45, 67).
edge(45, 82).
edge(33, 140).
edge(52, 160).
edge(128, 136).
edge(24, 67).
edge(24, 88).
edge(43, 110).
edge(76, 101).
edge(108, 140).
edge(14, 127).
edge(4, 22).
edge(30, 49).
edge(44, 93).
edge(31, 147).
edge(72, 79).
edge(50, 70).
edge(114, 129).
edge(79, 87).
edge(9, 12).
edge(36, 133).
edge(38, 100).
edge(47, 153).
edge(12, 151).
edge(29, 56).
edge(20, 73).
edge(46, 92).
edge(35, 99).
edge(46, 139).
edge(53, 101).
edge(5, 138).
edge(64, 101).
edge(103, 134).
edge(156, 157).
edge(0, 116).
edge(51, 93).
edge(97, 153).
edge(52, 151).
edge(108, 121).
edge(99, 127).
edge(5, 102).
edge(6, 41).
edge(126, 129).
edge(14, 130).
edge(124, 130).
edge(123, 136).
edge(24, 160).
edge(96, 112).
edge(77, 113).
edge(34, 74).
edge(3, 72).
edge(54, 90).
edge(45, 84).
edge(29, 135).
edge(9, 45).
edge(96, 105).
edge(57, 148).
edge(32, 98).
edge(100, 139).
edge(24, 103).
edge(131, 147).
edge(5, 142).
edge(103, 139).
edge(8, 75).
edge(54, 124).
edge(52, 134).
edge(50, 137).
edge(52, 107).
edge(26, 33).
edge(81, 147).
edge(101, 148).
edge(76, 163).
edge(53, 163).
edge(108, 117).
edge(10, 49).
edge(106, 109).
edge(149, 152).
edge(25, 53).
edge(37, 72).
edge(1, 53).
edge(70, 162).
edge(116, 117).
edge(8, 124).
edge(14, 97).
edge(44, 106).
edge(110, 120).
edge(52, 89).
edge(117, 131).
edge(32, 116).
edge(4, 17).
edge(41, 55).
edge(59, 99).
edge(38, 66).
edge(85, 87).
edge(51, 140).
edge(81, 116).
edge(0, 9).
edge(32, 91).
edge(158, 159).
edge(12, 53).
edge(44, 105).
edge(46, 51).
edge(40, 150).
edge(31, 133).
edge(62, 98).
edge(39, 128).
edge(40, 157).
edge(66, 160).
edge(19, 135).
edge(70, 163).
edge(8, 35).
edge(53, 56).
edge(76, 156).
edge(23, 123).
edge(41, 69).
edge(143, 162).
edge(19, 109).
edge(71, 120).
edge(32, 40).
edge(22, 137).
edge(22, 40).
edge(6, 108).
edge(49, 152).
edge(33, 89).
edge(0, 79).
edge(111, 112).
edge(3, 150).
edge(57, 158).
edge(46, 83).
edge(29, 146).
edge(35, 51).
edge(21, 99).
edge(108, 119).
edge(39, 103).
edge(38, 69).
edge(53, 102).
edge(79, 98).
edge(46, 160).
edge(36, 134).
edge(94, 151).
edge(16, 66).
edge(66, 121).
edge(132, 165).
edge(47, 110).
edge(7, 80).
edge(0, 61).
edge(74, 120).
edge(40, 96).
edge(34, 120).
edge(25, 64).
edge(104, 160).
edge(37, 91).
edge(139, 164).
edge(49, 66).
edge(70, 90).
edge(108, 114).
edge(30, 145).
edge(22, 133).
edge(152, 160).
edge(55, 106).
edge(130, 147).
edge(24, 119).
edge(10, 12).
edge(3, 104).
edge(88, 164).
edge(98, 161).
edge(73, 115).
edge(49, 52).
edge(56, 144).
edge(85, 164).
edge(15, 129).
edge(41, 159).
edge(25, 38).
edge(78, 152).
edge(85, 137).
edge(7, 100).
edge(1, 108).
edge(84, 122).
edge(151, 155).
edge(61, 160).
edge(4, 76).
edge(121, 158).
edge(4, 137).
edge(13, 122).
edge(99, 157).
edge(15, 97).
edge(155, 161).
edge(72, 158).
edge(101, 164).
edge(118, 147).
edge(81, 113).
edge(85, 162).
edge(44, 157).
edge(64, 147).
edge(22, 55).
edge(117, 150).
edge(96, 153).
edge(67, 151).
edge(33, 56).
edge(39, 50).
edge(18, 66).
edge(22, 84).
edge(56, 111).
edge(51, 129).
edge(20, 88).
edge(49, 85).
edge(22, 94).
edge(50, 119).
edge(3, 79).
edge(29, 163).
edge(77, 82).
edge(113, 114).
edge(58, 71).
edge(4, 51).
edge(71, 164).
edge(36, 74).
edge(64, 109).
edge(122, 140).
edge(127, 137).
edge(28, 117).
edge(52, 115).
edge(31, 73).
edge(81, 129).
edge(23, 144).
edge(3, 100).
edge(34, 150).
edge(28, 88).
edge(97, 142).
edge(85, 159).
edge(5, 120).
edge(125, 128).
edge(66, 125).
edge(1, 94).
edge(13, 96).
edge(40, 58).
edge(108, 152).
edge(83, 125).
edge(16, 115).
edge(25, 153).
edge(38, 129).
edge(125, 165).
edge(50, 122).
edge(97, 165).
edge(120, 121).
edge(91, 100).
edge(8, 86).
edge(72, 83).
edge(64, 160).
edge(29, 136).
edge(51, 156).
edge(49, 164).
edge(20, 40).
edge(61, 125).
edge(8, 100).
edge(51, 110).
edge(0, 21).
edge(31, 85).
edge(68, 130).
edge(37, 62).
edge(99, 148).
edge(63, 93).
edge(20, 111).
edge(22, 159).
edge(63, 165).
edge(66, 106).
edge(74, 121).
edge(8, 119).
edge(71, 119).
edge(130, 151).
edge(23, 138).
edge(100, 140).
edge(127, 145).
edge(14, 164).
edge(39, 140).
edge(72, 93).
edge(72, 90).
edge(160, 164).
edge(97, 141).
edge(22, 71).
edge(50, 69).
edge(22, 96).
edge(0, 160).
edge(71, 97).
edge(19, 45).
edge(26, 60).
edge(107, 141).
edge(125, 135).
edge(15, 142).
edge(12, 124).
edge(8, 111).
edge(98, 127).
edge(90, 104).
edge(72, 82).
edge(58, 136).
edge(21, 136).
edge(110, 131).
edge(55, 131).
edge(78, 165).
edge(140, 151).
edge(68, 148).
edge(108, 130).
edge(101, 144).
edge(65, 130).
edge(39, 146).
edge(25, 135).
edge(46, 54).
edge(4, 163).
edge(5, 90).
edge(37, 63).
edge(25, 50).
edge(102, 165).
edge(73, 94).
edge(56, 100).
edge(74, 134).
edge(61, 67).
edge(35, 126).
edge(60, 110).
edge(5, 85).
edge(95, 122).
edge(66, 98).
edge(10, 57).
edge(83, 119).
edge(2, 65).
edge(13, 37).
edge(28, 55).
edge(147, 165).
edge(13, 29).
edge(3, 32).
edge(60, 154).
edge(138, 159).
edge(36, 38).
edge(32, 162).
edge(37, 56).
edge(25, 97).
edge(79, 138).
edge(24, 74).
edge(31, 136).
edge(26, 103).
edge(111, 118).
edge(27, 43).
edge(81, 110).
edge(94, 120).
edge(19, 83).
edge(102, 156).
edge(101, 147).
edge(86, 158).
edge(57, 116).
edge(63, 74).
edge(21, 31).
edge(22, 53).
edge(0, 85).
edge(80, 146).
edge(33, 132).
edge(23, 79).
edge(70, 120).
edge(138, 158).
edge(25, 26).
edge(57, 140).
edge(0, 134).
edge(7, 21).
edge(122, 133).
edge(32, 160).
edge(8, 99).
edge(72, 148).
edge(48, 155).
edge(10, 14).
edge(74, 158).
edge(75, 111).
edge(68, 100).
edge(38, 61).
edge(20, 90).
edge(59, 96).
edge(124, 152).
edge(118, 161).
edge(15, 101).
edge(21, 150).
edge(71, 155).
edge(66, 150).
edge(26, 59).
edge(14, 67).
edge(48, 165).
edge(14, 16).
edge(59, 163).
edge(31, 134).
edge(9, 81).
edge(32, 53).
edge(52, 145).
edge(30, 34).
edge(113, 120).
edge(47, 148).
edge(36, 63).
edge(17, 57).
edge(18, 136).
edge(66, 97).
edge(55, 91).
edge(43, 46).
edge(87, 146).
edge(38, 77).
edge(32, 165).
edge(82, 140).
edge(41, 51).
edge(13, 38).
edge(88, 96).
edge(40, 134).
edge(22, 38).
edge(50, 93).
edge(10, 143).
edge(86, 94).
edge(23, 40).
edge(33, 102).
edge(39, 96).
edge(17, 93).
edge(62, 89).
edge(94, 145).
edge(67, 87).
edge(13, 125).
edge(45, 77).
edge(61, 64).
edge(28, 94).
edge(60, 115).
edge(92, 136).
edge(47, 59).
edge(37, 49).
edge(30, 91).
edge(41, 155).
edge(0, 71).
edge(81, 114).
edge(12, 155).
edge(14, 121).
edge(84, 115).
edge(18, 134).
edge(58, 95).
edge(36, 138).
edge(141, 146).
edge(5, 100).
edge(127, 132).
edge(68, 106).
edge(63, 149).
edge(38, 45).
edge(51, 90).
edge(31, 151).
edge(23, 75).
edge(101, 126).
edge(94, 131).
edge(15, 131).
edge(5, 99).
edge(108, 149).
edge(39, 55).
edge(16, 17).
edge(18, 52).
edge(56, 73).
edge(44, 128).
edge(22, 92).
edge(113, 148).
edge(77, 86).
edge(70, 85).
edge(96, 143).
edge(73, 78).
edge(30, 89).
edge(46, 108).
edge(138, 151).
edge(17, 75).
edge(62, 63).
edge(95, 97).
edge(12, 149).
edge(25, 84).
edge(156, 160).
edge(11, 94).
edge(112, 120).
edge(40, 80).
edge(35, 145).
edge(20, 82).
edge(57, 129).
edge(151, 154).
edge(76, 149).
edge(95, 130).
edge(82, 102).
edge(58, 75).
edge(16, 146).
edge(18, 155).
edge(54, 109).
edge(4, 43).
edge(59, 86).
edge(69, 109).
edge(74, 78).
edge(7, 75).
edge(28, 135).
edge(26, 55).
edge(127, 162).
edge(78, 163).
edge(26, 124).
edge(67, 146).
edge(39, 109).
edge(34, 52).
edge(105, 143).
edge(49, 67).
edge(11, 122).
edge(26, 75).
edge(31, 66).
edge(48, 137).
edge(6, 136).
edge(8, 122).
edge(90, 139).
edge(64, 154).
edge(70, 93).
edge(6, 39).
edge(27, 159).
edge(101, 145).
edge(12, 83).
edge(15, 87).
edge(4, 110).
edge(60, 165).
edge(1, 15).
edge(2, 142).
edge(101, 161).
edge(4, 61).
edge(21, 141).
edge(80, 87).
edge(73, 151).
edge(16, 18).
edge(2, 87).
edge(29, 61).
edge(60, 80).
edge(87, 117).
edge(51, 165).
edge(43, 90).
edge(12, 90).
edge(80, 163).
edge(58, 82).
edge(96, 156).
edge(115, 130).
edge(104, 113).
edge(128, 149).
edge(129, 132).
edge(5, 140).
edge(124, 137).
edge(7, 157).
edge(91, 145).
edge(21, 34).
edge(1, 157).
edge(50, 77).
edge(90, 132).
edge(51, 107).
edge(28, 151).
edge(8, 109).
edge(3, 111).
edge(42, 123).
edge(19, 97).
edge(47, 102).
edge(56, 159).
edge(16, 24).
edge(90, 107).
edge(79, 147).
edge(79, 148).
edge(60, 76).
edge(104, 134).
edge(50, 106).
edge(35, 112).
edge(58, 89).
edge(16, 99).
edge(88, 98).
edge(111, 143).
edge(131, 162).
edge(74, 165).
edge(44, 115).
edge(29, 117).
edge(96, 130).
edge(80, 103).
edge(42, 153).
edge(78, 136).
edge(8, 55).
edge(41, 73).
edge(76, 161).
edge(7, 16).
edge(18, 114).
edge(5, 162).
edge(11, 55).
edge(37, 109).
edge(55, 64).
edge(21, 159).
edge(3, 10).
edge(69, 85).
edge(107, 130).
edge(64, 119).
edge(33, 111).
edge(141, 150).
edge(72, 137).
edge(34, 54).
edge(123, 162).
edge(66, 155).
edge(4, 65).
edge(6, 164).
edge(80, 90).
edge(31, 44).
edge(18, 67).
edge(50, 101).
edge(45, 117).
edge(25, 105).
edge(12, 49).
edge(93, 118).
edge(21, 147).
edge(9, 139).
edge(111, 142).
edge(9, 162).
edge(70, 103).
edge(34, 142).
edge(27, 126).
edge(108, 136).
edge(49, 63).
edge(10, 47).
edge(70, 122).
edge(76, 99).
edge(79, 144).
edge(97, 152).
edge(39, 52).
edge(35, 144).
edge(23, 90).
edge(38, 132).
edge(137, 165).
edge(95, 145).
edge(74, 128).
edge(21, 153).
edge(31, 158).
edge(89, 130).
edge(27, 125).
edge(62, 154).
edge(10, 56).
edge(34, 96).
edge(27, 133).
edge(5, 28).
edge(1, 83).
edge(52, 84).
edge(67, 116).
edge(52, 143).
edge(38, 163).
edge(69, 95).
edge(127, 165).
edge(41, 117).
edge(42, 55).
edge(41, 74).
edge(6, 69).
edge(78, 149).
edge(48, 86).
edge(70, 97).
edge(34, 60).
edge(32, 43).
edge(37, 99).
edge(61, 121).
edge(137, 156).
edge(87, 121).
edge(28, 125).
edge(65, 133).
edge(101, 132).
edge(10, 111).
edge(94, 150).
edge(52, 80).
edge(13, 14).
edge(10, 33).
edge(31, 153).
edge(22, 131).
edge(79, 103).
edge(117, 156).
edge(57, 99).
edge(90, 105).
edge(151, 163).
edge(60, 65).
edge(94, 147).
edge(41, 103).
edge(117, 164).
edge(81, 128).
edge(105, 137).
edge(55, 157).
edge(26, 135).
edge(81, 157).
edge(80, 141).
edge(26, 108).
edge(13, 17).
edge(34, 159).
edge(0, 86).
edge(52, 104).
edge(66, 119).
edge(49, 144).
edge(79, 119).
edge(138, 149).
edge(53, 123).
edge(64, 131).
edge(88, 123).
edge(152, 158).
edge(101, 106).
edge(84, 87).
edge(30, 139).
edge(31, 120).
edge(4, 79).
edge(6, 28).
edge(36, 72).
edge(12, 159).
edge(18, 20).
edge(38, 159).
edge(49, 73).
edge(62, 118).
edge(90, 94).
edge(105, 108).
edge(23, 145).
edge(104, 140).
edge(24, 75).
edge(73, 146).
edge(45, 130).
edge(12, 79).
edge(111, 122).
edge(11, 108).
edge(48, 72).
edge(45, 118).
edge(47, 71).
edge(95, 121).
edge(41, 49).
edge(53, 98).
edge(51, 128).
edge(63, 158).
edge(100, 150).
edge(83, 163).
edge(49, 51).
edge(54, 107).
edge(1, 126).
edge(47, 99).
edge(6, 37).
edge(24, 104).
edge(42, 102).
edge(6, 154).
edge(48, 61).
edge(13, 126).
edge(93, 114).
edge(96, 141).
edge(76, 106).
edge(25, 140).
edge(32, 80).
edge(77, 150).
edge(94, 118).
edge(9, 148).
edge(5, 117).
edge(39, 58).
edge(9, 48).
edge(25, 155).
edge(1, 10).
edge(86, 163).
edge(86, 152).
edge(14, 54).
edge(121, 147).
edge(61, 75).
edge(99, 124).
edge(54, 132).
edge(26, 140).
edge(33, 53).
edge(72, 147).
edge(0, 36).
edge(150, 165).
edge(27, 52).
edge(51, 126).
edge(78, 154).
edge(124, 165).
edge(26, 72).
edge(61, 78).
edge(55, 161).
edge(27, 33).
edge(5, 43).
edge(20, 75).
edge(92, 162).
edge(19, 53).
edge(112, 116).
edge(20, 135).
edge(125, 142).
edge(26, 112).
edge(45, 150).
edge(85, 142).
edge(21, 160).
edge(87, 116).
edge(62, 145).
edge(75, 147).
edge(83, 137).
edge(24, 47).
edge(155, 162).
edge(72, 153).
edge(69, 99).
edge(100, 114).
edge(136, 154).
edge(20, 165).
edge(42, 152).
edge(159, 165).
edge(63, 155).
edge(14, 136).
edge(42, 95).
edge(147, 163).
edge(14, 66).
edge(107, 161).
edge(78, 138).
edge(6, 71).
edge(26, 161).
edge(0, 81).
edge(144, 160).
edge(43, 126).
edge(150, 153).
edge(57, 97).
edge(128, 150).
edge(61, 81).
edge(43, 68).
edge(35, 141).
edge(11, 53).
edge(15, 71).
edge(37, 114).
edge(36, 157).
edge(78, 158).
edge(117, 165).
edge(47, 145).
edge(63, 81).
edge(45, 129).
edge(42, 157).
edge(5, 95).
edge(49, 61).
edge(17, 96).
edge(83, 114).
edge(18, 79).
edge(16, 141).
edge(149, 155).
edge(95, 114).
edge(15, 149).
edge(4, 165).
edge(77, 84).
edge(46, 67).
edge(79, 165).
edge(59, 81).
edge(39, 100).
edge(28, 138).
edge(12, 45).
edge(0, 39).
edge(18, 123).
edge(4, 77).
edge(35, 123).
edge(7, 138).
edge(83, 156).
edge(127, 150).
edge(42, 62).
edge(109, 144).
edge(29, 123).
edge(25, 32).
edge(13, 95).
edge(5, 156).
edge(30, 107).
edge(10, 46).
edge(47, 91).
edge(30, 111).
edge(2, 106).
edge(7, 114).
edge(29, 52).
edge(25, 73).
edge(28, 96).
edge(37, 90).
edge(30, 131).
edge(77, 119).
edge(28, 100).
edge(57, 75).
edge(16, 128).
edge(75, 142).
edge(74, 106).
edge(12, 106).
edge(33, 43).
edge(20, 35).
edge(74, 89).
edge(74, 81).
edge(137, 151).
edge(25, 46).
edge(85, 112).
edge(94, 102).
edge(43, 99).
edge(51, 54).
edge(9, 78).
edge(79, 97).
edge(22, 52).
edge(64, 74).
edge(82, 143).
edge(43, 103).
edge(5, 67).
edge(42, 161).
edge(5, 137).
edge(75, 137).
edge(140, 144).
edge(81, 118).
edge(0, 68).
edge(46, 132).
edge(89, 149).
edge(110, 116).
edge(16, 118).
edge(12, 95).
edge(110, 124).
edge(53, 139).
edge(122, 152).
edge(73, 163).
edge(117, 134).
edge(66, 92).
edge(133, 148).
edge(103, 113).
edge(52, 56).
edge(5, 73).
edge(68, 136).
edge(40, 165).
edge(57, 110).
edge(39, 99).
edge(102, 111).
edge(1, 121).
edge(40, 124).
edge(58, 163).
edge(23, 67).
edge(48, 131).
edge(19, 164).
edge(140, 150).
edge(94, 138).
edge(34, 163).
edge(19, 144).
edge(52, 64).
edge(16, 165).
edge(8, 157).
edge(65, 87).
edge(4, 11).
edge(124, 129).
edge(28, 110).
edge(3, 60).
edge(39, 148).
edge(25, 164).
edge(8, 96).
edge(15, 127).
edge(24, 112).
edge(31, 106).
edge(113, 118).
edge(49, 136).
edge(76, 86).
edge(0, 83).
edge(20, 34).
edge(87, 122).
edge(61, 165).
edge(126, 162).
edge(41, 162).
edge(108, 162).
edge(13, 68).
edge(39, 157).
edge(25, 165).
edge(59, 147).
edge(87, 138).
edge(74, 75).
edge(13, 78).
edge(13, 74).
edge(76, 128).
edge(10, 68).
edge(59, 153).
edge(39, 87).
edge(85, 108).
edge(97, 128).
edge(75, 129).
edge(89, 165).
edge(74, 142).
edge(87, 97).
edge(41, 96).
edge(72, 95).
edge(69, 72).
edge(4, 5).
edge(9, 36).
edge(41, 158).
edge(123, 144).
edge(12, 134).
edge(63, 156).
edge(48, 151).
edge(23, 88).
edge(122, 158).
edge(57, 121).
edge(36, 135).
edge(12, 72).
edge(30, 54).
edge(24, 145).
edge(76, 87).
edge(91, 97).
edge(24, 52).
edge(9, 108).
edge(37, 147).
edge(40, 102).
edge(72, 94).
edge(91, 94).
edge(9, 165).
edge(82, 87).
edge(61, 85).
edge(157, 164).
edge(14, 123).
edge(82, 114).
edge(19, 28).
edge(49, 109).
edge(8, 17).
edge(48, 154).
edge(93, 121).
edge(62, 148).
edge(14, 88).
edge(11, 66).
edge(36, 99).
edge(5, 80).
edge(126, 140).
edge(94, 109).
edge(7, 68).
edge(65, 137).
edge(16, 101).
edge(57, 89).
edge(61, 147).
edge(124, 134).
edge(50, 90).
edge(149, 161).
edge(128, 137).
edge(24, 154).
edge(36, 62).
edge(35, 65).
edge(89, 161).
edge(62, 96).
edge(64, 114).
edge(14, 47).
edge(20, 69).
edge(27, 108).
edge(17, 31).
edge(14, 17).
edge(124, 160).
edge(70, 141).
edge(98, 155).
edge(73, 144).
edge(46, 107).
edge(6, 144).
edge(62, 80).
edge(31, 152).
edge(6, 132).
edge(30, 122).
edge(90, 99).
edge(12, 152).
edge(74, 119).
edge(56, 139).
edge(134, 158).
edge(49, 57).
edge(17, 47).
edge(158, 162).
edge(121, 157).
edge(79, 126).
edge(78, 146).
edge(81, 86).
edge(3, 27).
edge(27, 99).
edge(12, 89).
edge(74, 150).
edge(35, 47).
edge(88, 93).
edge(8, 41).
edge(143, 164).
edge(9, 35).
edge(21, 76).
edge(45, 128).
edge(1, 112).
edge(10, 79).
edge(10, 16).
edge(43, 67).
edge(58, 88).
edge(82, 154).
edge(92, 147).
edge(74, 95).
edge(53, 114).
edge(122, 145).
edge(6, 122).
edge(6, 121).
edge(76, 139).
edge(41, 126).
edge(33, 83).
edge(51, 62).
edge(22, 155).
edge(87, 129).
edge(30, 90).
edge(49, 133).
edge(24, 158).
edge(133, 142).
edge(71, 139).
edge(30, 162).
edge(59, 60).
edge(37, 117).
edge(73, 111).
edge(66, 73).
edge(153, 165).
edge(4, 133).
edge(91, 108).
edge(49, 150).
edge(88, 139).
edge(65, 143).
edge(42, 130).
edge(48, 67).
edge(70, 94).
edge(155, 156).
edge(14, 46).
edge(37, 106).
edge(30, 101).
edge(8, 48).
edge(77, 125).
edge(7, 44).
edge(94, 121).
edge(59, 133).
edge(8, 47).
edge(84, 151).
edge(25, 44).
edge(31, 138).
edge(0, 10).
edge(90, 130).
edge(51, 103).
edge(40, 78).
edge(84, 145).
edge(62, 116).
edge(63, 127).
edge(36, 148).
edge(42, 140).
edge(71, 152).
edge(64, 91).
edge(61, 112).
edge(56, 67).
edge(112, 133).
edge(3, 63).
edge(30, 132).
edge(104, 130).
edge(35, 128).
edge(79, 88).
edge(3, 138).
edge(120, 163).
edge(87, 88).
edge(6, 24).
edge(33, 127).
edge(35, 113).
edge(30, 84).
edge(53, 138).
edge(113, 136).
edge(101, 133).
edge(65, 152).
edge(71, 74).
edge(58, 152).
edge(38, 128).
edge(93, 162).
edge(22, 143).
edge(23, 104).
edge(12, 59).
edge(21, 117).
edge(94, 97).
edge(102, 120).
edge(149, 158).
edge(6, 116).
edge(77, 89).
edge(91, 127).
edge(8, 90).
edge(27, 142).
edge(32, 64).
edge(72, 116).
edge(76, 140).
edge(2, 137).
edge(90, 138).
edge(50, 131).
edge(87, 108).
edge(83, 120).
edge(85, 91).
edge(104, 148).
edge(27, 60).
edge(28, 74).
edge(112, 113).
edge(111, 145).
edge(14, 22).
edge(81, 85).
edge(12, 165).
edge(34, 136).
edge(15, 128).
edge(55, 74).
edge(87, 99).
edge(19, 62).
edge(77, 144).
edge(9, 112).
edge(25, 122).
edge(3, 110).
edge(72, 135).
edge(5, 153).
edge(6, 12).
edge(80, 116).
edge(60, 147).
edge(17, 83).
edge(27, 113).
edge(31, 146).
edge(34, 129).
edge(36, 84).
edge(14, 126).
edge(4, 125).
edge(128, 163).
edge(29, 101).
edge(67, 107).
edge(57, 138).
edge(93, 120).
edge(27, 86).
edge(2, 8).
edge(138, 142).
edge(37, 95).
edge(120, 131).
edge(70, 159).
edge(97, 122).
edge(31, 117).
edge(43, 153).
edge(89, 131).
edge(132, 138).
edge(59, 61).
edge(68, 74).
edge(119, 154).
edge(50, 126).
edge(55, 146).
edge(27, 93).
edge(2, 30).
edge(17, 71).
edge(107, 128).
edge(91, 158).
edge(2, 73).
edge(2, 102).
edge(40, 136).
edge(70, 114).
edge(89, 124).
edge(8, 60).
edge(80, 138).
edge(54, 94).
edge(9, 111).
edge(20, 79).
edge(119, 134).
edge(70, 84).
edge(14, 99).
edge(83, 123).
edge(75, 139).
edge(124, 155).
edge(74, 88).
edge(20, 54).
edge(114, 120).
edge(54, 70).
edge(9, 18).
edge(35, 42).
edge(121, 125).
edge(22, 99).
edge(52, 138).
edge(63, 101).
edge(25, 152).
edge(24, 95).
edge(79, 93).
edge(29, 72).
edge(22, 128).
edge(26, 131).
edge(52, 126).
edge(36, 119).
edge(18, 32).
edge(100, 161).
edge(67, 110).
edge(85, 153).
edge(122, 143).
edge(89, 156).
edge(4, 23).
edge(40, 93).
edge(20, 118).
edge(39, 143).
edge(30, 52).
edge(82, 141).
edge(77, 152).
edge(11, 68).
edge(33, 104).
edge(0, 103).
edge(76, 103).
edge(8, 143).
edge(0, 127).
edge(131, 132).
edge(57, 74).
edge(58, 147).
edge(14, 92).
edge(65, 164).
edge(42, 59).
edge(21, 65).
edge(124, 157).
edge(5, 11).
edge(81, 139).
edge(162, 164).
edge(2, 98).
edge(22, 146).
edge(87, 136).
edge(92, 113).
edge(58, 142).
edge(46, 57).
edge(55, 154).
edge(86, 107).
edge(62, 79).
edge(145, 157).
edge(92, 151).
edge(53, 65).
edge(3, 153).
edge(76, 113).
edge(5, 34).
edge(90, 112).
edge(77, 92).
edge(109, 141).
edge(77, 100).
edge(95, 146).
edge(62, 122).
edge(20, 64).
edge(60, 107).
edge(19, 159).
edge(17, 148).
edge(26, 106).
edge(11, 165).
edge(32, 128).
edge(136, 144).
edge(9, 82).
edge(34, 95).
edge(46, 106).
edge(62, 111).
edge(93, 132).
edge(22, 154).
edge(65, 136).
edge(64, 96).
edge(107, 124).
edge(76, 155).
edge(25, 160).
edge(11, 98).
edge(161, 165).
edge(11, 147).
edge(16, 103).
edge(150, 157).
edge(53, 108).
edge(0, 87).
edge(126, 128).
edge(131, 148).
edge(9, 27).
edge(130, 156).
edge(76, 91).
edge(7, 89).
edge(125, 154).
edge(4, 91).
edge(83, 154).
edge(52, 113).
edge(33, 97).
edge(122, 141).
edge(51, 158).
edge(15, 162).
edge(34, 49).
edge(46, 152).
edge(8, 27).
edge(108, 133).
edge(98, 126).
edge(33, 144).
edge(22, 119).
edge(56, 89).
edge(57, 125).
edge(85, 163).
edge(35, 91).
edge(107, 163).
edge(14, 45).
edge(63, 151).
edge(73, 141).
edge(23, 60).
edge(68, 102).
edge(44, 165).
edge(24, 130).
edge(45, 98).
edge(26, 80).
edge(151, 159).
edge(25, 106).
edge(2, 141).
edge(30, 126).
edge(5, 132).
edge(84, 103).
edge(49, 58).
edge(38, 143).
edge(92, 101).
edge(8, 112).
edge(62, 101).
edge(152, 164).
edge(42, 64).
edge(32, 102).
edge(48, 140).
edge(63, 96).
edge(36, 82).
edge(19, 69).
edge(89, 135).
edge(50, 73).
edge(103, 143).
edge(41, 163).
edge(109, 122).
edge(132, 144).
edge(100, 123).
edge(109, 116).
edge(67, 91).
edge(40, 161).
edge(51, 127).
edge(118, 157).
edge(0, 1).
edge(13, 164).
edge(23, 106).
edge(89, 129).
edge(22, 123).
edge(42, 137).
edge(2, 81).
edge(48, 136).
edge(58, 148).
edge(51, 63).
edge(49, 112).
edge(53, 158).
edge(32, 112).
edge(47, 132).
edge(71, 112).
edge(19, 123).
edge(16, 65).
edge(3, 112).
edge(29, 45).
edge(69, 118).
edge(20, 85).
edge(84, 138).
edge(74, 94).
edge(11, 23).
edge(11, 123).
edge(91, 141).
edge(73, 81).
edge(13, 160).
edge(37, 118).
edge(120, 141).
edge(7, 13).
edge(72, 115).
edge(90, 156).
edge(53, 122).
edge(77, 90).
edge(25, 92).
edge(27, 160).
edge(104, 162).
edge(70, 117).
edge(56, 150).
edge(32, 133).
edge(126, 144).
edge(2, 7).
edge(20, 41).
edge(19, 82).
edge(114, 124).
edge(69, 77).
edge(31, 49).
edge(35, 124).
edge(27, 88).
edge(71, 98).
edge(2, 151).
edge(78, 114).
edge(64, 151).
edge(7, 143).
edge(38, 119).
edge(127, 161).
edge(95, 140).
edge(22, 28).
edge(16, 90).
edge(68, 156).
edge(45, 99).
edge(58, 141).
edge(89, 160).
edge(51, 142).
edge(46, 113).
edge(11, 134).
edge(150, 154).
edge(84, 155).
edge(95, 144).
edge(67, 160).
edge(25, 57).
edge(24, 139).
edge(49, 76).
edge(67, 150).
edge(30, 80).
edge(18, 63).
edge(136, 147).
edge(1, 164).
edge(88, 145).
edge(39, 68).
edge(15, 153).
edge(31, 32).
edge(33, 161).
edge(38, 137).
edge(17, 44).
edge(118, 122).
edge(46, 55).
edge(153, 162).
edge(13, 154).
edge(24, 106).
edge(59, 87).
edge(1, 18).
edge(75, 114).
edge(12, 138).
edge(67, 89).
edge(55, 125).
edge(87, 93).
edge(39, 63).
edge(81, 107).
edge(49, 119).
edge(10, 73).
edge(122, 148).
edge(33, 120).
edge(111, 163).
edge(6, 27).
edge(65, 142).
edge(10, 44).
edge(21, 27).
edge(7, 17).
edge(8, 160).
edge(48, 104).
edge(15, 138).
edge(30, 153).
edge(60, 135).
edge(33, 75).
edge(15, 158).
edge(59, 113).
edge(162, 163).
edge(76, 97).
edge(44, 46).
edge(0, 97).
edge(85, 140).
edge(37, 76).
edge(33, 117).
edge(79, 131).
edge(3, 53).
edge(99, 103).
edge(73, 150).
edge(4, 93).
edge(32, 59).
edge(16, 41).
edge(52, 149).
edge(20, 120).
edge(29, 57).
edge(29, 54).
edge(19, 85).
edge(5, 54).
edge(43, 148).
edge(66, 111).
edge(1, 74).
edge(4, 160).
edge(116, 165).
edge(3, 117).
edge(24, 143).
edge(54, 137).
edge(105, 163).
edge(32, 56).
edge(1, 82).
edge(41, 106).
edge(130, 157).
edge(21, 41).
edge(20, 53).
edge(14, 38).
edge(74, 113).
edge(4, 148).
edge(38, 160).
edge(16, 44).
edge(140, 157).
edge(2, 164).
edge(126, 163).
edge(17, 156).
edge(14, 154).
edge(89, 147).
edge(72, 80).
edge(160, 163).
edge(52, 127).
edge(95, 105).
edge(96, 116).
edge(89, 97).
edge(56, 134).
edge(10, 18).
edge(1, 50).
edge(79, 105).
edge(47, 69).
edge(3, 14).
edge(56, 98).
edge(117, 157).
edge(92, 122).
edge(37, 44).
edge(44, 85).
edge(27, 50).
edge(58, 96).
edge(145, 159).
edge(12, 32).
edge(23, 112).
edge(16, 62).
edge(0, 146).
edge(17, 109).
edge(44, 97).
edge(46, 109).
edge(40, 118).
edge(21, 72).
edge(86, 120).
edge(15, 48).
edge(45, 104).
edge(110, 122).
edge(91, 105).
edge(82, 97).
edge(4, 149).
edge(11, 153).
edge(35, 161).
edge(33, 119).
edge(42, 115).
edge(129, 145).
edge(40, 138).
edge(10, 15).
edge(17, 129).
edge(94, 125).
edge(78, 160).
edge(83, 145).
edge(61, 143).
edge(2, 117).
edge(51, 125).
edge(123, 158).
edge(24, 101).
edge(10, 131).
edge(63, 146).
edge(97, 100).
edge(43, 85).
edge(18, 68).
edge(13, 81).
edge(125, 150).
edge(60, 132).
edge(36, 101).
edge(119, 128).
edge(122, 163).
edge(9, 119).
edge(67, 138).
edge(108, 164).
edge(0, 19).
edge(149, 151).
edge(62, 78).
edge(37, 116).
edge(54, 150).
edge(3, 73).
edge(17, 118).
edge(114, 165).
edge(25, 137).
edge(30, 113).
edge(67, 74).
edge(24, 127).
edge(114, 126).
edge(58, 79).
edge(73, 87).
edge(79, 83).
edge(41, 120).
edge(30, 121).
edge(34, 43).
edge(40, 99).
edge(17, 106).
edge(9, 129).
edge(39, 44).
edge(22, 103).
edge(23, 114).
edge(62, 100).
edge(13, 71).
edge(154, 160).
edge(4, 69).
edge(35, 56).
edge(24, 111).
edge(38, 152).
edge(8, 113).
edge(15, 41).
edge(62, 107).
edge(23, 39).
edge(76, 107).
edge(40, 88).
edge(123, 163).
edge(46, 82).
edge(98, 107).
edge(52, 132).
edge(61, 164).
edge(24, 60).
edge(28, 153).
edge(88, 129).
edge(39, 72).
edge(109, 118).
edge(103, 147).
edge(1, 43).
edge(49, 126).
edge(54, 58).
edge(27, 120).
edge(92, 115).
edge(48, 103).
edge(16, 143).
edge(31, 108).
edge(84, 96).
edge(48, 157).
edge(130, 143).
edge(24, 66).
edge(31, 60).
edge(26, 29).
edge(34, 58).
edge(25, 90).
edge(48, 65).
edge(70, 98).
edge(99, 126).
edge(53, 161).
edge(6, 146).
edge(75, 82).
edge(64, 128).
edge(91, 148).
edge(108, 143).
edge(21, 80).
edge(30, 138).
edge(38, 79).
edge(62, 93).
edge(13, 112).
edge(64, 97).
edge(28, 90).
edge(89, 145).
edge(70, 148).
edge(105, 109).
edge(91, 133).
edge(123, 142).
edge(30, 79).
edge(21, 90).
edge(80, 85).
edge(77, 94).
edge(16, 124).
edge(117, 122).
edge(157, 159).
edge(80, 112).
edge(21, 119).
edge(4, 129).
edge(106, 154).
edge(17, 155).
edge(26, 133).
edge(27, 81).
edge(60, 94).
edge(12, 41).
edge(40, 76).
edge(91, 114).
edge(64, 135).
edge(40, 147).
edge(102, 132).
edge(114, 131).
edge(98, 165).
edge(125, 129).
edge(20, 142).
edge(98, 162).
edge(103, 131).
edge(49, 72).
edge(16, 34).
edge(34, 51).
edge(43, 83).
edge(6, 96).
edge(119, 132).
edge(36, 91).
edge(46, 73).
edge(39, 80).
edge(52, 123).
edge(11, 22).
edge(16, 31).
edge(131, 153).
edge(18, 111).
edge(6, 158).
edge(80, 160).
edge(88, 106).
edge(80, 123).
edge(45, 125).
edge(38, 54).
edge(8, 81).
edge(7, 108).
edge(39, 95).
edge(18, 51).
edge(80, 122).
edge(40, 65).
edge(8, 18).
edge(9, 95).
edge(34, 156).
edge(47, 122).
edge(15, 140).
edge(61, 66).
edge(39, 42).
edge(4, 135).
edge(44, 63).
edge(64, 163).
edge(52, 161).
edge(52, 131).
edge(70, 152).
edge(94, 127).
edge(69, 105).
edge(2, 91).
edge(18, 48).
edge(64, 83).
edge(0, 32).
edge(86, 102).
edge(144, 153).
edge(12, 15).
edge(24, 135).
edge(45, 159).
edge(18, 46).
edge(60, 140).
edge(4, 115).
edge(133, 157).
edge(82, 95).
edge(4, 75).
edge(121, 130).
edge(114, 116).
edge(112, 131).
edge(42, 69).
edge(7, 72).
edge(73, 132).
edge(41, 77).
edge(0, 27).
edge(12, 116).
edge(124, 159).
edge(83, 122).
edge(41, 63).
edge(24, 165).
edge(32, 119).
edge(8, 155).
edge(148, 151).
edge(84, 157).
edge(109, 156).
edge(81, 99).
edge(22, 34).
edge(54, 131).
edge(63, 90).
edge(92, 123).
edge(20, 42).
edge(69, 123).
edge(71, 151).
edge(27, 151).
edge(44, 79).
edge(33, 109).
edge(86, 89).
edge(82, 83).
edge(49, 74).
edge(29, 36).
edge(33, 76).
edge(27, 62).
edge(14, 64).
edge(42, 73).
edge(79, 163).
edge(86, 104).
edge(68, 133).
edge(58, 93).
edge(130, 155).
edge(44, 137).
edge(83, 161).
edge(5, 77).
edge(37, 80).
edge(101, 120).
edge(29, 82).
edge(13, 116).
edge(103, 111).
edge(116, 122).
edge(40, 64).
edge(52, 158).
edge(90, 160).
edge(107, 137).
edge(97, 156).
edge(33, 118).
edge(60, 99).
edge(87, 151).
edge(106, 118).
edge(19, 90).
edge(8, 133).
edge(0, 141).
edge(70, 158).
edge(27, 127).
edge(73, 159).
edge(103, 162).
edge(34, 78).
edge(4, 112).
edge(39, 112).
edge(85, 92).
edge(70, 83).
edge(78, 117).
edge(27, 58).
edge(106, 127).
edge(58, 62).
edge(116, 137).
edge(65, 146).
edge(105, 112).
edge(30, 106).
edge(20, 94).
edge(8, 19).
edge(97, 134).
edge(129, 155).
edge(3, 69).
edge(30, 108).
edge(26, 162).
edge(22, 43).
edge(64, 146).
edge(80, 97).
edge(57, 142).
edge(61, 71).
edge(28, 43).
edge(58, 157).
edge(30, 105).
edge(80, 142).
edge(43, 129).
edge(23, 33).
edge(14, 18).
edge(42, 154).
edge(26, 152).
edge(84, 97).
edge(95, 163).
edge(42, 159).
edge(3, 68).
edge(56, 82).
edge(2, 96).
edge(115, 144).
edge(36, 122).
edge(12, 77).
edge(160, 162).
edge(9, 103).
edge(4, 156).
edge(131, 164).
edge(35, 97).
edge(59, 111).
edge(23, 119).
edge(68, 80).
edge(59, 90).
edge(3, 118).
edge(121, 129).
edge(11, 88).
edge(57, 156).
edge(66, 147).
edge(97, 140).
edge(96, 125).
edge(57, 67).
edge(81, 84).
edge(24, 152).
edge(92, 112).
edge(88, 156).
edge(32, 34).
edge(31, 93).
edge(133, 162).
edge(68, 129).
edge(20, 106).
edge(51, 65).
edge(70, 72).
edge(18, 27).
edge(22, 72).
edge(71, 80).
edge(0, 136).
edge(110, 139).
edge(7, 28).
edge(12, 137).
edge(139, 155).
edge(47, 49).
edge(98, 119).
edge(47, 138).
edge(38, 81).
edge(137, 149).
edge(57, 128).
edge(6, 44).
edge(10, 45).
edge(38, 164).
edge(18, 103).
edge(18, 42).
edge(81, 88).
edge(79, 110).
edge(74, 162).
edge(87, 125).
edge(144, 147).
edge(1, 150).
edge(58, 116).
edge(125, 159).
edge(78, 79).
edge(84, 109).
edge(145, 148).
edge(63, 98).
edge(113, 159).
edge(45, 108).
edge(12, 16).
edge(55, 75).
edge(44, 92).
edge(34, 101).
edge(50, 139).
edge(45, 102).
edge(43, 84).
edge(43, 44).
edge(126, 127).
edge(18, 56).
edge(13, 117).
edge(30, 97).
edge(5, 93).
edge(0, 66).
edge(71, 147).
edge(113, 155).
edge(58, 107).
edge(77, 139).
edge(8, 66).
edge(45, 68).
edge(5, 135).
edge(15, 124).
edge(18, 138).
edge(58, 106).
edge(77, 160).
edge(4, 14).
edge(94, 136).
edge(70, 121).
edge(144, 159).
edge(40, 62).
edge(67, 93).
edge(32, 152).
edge(59, 83).
edge(67, 120).
edge(75, 135).
edge(3, 141).
edge(24, 26).
edge(46, 123).
edge(76, 143).
edge(104, 110).
edge(109, 124).
edge(113, 161).
edge(14, 33).
edge(60, 159).
edge(40, 42).
edge(110, 113).
edge(30, 39).
edge(85, 161).
edge(45, 153).
edge(6, 90).
edge(31, 123).
edge(59, 150).
edge(20, 84).
edge(142, 161).
edge(9, 146).
edge(23, 155).
edge(74, 136).
edge(39, 150).
edge(107, 145).
edge(164, 165).
edge(120, 155).
edge(29, 86).
edge(104, 119).
edge(6, 105).
edge(9, 138).
edge(47, 74).
edge(67, 71).
edge(31, 162).
edge(20, 116).
edge(46, 58).
edge(111, 129).
edge(58, 112).
edge(21, 130).
edge(61, 69).
edge(109, 157).
edge(57, 72).
edge(130, 142).
edge(46, 65).
edge(51, 117).
edge(85, 88).
edge(53, 120).
edge(33, 106).
edge(19, 105).
edge(9, 116).
edge(70, 157).
edge(73, 90).
edge(63, 134).
edge(48, 119).
edge(78, 96).
edge(27, 146).
edge(68, 127).
edge(126, 135).
edge(50, 96).
edge(76, 77).
edge(23, 153).
edge(67, 136).
edge(37, 124).
edge(17, 153).
edge(56, 140).
edge(123, 129).
edge(51, 115).
edge(2, 143).
edge(24, 55).
edge(71, 141).
edge(8, 78).
edge(5, 9).
edge(9, 58).
edge(10, 77).
edge(43, 115).
edge(16, 60).
edge(83, 87).
edge(99, 144).
edge(10, 62).
edge(101, 153).
edge(146, 161).
edge(75, 140).
edge(47, 111).
edge(116, 159).
edge(102, 121).
edge(69, 133).
edge(37, 53).
edge(51, 150).
edge(87, 161).
edge(0, 53).
edge(20, 93).
edge(3, 31).
edge(61, 68).
edge(66, 135).
edge(62, 68).
edge(19, 22).
edge(81, 149).
edge(1, 109).
edge(12, 119).
edge(78, 126).
edge(71, 104).
edge(51, 92).
edge(49, 77).
edge(90, 136).
edge(55, 85).
edge(59, 65).
edge(55, 100).
edge(94, 165).
edge(76, 117).
edge(8, 71).
edge(40, 97).
edge(13, 69).
edge(8, 40).
edge(43, 144).
edge(62, 156).
edge(32, 48).
edge(86, 109).
edge(105, 114).
edge(83, 150).
edge(9, 104).
edge(37, 136).
edge(44, 135).
edge(22, 116).
edge(4, 28).
edge(77, 102).
edge(17, 104).
edge(144, 146).
edge(1, 81).
edge(54, 154).
edge(85, 93).
edge(128, 155).
edge(34, 73).
edge(31, 80).
edge(93, 115).
edge(65, 90).
edge(93, 135).
edge(46, 96).
edge(34, 158).
edge(31, 128).
edge(68, 104).
edge(19, 146).
edge(84, 94).
edge(23, 37).
edge(6, 19).
edge(65, 109).
edge(26, 79).
edge(18, 165).
edge(5, 126).
edge(98, 138).
edge(133, 163).
edge(3, 36).
edge(48, 132).
edge(35, 41).
edge(152, 161).
edge(28, 162).
edge(42, 108).
edge(47, 129).
edge(104, 157).
edge(73, 79).
edge(45, 155).
edge(127, 163).
edge(75, 133).
edge(98, 160).
edge(31, 137).
edge(39, 101).
edge(50, 144).
edge(25, 115).
edge(73, 140).
edge(60, 142).
edge(15, 120).
edge(12, 87).
edge(12, 70).
edge(52, 62).
edge(27, 45).
edge(0, 152).
edge(78, 109).
edge(32, 78).
edge(19, 153).
edge(18, 71).
edge(121, 153).
edge(58, 131).
edge(12, 127).
edge(104, 114).
edge(68, 84).
edge(11, 13).
edge(75, 116).
edge(117, 147).
edge(149, 163).
edge(92, 135).
edge(46, 62).
edge(14, 139).
edge(4, 58).
edge(106, 153).
edge(119, 143).
edge(113, 119).
edge(140, 155).
edge(82, 84).
edge(48, 101).
edge(27, 64).
edge(3, 105).
edge(62, 155).
edge(104, 127).
edge(27, 97).
edge(20, 127).
edge(65, 120).
edge(75, 101).
edge(81, 126).
edge(102, 127).
edge(55, 152).
edge(71, 149).
edge(56, 142).
edge(110, 117).
edge(1, 6).
edge(5, 152).
edge(3, 146).
edge(17, 73).
edge(27, 77).
edge(101, 140).
edge(95, 135).
edge(44, 60).
edge(29, 153).
edge(32, 107).
edge(36, 123).
edge(49, 94).
edge(47, 75).
edge(129, 165).
edge(64, 73).
edge(13, 92).
edge(70, 112).
edge(7, 18).
edge(51, 61).
edge(76, 96).
edge(6, 114).
edge(131, 149).
edge(74, 154).
edge(140, 146).
edge(67, 141).
edge(92, 99).
edge(61, 153).
edge(32, 55).
edge(11, 21).
edge(7, 35).
edge(81, 125).
edge(78, 119).
edge(19, 108).
edge(68, 162).
edge(110, 135).
edge(24, 62).
edge(17, 63).
edge(87, 164).
edge(115, 164).
edge(28, 77).
edge(124, 126).
edge(96, 142).
edge(142, 150).
edge(91, 139).
edge(62, 158).
edge(35, 134).
edge(78, 128).
edge(55, 137).
edge(103, 148).
edge(115, 149).
edge(61, 93).
edge(38, 133).
edge(101, 141).
edge(29, 69).
edge(50, 83).
edge(32, 148).
edge(46, 98).
edge(76, 90).
edge(28, 99).
edge(24, 92).
edge(11, 56).
edge(135, 155).
edge(50, 51).
edge(33, 115).
edge(23, 105).
edge(31, 129).
edge(2, 15).
edge(67, 81).
edge(62, 82).
edge(97, 107).
edge(59, 77).
edge(18, 140).
edge(40, 104).
edge(16, 61).
edge(53, 68).
edge(37, 133).
edge(37, 153).
edge(26, 68).
edge(81, 162).
edge(10, 80).
edge(56, 79).
edge(11, 120).
edge(80, 98).
edge(79, 114).
edge(42, 98).
edge(71, 91).
edge(61, 131).
edge(92, 124).
edge(104, 132).
edge(89, 109).
edge(90, 109).
edge(127, 160).
edge(78, 139).
edge(18, 139).
edge(34, 131).
edge(52, 117).
edge(5, 13).
edge(30, 94).
edge(79, 112).
edge(45, 91).
edge(75, 77).
edge(124, 148).
edge(112, 119).
edge(119, 155).
edge(38, 153).
edge(84, 158).
edge(57, 113).
edge(103, 114).
edge(108, 111).
edge(59, 158).
edge(80, 81).
edge(14, 80).
edge(79, 155).
edge(9, 128).
edge(80, 89).
edge(82, 96).
edge(31, 140).
edge(43, 56).
edge(13, 18).
edge(11, 54).
edge(27, 95).
edge(71, 103).
edge(50, 152).
edge(17, 41).
edge(11, 89).
edge(100, 101).
edge(6, 137).
edge(62, 120).
edge(17, 160).
edge(36, 126).
edge(13, 44).
edge(7, 165).
edge(25, 49).
edge(37, 120).
edge(54, 135).
edge(36, 159).
edge(1, 32).
edge(15, 78).
edge(53, 107).
edge(114, 159).
edge(63, 119).
edge(60, 149).
edge(132, 159).
edge(17, 68).
edge(124, 144).
edge(109, 149).
edge(23, 95).
edge(1, 106).
edge(84, 163).
edge(66, 126).
edge(74, 103).
edge(78, 147).
edge(40, 75).
edge(161, 163).
edge(14, 108).
edge(128, 134).
edge(70, 136).
edge(9, 52).
edge(0, 28).
edge(79, 143).
edge(109, 161).
edge(56, 137).
edge(47, 48).
edge(30, 150).
edge(68, 117).
edge(5, 154).
edge(18, 162).
edge(40, 133).
edge(144, 155).
edge(65, 118).
edge(90, 98).
edge(64, 122).
edge(45, 124).
edge(44, 122).
edge(15, 51).
edge(103, 157).
edge(56, 93).
edge(49, 161).
edge(28, 38).
edge(20, 37).
edge(35, 119).
edge(106, 144).
edge(61, 134).
edge(34, 70).
edge(125, 132).
edge(33, 137).
edge(18, 92).
edge(142, 157).
edge(145, 160).
edge(0, 40).
edge(110, 149).
edge(69, 100).
edge(47, 160).
edge(19, 96).
edge(43, 104).
edge(39, 75).
edge(146, 151).
edge(59, 112).
edge(53, 156).
edge(16, 70).
edge(93, 151).
edge(127, 129).
edge(25, 88).
edge(91, 106).
edge(10, 156).
edge(104, 123).
edge(149, 164).
edge(25, 28).
edge(12, 35).
edge(104, 165).
weight(0, 3).
weight(1, 20).
weight(2, 17).
weight(3, 6).
weight(4, 19).
weight(5, 16).
weight(6, 18).
weight(7, 15).
weight(8, 10).
weight(9, 1).
weight(10, 19).
weight(11, 15).
weight(12, 22).
weight(13, 2).
weight(14, 22).
weight(15, 5).
weight(16, 21).
weight(17, 20).
weight(18, 13).
weight(19, 10).
weight(20, 12).
weight(21, 14).
weight(22, 7).
weight(23, 8).
weight(24, 18).
weight(25, 20).
weight(26, 3).
weight(27, 17).
weight(28, 7).
weight(29, 19).
weight(30, 14).
weight(31, 6).
weight(32, 1).
weight(33, 1).
weight(34, 2).
weight(35, 5).
weight(36, 14).
weight(37, 14).
weight(38, 9).
weight(39, 22).
weight(40, 15).
weight(41, 2).
weight(42, 9).
weight(43, 19).
weight(44, 15).
weight(45, 12).
weight(46, 6).
weight(47, 3).
weight(48, 17).
weight(49, 15).
weight(50, 5).
weight(51, 5).
weight(52, 17).
weight(53, 2).
weight(54, 1).
weight(55, 10).
weight(56, 5).
weight(57, 12).
weight(58, 8).
weight(59, 4).
weight(60, 7).
weight(61, 4).
weight(62, 16).
weight(63, 9).
weight(64, 9).
weight(65, 7).
weight(66, 17).
weight(67, 13).
weight(68, 8).
weight(69, 16).
weight(70, 15).
weight(71, 22).
weight(72, 12).
weight(73, 18).
weight(74, 8).
weight(75, 17).
weight(76, 8).
weight(77, 11).
weight(78, 12).
weight(79, 18).
weight(80, 5).
weight(81, 3).
weight(82, 20).
weight(83, 18).
weight(84, 13).
weight(85, 8).
weight(86, 5).
weight(87, 2).
weight(88, 22).
weight(89, 10).
weight(90, 14).
weight(91, 1).
weight(92, 2).
weight(93, 13).
weight(94, 1).
weight(95, 5).
weight(96, 23).
weight(97, 13).
weight(98, 10).
weight(99, 1).
weight(100, 17).
weight(101, 15).
weight(102, 15).
weight(103, 13).
weight(104, 5).
weight(105, 14).
weight(106, 4).
weight(107, 4).
weight(108, 9).
weight(109, 20).
weight(110, 13).
weight(111, 10).
weight(112, 14).
weight(113, 2).
weight(114, 6).
weight(115, 2).
weight(116, 10).
weight(117, 23).
weight(118, 5).
weight(119, 21).
weight(120, 19).
weight(121, 16).
weight(122, 21).
weight(123, 10).
weight(124, 5).
weight(125, 8).
weight(126, 19).
weight(127, 4).
weight(128, 2).
weight(129, 2).
weight(130, 10).
weight(131, 19).
weight(132, 22).
weight(133, 12).
weight(134, 13).
weight(135, 9).
weight(136, 9).
weight(137, 2).
weight(138, 10).
weight(139, 11).
weight(140, 5).
weight(141, 16).
weight(142, 8).
weight(143, 7).
weight(144, 9).
weight(145, 9).
weight(146, 15).
weight(147, 18).
weight(148, 11).
weight(149, 6).
weight(150, 18).
weight(151, 4).
weight(152, 11).
weight(153, 18).
weight(154, 9).
weight(155, 3).
weight(156, 4).
weight(157, 16).
weight(158, 6).
weight(159, 10).
weight(160, 23).
weight(161, 21).
weight(162, 23).
weight(163, 4).
weight(164, 17).
weight(165, 21).

{in(V)} :- node(V).
:- in(U), in(V), U < V, not edge(U,V).
:~ not in(V), weight(V,W). [W@1,V]
