node(0..158).
edge(99, 143).
edge(21, 56).
edge(105, 157).
edge(70, 106).
edge(47, 117).
edge(82, 95).
edge(25, 48).
edge(26, 139).
edge(57, 59).
edge(6, 124).
edge(38, 69).
edge(21, 62).
edge(77, 133).
edge(84, 126).
edge(111, 137).
edge(66, 115).
edge(31, 84).
edge(102, 142).
edge(95, 101).
edge(119, 130).
edge(24, 34).
edge(68, 121).
edge(89, 144).
edge(97, 108).
edge(133, 157).
edge(70, 113).
edge(4, 121).
edge(86, 125).
edge(75, 106).
edge(148, 149).
edge(63, 106).
edge(9, 102).
edge(125, 141).
edge(100, 158).
edge(55, 110).
edge(114, 119).
edge(64, 122).
edge(95, 118).
edge(67, 75).
edge(44, 134).
edge(31, 47).
edge(11, 86).
edge(44, 148).
edge(18, 151).
edge(0, 66).
edge(11, 117).
edge(12, 47).
edge(85, 148).
edge(15, 81).
edge(83, 112).
edge(16, 93).
edge(9, 71).
edge(5, 49).
edge(59, 87).
edge(5, 128).
edge(125, 149).
edge(89, 148).
edge(81, 150).
edge(34, 139).
edge(48, 54).
edge(41, 128).
edge(89, 156).
edge(81, 143).
edge(0, 33).
edge(12, 15).
edge(119, 147).
edge(98, 126).
edge(71, 137).
edge(68, 155).
edge(115, 149).
edge(17, 156).
edge(22, 151).
edge(15, 108).
edge(24, 49).
edge(39, 117).
edge(53, 76).
edge(0, 112).
edge(135, 150).
edge(57, 102).
edge(44, 140).
edge(38, 95).
edge(79, 80).
edge(48, 111).
edge(90, 142).
edge(0, 87).
edge(114, 129).
edge(23, 68).
edge(46, 83).
edge(107, 114).
edge(104, 147).
edge(77, 150).
edge(69, 135).
edge(60, 137).
edge(30, 98).
edge(49, 104).
edge(17, 122).
edge(60, 125).
edge(61, 156).
edge(131, 132).
edge(8, 115).
edge(119, 122).
edge(96, 153).
edge(137, 157).
edge(36, 83).
edge(25, 123).
edge(45, 80).
edge(14, 69).
edge(64, 107).
edge(62, 150).
edge(9, 16).
edge(5, 147).
edge(111, 156).
edge(109, 117).
edge(4, 51).
edge(20, 76).
edge(40, 64).
edge(87, 134).
edge(37, 119).
edge(84, 104).
edge(26, 66).
edge(1, 6).
edge(42, 144).
edge(72, 125).
edge(106, 152).
edge(24, 103).
edge(118, 121).
edge(21, 139).
edge(69, 114).
edge(26, 152).
edge(95, 158).
edge(91, 134).
edge(61, 64).
edge(8, 35).
edge(7, 87).
edge(40, 66).
edge(12, 67).
edge(11, 108).
edge(43, 138).
edge(108, 136).
edge(69, 81).
edge(77, 138).
edge(56, 131).
edge(1, 35).
edge(122, 145).
edge(63, 153).
edge(101, 146).
edge(23, 116).
edge(0, 139).
edge(81, 154).
edge(10, 94).
edge(3, 53).
edge(10, 91).
edge(1, 42).
edge(13, 74).
edge(12, 92).
edge(8, 127).
edge(34, 104).
edge(46, 112).
edge(60, 135).
edge(80, 97).
edge(88, 127).
edge(11, 34).
edge(5, 30).
edge(66, 78).
edge(83, 131).
edge(69, 147).
edge(121, 145).
edge(56, 69).
edge(30, 129).
edge(60, 81).
edge(1, 88).
edge(26, 113).
edge(73, 102).
edge(59, 118).
edge(46, 113).
edge(40, 52).
edge(69, 133).
edge(3, 109).
edge(81, 130).
edge(4, 119).
edge(130, 149).
edge(19, 43).
edge(37, 111).
edge(49, 158).
edge(103, 130).
edge(61, 75).
edge(39, 111).
edge(23, 43).
edge(100, 150).
edge(125, 158).
edge(98, 158).
edge(88, 106).
edge(25, 136).
edge(83, 85).
edge(66, 157).
edge(46, 52).
edge(19, 59).
edge(22, 35).
edge(58, 130).
edge(18, 65).
edge(17, 133).
edge(123, 142).
edge(42, 76).
edge(87, 155).
edge(14, 56).
edge(5, 148).
edge(86, 90).
edge(99, 119).
edge(43, 86).
edge(36, 62).
edge(7, 15).
edge(63, 92).
edge(156, 158).
edge(14, 146).
edge(62, 87).
edge(39, 48).
edge(74, 135).
edge(52, 143).
edge(36, 153).
edge(83, 102).
edge(32, 108).
edge(18, 150).
edge(8, 30).
edge(13, 57).
edge(128, 133).
edge(44, 53).
edge(61, 76).
edge(31, 108).
edge(21, 70).
edge(34, 142).
edge(59, 69).
edge(98, 144).
edge(89, 149).
edge(27, 28).
edge(138, 148).
edge(103, 127).
edge(19, 149).
edge(63, 77).
edge(23, 50).
edge(48, 105).
edge(0, 95).
edge(31, 41).
edge(10, 119).
edge(26, 128).
edge(36, 140).
edge(137, 146).
edge(31, 158).
edge(22, 124).
edge(2, 115).
edge(8, 152).
edge(127, 144).
edge(117, 155).
edge(33, 144).
edge(50, 113).
edge(46, 130).
edge(6, 26).
edge(19, 54).
edge(3, 36).
edge(48, 107).
edge(25, 91).
edge(95, 132).
edge(65, 155).
edge(81, 84).
edge(27, 108).
edge(38, 141).
edge(119, 135).
edge(52, 124).
edge(67, 143).
edge(65, 150).
edge(86, 106).
edge(68, 158).
edge(42, 106).
edge(42, 121).
edge(15, 115).
edge(0, 101).
edge(45, 102).
edge(92, 133).
edge(21, 37).
edge(21, 87).
edge(80, 148).
edge(8, 23).
edge(62, 71).
edge(60, 127).
edge(2, 110).
edge(21, 46).
edge(17, 87).
edge(60, 78).
edge(72, 128).
edge(50, 124).
edge(49, 93).
edge(102, 122).
edge(29, 126).
edge(8, 14).
edge(94, 146).
edge(1, 47).
edge(65, 68).
edge(10, 44).
edge(63, 142).
edge(7, 55).
edge(9, 134).
edge(101, 134).
edge(39, 115).
edge(47, 118).
edge(48, 55).
edge(49, 68).
edge(94, 111).
edge(56, 82).
edge(119, 145).
edge(60, 108).
edge(16, 56).
edge(146, 152).
edge(99, 148).
edge(19, 102).
edge(117, 122).
edge(130, 156).
edge(69, 80).
edge(41, 57).
edge(89, 138).
edge(144, 150).
edge(62, 93).
edge(117, 134).
edge(50, 65).
edge(18, 106).
edge(1, 63).
edge(47, 149).
edge(14, 154).
edge(2, 89).
edge(66, 91).
edge(70, 149).
edge(75, 91).
edge(72, 86).
edge(45, 91).
edge(83, 91).
edge(0, 140).
edge(2, 96).
edge(39, 145).
edge(20, 30).
edge(87, 116).
edge(49, 118).
edge(1, 43).
edge(49, 106).
edge(16, 137).
edge(20, 142).
edge(62, 145).
edge(29, 67).
edge(35, 44).
edge(26, 70).
edge(64, 153).
edge(82, 124).
edge(31, 104).
edge(124, 154).
edge(41, 47).
edge(66, 100).
edge(16, 121).
edge(120, 132).
edge(30, 156).
edge(33, 126).
edge(2, 98).
edge(49, 87).
edge(38, 86).
edge(6, 21).
edge(46, 89).
edge(94, 97).
edge(44, 153).
edge(20, 42).
edge(15, 34).
edge(46, 153).
edge(123, 155).
edge(63, 125).
edge(43, 89).
edge(84, 115).
edge(47, 115).
edge(115, 152).
edge(30, 122).
edge(138, 149).
edge(30, 90).
edge(134, 156).
edge(27, 142).
edge(34, 140).
edge(35, 144).
edge(57, 76).
edge(30, 157).
edge(72, 88).
edge(119, 143).
edge(35, 122).
edge(101, 122).
edge(23, 48).
edge(54, 97).
edge(11, 61).
edge(71, 146).
edge(73, 152).
edge(55, 78).
edge(16, 66).
edge(68, 125).
edge(3, 105).
edge(37, 51).
edge(81, 132).
edge(94, 140).
edge(103, 136).
edge(19, 65).
edge(70, 132).
edge(144, 155).
edge(137, 145).
edge(42, 152).
edge(27, 79).
edge(97, 136).
edge(91, 153).
edge(21, 151).
edge(13, 86).
edge(47, 82).
edge(110, 113).
edge(2, 147).
edge(52, 96).
edge(70, 123).
edge(18, 64).
edge(4, 143).
edge(75, 108).
edge(78, 81).
edge(118, 127).
edge(31, 75).
edge(31, 116).
edge(105, 155).
edge(33, 47).
edge(108, 123).
edge(87, 122).
edge(3, 129).
edge(56, 142).
edge(18, 123).
edge(89, 97).
edge(97, 158).
edge(32, 85).
edge(124, 127).
edge(88, 94).
edge(19, 73).
edge(105, 111).
edge(6, 84).
edge(102, 150).
edge(31, 106).
edge(27, 155).
edge(24, 153).
edge(127, 143).
edge(51, 66).
edge(17, 130).
edge(41, 97).
edge(15, 50).
edge(42, 75).
edge(81, 128).
edge(76, 94).
edge(9, 151).
edge(16, 140).
edge(65, 72).
edge(30, 141).
edge(88, 115).
edge(24, 132).
edge(83, 92).
edge(24, 105).
edge(51, 130).
edge(27, 116).
edge(26, 86).
edge(59, 61).
edge(48, 147).
edge(143, 157).
edge(101, 148).
edge(41, 91).
edge(11, 113).
edge(28, 94).
edge(34, 43).
edge(9, 78).
edge(12, 132).
edge(12, 31).
edge(87, 137).
edge(6, 13).
edge(37, 156).
edge(5, 101).
edge(106, 124).
edge(0, 14).
edge(34, 112).
edge(91, 137).
edge(42, 129).
edge(49, 150).
edge(117, 137).
edge(51, 124).
edge(41, 85).
edge(27, 93).
edge(99, 156).
edge(93, 132).
edge(6, 119).
edge(12, 78).
edge(6, 47).
edge(22, 106).
edge(74, 141).
edge(8, 95).
edge(17, 68).
edge(39, 41).
edge(68, 119).
edge(13, 113).
edge(60, 65).
edge(16, 129).
edge(33, 71).
edge(20, 66).
edge(46, 54).
edge(99, 109).
edge(88, 102).
edge(5, 56).
edge(25, 79).
edge(86, 98).
edge(33, 86).
edge(107, 138).
edge(13, 19).
edge(32, 68).
edge(112, 120).
edge(6, 28).
edge(84, 150).
edge(1, 60).
edge(39, 50).
edge(48, 140).
edge(125, 129).
edge(73, 145).
edge(5, 78).
edge(21, 116).
edge(22, 65).
edge(109, 143).
edge(55, 131).
edge(14, 34).
edge(21, 65).
edge(26, 153).
edge(83, 93).
edge(16, 76).
edge(95, 109).
edge(56, 117).
edge(51, 56).
edge(36, 116).
edge(116, 156).
edge(105, 135).
edge(107, 110).
edge(80, 128).
edge(24, 129).
edge(69, 103).
edge(72, 73).
edge(19, 55).
edge(138, 151).
edge(6, 147).
edge(26, 59).
edge(36, 50).
edge(45, 74).
edge(23, 110).
edge(1, 64).
edge(37, 52).
edge(34, 128).
edge(71, 100).
edge(58, 118).
edge(18, 53).
edge(120, 127).
edge(53, 103).
edge(44, 59).
edge(46, 125).
edge(14, 128).
edge(65, 111).
edge(93, 152).
edge(126, 137).
edge(24, 130).
edge(23, 118).
edge(44, 117).
edge(45, 77).
edge(75, 131).
edge(103, 107).
edge(4, 134).
edge(1, 31).
edge(53, 89).
edge(16, 19).
edge(99, 106).
edge(2, 134).
edge(78, 158).
edge(50, 106).
edge(19, 152).
edge(101, 115).
edge(115, 135).
edge(10, 71).
edge(80, 120).
edge(16, 151).
edge(24, 116).
edge(96, 149).
edge(25, 116).
edge(17, 57).
edge(66, 148).
edge(28, 156).
edge(75, 98).
edge(60, 67).
edge(9, 57).
edge(10, 46).
edge(23, 88).
edge(38, 72).
edge(41, 130).
edge(22, 34).
edge(26, 92).
edge(88, 93).
edge(106, 142).
edge(63, 103).
edge(1, 99).
edge(20, 53).
edge(87, 156).
edge(71, 80).
edge(10, 133).
edge(16, 154).
edge(66, 119).
edge(46, 84).
edge(20, 103).
edge(26, 48).
edge(72, 147).
edge(41, 122).
edge(103, 138).
edge(10, 61).
edge(18, 138).
edge(44, 62).
edge(18, 116).
edge(9, 90).
edge(105, 158).
edge(21, 31).
edge(75, 78).
edge(8, 49).
edge(1, 81).
edge(64, 136).
edge(104, 151).
edge(0, 147).
edge(42, 148).
edge(21, 146).
edge(91, 121).
edge(3, 117).
edge(18, 74).
edge(23, 149).
edge(44, 64).
edge(73, 139).
edge(19, 87).
edge(37, 128).
edge(77, 109).
edge(24, 124).
edge(113, 150).
edge(78, 116).
edge(61, 121).
edge(109, 142).
edge(101, 109).
edge(69, 100).
edge(27, 77).
edge(14, 53).
edge(1, 25).
edge(73, 132).
edge(109, 134).
edge(9, 149).
edge(7, 35).
edge(92, 101).
edge(2, 37).
edge(31, 144).
edge(22, 66).
edge(58, 104).
edge(110, 142).
edge(119, 131).
edge(113, 114).
edge(21, 152).
edge(107, 129).
edge(115, 121).
edge(31, 34).
edge(47, 78).
edge(110, 128).
edge(2, 19).
edge(37, 57).
edge(23, 142).
edge(76, 122).
edge(72, 92).
edge(31, 118).
edge(17, 64).
edge(91, 111).
edge(112, 157).
edge(74, 145).
edge(132, 157).
edge(42, 92).
edge(13, 98).
edge(114, 116).
edge(45, 56).
edge(73, 100).
edge(106, 119).
edge(16, 77).
edge(5, 114).
edge(10, 62).
edge(8, 154).
edge(127, 133).
edge(71, 116).
edge(2, 73).
edge(55, 143).
edge(87, 148).
edge(68, 79).
edge(151, 157).
edge(28, 34).
edge(41, 135).
edge(4, 66).
edge(58, 136).
edge(109, 149).
edge(31, 48).
edge(106, 116).
edge(25, 148).
edge(0, 6).
edge(114, 157).
edge(72, 124).
edge(19, 70).
edge(27, 127).
edge(70, 126).
edge(14, 70).
edge(4, 150).
edge(28, 41).
edge(7, 129).
edge(44, 132).
edge(7, 74).
edge(25, 68).
edge(58, 62).
edge(41, 149).
edge(76, 130).
edge(19, 36).
edge(53, 113).
edge(91, 148).
edge(19, 140).
edge(8, 59).
edge(117, 121).
edge(37, 60).
edge(46, 131).
edge(94, 141).
edge(66, 70).
edge(115, 118).
edge(37, 135).
edge(17, 51).
edge(9, 95).
edge(20, 52).
edge(12, 98).
edge(8, 84).
edge(7, 95).
edge(1, 156).
edge(0, 60).
edge(81, 93).
edge(41, 100).
edge(8, 136).
edge(58, 74).
edge(27, 145).
edge(81, 114).
edge(84, 133).
edge(25, 51).
edge(42, 155).
edge(25, 139).
edge(58, 93).
edge(106, 121).
edge(73, 94).
edge(31, 129).
edge(73, 119).
edge(95, 141).
edge(3, 49).
edge(56, 134).
edge(97, 120).
edge(82, 115).
edge(29, 59).
edge(25, 124).
edge(14, 68).
edge(49, 121).
edge(50, 88).
edge(100, 151).
edge(3, 85).
edge(93, 96).
edge(27, 131).
edge(53, 125).
edge(1, 90).
edge(41, 109).
edge(29, 90).
edge(29, 53).
edge(20, 48).
edge(28, 138).
edge(13, 60).
edge(61, 65).
edge(15, 37).
edge(36, 146).
edge(56, 57).
edge(24, 95).
edge(19, 154).
edge(2, 38).
edge(69, 142).
edge(66, 97).
edge(24, 136).
edge(15, 63).
edge(6, 45).
edge(38, 157).
edge(35, 47).
edge(102, 124).
edge(77, 101).
edge(39, 53).
edge(44, 120).
edge(14, 86).
edge(34, 134).
edge(93, 141).
edge(0, 21).
edge(140, 144).
edge(32, 113).
edge(43, 73).
edge(87, 140).
edge(82, 97).
edge(3, 58).
edge(60, 123).
edge(18, 120).
edge(146, 149).
edge(33, 129).
edge(31, 124).
edge(1, 116).
edge(120, 152).
edge(101, 155).
edge(36, 79).
edge(26, 73).
edge(52, 78).
edge(29, 71).
edge(102, 109).
edge(11, 146).
edge(26, 142).
edge(71, 157).
edge(75, 123).
edge(30, 78).
edge(101, 107).
edge(1, 82).
edge(2, 122).
edge(14, 36).
edge(33, 44).
edge(0, 41).
edge(29, 77).
edge(87, 152).
edge(17, 147).
edge(42, 52).
edge(46, 50).
edge(17, 136).
edge(10, 36).
edge(29, 34).
edge(84, 107).
edge(75, 139).
edge(129, 138).
edge(68, 146).
edge(112, 124).
edge(68, 98).
edge(28, 38).
edge(144, 157).
edge(22, 75).
edge(52, 65).
edge(4, 54).
edge(39, 110).
edge(4, 41).
edge(51, 117).
edge(46, 47).
edge(86, 123).
edge(14, 114).
edge(63, 127).
edge(45, 127).
edge(120, 139).
edge(39, 55).
edge(7, 110).
edge(81, 153).
edge(109, 128).
edge(40, 50).
edge(89, 150).
edge(53, 92).
edge(30, 91).
edge(33, 90).
edge(32, 33).
edge(118, 138).
edge(78, 117).
edge(42, 98).
edge(34, 147).
edge(60, 90).
edge(7, 13).
edge(44, 118).
edge(35, 90).
edge(68, 143).
edge(144, 147).
edge(41, 59).
edge(21, 59).
edge(5, 61).
edge(22, 61).
edge(11, 46).
edge(120, 147).
edge(27, 136).
edge(73, 128).
edge(69, 72).
edge(81, 158).
edge(62, 128).
edge(138, 157).
edge(34, 75).
edge(6, 126).
edge(46, 141).
edge(121, 149).
edge(1, 112).
edge(28, 118).
edge(35, 57).
edge(45, 57).
edge(96, 102).
edge(19, 85).
edge(85, 157).
edge(68, 139).
edge(33, 41).
edge(26, 44).
edge(59, 101).
edge(139, 148).
edge(12, 87).
edge(95, 133).
edge(17, 128).
edge(41, 129).
edge(98, 148).
edge(3, 108).
edge(100, 119).
edge(61, 114).
edge(45, 154).
edge(2, 87).
edge(78, 120).
edge(7, 154).
edge(9, 52).
edge(56, 126).
edge(110, 158).
edge(82, 101).
edge(31, 117).
edge(47, 116).
edge(96, 108).
edge(115, 119).
edge(35, 49).
edge(148, 153).
edge(5, 96).
edge(34, 114).
edge(52, 64).
edge(23, 83).
edge(3, 66).
edge(66, 147).
edge(6, 36).
edge(107, 141).
edge(63, 82).
edge(79, 146).
edge(99, 100).
edge(56, 91).
edge(9, 25).
edge(37, 106).
edge(33, 84).
edge(94, 115).
edge(83, 127).
edge(11, 150).
edge(54, 66).
edge(3, 71).
edge(99, 129).
edge(72, 157).
edge(54, 73).
edge(3, 30).
edge(60, 116).
edge(40, 51).
edge(13, 97).
edge(29, 155).
edge(48, 152).
edge(127, 151).
edge(5, 136).
edge(57, 127).
edge(37, 59).
edge(34, 36).
edge(11, 88).
edge(63, 66).
edge(6, 18).
edge(22, 158).
edge(6, 70).
edge(14, 79).
edge(11, 25).
edge(46, 155).
edge(65, 136).
edge(38, 98).
edge(21, 34).
edge(22, 55).
edge(51, 80).
edge(16, 115).
edge(47, 106).
edge(10, 113).
edge(65, 144).
edge(101, 121).
edge(56, 103).
edge(20, 28).
edge(37, 137).
edge(80, 154).
edge(44, 151).
edge(43, 76).
edge(39, 71).
edge(33, 61).
edge(44, 131).
edge(62, 105).
edge(22, 46).
edge(14, 76).
edge(71, 121).
edge(4, 10).
edge(106, 127).
edge(37, 89).
edge(4, 104).
edge(62, 122).
edge(70, 95).
edge(58, 129).
edge(42, 137).
edge(6, 103).
edge(29, 50).
edge(43, 70).
edge(92, 97).
edge(35, 118).
edge(47, 102).
edge(7, 137).
edge(35, 100).
edge(99, 131).
edge(51, 110).
edge(72, 151).
edge(66, 124).
edge(68, 85).
edge(37, 71).
edge(13, 127).
edge(53, 79).
edge(56, 125).
edge(22, 41).
edge(85, 100).
edge(5, 41).
edge(66, 106).
edge(3, 103).
edge(1, 24).
edge(133, 138).
edge(17, 71).
edge(42, 149).
edge(30, 142).
edge(29, 108).
edge(97, 115).
edge(76, 154).
edge(1, 147).
edge(49, 84).
edge(10, 148).
edge(9, 145).
edge(7, 144).
edge(36, 49).
edge(44, 115).
edge(28, 33).
edge(19, 45).
edge(49, 140).
edge(41, 106).
edge(2, 6).
edge(25, 47).
edge(87, 95).
edge(8, 132).
edge(7, 52).
edge(30, 130).
edge(13, 91).
edge(37, 77).
edge(37, 134).
edge(112, 135).
edge(11, 137).
edge(94, 103).
edge(67, 116).
edge(24, 144).
edge(27, 72).
edge(48, 91).
edge(9, 156).
edge(11, 111).
edge(95, 116).
edge(57, 148).
edge(134, 152).
edge(9, 103).
edge(20, 139).
edge(4, 65).
edge(12, 104).
edge(124, 128).
edge(101, 132).
edge(4, 147).
edge(39, 95).
edge(118, 143).
edge(82, 154).
edge(30, 152).
edge(18, 20).
edge(26, 114).
edge(4, 117).
edge(44, 84).
edge(49, 130).
edge(42, 151).
edge(85, 114).
edge(102, 126).
edge(66, 93).
edge(113, 143).
edge(55, 99).
edge(48, 67).
edge(103, 112).
edge(84, 99).
edge(31, 64).
edge(150, 155).
edge(111, 113).
edge(15, 49).
edge(55, 129).
edge(82, 91).
edge(96, 110).
edge(50, 152).
edge(58, 106).
edge(11, 135).
edge(9, 44).
edge(9, 109).
edge(31, 126).
edge(51, 59).
edge(47, 88).
edge(131, 141).
edge(102, 151).
edge(43, 72).
edge(82, 137).
edge(8, 13).
edge(49, 54).
edge(111, 124).
edge(14, 97).
edge(68, 103).
edge(125, 132).
edge(37, 136).
edge(28, 120).
edge(36, 96).
edge(2, 26).
edge(129, 156).
edge(84, 127).
edge(63, 71).
edge(50, 91).
edge(60, 120).
edge(65, 84).
edge(9, 54).
edge(96, 131).
edge(46, 111).
edge(12, 71).
edge(62, 146).
edge(0, 3).
edge(43, 151).
edge(69, 121).
edge(2, 22).
edge(32, 93).
edge(31, 89).
edge(34, 132).
edge(15, 74).
edge(44, 92).
edge(118, 132).
edge(34, 100).
edge(136, 141).
edge(98, 108).
edge(133, 151).
edge(29, 32).
edge(25, 125).
edge(42, 46).
edge(82, 104).
edge(25, 95).
edge(92, 134).
edge(25, 150).
edge(59, 140).
edge(42, 58).
edge(132, 140).
edge(41, 134).
edge(15, 76).
edge(16, 89).
edge(81, 129).
edge(70, 97).
edge(18, 143).
edge(36, 81).
edge(43, 144).
edge(26, 103).
edge(16, 35).
edge(53, 57).
edge(23, 76).
edge(126, 149).
edge(129, 153).
edge(73, 127).
edge(135, 137).
edge(44, 126).
edge(14, 156).
edge(79, 98).
edge(65, 74).
edge(50, 153).
edge(33, 152).
edge(26, 125).
edge(42, 68).
edge(25, 75).
edge(85, 87).
edge(41, 104).
edge(7, 108).
edge(11, 127).
edge(9, 150).
edge(90, 118).
edge(70, 83).
edge(88, 141).
edge(15, 153).
edge(14, 130).
edge(56, 113).
edge(103, 126).
edge(55, 89).
edge(34, 99).
edge(35, 41).
edge(10, 109).
edge(16, 100).
edge(16, 136).
edge(130, 148).
edge(124, 142).
edge(102, 114).
edge(60, 142).
edge(82, 129).
edge(77, 85).
edge(39, 60).
edge(114, 140).
edge(56, 150).
edge(3, 65).
edge(66, 102).
edge(108, 143).
edge(69, 158).
edge(28, 54).
edge(30, 149).
edge(21, 140).
edge(34, 148).
edge(24, 90).
edge(53, 85).
edge(141, 142).
edge(58, 86).
edge(14, 37).
edge(65, 101).
edge(17, 126).
edge(74, 146).
edge(45, 88).
edge(22, 138).
edge(61, 146).
edge(115, 151).
edge(90, 127).
edge(84, 154).
edge(57, 125).
edge(70, 73).
edge(11, 33).
edge(88, 137).
edge(75, 157).
edge(10, 42).
edge(12, 157).
edge(25, 57).
edge(42, 128).
edge(33, 148).
edge(119, 129).
edge(34, 146).
edge(22, 117).
edge(98, 156).
edge(136, 157).
edge(68, 89).
edge(13, 132).
edge(54, 57).
edge(20, 49).
edge(13, 38).
edge(49, 148).
edge(102, 131).
edge(106, 115).
edge(77, 149).
edge(28, 48).
edge(9, 10).
edge(23, 54).
edge(41, 75).
edge(38, 81).
edge(64, 85).
edge(82, 114).
edge(12, 144).
edge(1, 152).
edge(9, 33).
edge(111, 125).
edge(58, 59).
edge(109, 126).
edge(3, 60).
edge(84, 137).
edge(104, 144).
edge(19, 35).
edge(89, 118).
edge(73, 97).
edge(45, 103).
edge(132, 139).
edge(39, 123).
edge(49, 78).
edge(4, 155).
edge(71, 152).
edge(19, 139).
edge(100, 109).
edge(19, 101).
edge(14, 40).
edge(15, 59).
edge(3, 88).
edge(133, 140).
edge(97, 137).
edge(70, 91).
edge(14, 93).
edge(57, 87).
edge(53, 141).
edge(68, 91).
edge(124, 139).
edge(14, 142).
edge(26, 100).
edge(48, 131).
edge(130, 134).
edge(102, 133).
edge(123, 127).
edge(55, 94).
edge(102, 121).
edge(79, 84).
edge(51, 78).
edge(18, 19).
edge(82, 123).
edge(108, 124).
edge(89, 130).
edge(85, 131).
edge(20, 89).
edge(107, 152).
edge(33, 37).
edge(39, 58).
edge(31, 54).
edge(18, 121).
edge(3, 78).
edge(50, 122).
edge(51, 150).
edge(9, 79).
edge(87, 133).
edge(128, 129).
edge(65, 102).
edge(2, 60).
edge(122, 136).
edge(32, 152).
edge(49, 114).
edge(35, 139).
edge(37, 63).
edge(27, 58).
edge(15, 116).
edge(57, 112).
edge(41, 43).
edge(102, 120).
edge(15, 52).
edge(3, 20).
edge(70, 108).
edge(33, 66).
edge(61, 129).
edge(4, 141).
edge(60, 152).
edge(51, 111).
edge(89, 103).
edge(77, 145).
edge(74, 125).
edge(137, 152).
edge(50, 70).
edge(104, 139).
edge(111, 127).
edge(27, 147).
edge(75, 95).
edge(58, 68).
edge(27, 97).
edge(104, 114).
edge(10, 135).
edge(129, 134).
edge(9, 120).
edge(7, 123).
edge(75, 82).
edge(36, 53).
edge(20, 27).
edge(27, 84).
edge(48, 68).
edge(122, 152).
edge(36, 119).
edge(107, 140).
edge(113, 125).
edge(131, 138).
edge(38, 144).
edge(27, 50).
edge(130, 150).
edge(3, 69).
edge(112, 150).
edge(25, 112).
edge(4, 16).
edge(43, 116).
edge(25, 135).
edge(57, 92).
edge(31, 43).
edge(87, 158).
edge(111, 151).
edge(64, 100).
edge(95, 139).
edge(107, 145).
edge(22, 122).
edge(147, 158).
edge(21, 157).
edge(42, 74).
edge(15, 124).
edge(14, 109).
edge(8, 155).
edge(74, 111).
edge(36, 102).
edge(134, 146).
edge(21, 156).
edge(117, 144).
edge(45, 114).
edge(20, 72).
edge(4, 50).
edge(122, 146).
edge(67, 90).
edge(89, 117).
edge(23, 98).
edge(47, 54).
edge(79, 94).
edge(35, 131).
edge(52, 61).
edge(22, 125).
edge(46, 106).
edge(25, 26).
edge(58, 92).
edge(13, 20).
edge(115, 150).
edge(22, 24).
edge(2, 111).
edge(50, 78).
edge(84, 158).
edge(44, 71).
edge(13, 17).
edge(3, 149).
edge(41, 148).
edge(127, 134).
edge(117, 157).
edge(12, 137).
edge(10, 97).
edge(54, 149).
edge(51, 76).
edge(2, 58).
edge(117, 146).
edge(40, 58).
edge(75, 104).
edge(32, 36).
edge(23, 80).
edge(58, 102).
edge(60, 94).
edge(53, 108).
edge(90, 144).
edge(56, 101).
edge(16, 72).
edge(27, 85).
edge(64, 79).
edge(21, 95).
edge(6, 85).
edge(88, 90).
edge(10, 127).
edge(86, 135).
edge(14, 21).
edge(15, 137).
edge(15, 67).
edge(9, 86).
edge(66, 137).
edge(14, 84).
edge(24, 76).
edge(22, 156).
edge(66, 127).
edge(46, 107).
edge(9, 11).
edge(63, 119).
edge(0, 125).
edge(7, 68).
edge(68, 131).
edge(101, 133).
edge(81, 141).
edge(40, 112).
edge(32, 109).
edge(111, 136).
edge(96, 97).
edge(66, 111).
edge(113, 137).
edge(90, 108).
edge(76, 158).
edge(87, 130).
edge(23, 97).
edge(74, 137).
edge(115, 154).
edge(67, 97).
edge(130, 154).
edge(18, 110).
edge(9, 48).
edge(46, 90).
edge(39, 89).
edge(62, 94).
edge(23, 137).
edge(61, 68).
edge(104, 145).
edge(19, 128).
edge(91, 118).
edge(85, 122).
edge(6, 12).
edge(13, 117).
edge(113, 156).
edge(62, 156).
edge(2, 116).
edge(58, 144).
edge(81, 109).
edge(38, 101).
edge(49, 67).
edge(20, 21).
edge(68, 90).
edge(139, 150).
edge(38, 41).
edge(49, 120).
edge(40, 142).
edge(8, 24).
edge(108, 115).
edge(59, 154).
edge(93, 100).
edge(3, 16).
edge(110, 123).
edge(61, 116).
edge(17, 103).
edge(34, 89).
edge(1, 104).
edge(47, 145).
edge(56, 78).
edge(24, 30).
edge(53, 109).
edge(123, 145).
edge(71, 98).
edge(98, 135).
edge(103, 156).
edge(46, 69).
edge(44, 155).
edge(106, 120).
edge(19, 24).
edge(69, 86).
edge(0, 119).
edge(103, 114).
edge(38, 149).
edge(9, 81).
edge(31, 120).
edge(5, 103).
edge(140, 145).
edge(43, 132).
edge(33, 97).
edge(96, 116).
edge(8, 117).
edge(74, 136).
edge(120, 141).
edge(110, 124).
edge(132, 154).
edge(71, 81).
edge(10, 139).
edge(61, 135).
edge(43, 103).
edge(68, 115).
edge(30, 119).
edge(26, 42).
edge(18, 28).
edge(123, 150).
edge(86, 122).
edge(62, 92).
edge(90, 138).
edge(35, 121).
edge(8, 34).
edge(74, 139).
edge(54, 75).
edge(33, 51).
edge(7, 33).
edge(92, 103).
edge(118, 136).
edge(68, 120).
edge(18, 158).
edge(157, 158).
edge(72, 89).
edge(84, 109).
edge(27, 62).
edge(103, 155).
edge(9, 146).
edge(89, 152).
edge(33, 150).
edge(66, 75).
edge(13, 134).
edge(41, 127).
edge(58, 151).
edge(65, 82).
edge(120, 128).
edge(5, 60).
edge(20, 32).
edge(0, 20).
edge(2, 142).
edge(27, 118).
edge(13, 75).
edge(51, 87).
edge(104, 123).
edge(102, 116).
edge(94, 105).
edge(17, 125).
edge(26, 35).
edge(30, 75).
edge(100, 131).
edge(31, 73).
edge(16, 55).
edge(35, 158).
edge(27, 154).
edge(64, 88).
edge(0, 2).
edge(11, 104).
edge(105, 126).
edge(26, 38).
edge(36, 130).
edge(110, 146).
edge(34, 35).
edge(56, 73).
edge(22, 37).
edge(30, 151).
edge(33, 125).
edge(109, 157).
edge(23, 40).
edge(3, 92).
edge(10, 32).
edge(121, 146).
edge(22, 70).
edge(60, 105).
edge(131, 147).
edge(75, 133).
edge(2, 82).
edge(93, 99).
edge(29, 97).
edge(19, 30).
edge(135, 145).
edge(20, 46).
edge(56, 61).
edge(57, 150).
edge(2, 11).
edge(28, 147).
edge(52, 137).
edge(40, 135).
edge(12, 130).
edge(79, 114).
edge(6, 9).
edge(86, 144).
edge(15, 20).
edge(19, 120).
edge(2, 72).
edge(64, 78).
edge(79, 136).
edge(78, 110).
edge(102, 155).
edge(94, 100).
edge(9, 60).
edge(13, 106).
edge(67, 123).
edge(62, 83).
edge(31, 86).
edge(72, 149).
edge(38, 64).
edge(4, 103).
edge(147, 153).
edge(102, 143).
edge(36, 142).
edge(25, 131).
edge(67, 84).
edge(148, 156).
edge(81, 101).
edge(27, 64).
edge(12, 24).
edge(11, 144).
edge(6, 98).
edge(59, 91).
edge(69, 117).
edge(9, 148).
edge(48, 125).
edge(36, 89).
edge(132, 156).
edge(49, 72).
edge(28, 82).
edge(73, 140).
edge(46, 124).
edge(65, 148).
edge(29, 56).
edge(10, 99).
edge(2, 15).
edge(65, 117).
edge(65, 80).
edge(26, 118).
edge(33, 63).
edge(3, 28).
edge(37, 70).
edge(88, 98).
edge(86, 143).
edge(21, 71).
edge(87, 126).
edge(58, 88).
edge(22, 97).
edge(54, 127).
edge(17, 143).
edge(59, 126).
edge(84, 140).
edge(8, 118).
edge(111, 119).
edge(51, 147).
edge(42, 122).
edge(49, 51).
edge(0, 106).
edge(78, 121).
edge(59, 119).
edge(45, 78).
edge(70, 86).
edge(74, 80).
edge(7, 40).
edge(23, 45).
edge(4, 131).
edge(66, 82).
edge(1, 153).
edge(70, 115).
edge(124, 148).
edge(64, 130).
edge(97, 142).
edge(116, 131).
edge(4, 148).
edge(69, 157).
edge(30, 62).
edge(94, 127).
edge(94, 114).
edge(82, 117).
edge(81, 136).
edge(88, 123).
edge(103, 105).
edge(53, 120).
edge(115, 140).
edge(84, 92).
edge(103, 145).
edge(97, 154).
edge(66, 143).
edge(30, 47).
edge(24, 87).
edge(61, 94).
edge(65, 103).
edge(126, 130).
edge(39, 120).
edge(116, 133).
edge(73, 121).
edge(104, 127).
edge(57, 64).
edge(1, 49).
edge(46, 93).
edge(3, 56).
edge(66, 68).
edge(50, 128).
edge(52, 154).
edge(93, 147).
edge(4, 80).
edge(70, 82).
edge(98, 101).
edge(62, 139).
edge(12, 22).
edge(141, 154).
edge(73, 118).
edge(114, 141).
edge(61, 113).
edge(77, 139).
edge(47, 49).
edge(70, 96).
edge(34, 73).
edge(95, 149).
edge(56, 72).
edge(24, 111).
edge(57, 135).
edge(60, 93).
edge(42, 136).
edge(12, 32).
edge(105, 118).
edge(108, 121).
edge(9, 100).
edge(31, 151).
edge(138, 147).
edge(100, 113).
edge(85, 143).
edge(13, 119).
edge(7, 71).
edge(56, 102).
edge(17, 25).
edge(122, 153).
edge(55, 57).
edge(50, 108).
edge(22, 134).
edge(87, 90).
edge(111, 149).
edge(10, 134).
edge(19, 33).
edge(23, 60).
edge(7, 102).
edge(37, 39).
edge(31, 128).
edge(48, 117).
edge(52, 114).
edge(138, 146).
edge(41, 65).
edge(85, 104).
edge(18, 93).
edge(118, 150).
edge(1, 48).
edge(79, 129).
edge(109, 118).
edge(29, 110).
edge(89, 107).
edge(145, 148).
edge(1, 143).
edge(17, 96).
edge(116, 137).
edge(80, 117).
edge(14, 115).
edge(16, 82).
edge(29, 103).
edge(35, 52).
edge(9, 99).
edge(37, 98).
edge(81, 113).
edge(33, 98).
edge(51, 98).
edge(24, 70).
edge(134, 142).
edge(60, 74).
edge(90, 148).
edge(86, 154).
edge(67, 137).
edge(8, 44).
edge(38, 39).
edge(4, 43).
edge(66, 67).
edge(15, 54).
edge(40, 89).
edge(12, 44).
edge(53, 63).
edge(22, 60).
edge(20, 126).
edge(28, 75).
edge(96, 127).
edge(93, 124).
edge(69, 129).
edge(26, 61).
edge(40, 63).
edge(143, 158).
edge(29, 106).
edge(34, 95).
edge(87, 131).
edge(16, 32).
edge(27, 92).
edge(26, 62).
edge(25, 155).
edge(84, 103).
edge(8, 142).
edge(47, 83).
edge(45, 83).
edge(133, 149).
edge(12, 133).
edge(57, 132).
edge(26, 99).
edge(100, 105).
edge(45, 61).
edge(44, 102).
edge(78, 85).
edge(1, 2).
edge(99, 110).
edge(44, 101).
edge(17, 105).
edge(49, 149).
edge(54, 121).
edge(95, 128).
edge(144, 145).
edge(65, 69).
edge(45, 87).
edge(153, 154).
edge(10, 14).
edge(38, 80).
edge(68, 129).
edge(10, 83).
edge(9, 65).
edge(45, 86).
edge(111, 145).
edge(79, 137).
edge(8, 32).
edge(27, 117).
edge(39, 81).
edge(33, 83).
edge(0, 11).
edge(64, 109).
edge(43, 98).
edge(70, 130).
edge(52, 148).
edge(121, 157).
edge(39, 87).
edge(3, 81).
edge(11, 74).
edge(134, 158).
edge(8, 63).
edge(80, 104).
edge(81, 112).
edge(81, 125).
edge(24, 85).
edge(140, 147).
edge(68, 124).
edge(6, 135).
edge(16, 132).
edge(10, 123).
edge(127, 141).
edge(17, 110).
edge(37, 95).
edge(110, 117).
edge(3, 77).
edge(29, 86).
edge(35, 148).
edge(82, 107).
edge(125, 146).
edge(41, 82).
edge(39, 49).
edge(21, 114).
edge(73, 75).
edge(118, 147).
edge(80, 129).
edge(16, 46).
edge(38, 134).
edge(105, 108).
edge(79, 148).
edge(49, 153).
edge(77, 142).
edge(112, 115).
edge(73, 109).
edge(76, 126).
edge(23, 32).
edge(128, 130).
edge(108, 110).
edge(26, 85).
edge(28, 113).
edge(16, 62).
edge(41, 137).
edge(124, 146).
edge(132, 144).
edge(18, 49).
edge(51, 96).
edge(66, 101).
edge(35, 127).
edge(95, 147).
edge(0, 29).
edge(17, 132).
edge(53, 126).
edge(10, 114).
edge(46, 67).
edge(33, 102).
edge(83, 130).
edge(91, 129).
edge(94, 138).
edge(60, 115).
edge(0, 68).
edge(9, 138).
edge(56, 136).
edge(76, 140).
edge(82, 130).
edge(108, 157).
edge(20, 123).
edge(38, 46).
edge(39, 47).
edge(85, 126).
edge(92, 111).
edge(122, 125).
edge(51, 106).
edge(4, 94).
edge(19, 118).
edge(42, 146).
edge(25, 86).
edge(1, 149).
edge(37, 91).
edge(36, 117).
edge(15, 41).
edge(73, 110).
edge(40, 126).
edge(47, 51).
edge(90, 152).
edge(94, 134).
edge(20, 51).
edge(57, 129).
edge(93, 112).
edge(9, 131).
edge(123, 152).
edge(36, 71).
edge(23, 154).
edge(15, 103).
edge(31, 58).
edge(25, 55).
edge(24, 62).
edge(101, 105).
edge(6, 102).
edge(119, 154).
edge(35, 92).
edge(12, 43).
edge(30, 72).
edge(108, 119).
edge(100, 108).
edge(80, 81).
edge(57, 145).
edge(59, 86).
edge(78, 119).
edge(102, 107).
edge(88, 105).
edge(101, 151).
edge(56, 138).
edge(3, 11).
edge(33, 135).
edge(41, 136).
edge(22, 44).
edge(2, 86).
edge(100, 145).
edge(118, 146).
edge(106, 144).
edge(30, 36).
edge(70, 158).
edge(60, 117).
edge(108, 138).
edge(77, 113).
edge(119, 149).
edge(2, 34).
edge(63, 152).
edge(37, 129).
edge(35, 38).
edge(41, 62).
edge(96, 145).
edge(8, 101).
edge(34, 127).
edge(28, 143).
edge(81, 146).
edge(45, 89).
edge(4, 12).
edge(76, 78).
edge(82, 86).
edge(78, 126).
edge(51, 112).
edge(51, 94).
edge(38, 48).
edge(11, 94).
edge(36, 152).
edge(49, 53).
edge(20, 150).
edge(48, 73).
edge(20, 106).
edge(121, 151).
edge(70, 100).
edge(60, 155).
edge(47, 147).
edge(119, 157).
edge(2, 128).
edge(16, 96).
edge(49, 79).
edge(67, 96).
edge(5, 27).
edge(63, 139).
edge(36, 90).
edge(132, 138).
edge(29, 68).
edge(68, 69).
edge(69, 144).
edge(74, 108).
edge(65, 71).
edge(18, 39).
edge(147, 155).
edge(64, 128).
edge(60, 63).
edge(97, 133).
edge(49, 129).
edge(82, 145).
edge(21, 125).
edge(36, 104).
edge(68, 80).
edge(32, 88).
edge(61, 154).
edge(108, 146).
edge(12, 68).
edge(27, 137).
edge(62, 138).
edge(21, 90).
edge(51, 138).
edge(2, 113).
edge(50, 102).
edge(15, 152).
edge(118, 129).
edge(76, 110).
edge(25, 46).
edge(82, 155).
edge(57, 116).
edge(13, 58).
edge(86, 102).
edge(71, 91).
edge(79, 109).
edge(40, 74).
edge(118, 157).
edge(43, 93).
edge(78, 89).
edge(12, 72).
edge(13, 45).
edge(7, 58).
edge(25, 126).
edge(80, 88).
edge(91, 98).
edge(96, 139).
edge(14, 18).
edge(20, 105).
edge(48, 79).
edge(75, 94).
edge(0, 35).
edge(27, 105).
edge(84, 97).
edge(55, 77).
edge(75, 92).
edge(25, 118).
edge(49, 154).
edge(87, 138).
edge(56, 58).
edge(68, 99).
edge(49, 74).
edge(11, 138).
edge(84, 93).
edge(77, 84).
edge(10, 68).
edge(8, 151).
edge(55, 111).
edge(30, 77).
edge(102, 106).
edge(63, 115).
edge(35, 96).
edge(35, 61).
edge(113, 139).
edge(10, 147).
edge(46, 146).
edge(10, 39).
edge(119, 120).
edge(17, 151).
edge(99, 104).
edge(36, 48).
edge(13, 50).
edge(123, 125).
edge(21, 58).
edge(16, 127).
edge(49, 134).
edge(0, 36).
edge(3, 102).
edge(20, 67).
edge(82, 140).
edge(58, 85).
edge(16, 40).
edge(47, 136).
edge(64, 123).
edge(50, 77).
edge(8, 11).
edge(39, 109).
edge(2, 42).
edge(79, 151).
edge(145, 152).
edge(57, 106).
edge(45, 107).
edge(129, 142).
edge(51, 69).
edge(7, 42).
edge(11, 31).
edge(76, 77).
edge(30, 93).
edge(43, 69).
edge(14, 22).
edge(34, 51).
edge(21, 94).
edge(56, 60).
edge(56, 97).
edge(69, 156).
edge(100, 110).
edge(25, 141).
edge(25, 157).
edge(107, 143).
edge(65, 77).
edge(45, 62).
edge(21, 118).
edge(5, 29).
edge(10, 76).
edge(91, 135).
edge(62, 137).
edge(126, 148).
edge(63, 122).
edge(39, 86).
edge(29, 31).
edge(8, 21).
edge(91, 140).
edge(23, 153).
edge(14, 143).
edge(2, 88).
edge(63, 124).
edge(53, 84).
edge(57, 66).
edge(8, 131).
edge(4, 67).
edge(10, 110).
edge(27, 109).
edge(49, 89).
edge(98, 140).
edge(45, 147).
edge(93, 140).
edge(34, 96).
edge(71, 82).
edge(97, 140).
edge(63, 120).
edge(49, 117).
edge(13, 64).
edge(22, 149).
edge(39, 154).
edge(6, 131).
edge(107, 136).
edge(113, 129).
edge(84, 113).
edge(40, 70).
edge(11, 156).
edge(80, 143).
edge(54, 113).
edge(12, 77).
edge(18, 40).
edge(99, 134).
edge(52, 134).
edge(33, 133).
edge(111, 130).
edge(36, 131).
edge(49, 125).
edge(23, 67).
edge(125, 130).
edge(19, 91).
edge(45, 47).
edge(57, 81).
edge(39, 136).
edge(17, 111).
edge(36, 63).
edge(140, 152).
edge(16, 156).
edge(2, 32).
edge(34, 50).
edge(92, 151).
edge(86, 92).
edge(73, 89).
edge(87, 118).
edge(62, 69).
edge(37, 104).
edge(120, 123).
edge(4, 106).
edge(152, 155).
edge(106, 157).
edge(38, 56).
edge(125, 154).
edge(67, 73).
edge(71, 140).
edge(78, 93).
edge(2, 69).
edge(32, 67).
edge(94, 113).
edge(100, 102).
edge(85, 153).
edge(117, 139).
edge(54, 158).
edge(26, 46).
edge(19, 41).
edge(68, 110).
edge(64, 117).
edge(32, 136).
edge(29, 49).
edge(81, 82).
edge(25, 45).
edge(89, 113).
edge(115, 128).
edge(13, 47).
edge(107, 153).
edge(78, 148).
edge(33, 134).
edge(57, 107).
edge(82, 142).
edge(116, 122).
edge(69, 123).
edge(14, 127).
edge(51, 126).
edge(38, 96).
edge(155, 157).
edge(93, 135).
edge(17, 145).
edge(142, 148).
edge(56, 64).
edge(61, 78).
edge(42, 108).
edge(100, 132).
edge(18, 80).
edge(72, 127).
edge(62, 73).
edge(1, 15).
edge(24, 58).
edge(125, 142).
edge(13, 67).
edge(28, 144).
edge(42, 85).
edge(21, 124).
edge(25, 39).
edge(24, 88).
edge(12, 45).
edge(48, 156).
edge(0, 55).
edge(59, 124).
edge(79, 153).
edge(5, 48).
edge(141, 149).
edge(10, 121).
edge(105, 143).
edge(4, 9).
edge(54, 140).
edge(33, 115).
edge(132, 135).
edge(64, 74).
edge(109, 136).
edge(84, 153).
edge(42, 117).
edge(34, 70).
edge(104, 142).
edge(9, 147).
edge(20, 108).
edge(33, 69).
edge(126, 158).
edge(1, 84).
edge(8, 73).
edge(25, 120).
edge(37, 108).
edge(30, 50).
edge(62, 148).
edge(147, 156).
edge(9, 13).
edge(1, 29).
edge(26, 120).
edge(12, 23).
edge(80, 92).
edge(92, 119).
edge(14, 31).
edge(75, 153).
edge(7, 96).
edge(27, 37).
edge(19, 63).
edge(26, 76).
edge(57, 151).
edge(8, 36).
edge(34, 47).
edge(47, 126).
edge(30, 58).
edge(1, 140).
edge(46, 138).
edge(94, 148).
edge(47, 67).
edge(108, 145).
edge(79, 104).
edge(8, 10).
edge(3, 93).
edge(5, 144).
edge(73, 142).
edge(79, 150).
edge(32, 86).
edge(38, 103).
edge(14, 27).
edge(32, 91).
edge(10, 103).
edge(125, 143).
edge(57, 108).
edge(135, 141).
edge(14, 149).
edge(37, 93).
edge(116, 141).
edge(13, 133).
edge(63, 78).
edge(68, 107).
edge(13, 135).
edge(93, 115).
edge(111, 135).
edge(89, 92).
edge(88, 117).
edge(73, 158).
edge(70, 143).
edge(85, 141).
edge(35, 156).
edge(44, 109).
edge(50, 94).
edge(65, 92).
edge(5, 133).
edge(77, 136).
edge(8, 45).
edge(29, 139).
edge(74, 85).
edge(71, 78).
edge(47, 119).
edge(2, 137).
edge(19, 51).
edge(76, 83).
edge(5, 70).
edge(15, 129).
edge(54, 148).
edge(37, 114).
edge(33, 74).
edge(1, 126).
edge(89, 91).
edge(49, 88).
edge(112, 139).
edge(19, 22).
edge(59, 79).
edge(129, 137).
edge(114, 153).
edge(44, 94).
edge(45, 141).
edge(37, 58).
edge(73, 150).
edge(101, 157).
edge(53, 139).
edge(57, 138).
edge(53, 118).
edge(113, 131).
edge(44, 52).
edge(94, 120).
edge(143, 146).
edge(7, 59).
edge(65, 112).
edge(42, 49).
edge(94, 136).
edge(59, 73).
edge(39, 91).
edge(3, 76).
edge(5, 155).
edge(77, 129).
edge(72, 156).
edge(50, 109).
edge(4, 27).
edge(34, 135).
edge(80, 109).
edge(76, 107).
edge(28, 83).
edge(50, 66).
edge(43, 119).
edge(74, 98).
edge(80, 123).
edge(13, 96).
edge(28, 142).
edge(12, 18).
edge(17, 76).
edge(85, 121).
edge(16, 70).
edge(13, 15).
edge(20, 132).
edge(37, 69).
edge(69, 89).
edge(74, 91).
edge(5, 92).
edge(19, 27).
edge(44, 113).
edge(119, 132).
edge(66, 125).
edge(42, 134).
edge(1, 28).
edge(13, 102).
edge(44, 48).
edge(38, 99).
edge(79, 89).
edge(51, 62).
edge(83, 96).
edge(19, 146).
edge(17, 33).
edge(13, 156).
edge(30, 143).
edge(58, 65).
edge(122, 157).
edge(25, 113).
edge(117, 150).
edge(0, 64).
edge(26, 95).
edge(41, 73).
edge(33, 59).
edge(7, 10).
edge(126, 151).
edge(120, 143).
edge(39, 133).
edge(39, 82).
edge(69, 73).
edge(127, 142).
edge(22, 94).
edge(26, 117).
edge(69, 87).
edge(31, 66).
edge(55, 151).
edge(1, 30).
edge(29, 112).
edge(37, 54).
edge(12, 151).
edge(67, 140).
edge(119, 153).
edge(77, 126).
edge(125, 147).
edge(81, 142).
edge(93, 121).
edge(120, 138).
edge(71, 142).
edge(51, 145).
edge(82, 98).
edge(23, 53).
edge(9, 84).
edge(143, 155).
edge(40, 108).
edge(18, 82).
edge(106, 156).
edge(23, 95).
edge(53, 107).
edge(72, 93).
edge(96, 150).
edge(45, 112).
edge(36, 127).
edge(29, 147).
edge(111, 155).
edge(20, 102).
edge(41, 102).
edge(70, 148).
edge(62, 88).
edge(4, 26).
edge(34, 109).
edge(3, 24).
edge(55, 93).
edge(15, 88).
edge(125, 138).
edge(134, 136).
edge(83, 111).
edge(14, 135).
edge(7, 140).
edge(1, 33).
edge(18, 139).
edge(69, 85).
edge(44, 87).
edge(60, 83).
edge(72, 100).
edge(17, 66).
edge(20, 60).
edge(58, 135).
edge(96, 158).
edge(0, 143).
edge(35, 135).
edge(125, 144).
edge(48, 74).
edge(0, 34).
edge(99, 108).
edge(11, 151).
edge(28, 130).
edge(22, 131).
edge(24, 91).
edge(17, 120).
edge(45, 71).
edge(51, 146).
edge(8, 126).
edge(40, 90).
edge(77, 94).
edge(57, 95).
edge(16, 53).
edge(81, 116).
edge(50, 155).
edge(74, 153).
edge(18, 97).
edge(107, 121).
edge(79, 157).
edge(47, 105).
edge(119, 134).
edge(88, 138).
edge(71, 118).
edge(85, 149).
edge(43, 96).
edge(56, 59).
edge(15, 113).
edge(34, 74).
edge(4, 79).
edge(16, 131).
edge(93, 131).
edge(33, 34).
edge(11, 60).
edge(61, 124).
edge(102, 137).
edge(70, 78).
edge(23, 133).
edge(40, 154).
edge(46, 74).
edge(80, 145).
edge(102, 129).
edge(82, 93).
edge(45, 79).
edge(41, 108).
edge(19, 89).
edge(21, 27).
edge(46, 63).
edge(18, 66).
edge(25, 88).
edge(121, 128).
edge(10, 49).
edge(66, 71).
edge(124, 144).
edge(40, 88).
edge(4, 136).
edge(25, 72).
edge(30, 33).
edge(27, 135).
edge(96, 141).
edge(34, 85).
edge(15, 117).
edge(1, 109).
edge(50, 118).
edge(42, 61).
edge(84, 123).
edge(9, 76).
edge(16, 92).
edge(13, 83).
edge(44, 90).
edge(106, 118).
edge(40, 54).
edge(17, 37).
edge(25, 80).
edge(23, 143).
edge(38, 88).
edge(8, 62).
edge(18, 152).
edge(39, 137).
edge(65, 89).
edge(36, 75).
edge(80, 100).
edge(59, 90).
edge(13, 109).
edge(68, 82).
edge(89, 111).
edge(98, 100).
edge(87, 120).
edge(2, 127).
edge(40, 60).
edge(25, 34).
edge(21, 81).
edge(24, 143).
edge(145, 153).
edge(21, 28).
edge(16, 73).
edge(48, 94).
edge(142, 150).
edge(114, 117).
edge(64, 141).
edge(5, 82).
edge(33, 103).
edge(34, 110).
edge(80, 132).
edge(24, 54).
edge(99, 102).
edge(55, 84).
edge(89, 127).
edge(90, 146).
edge(79, 140).
edge(78, 104).
edge(33, 131).
edge(27, 39).
edge(84, 85).
edge(5, 151).
edge(13, 61).
edge(62, 116).
edge(70, 116).
edge(49, 66).
edge(39, 151).
edge(52, 132).
edge(100, 136).
edge(17, 102).
edge(11, 28).
edge(27, 144).
edge(38, 131).
edge(74, 151).
edge(38, 58).
edge(69, 127).
edge(34, 92).
edge(126, 150).
edge(11, 26).
edge(126, 134).
edge(78, 100).
edge(75, 141).
edge(15, 61).
edge(8, 146).
edge(51, 153).
edge(65, 67).
edge(73, 98).
edge(74, 79).
edge(119, 148).
edge(29, 63).
edge(25, 134).
edge(76, 155).
edge(58, 96).
edge(1, 70).
edge(14, 102).
edge(64, 99).
edge(35, 143).
edge(2, 23).
edge(110, 143).
edge(36, 156).
edge(71, 114).
edge(71, 83).
edge(30, 145).
edge(63, 83).
edge(32, 92).
edge(25, 152).
edge(14, 133).
edge(82, 108).
edge(8, 82).
edge(39, 153).
edge(47, 92).
edge(1, 131).
edge(14, 158).
edge(40, 76).
edge(21, 43).
edge(15, 56).
edge(11, 44).
edge(6, 157).
edge(26, 97).
edge(85, 97).
edge(41, 86).
edge(24, 135).
edge(34, 129).
edge(43, 127).
edge(11, 82).
edge(61, 128).
edge(63, 138).
edge(40, 145).
edge(25, 77).
edge(53, 147).
edge(33, 105).
edge(144, 152).
edge(90, 139).
edge(75, 127).
edge(29, 44).
edge(25, 54).
edge(104, 153).
edge(17, 148).
edge(21, 158).
edge(12, 136).
edge(54, 115).
edge(110, 152).
edge(113, 157).
edge(19, 121).
edge(4, 71).
edge(146, 148).
edge(15, 105).
edge(76, 81).
edge(5, 20).
edge(24, 104).
edge(44, 112).
edge(33, 68).
edge(58, 82).
edge(8, 57).
edge(25, 119).
edge(126, 127).
edge(25, 56).
edge(18, 130).
edge(0, 7).
edge(44, 138).
edge(29, 157).
edge(7, 69).
edge(28, 150).
edge(44, 46).
edge(89, 109).
edge(29, 105).
edge(37, 92).
edge(11, 93).
edge(135, 156).
edge(69, 153).
edge(106, 108).
edge(38, 100).
edge(63, 75).
edge(97, 155).
edge(24, 102).
edge(127, 138).
edge(54, 55).
edge(81, 133).
edge(63, 76).
edge(103, 113).
edge(7, 22).
edge(61, 67).
edge(30, 111).
edge(73, 122).
edge(8, 64).
edge(34, 149).
edge(59, 74).
edge(39, 127).
edge(64, 72).
edge(37, 38).
edge(12, 150).
edge(67, 100).
edge(35, 132).
edge(55, 108).
edge(70, 89).
edge(62, 142).
edge(4, 153).
edge(93, 138).
edge(41, 112).
edge(79, 119).
edge(64, 147).
edge(61, 104).
edge(42, 84).
edge(12, 142).
edge(66, 116).
edge(131, 156).
edge(31, 137).
edge(25, 74).
edge(34, 121).
edge(54, 143).
edge(26, 135).
edge(74, 119).
edge(40, 153).
edge(40, 93).
edge(97, 105).
edge(105, 134).
edge(80, 90).
edge(21, 33).
edge(4, 8).
edge(43, 92).
edge(92, 128).
edge(60, 132).
edge(22, 153).
edge(1, 98).
edge(59, 114).
edge(14, 60).
edge(32, 133).
edge(51, 144).
edge(35, 87).
edge(64, 70).
edge(79, 86).
edge(78, 145).
edge(51, 73).
edge(6, 101).
edge(0, 45).
edge(69, 107).
edge(17, 53).
edge(56, 96).
edge(76, 138).
edge(44, 106).
edge(18, 136).
edge(58, 75).
edge(67, 141).
edge(91, 133).
edge(79, 85).
edge(12, 146).
edge(47, 59).
edge(77, 83).
edge(46, 61).
edge(77, 134).
edge(73, 153).
edge(64, 127).
edge(73, 131).
edge(29, 52).
edge(30, 134).
edge(51, 139).
edge(26, 37).
edge(19, 153).
edge(25, 73).
edge(5, 77).
edge(44, 122).
edge(9, 111).
edge(97, 147).
edge(79, 130).
edge(40, 68).
edge(71, 136).
edge(14, 51).
edge(39, 105).
edge(63, 114).
edge(15, 77).
edge(145, 156).
edge(134, 145).
edge(17, 78).
edge(75, 128).
edge(84, 128).
edge(18, 142).
edge(23, 107).
edge(61, 148).
edge(4, 40).
edge(43, 82).
edge(7, 130).
edge(50, 95).
edge(74, 148).
edge(13, 42).
edge(77, 110).
edge(32, 46).
edge(33, 79).
edge(35, 112).
edge(26, 72).
edge(105, 149).
edge(70, 128).
edge(26, 45).
edge(85, 134).
edge(36, 38).
edge(0, 26).
edge(88, 120).
edge(89, 139).
edge(44, 63).
edge(91, 110).
edge(8, 99).
edge(18, 140).
edge(47, 122).
edge(85, 128).
edge(21, 79).
edge(17, 63).
edge(23, 62).
edge(64, 116).
edge(2, 108).
edge(30, 48).
edge(94, 119).
edge(67, 135).
edge(51, 92).
edge(50, 130).
edge(84, 125).
edge(89, 133).
edge(23, 136).
edge(1, 7).
edge(91, 100).
edge(154, 157).
edge(92, 144).
edge(151, 156).
edge(41, 42).
edge(58, 77).
edge(60, 103).
edge(125, 126).
edge(83, 133).
edge(131, 144).
edge(108, 139).
edge(30, 100).
edge(32, 44).
edge(75, 79).
edge(77, 114).
edge(5, 110).
edge(125, 157).
edge(41, 44).
edge(3, 40).
edge(34, 67).
edge(40, 99).
edge(54, 150).
edge(18, 131).
edge(58, 120).
edge(87, 108).
edge(95, 156).
edge(54, 104).
edge(111, 116).
edge(91, 154).
edge(41, 101).
edge(96, 143).
edge(19, 57).
edge(89, 105).
edge(50, 126).
edge(1, 129).
edge(70, 144).
edge(64, 155).
edge(15, 17).
edge(30, 60).
edge(101, 138).
edge(50, 92).
edge(24, 148).
edge(115, 138).
edge(70, 157).
edge(17, 42).
edge(25, 143).
edge(28, 84).
edge(15, 147).
edge(106, 131).
edge(26, 82).
edge(6, 10).
edge(13, 21).
edge(119, 151).
edge(133, 137).
edge(24, 53).
edge(118, 140).
edge(95, 99).
edge(78, 150).
edge(13, 66).
edge(68, 134).
edge(114, 145).
edge(43, 63).
edge(129, 141).
edge(56, 119).
edge(57, 67).
edge(32, 120).
edge(26, 50).
edge(16, 120).
edge(96, 151).
edge(61, 101).
edge(52, 93).
edge(39, 99).
edge(53, 66).
edge(44, 110).
edge(43, 145).
edge(9, 118).
edge(138, 150).
edge(27, 35).
edge(101, 110).
edge(44, 81).
edge(15, 97).
edge(85, 139).
edge(101, 144).
edge(7, 117).
edge(132, 133).
edge(33, 117).
edge(54, 107).
edge(80, 127).
edge(0, 42).
edge(40, 43).
edge(45, 93).
edge(86, 151).
edge(1, 117).
edge(1, 146).
edge(84, 129).
edge(96, 122).
edge(94, 124).
edge(86, 89).
edge(30, 110).
edge(18, 94).
edge(28, 61).
edge(13, 32).
edge(75, 135).
edge(153, 156).
edge(60, 79).
edge(32, 80).
edge(122, 151).
edge(31, 107).
edge(90, 153).
edge(144, 149).
edge(71, 79).
edge(27, 132).
edge(48, 102).
edge(36, 126).
edge(13, 24).
edge(71, 103).
edge(1, 101).
edge(13, 33).
edge(37, 102).
edge(18, 112).
edge(36, 77).
edge(106, 122).
edge(85, 142).
edge(11, 157).
edge(49, 111).
edge(76, 80).
edge(22, 56).
edge(55, 100).
edge(111, 122).
edge(16, 42).
edge(28, 46).
edge(32, 128).
edge(15, 78).
edge(19, 136).
edge(49, 61).
edge(47, 154).
edge(106, 125).
edge(143, 144).
edge(100, 122).
edge(64, 135).
edge(45, 117).
edge(20, 125).
edge(127, 154).
edge(36, 69).
edge(5, 50).
edge(13, 37).
edge(18, 32).
edge(77, 92).
edge(45, 126).
edge(55, 74).
edge(94, 137).
edge(105, 106).
edge(0, 88).
edge(5, 137).
edge(87, 105).
edge(6, 83).
edge(36, 47).
edge(125, 127).
edge(64, 86).
edge(57, 86).
edge(28, 29).
edge(117, 158).
edge(88, 96).
edge(108, 156).
edge(80, 136).
edge(51, 108).
edge(41, 157).
edge(80, 144).
edge(125, 145).
edge(7, 29).
edge(52, 153).
edge(20, 24).
edge(33, 141).
edge(0, 76).
edge(5, 52).
edge(52, 128).
edge(55, 140).
edge(105, 140).
edge(10, 25).
edge(4, 13).
edge(30, 39).
edge(1, 57).
edge(72, 115).
edge(48, 130).
edge(21, 45).
edge(18, 58).
edge(47, 84).
edge(89, 142).
edge(10, 90).
edge(84, 105).
edge(94, 117).
edge(51, 133).
edge(5, 73).
edge(104, 137).
edge(31, 125).
edge(13, 22).
edge(25, 151).
edge(16, 49).
edge(54, 130).
edge(73, 138).
edge(83, 120).
edge(22, 142).
edge(41, 154).
edge(38, 44).
edge(108, 155).
edge(27, 134).
edge(117, 130).
edge(37, 97).
edge(26, 147).
edge(20, 101).
edge(16, 41).
edge(71, 77).
edge(33, 89).
edge(102, 138).
edge(82, 148).
edge(119, 128).
edge(92, 95).
edge(12, 58).
edge(58, 149).
edge(23, 101).
edge(11, 124).
edge(147, 157).
edge(9, 69).
edge(8, 122).
edge(34, 59).
edge(46, 116).
edge(41, 131).
edge(34, 90).
edge(7, 80).
edge(9, 97).
edge(55, 139).
edge(55, 101).
edge(92, 123).
edge(29, 60).
edge(28, 95).
edge(68, 156).
edge(40, 156).
edge(28, 67).
edge(14, 150).
edge(52, 56).
edge(7, 24).
edge(64, 73).
edge(35, 114).
edge(132, 136).
edge(64, 108).
edge(94, 154).
edge(37, 132).
edge(74, 114).
edge(66, 135).
edge(100, 124).
edge(5, 24).
edge(101, 147).
edge(13, 51).
edge(96, 140).
edge(14, 144).
edge(93, 158).
edge(76, 142).
edge(63, 131).
edge(46, 91).
edge(13, 137).
edge(105, 144).
edge(33, 87).
edge(107, 118).
edge(72, 111).
edge(3, 137).
edge(48, 57).
edge(88, 104).
edge(40, 148).
edge(8, 40).
edge(59, 64).
edge(107, 142).
edge(17, 98).
edge(77, 143).
edge(11, 78).
edge(98, 133).
edge(5, 145).
edge(56, 94).
edge(57, 121).
edge(23, 115).
edge(31, 97).
edge(56, 143).
edge(70, 134).
edge(14, 24).
edge(47, 95).
edge(10, 107).
edge(29, 136).
edge(101, 143).
edge(28, 40).
edge(22, 32).
edge(34, 71).
edge(54, 68).
edge(117, 120).
edge(90, 107).
edge(3, 96).
edge(58, 146).
edge(116, 134).
edge(117, 154).
edge(115, 129).
edge(47, 74).
edge(59, 107).
edge(98, 112).
edge(58, 139).
edge(17, 115).
edge(97, 156).
edge(16, 114).
edge(110, 133).
edge(33, 130).
edge(56, 153).
edge(73, 81).
edge(17, 23).
edge(50, 115).
edge(7, 147).
edge(118, 128).
edge(23, 132).
edge(32, 100).
edge(33, 151).
edge(43, 125).
edge(32, 72).
edge(1, 27).
edge(47, 55).
edge(69, 104).
edge(117, 153).
edge(15, 135).
edge(42, 105).
edge(75, 155).
edge(6, 77).
edge(59, 68).
edge(103, 149).
edge(5, 16).
edge(59, 134).
edge(8, 80).
edge(79, 107).
edge(20, 84).
edge(8, 145).
edge(8, 41).
edge(42, 132).
edge(43, 45).
edge(77, 79).
edge(23, 71).
edge(34, 72).
edge(24, 97).
edge(15, 80).
edge(35, 134).
edge(85, 102).
edge(59, 97).
edge(80, 89).
edge(6, 93).
edge(81, 151).
edge(42, 135).
edge(44, 82).
edge(120, 137).
edge(40, 86).
edge(15, 109).
edge(44, 143).
edge(3, 83).
edge(78, 133).
edge(133, 156).
edge(58, 109).
edge(16, 119).
edge(10, 73).
edge(19, 84).
edge(108, 130).
edge(54, 114).
edge(69, 151).
edge(12, 149).
edge(120, 157).
edge(38, 148).
edge(89, 147).
edge(25, 32).
edge(124, 147).
edge(1, 17).
edge(21, 25).
edge(41, 103).
edge(2, 149).
edge(36, 52).
edge(12, 103).
edge(67, 78).
edge(22, 69).
edge(49, 142).
edge(75, 103).
edge(17, 104).
edge(10, 141).
edge(15, 107).
edge(0, 126).
edge(142, 144).
edge(38, 51).
edge(65, 151).
edge(21, 29).
edge(42, 56).
edge(100, 155).
edge(61, 66).
edge(12, 91).
edge(113, 126).
edge(86, 155).
edge(21, 102).
edge(32, 53).
edge(135, 154).
edge(66, 121).
edge(97, 100).
edge(104, 141).
edge(53, 137).
edge(5, 116).
edge(21, 109).
edge(48, 63).
edge(65, 153).
edge(17, 119).
edge(14, 141).
edge(110, 127).
edge(130, 132).
edge(58, 145).
edge(45, 122).
edge(86, 110).
edge(37, 154).
edge(14, 43).
edge(15, 133).
edge(2, 51).
edge(10, 125).
edge(12, 76).
edge(37, 96).
edge(47, 87).
edge(30, 97).
edge(34, 151).
edge(15, 24).
edge(11, 114).
edge(1, 40).
edge(65, 104).
edge(73, 106).
edge(4, 111).
edge(23, 102).
edge(45, 121).
edge(17, 94).
edge(26, 31).
edge(59, 151).
edge(95, 152).
edge(4, 33).
edge(97, 151).
edge(38, 52).
edge(5, 146).
edge(96, 130).
edge(57, 144).
edge(55, 69).
edge(151, 158).
edge(118, 153).
edge(36, 125).
edge(83, 128).
edge(16, 134).
edge(66, 92).
edge(23, 24).
edge(62, 111).
edge(35, 62).
edge(22, 140).
edge(9, 68).
edge(100, 142).
edge(6, 39).
edge(99, 152).
edge(114, 138).
edge(5, 72).
edge(17, 101).
edge(85, 93).
edge(95, 150).
edge(30, 108).
edge(91, 157).
edge(23, 58).
edge(104, 112).
edge(81, 126).
edge(84, 111).
edge(39, 52).
edge(71, 154).
edge(51, 107).
edge(92, 154).
edge(34, 153).
edge(22, 103).
edge(125, 151).
edge(0, 134).
edge(93, 142).
edge(23, 41).
edge(94, 132).
edge(34, 38).
edge(78, 80).
edge(21, 104).
edge(4, 101).
edge(71, 153).
edge(23, 120).
edge(18, 81).
edge(10, 145).
edge(61, 92).
edge(8, 156).
edge(25, 98).
edge(69, 154).
edge(60, 157).
edge(81, 115).
edge(25, 105).
edge(44, 142).
edge(6, 24).
edge(1, 8).
edge(34, 68).
edge(23, 109).
edge(42, 100).
edge(19, 46).
edge(7, 143).
edge(25, 61).
edge(45, 135).
edge(55, 97).
edge(79, 112).
edge(38, 118).
edge(1, 62).
edge(126, 146).
edge(21, 135).
edge(96, 123).
edge(55, 115).
edge(39, 69).
edge(53, 67).
edge(76, 147).
edge(27, 66).
edge(28, 30).
edge(10, 18).
edge(51, 60).
edge(38, 40).
edge(100, 134).
edge(113, 147).
edge(42, 140).
edge(75, 142).
edge(50, 82).
edge(113, 123).
edge(74, 130).
edge(9, 153).
edge(12, 74).
edge(64, 137).
edge(63, 87).
edge(47, 81).
edge(31, 39).
edge(41, 94).
edge(58, 131).
edge(0, 57).
edge(24, 100).
edge(71, 134).
edge(21, 126).
edge(99, 116).
edge(4, 97).
edge(86, 93).
edge(46, 49).
edge(14, 59).
edge(12, 122).
edge(18, 153).
edge(7, 135).
edge(0, 137).
edge(49, 132).
edge(27, 32).
edge(83, 148).
edge(1, 121).
edge(20, 47).
edge(26, 112).
edge(43, 50).
edge(126, 133).
edge(104, 128).
edge(50, 89).
edge(74, 86).
edge(118, 155).
edge(40, 105).
edge(27, 45).
edge(18, 63).
edge(72, 87).
edge(116, 123).
edge(61, 87).
edge(126, 139).
edge(71, 124).
edge(97, 113).
edge(2, 125).
edge(59, 81).
edge(44, 130).
edge(46, 66).
edge(101, 108).
edge(9, 133).
edge(92, 94).
edge(4, 92).
edge(20, 135).
edge(6, 125).
edge(26, 64).
edge(24, 61).
edge(76, 136).
edge(16, 91).
edge(80, 110).
edge(10, 21).
edge(14, 20).
edge(150, 154).
edge(62, 110).
edge(83, 158).
edge(17, 113).
edge(44, 107).
edge(62, 127).
edge(46, 99).
edge(55, 158).
edge(37, 62).
edge(16, 155).
edge(2, 65).
edge(89, 155).
edge(12, 73).
edge(57, 85).
edge(111, 150).
edge(92, 99).
edge(15, 157).
edge(18, 103).
edge(10, 56).
edge(130, 152).
edge(3, 138).
edge(90, 94).
edge(113, 144).
edge(13, 29).
edge(62, 120).
edge(98, 143).
edge(5, 123).
edge(96, 152).
edge(118, 144).
edge(49, 127).
edge(26, 34).
edge(19, 78).
edge(31, 115).
edge(31, 110).
edge(127, 140).
edge(5, 25).
edge(30, 89).
edge(128, 145).
edge(84, 135).
edge(56, 63).
edge(36, 137).
edge(51, 128).
edge(30, 80).
edge(19, 28).
edge(140, 149).
edge(69, 131).
edge(54, 70).
edge(9, 139).
edge(4, 14).
edge(8, 143).
edge(78, 109).
edge(41, 105).
edge(12, 147).
edge(67, 72).
edge(107, 133).
edge(27, 33).
edge(38, 84).
edge(0, 39).
edge(113, 118).
edge(48, 78).
edge(107, 117).
edge(65, 138).
edge(14, 15).
edge(57, 71).
edge(68, 157).
edge(45, 151).
edge(14, 73).
edge(26, 108).
edge(119, 144).
edge(60, 92).
edge(71, 123).
edge(29, 101).
edge(17, 89).
edge(65, 90).
edge(32, 110).
edge(62, 66).
edge(62, 78).
edge(10, 34).
edge(31, 68).
edge(31, 113).
edge(114, 156).
edge(4, 23).
edge(32, 138).
edge(93, 97).
edge(36, 144).
edge(17, 62).
edge(105, 154).
edge(54, 144).
edge(46, 80).
edge(11, 129).
edge(109, 152).
edge(56, 137).
edge(38, 152).
edge(61, 93).
edge(59, 117).
edge(102, 146).
edge(28, 89).
edge(2, 138).
edge(8, 150).
edge(23, 85).
edge(90, 96).
edge(6, 153).
edge(107, 120).
edge(28, 154).
edge(22, 68).
edge(1, 32).
edge(99, 127).
edge(52, 53).
edge(49, 131).
edge(67, 111).
edge(21, 63).
edge(53, 65).
edge(42, 113).
edge(53, 91).
edge(82, 92).
edge(24, 146).
edge(120, 122).
edge(78, 157).
edge(16, 110).
edge(67, 105).
edge(24, 115).
edge(99, 112).
edge(20, 141).
edge(45, 59).
edge(21, 53).
edge(133, 154).
edge(39, 135).
edge(133, 147).
edge(66, 103).
edge(129, 154).
edge(17, 157).
edge(92, 93).
edge(4, 151).
edge(61, 111).
edge(50, 59).
edge(41, 48).
edge(139, 143).
edge(25, 130).
edge(33, 121).
edge(109, 139).
edge(38, 142).
edge(73, 125).
edge(44, 47).
edge(72, 98).
edge(79, 117).
edge(41, 78).
edge(76, 112).
edge(33, 147).
edge(81, 99).
edge(75, 145).
edge(0, 77).
edge(70, 125).
edge(11, 103).
edge(51, 122).
edge(52, 103).
edge(54, 141).
edge(82, 116).
edge(31, 136).
edge(52, 139).
edge(103, 137).
edge(4, 144).
edge(67, 129).
edge(59, 108).
edge(104, 156).
edge(10, 12).
edge(53, 55).
edge(28, 108).
edge(39, 76).
edge(37, 149).
edge(20, 155).
edge(120, 150).
edge(4, 114).
edge(136, 153).
edge(51, 140).
edge(37, 85).
edge(32, 127).
edge(29, 121).
edge(11, 19).
edge(35, 101).
edge(12, 124).
edge(110, 122).
edge(104, 143).
edge(106, 146).
edge(49, 122).
edge(53, 100).
edge(25, 30).
edge(95, 155).
edge(50, 73).
edge(47, 85).
edge(66, 83).
edge(0, 54).
edge(32, 118).
edge(28, 97).
edge(104, 131).
edge(117, 123).
edge(16, 122).
edge(18, 144).
edge(53, 104).
edge(8, 55).
edge(62, 155).
edge(34, 145).
edge(63, 88).
edge(34, 44).
edge(60, 126).
edge(2, 152).
edge(20, 83).
edge(19, 76).
edge(4, 128).
edge(10, 144).
edge(106, 133).
edge(11, 36).
edge(73, 107).
edge(5, 153).
edge(1, 127).
edge(53, 154).
edge(152, 154).
edge(47, 100).
edge(37, 80).
edge(40, 133).
edge(99, 136).
edge(18, 67).
edge(3, 73).
edge(46, 85).
edge(88, 99).
edge(131, 139).
edge(3, 132).
edge(41, 83).
edge(28, 107).
edge(86, 117).
edge(51, 115).
edge(32, 123).
edge(37, 87).
edge(45, 146).
edge(57, 146).
edge(26, 143).
edge(23, 104).
edge(134, 157).
edge(31, 50).
edge(48, 70).
edge(2, 64).
edge(56, 135).
edge(106, 143).
edge(37, 50).
edge(20, 36).
edge(99, 157).
edge(59, 150).
edge(101, 123).
edge(53, 94).
edge(28, 37).
edge(22, 85).
edge(29, 134).
edge(24, 79).
edge(51, 156).
edge(56, 118).
edge(30, 105).
edge(14, 80).
edge(35, 79).
edge(74, 101).
edge(51, 116).
edge(110, 140).
edge(115, 142).
edge(71, 135).
edge(18, 147).
edge(73, 91).
edge(99, 117).
edge(0, 107).
edge(104, 119).
edge(35, 69).
edge(55, 152).
edge(119, 133).
edge(34, 64).
edge(86, 141).
edge(35, 63).
edge(108, 133).
edge(115, 137).
edge(18, 111).
edge(54, 64).
edge(12, 26).
edge(7, 30).
edge(20, 34).
edge(39, 140).
edge(102, 144).
edge(112, 114).
edge(114, 152).
edge(14, 57).
edge(13, 125).
edge(46, 101).
edge(60, 146).
edge(24, 112).
edge(14, 153).
edge(116, 144).
edge(31, 44).
edge(32, 112).
edge(136, 149).
edge(25, 84).
edge(152, 153).
edge(15, 104).
edge(13, 130).
edge(60, 72).
edge(27, 87).
edge(70, 140).
edge(0, 18).
edge(115, 125).
edge(58, 115).
edge(14, 131).
edge(45, 130).
edge(12, 62).
edge(66, 120).
edge(44, 100).
edge(38, 79).
edge(99, 155).
edge(120, 145).
edge(3, 48).
edge(7, 37).
edge(48, 83).
edge(67, 122).
edge(118, 154).
edge(135, 151).
edge(35, 70).
edge(39, 40).
edge(43, 62).
edge(45, 155).
edge(11, 68).
edge(6, 50).
edge(50, 134).
edge(29, 47).
edge(33, 116).
edge(36, 139).
edge(37, 72).
edge(81, 92).
edge(77, 155).
edge(79, 111).
edge(1, 58).
edge(45, 55).
edge(55, 133).
edge(37, 118).
edge(15, 65).
edge(8, 26).
edge(6, 46).
edge(29, 118).
edge(5, 93).
edge(89, 94).
edge(26, 101).
edge(130, 137).
edge(33, 42).
edge(106, 130).
edge(31, 61).
edge(53, 111).
edge(16, 28).
edge(19, 32).
edge(116, 151).
edge(138, 139).
edge(55, 136).
edge(77, 132).
edge(58, 140).
edge(31, 150).
edge(50, 145).
edge(64, 103).
edge(86, 157).
edge(88, 114).
edge(57, 93).
edge(54, 61).
edge(120, 142).
edge(8, 16).
edge(7, 83).
edge(29, 148).
edge(52, 140).
edge(20, 138).
edge(15, 139).
edge(32, 61).
edge(128, 144).
edge(68, 138).
edge(67, 93).
edge(50, 61).
edge(11, 133).
edge(37, 148).
edge(21, 24).
edge(72, 117).
edge(1, 22).
edge(7, 51).
edge(97, 110).
edge(44, 69).
edge(39, 158).
edge(82, 152).
edge(39, 116).
edge(144, 158).
edge(5, 42).
edge(123, 141).
edge(42, 88).
edge(112, 138).
edge(69, 124).
edge(103, 108).
edge(33, 48).
edge(35, 66).
edge(6, 145).
edge(136, 158).
edge(21, 153).
edge(13, 152).
edge(37, 147).
edge(7, 152).
edge(68, 145).
edge(64, 113).
edge(81, 148).
edge(52, 141).
edge(16, 47).
edge(57, 113).
edge(5, 7).
edge(92, 102).
edge(60, 156).
edge(47, 111).
edge(10, 11).
edge(68, 92).
edge(74, 120).
edge(4, 39).
edge(5, 21).
edge(46, 51).
edge(42, 118).
edge(58, 123).
edge(42, 89).
edge(80, 96).
edge(14, 138).
edge(122, 124).
edge(7, 44).
edge(40, 115).
edge(71, 75).
edge(19, 44).
edge(87, 92).
edge(38, 130).
edge(131, 155).
edge(65, 156).
edge(77, 137).
edge(78, 94).
edge(0, 17).
edge(33, 46).
edge(9, 75).
edge(108, 158).
edge(0, 81).
edge(67, 113).
edge(32, 69).
edge(101, 113).
edge(7, 25).
edge(43, 52).
edge(26, 93).
edge(17, 92).
edge(66, 152).
edge(25, 122).
edge(67, 127).
edge(5, 80).
edge(110, 153).
edge(5, 122).
edge(11, 47).
edge(73, 143).
edge(79, 82).
edge(56, 99).
edge(0, 94).
edge(91, 141).
edge(27, 41).
edge(1, 92).
edge(13, 55).
edge(12, 14).
edge(11, 59).
edge(72, 148).
edge(74, 152).
edge(35, 150).
edge(1, 87).
edge(31, 156).
edge(153, 157).
edge(41, 63).
edge(90, 119).
edge(8, 133).
edge(116, 129).
edge(32, 38).
edge(24, 110).
edge(104, 106).
edge(63, 150).
edge(28, 149).
edge(25, 71).
edge(29, 84).
edge(75, 115).
edge(34, 52).
edge(108, 125).
edge(68, 77).
edge(11, 120).
edge(1, 38).
edge(52, 144).
edge(17, 123).
edge(30, 41).
edge(3, 57).
edge(23, 30).
edge(62, 100).
edge(16, 135).
edge(86, 109).
edge(41, 66).
edge(64, 67).
edge(33, 123).
edge(23, 90).
edge(130, 151).
edge(142, 151).
edge(56, 110).
edge(5, 113).
edge(20, 75).
edge(128, 139).
edge(20, 82).
edge(27, 57).
edge(11, 23).
edge(74, 112).
edge(90, 157).
edge(17, 65).
edge(93, 123).
edge(9, 32).
edge(7, 158).
edge(29, 114).
edge(69, 149).
edge(102, 139).
edge(20, 94).
edge(2, 29).
edge(115, 157).
edge(78, 98).
edge(75, 84).
edge(50, 135).
edge(43, 135).
edge(71, 145).
edge(100, 147).
edge(67, 132).
edge(39, 79).
edge(12, 143).
edge(35, 104).
edge(76, 137).
edge(35, 76).
edge(19, 66).
edge(4, 17).
edge(100, 143).
edge(51, 123).
edge(0, 31).
edge(117, 143).
edge(62, 151).
edge(26, 155).
edge(30, 68).
edge(9, 137).
edge(21, 128).
edge(21, 108).
edge(3, 113).
edge(2, 24).
edge(59, 139).
edge(130, 143).
edge(96, 137).
edge(123, 132).
edge(86, 87).
edge(133, 134).
edge(121, 124).
edge(139, 152).
edge(78, 143).
edge(5, 18).
edge(9, 38).
edge(83, 94).
edge(49, 128).
edge(64, 66).
edge(60, 129).
edge(31, 121).
edge(23, 145).
edge(107, 154).
edge(20, 136).
edge(33, 106).
edge(49, 112).
edge(23, 147).
edge(46, 53).
edge(2, 85).
edge(69, 90).
edge(1, 56).
edge(10, 156).
edge(69, 98).
edge(18, 98).
edge(30, 54).
edge(45, 133).
edge(88, 119).
edge(40, 146).
edge(58, 141).
edge(62, 117).
edge(27, 43).
edge(70, 103).
edge(20, 26).
edge(70, 112).
edge(31, 90).
edge(96, 129).
edge(86, 136).
edge(55, 82).
edge(34, 118).
edge(2, 83).
edge(11, 110).
edge(81, 124).
edge(20, 40).
edge(10, 85).
edge(4, 87).
edge(19, 39).
edge(61, 79).
edge(16, 51).
edge(22, 127).
edge(33, 139).
edge(13, 44).
edge(72, 116).
edge(29, 85).
edge(32, 155).
edge(103, 132).
edge(35, 42).
edge(13, 145).
edge(60, 91).
edge(8, 93).
edge(12, 125).
edge(41, 150).
edge(0, 136).
edge(105, 109).
edge(6, 63).
edge(18, 70).
edge(98, 138).
edge(31, 103).
edge(48, 121).
edge(3, 27).
edge(31, 37).
edge(60, 131).
edge(10, 150).
edge(11, 119).
edge(55, 132).
edge(8, 135).
edge(60, 143).
edge(26, 144).
edge(6, 146).
edge(63, 99).
edge(18, 114).
edge(13, 59).
edge(40, 42).
edge(92, 145).
edge(62, 64).
edge(23, 122).
edge(60, 98).
edge(105, 125).
edge(90, 91).
edge(48, 85).
edge(102, 154).
edge(54, 69).
edge(26, 54).
edge(82, 128).
edge(4, 118).
edge(42, 77).
edge(80, 122).
edge(33, 138).
edge(48, 115).
edge(80, 87).
edge(138, 153).
edge(86, 132).
edge(51, 102).
edge(56, 115).
edge(113, 127).
edge(40, 136).
edge(11, 40).
edge(78, 115).
edge(14, 49).
edge(26, 33).
edge(5, 58).
edge(48, 101).
edge(56, 141).
edge(26, 96).
edge(124, 145).
edge(103, 133).
edge(59, 129).
edge(59, 132).
edge(26, 122).
edge(133, 144).
edge(12, 55).
edge(32, 73).
edge(9, 46).
edge(91, 149).
edge(11, 73).
edge(0, 128).
edge(114, 142).
edge(46, 152).
edge(1, 65).
edge(17, 140).
edge(15, 146).
edge(75, 124).
edge(62, 121).
edge(20, 63).
edge(23, 26).
edge(65, 145).
edge(107, 123).
edge(25, 31).
edge(128, 158).
edge(33, 49).
edge(98, 121).
edge(17, 67).
edge(49, 63).
edge(107, 119).
edge(150, 151).
edge(37, 99).
edge(31, 77).
edge(9, 19).
edge(109, 127).
edge(72, 145).
edge(57, 94).
edge(27, 104).
edge(63, 108).
edge(104, 152).
edge(79, 92).
edge(11, 118).
edge(26, 75).
edge(6, 148).
edge(58, 122).
edge(10, 57).
edge(44, 137).
edge(10, 96).
edge(65, 127).
edge(29, 116).
edge(101, 112).
edge(56, 89).
edge(64, 91).
edge(5, 158).
edge(12, 13).
edge(16, 59).
edge(52, 115).
edge(33, 36).
edge(87, 99).
edge(93, 155).
edge(42, 64).
edge(129, 135).
edge(36, 112).
edge(19, 127).
edge(41, 126).
edge(123, 137).
edge(61, 89).
edge(43, 78).
edge(82, 99).
edge(134, 150).
edge(12, 118).
edge(22, 88).
edge(81, 83).
edge(72, 132).
edge(76, 111).
edge(45, 104).
edge(20, 39).
edge(43, 142).
edge(69, 76).
edge(95, 134).
edge(81, 85).
edge(54, 108).
edge(72, 130).
edge(27, 49).
edge(1, 79).
edge(93, 128).
edge(2, 77).
edge(7, 14).
edge(28, 155).
edge(56, 152).
edge(28, 80).
edge(38, 129).
edge(109, 145).
edge(51, 113).
edge(8, 69).
edge(32, 154).
edge(61, 136).
edge(56, 130).
edge(110, 120).
edge(35, 115).
edge(30, 140).
edge(81, 123).
edge(136, 156).
edge(45, 108).
edge(64, 157).
edge(17, 127).
edge(50, 120).
edge(45, 158).
edge(72, 79).
edge(50, 99).
edge(47, 140).
edge(0, 108).
edge(38, 111).
edge(1, 155).
edge(40, 84).
edge(6, 123).
edge(80, 111).
edge(15, 150).
edge(62, 97).
edge(67, 71).
edge(5, 17).
edge(139, 156).
edge(82, 105).
edge(95, 117).
edge(6, 52).
edge(32, 111).
edge(40, 95).
edge(59, 130).
edge(3, 140).
edge(30, 137).
edge(31, 82).
edge(17, 95).
edge(17, 83).
edge(35, 151).
edge(63, 90).
edge(57, 103).
edge(1, 148).
edge(16, 157).
edge(127, 158).
edge(81, 88).
edge(20, 95).
edge(117, 125).
edge(66, 113).
edge(62, 107).
edge(75, 85).
edge(14, 121).
edge(74, 87).
edge(11, 97).
edge(68, 104).
edge(59, 99).
edge(96, 125).
edge(53, 129).
edge(142, 143).
edge(23, 55).
edge(60, 158).
edge(26, 106).
edge(68, 141).
edge(24, 37).
edge(47, 125).
edge(55, 144).
edge(42, 80).
edge(130, 157).
edge(35, 75).
edge(24, 145).
edge(68, 140).
edge(50, 129).
edge(67, 68).
edge(75, 136).
edge(63, 105).
edge(97, 123).
edge(4, 126).
edge(3, 98).
edge(6, 33).
edge(7, 90).
edge(0, 30).
edge(73, 86).
edge(49, 100).
edge(17, 46).
edge(32, 60).
edge(7, 98).
edge(90, 141).
edge(50, 148).
edge(80, 84).
edge(44, 149).
edge(24, 101).
edge(25, 149).
edge(66, 133).
edge(28, 87).
edge(27, 150).
edge(2, 36).
edge(5, 150).
edge(14, 103).
edge(75, 119).
edge(7, 23).
edge(55, 80).
edge(37, 127).
edge(11, 155).
edge(19, 93).
edge(72, 141).
edge(5, 6).
edge(77, 122).
edge(129, 139).
edge(87, 136).
edge(12, 121).
edge(4, 73).
edge(26, 81).
edge(83, 143).
edge(59, 93).
edge(130, 135).
edge(92, 131).
edge(9, 114).
edge(9, 85).
edge(99, 123).
edge(128, 157).
edge(64, 139).
edge(101, 141).
edge(110, 114).
edge(25, 137).
edge(11, 149).
edge(70, 71).
edge(125, 153).
edge(17, 152).
edge(39, 126).
edge(79, 123).
edge(76, 145).
edge(51, 88).
edge(11, 30).
edge(80, 125).
edge(11, 122).
edge(31, 69).
edge(111, 138).
edge(86, 134).
edge(65, 86).
edge(91, 106).
edge(41, 143).
edge(25, 115).
edge(24, 33).
edge(79, 144).
edge(52, 76).
edge(7, 45).
edge(11, 109).
edge(94, 126).
edge(52, 130).
edge(57, 83).
edge(13, 124).
edge(39, 54).
edge(149, 154).
edge(52, 59).
edge(60, 150).
edge(74, 134).
edge(19, 95).
edge(45, 101).
edge(31, 147).
edge(46, 139).
edge(83, 115).
edge(32, 129).
edge(34, 131).
edge(63, 148).
edge(86, 156).
edge(49, 82).
edge(111, 129).
edge(53, 124).
edge(109, 122).
edge(65, 121).
edge(5, 100).
edge(3, 43).
edge(57, 99).
edge(65, 70).
edge(46, 103).
edge(86, 121).
edge(92, 150).
edge(96, 98).
edge(6, 99).
edge(14, 122).
edge(64, 69).
edge(22, 105).
edge(76, 143).
edge(120, 156).
edge(0, 109).
edge(22, 155).
edge(28, 64).
edge(34, 57).
edge(86, 124).
edge(24, 28).
edge(91, 139).
edge(8, 60).
edge(67, 119).
edge(32, 81).
edge(18, 46).
edge(77, 90).
edge(57, 126).
edge(84, 151).
edge(78, 101).
edge(18, 42).
edge(76, 95).
edge(4, 29).
edge(113, 122).
edge(5, 71).
edge(115, 134).
edge(115, 156).
edge(80, 101).
edge(34, 84).
edge(37, 41).
edge(26, 27).
edge(95, 103).
edge(20, 137).
edge(73, 77).
edge(81, 87).
edge(1, 138).
edge(69, 150).
edge(116, 124).
edge(21, 122).
edge(101, 104).
edge(75, 88).
edge(48, 124).
edge(42, 83).
edge(62, 112).
edge(21, 50).
edge(69, 137).
edge(40, 109).
edge(40, 151).
edge(43, 128).
edge(18, 127).
edge(32, 137).
edge(58, 66).
edge(25, 52).
edge(1, 61).
edge(133, 146).
edge(45, 113).
edge(37, 66).
edge(30, 52).
edge(43, 97).
edge(147, 150).
edge(15, 22).
edge(148, 152).
edge(8, 65).
edge(3, 67).
edge(79, 113).
edge(20, 35).
edge(13, 126).
edge(7, 104).
edge(24, 149).
edge(78, 127).
edge(18, 84).
edge(145, 157).
edge(11, 145).
edge(50, 141).
edge(7, 136).
edge(68, 83).
edge(41, 121).
edge(54, 155).
edge(122, 142).
edge(75, 121).
edge(69, 120).
edge(77, 131).
edge(7, 91).
edge(56, 133).
edge(53, 64).
edge(62, 81).
edge(81, 117).
edge(12, 97).
edge(87, 135).
edge(49, 143).
edge(44, 50).
edge(91, 93).
edge(2, 102).
edge(129, 130).
edge(92, 100).
edge(107, 108).
edge(2, 45).
edge(102, 117).
edge(88, 100).
edge(130, 146).
edge(84, 116).
edge(44, 54).
edge(134, 138).
edge(130, 136).
edge(99, 124).
edge(67, 139).
edge(3, 34).
edge(81, 118).
edge(29, 96).
edge(62, 84).
edge(96, 124).
edge(12, 69).
edge(31, 98).
edge(97, 129).
edge(105, 145).
edge(127, 148).
edge(46, 56).
edge(82, 144).
edge(14, 38).
edge(133, 143).
edge(140, 153).
edge(47, 65).
edge(76, 85).
edge(76, 132).
edge(87, 146).
edge(5, 57).
edge(44, 72).
edge(33, 40).
edge(120, 136).
edge(23, 44).
edge(94, 144).
edge(58, 111).
edge(72, 106).
edge(76, 141).
edge(3, 41).
edge(82, 127).
edge(53, 102).
edge(9, 106).
edge(15, 64).
edge(10, 75).
edge(30, 101).
edge(34, 122).
edge(17, 85).
edge(82, 113).
edge(46, 133).
edge(63, 116).
edge(31, 155).
edge(66, 140).
edge(74, 127).
edge(47, 158).
edge(16, 78).
edge(64, 106).
edge(114, 126).
edge(5, 106).
edge(88, 154).
edge(106, 123).
edge(120, 153).
edge(69, 141).
edge(41, 45).
edge(30, 103).
edge(41, 90).
edge(83, 125).
edge(20, 68).
edge(7, 119).
edge(55, 62).
edge(20, 25).
edge(95, 140).
edge(86, 137).
edge(33, 146).
edge(51, 137).
edge(29, 82).
edge(39, 73).
edge(21, 57).
edge(42, 66).
edge(76, 113).
edge(55, 119).
edge(68, 114).
edge(142, 149).
edge(71, 94).
edge(84, 136).
edge(61, 150).
edge(96, 126).
edge(55, 109).
edge(48, 77).
edge(37, 140).
edge(29, 115).
edge(16, 81).
edge(35, 54).
edge(44, 66).
edge(76, 134).
edge(21, 75).
edge(2, 14).
edge(9, 61).
edge(68, 152).
edge(52, 63).
edge(57, 69).
edge(36, 111).
edge(1, 119).
edge(25, 42).
edge(37, 133).
edge(4, 61).
edge(11, 41).
edge(73, 114).
edge(25, 66).
edge(58, 127).
edge(10, 151).
edge(38, 54).
edge(24, 114).
edge(51, 155).
edge(81, 111).
edge(107, 115).
edge(45, 53).
edge(31, 62).
edge(79, 95).
edge(54, 137).
edge(39, 61).
edge(64, 71).
edge(43, 99).
edge(40, 41).
edge(64, 68).
edge(2, 43).
edge(85, 125).
edge(2, 155).
edge(29, 158).
edge(36, 128).
edge(18, 107).
edge(7, 112).
edge(46, 59).
edge(53, 70).
edge(14, 28).
edge(38, 126).
edge(38, 102).
edge(78, 124).
edge(12, 129).
edge(42, 50).
edge(88, 134).
edge(34, 156).
edge(78, 123).
edge(26, 80).
edge(103, 124).
edge(90, 154).
edge(60, 138).
edge(62, 115).
edge(64, 84).
edge(4, 11).
edge(49, 135).
edge(40, 96).
edge(45, 136).
edge(10, 124).
edge(144, 151).
edge(103, 139).
edge(25, 110).
edge(86, 120).
edge(11, 52).
edge(112, 119).
edge(86, 94).
edge(75, 146).
edge(24, 65).
edge(73, 101).
edge(30, 32).
edge(95, 112).
edge(28, 158).
edge(57, 158).
edge(62, 65).
edge(25, 58).
edge(12, 158).
edge(48, 103).
edge(9, 110).
edge(68, 88).
edge(59, 104).
edge(74, 89).
edge(3, 125).
edge(11, 92).
edge(12, 37).
edge(6, 53).
edge(76, 120).
edge(25, 114).
edge(5, 26).
edge(28, 136).
edge(83, 104).
edge(53, 56).
edge(47, 114).
edge(41, 81).
edge(2, 30).
edge(24, 147).
edge(77, 105).
edge(122, 158).
edge(65, 133).
edge(2, 76).
edge(25, 146).
edge(61, 112).
edge(16, 97).
edge(60, 82).
edge(17, 84).
edge(27, 78).
edge(15, 18).
edge(59, 158).
edge(35, 99).
edge(129, 149).
edge(7, 107).
edge(25, 36).
edge(62, 67).
edge(86, 97).
edge(88, 122).
edge(98, 152).
edge(99, 142).
edge(68, 81).
edge(10, 51).
edge(28, 106).
edge(25, 133).
edge(16, 71).
edge(47, 80).
edge(34, 107).
edge(1, 150).
edge(28, 59).
edge(48, 89).
edge(65, 137).
edge(56, 81).
edge(19, 137).
edge(25, 49).
edge(47, 134).
edge(16, 104).
edge(99, 154).
edge(64, 92).
edge(88, 108).
edge(36, 41).
edge(15, 111).
edge(25, 27).
edge(92, 124).
edge(62, 76).
edge(55, 63).
edge(32, 97).
edge(49, 55).
edge(17, 155).
edge(73, 108).
edge(21, 111).
edge(5, 140).
edge(38, 49).
edge(48, 86).
edge(67, 79).
edge(83, 135).
edge(49, 113).
edge(79, 126).
edge(119, 126).
edge(31, 79).
edge(96, 107).
edge(21, 60).
edge(17, 26).
edge(91, 151).
edge(113, 117).
edge(36, 99).
edge(53, 99).
edge(47, 133).
edge(9, 96).
edge(59, 147).
edge(0, 138).
edge(91, 96).
edge(52, 121).
edge(91, 131).
edge(98, 137).
edge(84, 96).
edge(7, 43).
edge(92, 138).
edge(20, 112).
edge(35, 108).
edge(73, 135).
edge(74, 110).
edge(42, 45).
edge(102, 104).
edge(19, 90).
edge(29, 94).
edge(17, 141).
edge(109, 151).
edge(25, 81).
edge(16, 60).
edge(13, 154).
edge(97, 135).
edge(37, 144).
edge(131, 149).
edge(12, 52).
edge(112, 130).
edge(17, 38).
edge(77, 93).
edge(84, 134).
edge(42, 156).
edge(71, 132).
edge(39, 93).
edge(30, 115).
edge(58, 63).
edge(17, 45).
edge(131, 157).
edge(26, 90).
edge(138, 145).
edge(0, 103).
edge(90, 137).
edge(9, 87).
edge(36, 120).
edge(12, 109).
edge(36, 155).
edge(21, 73).
edge(71, 120).
edge(20, 113).
edge(88, 132).
edge(4, 49).
edge(1, 53).
edge(76, 79).
edge(49, 52).
edge(46, 135).
edge(6, 30).
edge(60, 121).
edge(34, 119).
edge(110, 155).
edge(83, 144).
edge(15, 28).
edge(31, 153).
edge(57, 130).
edge(23, 158).
edge(119, 138).
edge(25, 140).
edge(58, 157).
edge(76, 146).
edge(5, 74).
edge(6, 121).
edge(32, 119).
edge(3, 145).
edge(126, 155).
edge(1, 144).
edge(58, 101).
edge(90, 109).
edge(57, 153).
edge(105, 151).
edge(104, 121).
edge(24, 48).
edge(124, 141).
edge(51, 114).
edge(18, 68).
edge(15, 62).
edge(3, 107).
edge(23, 28).
edge(84, 87).
edge(5, 33).
edge(90, 93).
edge(5, 32).
edge(99, 120).
edge(129, 155).
edge(32, 98).
edge(41, 147).
edge(110, 151).
edge(18, 141).
edge(0, 145).
edge(35, 124).
edge(67, 91).
edge(101, 125).
edge(14, 90).
edge(23, 96).
edge(14, 66).
edge(66, 138).
edge(33, 109).
edge(15, 75).
edge(19, 142).
edge(55, 73).
edge(86, 148).
edge(82, 100).
edge(98, 145).
edge(23, 103).
edge(20, 140).
edge(67, 136).
edge(22, 107).
edge(118, 149).
edge(19, 112).
edge(18, 77).
edge(50, 100).
edge(54, 142).
edge(21, 69).
edge(57, 157).
edge(2, 81).
edge(95, 113).
edge(10, 112).
edge(31, 87).
edge(100, 141).
edge(6, 136).
edge(20, 158).
edge(15, 102).
edge(78, 87).
edge(60, 141).
edge(29, 39).
edge(27, 102).
edge(2, 141).
edge(33, 38).
edge(28, 152).
edge(29, 130).
edge(37, 49).
edge(9, 36).
edge(10, 88).
edge(68, 136).
edge(68, 72).
edge(82, 141).
edge(105, 133).
edge(44, 145).
edge(23, 74).
edge(94, 96).
edge(6, 142).
edge(145, 149).
edge(61, 152).
edge(28, 50).
edge(12, 19).
edge(45, 72).
edge(65, 154).
edge(21, 123).
edge(67, 151).
edge(14, 17).
edge(22, 25).
edge(39, 74).
edge(95, 136).
edge(27, 68).
edge(12, 66).
edge(26, 68).
edge(17, 27).
edge(4, 83).
edge(10, 84).
edge(148, 150).
edge(85, 146).
edge(101, 116).
edge(29, 125).
edge(35, 157).
edge(28, 44).
edge(38, 43).
edge(53, 88).
edge(55, 70).
edge(1, 132).
edge(36, 118).
edge(43, 133).
edge(39, 63).
edge(54, 78).
edge(19, 88).
edge(31, 83).
edge(74, 115).
edge(55, 126).
edge(68, 113).
edge(94, 139).
edge(17, 97).
edge(97, 103).
edge(27, 111).
edge(79, 132).
edge(40, 125).
edge(44, 121).
edge(67, 138).
edge(52, 83).
edge(91, 136).
edge(30, 118).
edge(35, 59).
edge(13, 100).
edge(17, 150).
edge(38, 139).
edge(74, 142).
edge(91, 147).
edge(33, 50).
edge(49, 123).
edge(128, 149).
edge(108, 140).
edge(15, 93).
edge(36, 86).
edge(23, 130).
edge(39, 118).
edge(39, 80).
edge(68, 87).
edge(21, 145).
edge(110, 156).
edge(1, 133).
edge(53, 121).
edge(71, 92).
edge(63, 95).
edge(116, 148).
edge(11, 45).
edge(39, 129).
edge(48, 69).
edge(3, 112).
edge(39, 112).
edge(53, 130).
edge(114, 121).
edge(103, 146).
edge(11, 139).
edge(10, 15).
edge(37, 150).
edge(120, 133).
edge(43, 112).
edge(89, 146).
edge(6, 112).
edge(6, 54).
edge(38, 57).
edge(10, 63).
edge(97, 109).
edge(51, 71).
edge(33, 64).
edge(33, 96).
edge(116, 150).
edge(8, 47).
edge(43, 114).
edge(22, 101).
edge(98, 99).
edge(11, 123).
edge(20, 157).
edge(26, 145).
edge(38, 105).
edge(47, 101).
edge(18, 76).
edge(47, 99).
edge(4, 125).
edge(24, 109).
edge(8, 149).
edge(32, 40).
edge(32, 126).
edge(86, 100).
edge(66, 85).
edge(85, 92).
edge(43, 46).
edge(4, 69).
edge(1, 142).
edge(1, 157).
edge(49, 95).
edge(65, 152).
edge(46, 78).
edge(141, 145).
edge(74, 78).
edge(84, 149).
edge(19, 117).
edge(42, 145).
edge(21, 36).
edge(30, 138).
edge(69, 101).
edge(83, 114).
edge(101, 153).
edge(106, 114).
edge(82, 84).
edge(99, 153).
edge(2, 7).
edge(101, 120).
edge(28, 57).
edge(42, 60).
edge(112, 151).
edge(1, 94).
edge(51, 63).
edge(75, 97).
edge(13, 79).
edge(6, 94).
edge(13, 95).
edge(28, 42).
edge(20, 80).
edge(7, 122).
edge(69, 84).
edge(83, 139).
edge(35, 109).
edge(62, 152).
edge(68, 73).
edge(95, 98).
edge(1, 106).
edge(57, 68).
edge(11, 143).
edge(32, 64).
edge(10, 108).
edge(3, 139).
edge(7, 26).
edge(33, 137).
edge(20, 71).
edge(106, 145).
edge(65, 118).
edge(77, 123).
edge(22, 120).
edge(0, 51).
edge(35, 64).
edge(29, 48).
edge(48, 118).
edge(92, 115).
edge(6, 154).
edge(46, 95).
edge(44, 108).
edge(37, 142).
edge(45, 70).
edge(0, 92).
edge(86, 105).
edge(65, 95).
edge(140, 150).
edge(8, 58).
edge(62, 68).
edge(44, 51).
edge(77, 98).
edge(23, 108).
edge(54, 65).
edge(71, 86).
edge(70, 79).
edge(84, 130).
edge(65, 87).
edge(77, 91).
edge(79, 105).
edge(45, 149).
edge(111, 133).
edge(10, 58).
edge(105, 132).
edge(39, 134).
edge(74, 77).
edge(16, 29).
edge(69, 128).
edge(67, 102).
edge(38, 83).
edge(42, 116).
edge(24, 60).
edge(10, 100).
edge(20, 58).
edge(98, 149).
edge(115, 139).
edge(70, 155).
edge(0, 84).
edge(38, 63).
edge(28, 129).
edge(23, 31).
edge(121, 143).
edge(9, 116).
edge(6, 16).
edge(112, 158).
edge(31, 63).
edge(29, 41).
edge(4, 108).
edge(15, 44).
edge(9, 20).
edge(15, 51).
edge(102, 119).
edge(4, 130).
edge(20, 115).
edge(91, 108).
edge(63, 100).
edge(104, 120).
edge(16, 117).
edge(107, 112).
edge(30, 56).
edge(65, 141).
edge(11, 91).
edge(40, 100).
edge(102, 153).
edge(31, 148).
edge(14, 111).
edge(25, 145).
edge(118, 137).
edge(105, 116).
edge(130, 139).
edge(92, 122).
edge(30, 139).
edge(42, 101).
edge(105, 114).
edge(51, 58).
edge(33, 43).
edge(92, 149).
edge(0, 142).
edge(103, 129).
edge(11, 14).
edge(114, 147).
edge(5, 62).
edge(15, 140).
edge(46, 55).
edge(1, 9).
edge(0, 59).
edge(48, 59).
edge(80, 91).
edge(2, 74).
edge(32, 75).
edge(101, 150).
edge(67, 152).
edge(48, 53).
edge(89, 151).
edge(47, 110).
edge(48, 120).
edge(44, 93).
edge(60, 106).
edge(17, 137).
edge(108, 147).
edge(100, 118).
edge(50, 104).
edge(52, 92).
edge(79, 101).
edge(17, 82).
edge(10, 30).
edge(7, 146).
edge(84, 142).
edge(93, 153).
edge(38, 155).
edge(42, 51).
edge(0, 16).
edge(46, 65).
edge(18, 146).
edge(8, 31).
edge(4, 138).
edge(49, 101).
edge(26, 39).
edge(22, 118).
edge(46, 62).
edge(121, 139).
edge(13, 111).
edge(23, 82).
edge(27, 122).
edge(72, 120).
edge(0, 91).
edge(70, 88).
edge(52, 69).
edge(60, 124).
edge(50, 125).
edge(21, 142).
edge(12, 111).
edge(16, 38).
edge(63, 70).
edge(52, 142).
edge(93, 104).
edge(79, 133).
edge(34, 105).
edge(20, 62).
edge(105, 152).
edge(60, 62).
edge(20, 100).
edge(123, 154).
edge(50, 57).
edge(70, 131).
edge(114, 127).
edge(50, 68).
edge(99, 139).
edge(14, 101).
edge(8, 70).
edge(96, 138).
edge(81, 127).
edge(76, 135).
edge(13, 81).
edge(1, 115).
edge(65, 140).
edge(68, 133).
edge(22, 87).
edge(127, 152).
edge(27, 73).
edge(66, 86).
edge(134, 144).
edge(34, 154).
edge(65, 130).
edge(22, 29).
edge(47, 52).
edge(122, 127).
edge(62, 144).
edge(15, 154).
edge(26, 77).
edge(53, 87).
edge(133, 139).
edge(78, 122).
edge(4, 57).
edge(105, 107).
edge(145, 154).
edge(115, 127).
edge(19, 151).
edge(20, 56).
edge(140, 158).
edge(103, 109).
edge(129, 147).
edge(37, 56).
edge(20, 114).
edge(57, 104).
edge(19, 83).
edge(88, 109).
edge(22, 81).
edge(2, 33).
edge(38, 151).
edge(79, 127).
edge(129, 133).
edge(42, 153).
edge(31, 70).
edge(11, 43).
edge(103, 143).
edge(78, 147).
edge(93, 136).
edge(63, 113).
edge(56, 88).
edge(93, 107).
edge(11, 70).
edge(92, 112).
edge(5, 59).
edge(33, 54).
edge(83, 98).
edge(24, 121).
edge(34, 80).
edge(44, 133).
edge(20, 87).
edge(63, 112).
edge(23, 34).
edge(67, 114).
edge(81, 100).
edge(46, 140).
edge(100, 153).
edge(31, 95).
edge(12, 79).
edge(16, 68).
edge(6, 31).
edge(8, 134).
edge(15, 91).
edge(48, 62).
edge(126, 132).
edge(53, 144).
edge(128, 147).
edge(18, 135).
edge(63, 96).
edge(6, 111).
edge(70, 139).
edge(30, 116).
edge(121, 137).
edge(118, 156).
edge(100, 135).
edge(73, 155).
edge(24, 35).
edge(130, 142).
edge(55, 146).
edge(18, 126).
edge(103, 141).
edge(18, 109).
edge(30, 131).
edge(7, 76).
edge(54, 110).
edge(27, 54).
edge(85, 138).
edge(64, 110).
edge(48, 106).
edge(24, 31).
edge(8, 158).
edge(26, 40).
edge(48, 96).
edge(75, 158).
edge(24, 142).
edge(32, 125).
edge(141, 151).
edge(73, 83).
edge(61, 98).
edge(19, 67).
edge(22, 72).
edge(76, 105).
edge(131, 133).
edge(27, 129).
edge(86, 126).
edge(41, 142).
edge(49, 157).
edge(90, 92).
edge(29, 143).
edge(18, 55).
edge(96, 105).
edge(22, 78).
edge(65, 100).
edge(105, 113).
edge(54, 131).
edge(84, 100).
edge(123, 146).
edge(5, 14).
edge(78, 91).
edge(86, 118).
edge(15, 120).
edge(109, 112).
edge(38, 61).
edge(40, 130).
edge(43, 110).
edge(53, 86).
edge(40, 155).
edge(93, 117).
edge(29, 61).
edge(83, 153).
edge(44, 55).
edge(99, 111).
edge(40, 87).
edge(56, 123).
edge(71, 93).
edge(12, 156).
edge(141, 153).
edge(112, 131).
edge(39, 44).
edge(43, 155).
edge(67, 150).
edge(131, 148).
edge(68, 154).
edge(28, 123).
edge(84, 91).
edge(93, 122).
edge(57, 134).
edge(87, 91).
edge(52, 136).
edge(109, 133).
edge(63, 72).
edge(28, 52).
edge(147, 148).
edge(33, 145).
edge(2, 54).
edge(30, 158).
edge(21, 99).
edge(42, 120).
edge(3, 121).
edge(112, 145).
edge(155, 156).
edge(49, 109).
edge(15, 21).
edge(17, 117).
edge(58, 87).
edge(95, 110).
edge(96, 147).
edge(22, 27).
edge(54, 56).
edge(111, 140).
edge(136, 142).
edge(112, 126).
edge(1, 139).
edge(101, 149).
edge(31, 149).
edge(102, 110).
edge(30, 38).
edge(7, 75).
edge(14, 26).
edge(23, 155).
edge(48, 87).
edge(4, 30).
edge(128, 131).
edge(46, 122).
edge(90, 113).
edge(50, 86).
edge(45, 148).
edge(48, 61).
edge(99, 146).
edge(64, 129).
edge(20, 146).
edge(8, 39).
edge(42, 54).
edge(6, 40).
edge(65, 75).
edge(62, 143).
edge(59, 133).
edge(41, 115).
edge(72, 129).
edge(68, 100).
edge(11, 17).
edge(58, 80).
edge(22, 47).
edge(34, 41).
edge(43, 154).
edge(107, 134).
edge(122, 143).
edge(24, 44).
edge(77, 96).
edge(68, 117).
edge(26, 146).
edge(58, 119).
edge(54, 109).
edge(90, 134).
edge(35, 98).
edge(43, 115).
edge(8, 148).
edge(32, 50).
edge(23, 156).
edge(70, 145).
edge(53, 98).
edge(9, 58).
edge(10, 40).
edge(36, 60).
edge(29, 135).
edge(50, 119).
edge(77, 148).
edge(142, 146).
edge(55, 154).
edge(16, 148).
edge(96, 111).
edge(57, 61).
edge(20, 43).
edge(57, 110).
edge(70, 102).
edge(82, 125).
edge(94, 150).
edge(35, 67).
edge(19, 109).
edge(63, 110).
edge(43, 118).
edge(107, 148).
edge(66, 72).
edge(87, 141).
edge(92, 106).
edge(6, 91).
edge(18, 95).
edge(37, 122).
edge(27, 42).
edge(31, 42).
edge(61, 125).
edge(37, 40).
edge(22, 93).
edge(109, 114).
edge(67, 134).
edge(75, 156).
edge(31, 114).
edge(43, 149).
edge(36, 138).
edge(46, 121).
edge(58, 95).
edge(75, 76).
edge(56, 128).
edge(66, 76).
edge(11, 13).
edge(66, 99).
edge(7, 73).
edge(51, 67).
edge(40, 111).
edge(61, 91).
edge(112, 118).
edge(121, 144).
edge(52, 85).
edge(102, 103).
edge(91, 105).
edge(44, 99).
edge(98, 150).
edge(49, 73).
edge(97, 141).
edge(60, 107).
edge(91, 107).
edge(106, 111).
edge(55, 114).
edge(17, 56).
edge(52, 67).
edge(97, 125).
edge(79, 138).
edge(51, 57).
edge(20, 156).
edge(3, 118).
edge(48, 116).
edge(10, 82).
edge(27, 44).
edge(61, 141).
edge(63, 97).
edge(91, 127).
edge(69, 102).
edge(100, 103).
edge(79, 154).
edge(39, 43).
edge(28, 73).
edge(28, 93).
edge(56, 109).
edge(49, 56).
edge(114, 128).
edge(5, 111).
edge(68, 111).
edge(14, 117).
edge(36, 85).
edge(27, 98).
edge(84, 124).
edge(27, 80).
edge(80, 95).
edge(101, 158).
edge(9, 144).
edge(107, 128).
edge(34, 58).
edge(92, 137).
edge(25, 121).
edge(100, 130).
edge(81, 139).
edge(104, 126).
edge(19, 123).
edge(63, 130).
edge(23, 64).
edge(45, 75).
edge(105, 150).
edge(19, 119).
edge(65, 146).
edge(6, 128).
edge(40, 107).
edge(78, 141).
edge(0, 10).
edge(53, 127).
edge(5, 64).
edge(49, 108).
edge(73, 147).
edge(5, 121).
edge(10, 78).
edge(26, 29).
edge(36, 43).
edge(14, 151).
edge(4, 77).
edge(85, 120).
edge(31, 135).
edge(19, 29).
edge(41, 54).
edge(70, 147).
edge(4, 38).
edge(19, 126).
edge(87, 107).
edge(47, 71).
edge(24, 41).
edge(114, 130).
edge(0, 141).
edge(8, 33).
edge(42, 69).
edge(4, 142).
edge(47, 70).
edge(81, 131).
edge(10, 92).
edge(58, 67).
edge(109, 110).
edge(37, 67).
edge(67, 154).
edge(37, 45).
edge(118, 145).
edge(12, 86).
edge(51, 74).
edge(61, 139).
edge(103, 153).
edge(43, 66).
edge(33, 62).
edge(45, 99).
edge(26, 79).
edge(0, 155).
edge(62, 126).
edge(48, 148).
edge(48, 66).
edge(46, 76).
edge(6, 38).
edge(119, 121).
edge(122, 155).
edge(32, 94).
edge(103, 151).
edge(12, 84).
edge(6, 95).
edge(125, 139).
edge(9, 43).
edge(11, 152).
edge(58, 132).
edge(43, 54).
edge(105, 137).
edge(131, 137).
edge(86, 103).
edge(47, 132).
edge(146, 158).
edge(6, 72).
edge(91, 150).
edge(12, 64).
edge(3, 33).
edge(104, 134).
edge(87, 112).
edge(86, 113).
edge(54, 101).
edge(13, 16).
edge(43, 101).
edge(93, 109).
edge(33, 88).
edge(116, 149).
edge(58, 94).
edge(27, 114).
edge(37, 151).
edge(132, 146).
edge(39, 128).
edge(12, 106).
edge(18, 78).
edge(59, 127).
edge(27, 83).
edge(33, 157).
edge(26, 98).
edge(40, 157).
edge(18, 92).
edge(17, 138).
edge(20, 86).
edge(21, 107).
edge(42, 119).
edge(95, 121).
edge(28, 77).
edge(29, 78).
edge(84, 144).
edge(4, 113).
edge(109, 137).
edge(91, 126).
edge(20, 77).
edge(29, 55).
edge(29, 69).
edge(9, 107).
edge(115, 148).
edge(120, 149).
edge(75, 110).
edge(63, 81).
edge(70, 122).
edge(16, 87).
edge(47, 98).
edge(68, 70).
edge(24, 106).
edge(69, 71).
edge(134, 137).
edge(124, 140).
edge(76, 118).
edge(61, 133).
edge(27, 46).
edge(5, 75).
edge(87, 109).
edge(106, 129).
edge(11, 112).
edge(14, 50).
edge(73, 82).
edge(42, 130).
edge(35, 45).
edge(1, 93).
edge(52, 88).
edge(78, 132).
edge(92, 114).
edge(151, 153).
edge(4, 56).
edge(77, 103).
edge(77, 102).
edge(13, 93).
edge(77, 140).
edge(13, 78).
edge(55, 112).
edge(9, 73).
edge(3, 35).
edge(20, 99).
edge(21, 117).
edge(82, 90).
edge(54, 117).
edge(30, 148).
edge(23, 89).
edge(136, 155).
edge(110, 144).
edge(68, 153).
edge(14, 71).
edge(28, 153).
edge(37, 153).
edge(28, 151).
edge(66, 156).
edge(30, 31).
edge(54, 111).
edge(5, 51).
edge(7, 32).
edge(46, 98).
edge(78, 106).
edge(3, 89).
edge(61, 72).
edge(4, 46).
edge(26, 63).
edge(44, 104).
edge(26, 110).
edge(55, 157).
edge(14, 35).
edge(3, 55).
edge(96, 121).
edge(109, 115).
edge(74, 144).
edge(5, 79).
edge(71, 149).
edge(0, 50).
edge(42, 115).
edge(2, 158).
edge(8, 100).
edge(80, 130).
edge(34, 62).
edge(40, 149).
edge(93, 114).
edge(40, 48).
edge(32, 116).
edge(31, 49).
edge(16, 145).
edge(86, 152).
edge(91, 138).
edge(25, 129).
edge(23, 56).
edge(6, 60).
edge(48, 157).
edge(2, 55).
edge(97, 121).
edge(46, 100).
edge(32, 70).
edge(136, 151).
edge(57, 133).
edge(9, 142).
edge(9, 105).
edge(95, 130).
edge(49, 59).
edge(17, 86).
edge(42, 57).
edge(105, 129).
edge(52, 100).
edge(78, 144).
edge(127, 155).
edge(20, 37).
edge(82, 153).
edge(29, 107).
edge(108, 135).
edge(84, 131).
edge(122, 129).
edge(123, 134).
edge(80, 157).
edge(15, 42).
edge(33, 91).
edge(61, 123).
edge(91, 95).
edge(20, 90).
edge(74, 107).
edge(71, 108).
edge(56, 95).
edge(91, 117).
edge(18, 149).
edge(95, 114).
edge(51, 95).
edge(30, 76).
edge(99, 130).
edge(26, 132).
edge(114, 122).
edge(57, 122).
edge(15, 33).
edge(48, 76).
edge(29, 81).
edge(88, 135).
edge(116, 145).
edge(75, 125).
edge(101, 139).
edge(112, 125).
edge(27, 63).
edge(54, 84).
edge(44, 124).
edge(140, 156).
edge(103, 142).
edge(45, 124).
edge(94, 101).
edge(24, 29).
edge(48, 52).
edge(143, 153).
edge(2, 101).
edge(14, 123).
edge(88, 103).
edge(6, 58).
edge(5, 88).
edge(41, 124).
edge(5, 119).
edge(16, 52).
edge(13, 36).
edge(49, 60).
edge(31, 74).
edge(77, 152).
edge(29, 43).
edge(41, 152).
edge(50, 103).
edge(88, 110).
edge(22, 50).
edge(40, 97).
edge(73, 146).
edge(122, 141).
edge(56, 71).
edge(48, 82).
edge(87, 102).
edge(7, 105).
edge(116, 127).
edge(6, 69).
edge(16, 33).
edge(111, 141).
edge(50, 140).
edge(4, 25).
edge(100, 123).
edge(83, 152).
edge(108, 111).
edge(75, 101).
edge(61, 145).
edge(29, 76).
edge(129, 150).
edge(17, 35).
edge(127, 156).
edge(22, 52).
edge(31, 56).
edge(34, 113).
edge(29, 137).
edge(49, 80).
edge(9, 67).
edge(102, 132).
edge(66, 131).
edge(53, 128).
edge(20, 38).
edge(21, 85).
edge(35, 102).
edge(63, 111).
edge(12, 81).
edge(67, 126).
edge(20, 152).
edge(43, 148).
edge(39, 119).
edge(125, 140).
edge(89, 141).
edge(97, 128).
edge(22, 119).
edge(102, 134).
edge(121, 126).
edge(65, 129).
edge(9, 122).
edge(77, 154).
edge(16, 20).
edge(124, 132).
edge(67, 118).
edge(85, 145).
edge(32, 66).
edge(80, 112).
edge(8, 68).
edge(15, 68).
edge(74, 149).
edge(8, 83).
edge(15, 126).
edge(40, 53).
edge(55, 153).
edge(71, 151).
edge(22, 59).
edge(29, 35).
edge(56, 62).
edge(80, 107).
edge(105, 148).
edge(58, 81).
edge(139, 154).
edge(87, 123).
edge(26, 32).
edge(0, 24).
edge(108, 137).
edge(26, 56).
edge(35, 71).
edge(20, 74).
edge(6, 97).
edge(110, 112).
edge(52, 118).
edge(16, 27).
edge(11, 72).
edge(13, 28).
edge(76, 108).
edge(139, 155).
edge(68, 95).
edge(5, 34).
edge(37, 121).
edge(41, 123).
edge(135, 153).
edge(72, 133).
edge(127, 132).
edge(80, 119).
edge(23, 47).
edge(0, 43).
edge(54, 154).
edge(23, 29).
edge(48, 136).
edge(0, 122).
edge(30, 65).
edge(16, 74).
edge(10, 74).
edge(23, 65).
edge(7, 103).
edge(107, 147).
edge(40, 47).
edge(99, 101).
edge(0, 90).
edge(47, 64).
edge(85, 108).
edge(69, 95).
edge(57, 123).
edge(5, 152).
edge(90, 123).
edge(55, 68).
edge(26, 111).
edge(52, 87).
edge(112, 122).
edge(46, 126).
edge(16, 144).
edge(59, 136).
edge(13, 54).
edge(16, 63).
edge(16, 22).
edge(12, 100).
edge(100, 125).
edge(116, 158).
edge(56, 154).
edge(83, 157).
edge(22, 148).
edge(4, 120).
edge(90, 106).
edge(28, 36).
edge(6, 118).
edge(123, 130).
edge(38, 42).
edge(60, 149).
edge(83, 116).
edge(68, 130).
edge(63, 102).
edge(84, 88).
edge(22, 114).
edge(116, 152).
edge(91, 125).
edge(21, 54).
edge(36, 135).
edge(28, 74).
edge(78, 90).
edge(2, 119).
edge(13, 136).
edge(68, 76).
edge(67, 112).
edge(21, 120).
edge(100, 120).
edge(97, 106).
edge(103, 122).
edge(11, 54).
edge(21, 22).
edge(106, 158).
edge(93, 151).
edge(139, 145).
edge(68, 97).
edge(20, 54).
edge(98, 123).
edge(2, 53).
edge(40, 98).
edge(7, 133).
edge(135, 140).
edge(18, 41).
edge(16, 153).
edge(11, 75).
edge(67, 82).
edge(24, 133).
edge(40, 85).
edge(83, 109).
edge(20, 118).
edge(24, 154).
edge(124, 152).
edge(91, 112).
edge(13, 65).
edge(123, 157).
edge(19, 134).
edge(29, 129).
edge(45, 85).
edge(52, 112).
edge(90, 117).
weight(0, 3).
weight(1, 22).
weight(2, 15).
weight(3, 3).
weight(4, 15).
weight(5, 14).
weight(6, 20).
weight(7, 1).
weight(8, 5).
weight(9, 22).
weight(10, 6).
weight(11, 11).
weight(12, 19).
weight(13, 4).
weight(14, 12).
weight(15, 22).
weight(16, 6).
weight(17, 17).
weight(18, 4).
weight(19, 20).
weight(20, 21).
weight(21, 17).
weight(22, 14).
weight(23, 21).
weight(24, 14).
weight(25, 21).
weight(26, 12).
weight(27, 20).
weight(28, 5).
weight(29, 17).
weight(30, 21).
weight(31, 19).
weight(32, 7).
weight(33, 1).
weight(34, 13).
weight(35, 1).
weight(36, 20).
weight(37, 13).
weight(38, 9).
weight(39, 7).
weight(40, 8).
weight(41, 21).
weight(42, 1).
weight(43, 11).
weight(44, 7).
weight(45, 7).
weight(46, 2).
weight(47, 22).
weight(48, 3).
weight(49, 4).
weight(50, 6).
weight(51, 12).
weight(52, 6).
weight(53, 12).
weight(54, 15).
weight(55, 19).
weight(56, 5).
weight(57, 20).
weight(58, 18).
weight(59, 22).
weight(60, 14).
weight(61, 11).
weight(62, 19).
weight(63, 20).
weight(64, 15).
weight(65, 11).
weight(66, 3).
weight(67, 1).
weight(68, 15).
weight(69, 6).
weight(70, 18).
weight(71, 4).
weight(72, 10).
weight(73, 18).
weight(74, 11).
weight(75, 13).
weight(76, 22).
weight(77, 2).
weight(78, 9).
weight(79, 1).
weight(80, 7).
weight(81, 21).
weight(82, 6).
weight(83, 18).
weight(84, 17).
weight(85, 10).
weight(86, 20).
weight(87, 16).
weight(88, 6).
weight(89, 1).
weight(90, 22).
weight(91, 5).
weight(92, 19).
weight(93, 8).
weight(94, 2).
weight(95, 19).
weight(96, 3).
weight(97, 15).
weight(98, 8).
weight(99, 19).
weight(100, 9).
weight(101, 10).
weight(102, 18).
weight(103, 13).
weight(104, 22).
weight(105, 6).
weight(106, 3).
weight(107, 16).
weight(108, 5).
weight(109, 14).
weight(110, 13).
weight(111, 14).
weight(112, 12).
weight(113, 1).
weight(114, 19).
weight(115, 15).
weight(116, 21).
weight(117, 20).
weight(118, 7).
weight(119, 11).
weight(120, 7).
weight(121, 17).
weight(122, 9).
weight(123, 2).
weight(124, 21).
weight(125, 16).
weight(126, 8).
weight(127, 19).
weight(128, 11).
weight(129, 19).
weight(130, 2).
weight(131, 16).
weight(132, 15).
weight(133, 7).
weight(134, 2).
weight(135, 2).
weight(136, 18).
weight(137, 17).
weight(138, 21).
weight(139, 1).
weight(140, 18).
weight(141, 7).
weight(142, 10).
weight(143, 20).
weight(144, 16).
weight(145, 22).
weight(146, 3).
weight(147, 11).
weight(148, 17).
weight(149, 22).
weight(150, 16).
weight(151, 21).
weight(152, 12).
weight(153, 14).
weight(154, 4).
weight(155, 11).
weight(156, 11).
weight(157, 20).
weight(158, 12).

{in(V)} :- node(V).
:- in(U), in(V), U < V, not edge(U,V).
:~ not in(V), weight(V,W). [W@1,V]
