node(0..165).
edge(26, 86).
edge(28, 157).
edge(86, 141).
edge(52, 56).
edge(10, 62).
edge(150, 154).
edge(37, 56).
edge(150, 155).
edge(19, 141).
edge(18, 153).
edge(41, 71).
edge(81, 141).
edge(59, 152).
edge(77, 127).
edge(58, 141).
edge(10, 36).
edge(5, 153).
edge(55, 90).
edge(9, 99).
edge(29, 164).
edge(47, 156).
edge(125, 127).
edge(114, 163).
edge(43, 128).
edge(110, 134).
edge(79, 133).
edge(11, 86).
edge(57, 123).
edge(48, 82).
edge(3, 30).
edge(59, 96).
edge(41, 118).
edge(9, 81).
edge(47, 143).
edge(128, 132).
edge(67, 71).
edge(40, 57).
edge(99, 165).
edge(38, 43).
edge(17, 121).
edge(24, 94).
edge(89, 159).
edge(77, 106).
edge(89, 154).
edge(1, 119).
edge(25, 56).
edge(95, 98).
edge(41, 73).
edge(45, 151).
edge(110, 119).
edge(89, 91).
edge(131, 150).
edge(53, 134).
edge(3, 34).
edge(13, 43).
edge(31, 68).
edge(45, 154).
edge(90, 144).
edge(3, 10).
edge(136, 155).
edge(106, 113).
edge(22, 56).
edge(5, 105).
edge(1, 49).
edge(54, 147).
edge(77, 152).
edge(20, 123).
edge(82, 123).
edge(33, 100).
edge(29, 67).
edge(5, 19).
edge(54, 135).
edge(26, 68).
edge(42, 112).
edge(55, 94).
edge(84, 108).
edge(47, 54).
edge(135, 159).
edge(8, 154).
edge(44, 118).
edge(16, 93).
edge(6, 70).
edge(112, 144).
edge(11, 165).
edge(68, 114).
edge(14, 23).
edge(18, 64).
edge(141, 158).
edge(85, 88).
edge(6, 63).
edge(14, 56).
edge(29, 79).
edge(11, 60).
edge(150, 161).
edge(16, 24).
edge(67, 124).
edge(5, 38).
edge(24, 121).
edge(51, 90).
edge(23, 32).
edge(19, 20).
edge(52, 112).
edge(141, 146).
edge(16, 54).
edge(105, 153).
edge(16, 125).
edge(69, 101).
edge(59, 85).
edge(111, 155).
edge(2, 81).
edge(36, 50).
edge(114, 156).
edge(94, 112).
edge(53, 132).
edge(19, 58).
edge(99, 101).
edge(19, 40).
edge(25, 88).
edge(66, 68).
edge(96, 101).
edge(28, 121).
edge(26, 95).
edge(57, 83).
edge(42, 90).
edge(32, 118).
edge(31, 163).
edge(77, 116).
edge(11, 44).
edge(97, 103).
edge(42, 137).
edge(26, 91).
edge(23, 87).
edge(34, 57).
edge(71, 161).
edge(0, 135).
edge(140, 143).
edge(17, 86).
edge(22, 71).
edge(50, 59).
edge(79, 96).
edge(78, 163).
edge(28, 125).
edge(14, 134).
edge(57, 152).
edge(70, 148).
edge(20, 86).
edge(48, 103).
edge(93, 109).
edge(47, 152).
edge(50, 112).
edge(66, 163).
edge(40, 128).
edge(87, 88).
edge(46, 152).
edge(80, 86).
edge(29, 68).
edge(94, 97).
edge(100, 149).
edge(85, 108).
edge(5, 101).
edge(1, 55).
edge(137, 165).
edge(63, 149).
edge(84, 155).
edge(119, 147).
edge(64, 136).
edge(106, 143).
edge(3, 114).
edge(84, 90).
edge(117, 122).
edge(68, 88).
edge(3, 54).
edge(25, 164).
edge(31, 81).
edge(99, 144).
edge(37, 79).
edge(51, 77).
edge(47, 73).
edge(35, 122).
edge(45, 95).
edge(59, 141).
edge(78, 89).
edge(2, 58).
edge(47, 163).
edge(114, 155).
edge(32, 81).
edge(84, 91).
edge(18, 130).
edge(83, 89).
edge(94, 106).
edge(77, 126).
edge(127, 130).
edge(55, 89).
edge(17, 135).
edge(46, 154).
edge(114, 144).
edge(45, 160).
edge(62, 132).
edge(32, 139).
edge(47, 87).
edge(43, 119).
edge(47, 134).
edge(8, 122).
edge(6, 130).
edge(157, 162).
edge(48, 144).
edge(32, 111).
edge(56, 115).
edge(56, 129).
edge(72, 122).
edge(2, 89).
edge(39, 57).
edge(21, 79).
edge(71, 135).
edge(67, 121).
edge(7, 116).
edge(142, 150).
edge(7, 165).
edge(79, 149).
edge(61, 127).
edge(98, 114).
edge(100, 116).
edge(7, 87).
edge(118, 156).
edge(37, 77).
edge(138, 148).
edge(61, 125).
edge(66, 130).
edge(52, 98).
edge(23, 119).
edge(62, 103).
edge(150, 156).
edge(12, 160).
edge(24, 66).
edge(0, 130).
edge(58, 73).
edge(18, 128).
edge(26, 143).
edge(119, 120).
edge(25, 63).
edge(80, 98).
edge(43, 92).
edge(66, 87).
edge(13, 14).
edge(59, 132).
edge(75, 111).
edge(30, 115).
edge(83, 154).
edge(80, 81).
edge(27, 109).
edge(12, 158).
edge(61, 155).
edge(68, 108).
edge(52, 85).
edge(79, 163).
edge(93, 144).
edge(32, 62).
edge(104, 130).
edge(106, 148).
edge(48, 95).
edge(25, 144).
edge(44, 75).
edge(119, 138).
edge(148, 157).
edge(44, 81).
edge(64, 99).
edge(67, 78).
edge(106, 112).
edge(32, 44).
edge(12, 157).
edge(34, 144).
edge(11, 135).
edge(6, 51).
edge(9, 151).
edge(117, 137).
edge(6, 11).
edge(100, 126).
edge(7, 50).
edge(73, 118).
edge(10, 95).
edge(35, 92).
edge(119, 126).
edge(143, 156).
edge(45, 127).
edge(34, 147).
edge(29, 80).
edge(3, 45).
edge(9, 14).
edge(114, 149).
edge(52, 81).
edge(33, 124).
edge(0, 157).
edge(58, 61).
edge(61, 116).
edge(76, 128).
edge(2, 17).
edge(67, 87).
edge(62, 134).
edge(11, 152).
edge(10, 82).
edge(31, 145).
edge(4, 139).
edge(78, 139).
edge(92, 129).
edge(53, 140).
edge(66, 132).
edge(47, 129).
edge(89, 106).
edge(4, 49).
edge(64, 132).
edge(6, 56).
edge(49, 54).
edge(82, 156).
edge(1, 100).
edge(9, 75).
edge(6, 59).
edge(40, 64).
edge(10, 96).
edge(17, 69).
edge(75, 161).
edge(28, 113).
edge(109, 144).
edge(56, 117).
edge(98, 163).
edge(1, 123).
edge(54, 148).
edge(129, 145).
edge(36, 74).
edge(36, 46).
edge(33, 89).
edge(6, 152).
edge(50, 111).
edge(117, 127).
edge(21, 34).
edge(1, 32).
edge(5, 43).
edge(131, 148).
edge(22, 26).
edge(90, 150).
edge(46, 125).
edge(27, 41).
edge(28, 29).
edge(47, 115).
edge(112, 135).
edge(56, 159).
edge(112, 117).
edge(46, 75).
edge(147, 161).
edge(153, 160).
edge(107, 115).
edge(71, 109).
edge(76, 144).
edge(13, 135).
edge(77, 107).
edge(32, 95).
edge(34, 44).
edge(82, 158).
edge(41, 97).
edge(138, 141).
edge(86, 111).
edge(88, 120).
edge(17, 161).
edge(6, 124).
edge(120, 157).
edge(2, 66).
edge(94, 149).
edge(28, 77).
edge(72, 83).
edge(23, 71).
edge(61, 138).
edge(56, 60).
edge(39, 149).
edge(148, 163).
edge(57, 92).
edge(62, 100).
edge(23, 152).
edge(18, 119).
edge(29, 95).
edge(133, 139).
edge(28, 47).
edge(91, 121).
edge(50, 85).
edge(18, 69).
edge(154, 160).
edge(121, 143).
edge(33, 47).
edge(55, 117).
edge(43, 137).
edge(71, 128).
edge(89, 163).
edge(85, 159).
edge(53, 157).
edge(18, 36).
edge(10, 126).
edge(9, 62).
edge(15, 30).
edge(113, 143).
edge(70, 145).
edge(19, 59).
edge(12, 71).
edge(26, 119).
edge(136, 146).
edge(55, 102).
edge(27, 99).
edge(127, 154).
edge(68, 158).
edge(80, 139).
edge(46, 121).
edge(54, 161).
edge(19, 164).
edge(24, 162).
edge(36, 114).
edge(121, 135).
edge(93, 108).
edge(25, 153).
edge(52, 144).
edge(72, 105).
edge(2, 14).
edge(109, 150).
edge(8, 42).
edge(50, 131).
edge(34, 38).
edge(14, 106).
edge(27, 147).
edge(92, 138).
edge(104, 127).
edge(28, 51).
edge(103, 143).
edge(77, 92).
edge(39, 78).
edge(64, 125).
edge(55, 108).
edge(61, 133).
edge(10, 61).
edge(98, 152).
edge(27, 154).
edge(21, 78).
edge(64, 96).
edge(30, 49).
edge(99, 100).
edge(2, 38).
edge(27, 65).
edge(12, 59).
edge(16, 134).
edge(41, 132).
edge(5, 126).
edge(5, 64).
edge(68, 133).
edge(81, 114).
edge(51, 130).
edge(36, 42).
edge(112, 122).
edge(77, 117).
edge(42, 159).
edge(83, 134).
edge(124, 149).
edge(13, 22).
edge(1, 4).
edge(64, 79).
edge(110, 139).
edge(17, 112).
edge(39, 49).
edge(64, 75).
edge(44, 131).
edge(1, 71).
edge(80, 134).
edge(56, 62).
edge(13, 16).
edge(112, 128).
edge(124, 152).
edge(9, 70).
edge(123, 144).
edge(61, 137).
edge(40, 116).
edge(60, 138).
edge(21, 67).
edge(117, 136).
edge(1, 50).
edge(57, 98).
edge(38, 139).
edge(86, 121).
edge(74, 150).
edge(4, 67).
edge(33, 129).
edge(106, 139).
edge(50, 137).
edge(64, 66).
edge(86, 124).
edge(71, 80).
edge(38, 131).
edge(54, 114).
edge(53, 81).
edge(18, 63).
edge(43, 142).
edge(16, 142).
edge(49, 60).
edge(74, 148).
edge(19, 78).
edge(145, 161).
edge(6, 157).
edge(31, 85).
edge(34, 60).
edge(51, 65).
edge(106, 127).
edge(8, 105).
edge(75, 121).
edge(20, 42).
edge(6, 149).
edge(68, 145).
edge(60, 72).
edge(3, 146).
edge(29, 136).
edge(30, 77).
edge(55, 141).
edge(21, 97).
edge(36, 129).
edge(80, 155).
edge(65, 97).
edge(45, 117).
edge(18, 152).
edge(24, 91).
edge(29, 110).
edge(6, 32).
edge(83, 116).
edge(28, 38).
edge(41, 47).
edge(27, 128).
edge(78, 164).
edge(54, 109).
edge(12, 106).
edge(110, 137).
edge(109, 142).
edge(20, 44).
edge(32, 108).
edge(32, 60).
edge(15, 133).
edge(26, 92).
edge(138, 151).
edge(17, 55).
edge(13, 138).
edge(51, 91).
edge(51, 64).
edge(18, 40).
edge(33, 51).
edge(85, 119).
edge(1, 27).
edge(19, 153).
edge(33, 154).
edge(48, 70).
edge(24, 73).
edge(37, 123).
edge(63, 70).
edge(146, 156).
edge(38, 89).
edge(68, 164).
edge(3, 59).
edge(119, 128).
edge(26, 82).
edge(16, 162).
edge(65, 153).
edge(52, 137).
edge(65, 155).
edge(7, 15).
edge(71, 130).
edge(85, 129).
edge(75, 160).
edge(40, 136).
edge(36, 155).
edge(51, 145).
edge(41, 122).
edge(53, 90).
edge(12, 82).
edge(72, 86).
edge(73, 151).
edge(63, 76).
edge(57, 111).
edge(91, 138).
edge(120, 127).
edge(40, 88).
edge(105, 144).
edge(59, 147).
edge(10, 24).
edge(72, 165).
edge(31, 61).
edge(123, 148).
edge(24, 29).
edge(119, 121).
edge(25, 77).
edge(7, 39).
edge(66, 75).
edge(99, 116).
edge(43, 48).
edge(32, 101).
edge(22, 148).
edge(71, 79).
edge(33, 93).
edge(48, 130).
edge(101, 145).
edge(146, 153).
edge(23, 45).
edge(103, 122).
edge(30, 91).
edge(13, 18).
edge(104, 138).
edge(4, 115).
edge(22, 165).
edge(28, 31).
edge(7, 12).
edge(110, 151).
edge(24, 147).
edge(28, 73).
edge(103, 124).
edge(77, 120).
edge(116, 134).
edge(3, 22).
edge(14, 158).
edge(27, 29).
edge(113, 139).
edge(42, 121).
edge(28, 90).
edge(31, 112).
edge(82, 121).
edge(9, 15).
edge(67, 95).
edge(78, 146).
edge(5, 15).
edge(61, 121).
edge(2, 133).
edge(46, 105).
edge(22, 157).
edge(64, 72).
edge(118, 119).
edge(46, 101).
edge(70, 128).
edge(68, 83).
edge(0, 145).
edge(152, 161).
edge(81, 98).
edge(59, 137).
edge(72, 101).
edge(42, 103).
edge(70, 132).
edge(72, 113).
edge(101, 127).
edge(44, 83).
edge(14, 50).
edge(68, 71).
edge(59, 145).
edge(143, 163).
edge(39, 90).
edge(64, 119).
edge(3, 149).
edge(44, 89).
edge(30, 67).
edge(7, 69).
edge(66, 108).
edge(61, 148).
edge(49, 108).
edge(17, 102).
edge(14, 43).
edge(29, 97).
edge(104, 113).
edge(98, 136).
edge(57, 147).
edge(81, 154).
edge(19, 136).
edge(45, 61).
edge(76, 79).
edge(21, 65).
edge(130, 135).
edge(4, 55).
edge(4, 146).
edge(1, 13).
edge(66, 92).
edge(55, 56).
edge(101, 157).
edge(16, 137).
edge(77, 130).
edge(51, 133).
edge(45, 144).
edge(21, 100).
edge(100, 129).
edge(118, 127).
edge(25, 150).
edge(24, 152).
edge(78, 127).
edge(86, 129).
edge(143, 153).
edge(7, 110).
edge(63, 72).
edge(92, 136).
edge(57, 75).
edge(4, 117).
edge(26, 105).
edge(83, 131).
edge(46, 64).
edge(8, 125).
edge(25, 142).
edge(1, 90).
edge(18, 88).
edge(19, 72).
edge(0, 69).
edge(72, 158).
edge(3, 136).
edge(115, 125).
edge(61, 132).
edge(70, 125).
edge(78, 158).
edge(2, 115).
edge(15, 71).
edge(13, 17).
edge(121, 144).
edge(25, 122).
edge(6, 55).
edge(65, 123).
edge(2, 45).
edge(149, 153).
edge(120, 131).
edge(72, 77).
edge(142, 146).
edge(19, 110).
edge(99, 120).
edge(106, 136).
edge(90, 133).
edge(77, 161).
edge(54, 164).
edge(146, 160).
edge(3, 23).
edge(86, 100).
edge(32, 107).
edge(151, 162).
edge(42, 132).
edge(135, 165).
edge(1, 65).
edge(58, 154).
edge(42, 69).
edge(39, 70).
edge(28, 59).
edge(89, 110).
edge(63, 93).
edge(34, 157).
edge(40, 41).
edge(98, 99).
edge(8, 70).
edge(6, 7).
edge(60, 134).
edge(34, 42).
edge(65, 102).
edge(24, 87).
edge(24, 165).
edge(62, 116).
edge(20, 119).
edge(47, 99).
edge(142, 143).
edge(70, 161).
edge(47, 147).
edge(40, 106).
edge(143, 162).
edge(85, 165).
edge(39, 74).
edge(49, 107).
edge(23, 67).
edge(20, 80).
edge(79, 154).
edge(111, 151).
edge(41, 69).
edge(62, 73).
edge(9, 12).
edge(78, 122).
edge(34, 114).
edge(24, 97).
edge(136, 145).
edge(74, 135).
edge(81, 123).
edge(31, 41).
edge(9, 129).
edge(15, 83).
edge(56, 122).
edge(3, 84).
edge(52, 156).
edge(117, 140).
edge(86, 134).
edge(120, 143).
edge(104, 150).
edge(19, 37).
edge(38, 49).
edge(15, 32).
edge(38, 78).
edge(56, 155).
edge(58, 81).
edge(81, 137).
edge(62, 130).
edge(87, 106).
edge(66, 67).
edge(66, 95).
edge(118, 131).
edge(20, 141).
edge(57, 131).
edge(60, 160).
edge(14, 165).
edge(66, 93).
edge(136, 143).
edge(17, 131).
edge(51, 146).
edge(71, 153).
edge(18, 74).
edge(136, 140).
edge(10, 155).
edge(54, 103).
edge(31, 53).
edge(7, 35).
edge(79, 93).
edge(57, 149).
edge(27, 56).
edge(115, 150).
edge(97, 151).
edge(30, 69).
edge(74, 159).
edge(82, 97).
edge(90, 149).
edge(80, 143).
edge(117, 141).
edge(84, 122).
edge(1, 163).
edge(6, 26).
edge(69, 142).
edge(47, 53).
edge(43, 80).
edge(7, 30).
edge(7, 102).
edge(2, 11).
edge(19, 30).
edge(42, 88).
edge(69, 134).
edge(54, 55).
edge(3, 72).
edge(27, 144).
edge(93, 147).
edge(48, 151).
edge(161, 164).
edge(106, 152).
edge(3, 127).
edge(26, 51).
edge(80, 119).
edge(49, 73).
edge(116, 130).
edge(35, 135).
edge(93, 122).
edge(4, 23).
edge(40, 138).
edge(31, 87).
edge(66, 143).
edge(47, 158).
edge(8, 126).
edge(66, 82).
edge(34, 140).
edge(29, 113).
edge(15, 148).
edge(43, 144).
edge(54, 91).
edge(17, 73).
edge(61, 68).
edge(8, 62).
edge(117, 123).
edge(3, 19).
edge(106, 141).
edge(42, 71).
edge(12, 122).
edge(17, 110).
edge(153, 162).
edge(7, 20).
edge(46, 102).
edge(3, 57).
edge(34, 159).
edge(84, 124).
edge(83, 108).
edge(37, 45).
edge(136, 164).
edge(57, 133).
edge(41, 138).
edge(62, 113).
edge(35, 136).
edge(2, 7).
edge(130, 132).
edge(40, 87).
edge(94, 161).
edge(67, 107).
edge(74, 162).
edge(11, 83).
edge(8, 84).
edge(30, 79).
edge(81, 142).
edge(38, 62).
edge(15, 47).
edge(12, 63).
edge(40, 134).
edge(86, 114).
edge(48, 128).
edge(149, 155).
edge(63, 151).
edge(49, 141).
edge(37, 42).
edge(9, 94).
edge(4, 141).
edge(101, 158).
edge(10, 85).
edge(39, 128).
edge(113, 141).
edge(36, 78).
edge(126, 133).
edge(2, 18).
edge(12, 96).
edge(33, 140).
edge(135, 146).
edge(41, 141).
edge(44, 124).
edge(54, 74).
edge(83, 125).
edge(2, 112).
edge(32, 57).
edge(37, 44).
edge(23, 128).
edge(41, 162).
edge(35, 116).
edge(56, 140).
edge(93, 121).
edge(15, 25).
edge(40, 56).
edge(15, 75).
edge(1, 110).
edge(56, 147).
edge(26, 131).
edge(141, 164).
edge(68, 79).
edge(12, 86).
edge(108, 123).
edge(2, 88).
edge(47, 122).
edge(84, 101).
edge(92, 116).
edge(96, 133).
edge(70, 89).
edge(29, 145).
edge(21, 165).
edge(38, 91).
edge(21, 69).
edge(97, 142).
edge(32, 165).
edge(8, 75).
edge(48, 116).
edge(76, 149).
edge(101, 160).
edge(53, 75).
edge(12, 44).
edge(85, 86).
edge(76, 155).
edge(0, 119).
edge(113, 162).
edge(66, 104).
edge(74, 124).
edge(131, 146).
edge(66, 153).
edge(83, 121).
edge(14, 78).
edge(4, 68).
edge(81, 118).
edge(87, 105).
edge(111, 143).
edge(27, 101).
edge(0, 86).
edge(37, 141).
edge(21, 92).
edge(6, 96).
edge(95, 130).
edge(8, 55).
edge(116, 152).
edge(24, 105).
edge(30, 41).
edge(134, 140).
edge(16, 88).
edge(52, 133).
edge(63, 102).
edge(53, 110).
edge(102, 154).
edge(9, 84).
edge(17, 158).
edge(11, 22).
edge(34, 139).
edge(56, 96).
edge(17, 150).
edge(76, 102).
edge(95, 105).
edge(86, 153).
edge(120, 161).
edge(40, 153).
edge(72, 157).
edge(83, 115).
edge(5, 129).
edge(33, 57).
edge(85, 124).
edge(84, 138).
edge(114, 134).
edge(88, 133).
edge(4, 165).
edge(103, 117).
edge(24, 160).
edge(138, 155).
edge(148, 150).
edge(2, 82).
edge(2, 114).
edge(62, 148).
edge(35, 101).
edge(20, 45).
edge(79, 162).
edge(67, 160).
edge(44, 58).
edge(127, 140).
edge(43, 150).
edge(14, 146).
edge(22, 164).
edge(34, 78).
edge(81, 93).
edge(42, 110).
edge(39, 131).
edge(36, 132).
edge(109, 157).
edge(9, 83).
edge(75, 129).
edge(32, 94).
edge(49, 128).
edge(38, 153).
edge(108, 114).
edge(38, 72).
edge(24, 46).
edge(66, 73).
edge(73, 130).
edge(36, 135).
edge(125, 132).
edge(10, 142).
edge(79, 146).
edge(131, 137).
edge(8, 165).
edge(152, 157).
edge(4, 85).
edge(1, 164).
edge(14, 95).
edge(50, 154).
edge(95, 132).
edge(80, 85).
edge(11, 98).
edge(69, 151).
edge(2, 135).
edge(68, 76).
edge(37, 63).
edge(41, 86).
edge(69, 88).
edge(50, 104).
edge(92, 128).
edge(6, 121).
edge(107, 153).
edge(39, 143).
edge(65, 90).
edge(10, 160).
edge(43, 74).
edge(26, 134).
edge(6, 81).
edge(13, 49).
edge(14, 52).
edge(109, 119).
edge(23, 102).
edge(37, 120).
edge(30, 165).
edge(113, 134).
edge(9, 116).
edge(22, 105).
edge(102, 153).
edge(2, 152).
edge(66, 155).
edge(76, 127).
edge(29, 57).
edge(128, 162).
edge(48, 121).
edge(25, 30).
edge(137, 156).
edge(28, 117).
edge(54, 115).
edge(64, 80).
edge(87, 116).
edge(16, 51).
edge(111, 132).
edge(88, 107).
edge(89, 112).
edge(68, 113).
edge(40, 82).
edge(121, 154).
edge(22, 107).
edge(26, 50).
edge(19, 35).
edge(0, 67).
edge(45, 91).
edge(40, 76).
edge(51, 136).
edge(26, 135).
edge(101, 143).
edge(88, 105).
edge(131, 163).
edge(39, 55).
edge(129, 161).
edge(18, 122).
edge(110, 163).
edge(64, 129).
edge(46, 77).
edge(21, 35).
edge(83, 113).
edge(16, 105).
edge(13, 153).
edge(2, 140).
edge(17, 24).
edge(109, 111).
edge(102, 112).
edge(33, 157).
edge(107, 116).
edge(127, 151).
edge(1, 18).
edge(94, 127).
edge(26, 155).
edge(49, 112).
edge(61, 64).
edge(112, 124).
edge(79, 84).
edge(8, 141).
edge(93, 162).
edge(31, 78).
edge(4, 80).
edge(51, 99).
edge(69, 126).
edge(27, 90).
edge(35, 58).
edge(108, 133).
edge(123, 137).
edge(80, 113).
edge(52, 121).
edge(47, 107).
edge(49, 122).
edge(53, 160).
edge(61, 126).
edge(42, 53).
edge(90, 160).
edge(104, 139).
edge(110, 111).
edge(5, 145).
edge(52, 55).
edge(26, 39).
edge(0, 1).
edge(149, 163).
edge(142, 149).
edge(54, 76).
edge(36, 83).
edge(76, 84).
edge(118, 152).
edge(35, 56).
edge(88, 90).
edge(53, 68).
edge(99, 135).
edge(56, 81).
edge(25, 124).
edge(12, 56).
edge(79, 110).
edge(24, 131).
edge(107, 114).
edge(22, 145).
edge(102, 104).
edge(60, 83).
edge(152, 155).
edge(4, 148).
edge(50, 109).
edge(55, 140).
edge(31, 141).
edge(50, 161).
edge(80, 148).
edge(49, 124).
edge(1, 95).
edge(102, 131).
edge(152, 163).
edge(54, 108).
edge(47, 108).
edge(21, 23).
edge(29, 137).
edge(91, 136).
edge(126, 137).
edge(37, 107).
edge(61, 154).
edge(39, 133).
edge(47, 79).
edge(123, 138).
edge(10, 60).
edge(81, 135).
edge(57, 69).
edge(35, 100).
edge(64, 155).
edge(5, 78).
edge(19, 146).
edge(30, 45).
edge(34, 145).
edge(41, 93).
edge(22, 46).
edge(42, 128).
edge(39, 165).
edge(23, 50).
edge(33, 42).
edge(63, 118).
edge(75, 139).
edge(115, 148).
edge(125, 133).
edge(10, 98).
edge(5, 54).
edge(8, 19).
edge(129, 141).
edge(130, 140).
edge(3, 13).
edge(21, 143).
edge(26, 49).
edge(9, 46).
edge(77, 100).
edge(54, 157).
edge(76, 130).
edge(122, 125).
edge(5, 147).
edge(125, 158).
edge(6, 83).
edge(47, 148).
edge(7, 61).
edge(136, 159).
edge(41, 88).
edge(99, 149).
edge(63, 111).
edge(100, 165).
edge(36, 120).
edge(25, 83).
edge(40, 108).
edge(79, 158).
edge(73, 113).
edge(34, 64).
edge(128, 150).
edge(50, 68).
edge(110, 125).
edge(12, 80).
edge(66, 165).
edge(12, 34).
edge(74, 165).
edge(68, 137).
edge(27, 87).
edge(42, 150).
edge(19, 101).
edge(25, 50).
edge(45, 118).
edge(52, 108).
edge(55, 160).
edge(10, 99).
edge(33, 60).
edge(49, 55).
edge(30, 60).
edge(57, 85).
edge(42, 116).
edge(21, 66).
edge(93, 111).
edge(3, 37).
edge(32, 155).
edge(0, 87).
edge(28, 158).
edge(58, 129).
edge(12, 76).
edge(35, 61).
edge(88, 108).
edge(12, 62).
edge(14, 18).
edge(20, 160).
edge(101, 146).
edge(13, 152).
edge(7, 142).
edge(30, 58).
edge(98, 124).
edge(95, 107).
edge(9, 59).
edge(11, 66).
edge(60, 120).
edge(94, 137).
edge(44, 68).
edge(45, 84).
edge(47, 162).
edge(52, 77).
edge(69, 72).
edge(99, 112).
edge(99, 137).
edge(74, 144).
edge(93, 159).
edge(132, 133).
edge(2, 147).
edge(78, 157).
edge(96, 140).
edge(19, 76).
edge(56, 78).
edge(29, 86).
edge(108, 131).
edge(22, 70).
edge(12, 93).
edge(50, 115).
edge(12, 68).
edge(30, 56).
edge(41, 95).
edge(26, 156).
edge(55, 83).
edge(64, 98).
edge(33, 88).
edge(59, 76).
edge(53, 94).
edge(82, 86).
edge(47, 144).
edge(28, 135).
edge(40, 140).
edge(0, 142).
edge(100, 121).
edge(98, 105).
edge(157, 163).
edge(27, 30).
edge(27, 129).
edge(19, 97).
edge(11, 65).
edge(85, 89).
edge(38, 50).
edge(130, 144).
edge(28, 141).
edge(82, 129).
edge(34, 50).
edge(34, 141).
edge(74, 100).
edge(5, 88).
edge(85, 146).
edge(138, 147).
edge(149, 152).
edge(17, 123).
edge(83, 119).
edge(51, 93).
edge(14, 127).
edge(45, 142).
edge(103, 113).
edge(80, 138).
edge(3, 21).
edge(1, 91).
edge(93, 115).
edge(89, 157).
edge(147, 148).
edge(2, 46).
edge(52, 64).
edge(76, 157).
edge(94, 107).
edge(52, 138).
edge(19, 71).
edge(20, 78).
edge(16, 49).
edge(61, 162).
edge(86, 152).
edge(58, 99).
edge(34, 87).
edge(109, 155).
edge(14, 124).
edge(13, 39).
edge(156, 165).
edge(43, 139).
edge(2, 8).
edge(127, 149).
edge(62, 94).
edge(22, 50).
edge(52, 165).
edge(3, 150).
edge(30, 128).
edge(37, 117).
edge(35, 141).
edge(69, 108).
edge(96, 126).
edge(14, 148).
edge(50, 90).
edge(113, 117).
edge(41, 134).
edge(3, 12).
edge(76, 97).
edge(30, 98).
edge(19, 160).
edge(42, 165).
edge(116, 164).
edge(41, 116).
edge(138, 153).
edge(25, 73).
edge(133, 145).
edge(56, 106).
edge(56, 74).
edge(100, 134).
edge(71, 90).
edge(43, 56).
edge(66, 126).
edge(77, 122).
edge(25, 136).
edge(10, 74).
edge(43, 71).
edge(103, 160).
edge(53, 102).
edge(50, 76).
edge(32, 90).
edge(3, 133).
edge(80, 154).
edge(19, 163).
edge(97, 107).
edge(105, 132).
edge(112, 115).
edge(13, 104).
edge(61, 99).
edge(86, 96).
edge(77, 165).
edge(48, 161).
edge(45, 105).
edge(137, 146).
edge(65, 132).
edge(32, 48).
edge(70, 139).
edge(34, 103).
edge(90, 101).
edge(39, 81).
edge(15, 154).
edge(33, 81).
edge(78, 95).
edge(16, 75).
edge(104, 125).
edge(2, 72).
edge(39, 52).
edge(0, 32).
edge(153, 156).
edge(28, 152).
edge(27, 134).
edge(130, 139).
edge(6, 116).
edge(5, 144).
edge(6, 85).
edge(21, 25).
edge(20, 75).
edge(46, 97).
edge(112, 150).
edge(23, 100).
edge(42, 55).
edge(16, 37).
edge(125, 145).
edge(56, 150).
edge(23, 163).
edge(97, 162).
edge(0, 4).
edge(98, 131).
edge(26, 80).
edge(69, 163).
edge(48, 93).
edge(84, 97).
edge(95, 128).
edge(38, 109).
edge(117, 144).
edge(38, 135).
edge(1, 57).
edge(31, 116).
edge(1, 19).
edge(45, 158).
edge(63, 156).
edge(33, 61).
edge(4, 59).
edge(39, 68).
edge(90, 127).
edge(90, 164).
edge(25, 139).
edge(68, 95).
edge(28, 127).
edge(52, 74).
edge(43, 58).
edge(64, 165).
edge(13, 133).
edge(57, 113).
edge(78, 88).
edge(36, 146).
edge(36, 95).
edge(23, 135).
edge(2, 102).
edge(31, 45).
edge(100, 130).
edge(87, 138).
edge(62, 68).
edge(58, 62).
edge(86, 151).
edge(4, 75).
edge(2, 69).
edge(92, 124).
edge(81, 158).
edge(12, 92).
edge(25, 85).
edge(73, 115).
edge(62, 131).
edge(34, 53).
edge(31, 137).
edge(56, 104).
edge(66, 76).
edge(12, 22).
edge(49, 71).
edge(39, 75).
edge(34, 123).
edge(8, 100).
edge(14, 88).
edge(30, 63).
edge(86, 164).
edge(34, 138).
edge(17, 136).
edge(33, 107).
edge(128, 146).
edge(130, 148).
edge(83, 103).
edge(8, 124).
edge(14, 139).
edge(100, 161).
edge(78, 101).
edge(50, 93).
edge(10, 121).
edge(81, 140).
edge(16, 99).
edge(93, 137).
edge(53, 156).
edge(12, 163).
edge(19, 159).
edge(21, 96).
edge(22, 42).
edge(30, 127).
edge(31, 49).
edge(15, 33).
edge(12, 165).
edge(79, 88).
edge(52, 142).
edge(71, 145).
edge(62, 137).
edge(68, 150).
edge(28, 102).
edge(32, 121).
edge(85, 137).
edge(153, 164).
edge(35, 149).
edge(46, 96).
edge(1, 97).
edge(5, 91).
edge(88, 145).
edge(136, 148).
edge(62, 117).
edge(63, 159).
edge(77, 149).
edge(104, 143).
edge(52, 114).
edge(51, 134).
edge(141, 154).
edge(106, 137).
edge(134, 139).
edge(58, 65).
edge(0, 92).
edge(42, 73).
edge(27, 118).
edge(8, 136).
edge(40, 60).
edge(43, 76).
edge(48, 69).
edge(17, 39).
edge(24, 108).
edge(0, 98).
edge(106, 123).
edge(10, 91).
edge(67, 73).
edge(77, 154).
edge(61, 147).
edge(38, 61).
edge(1, 149).
edge(49, 57).
edge(38, 51).
edge(27, 137).
edge(5, 65).
edge(62, 78).
edge(46, 115).
edge(113, 133).
edge(42, 77).
edge(141, 156).
edge(24, 63).
edge(14, 40).
edge(47, 151).
edge(31, 135).
edge(85, 132).
edge(74, 130).
edge(1, 165).
edge(57, 64).
edge(119, 143).
edge(18, 155).
edge(23, 33).
edge(35, 162).
edge(101, 129).
edge(55, 134).
edge(40, 91).
edge(99, 115).
edge(38, 152).
edge(34, 89).
edge(116, 160).
edge(87, 102).
edge(48, 51).
edge(119, 124).
edge(33, 74).
edge(140, 163).
edge(133, 134).
edge(29, 123).
edge(65, 113).
edge(26, 107).
edge(13, 125).
edge(10, 154).
edge(135, 161).
edge(66, 118).
edge(80, 140).
edge(50, 103).
edge(7, 75).
edge(49, 143).
edge(16, 163).
edge(50, 100).
edge(46, 132).
edge(16, 136).
edge(69, 98).
edge(107, 141).
edge(70, 114).
edge(39, 105).
edge(44, 82).
edge(68, 136).
edge(9, 64).
edge(62, 112).
edge(119, 163).
edge(130, 158).
edge(38, 75).
edge(82, 122).
edge(22, 73).
edge(20, 164).
edge(11, 131).
edge(12, 111).
edge(2, 158).
edge(146, 157).
edge(28, 163).
edge(13, 141).
edge(1, 96).
edge(82, 160).
edge(79, 119).
edge(60, 112).
edge(26, 67).
edge(99, 127).
edge(72, 109).
edge(11, 38).
edge(10, 115).
edge(6, 99).
edge(13, 28).
edge(16, 31).
edge(84, 104).
edge(147, 163).
edge(8, 22).
edge(77, 146).
edge(9, 101).
edge(43, 123).
edge(39, 114).
edge(33, 133).
edge(8, 117).
edge(31, 108).
edge(76, 92).
edge(27, 164).
edge(114, 146).
edge(139, 147).
edge(16, 70).
edge(157, 160).
edge(13, 83).
edge(39, 121).
edge(133, 162).
edge(76, 133).
edge(33, 151).
edge(87, 136).
edge(98, 139).
edge(13, 95).
edge(44, 79).
edge(26, 56).
edge(48, 112).
edge(84, 147).
edge(4, 20).
edge(11, 89).
edge(22, 86).
edge(18, 137).
edge(76, 106).
edge(17, 114).
edge(72, 140).
edge(14, 39).
edge(106, 150).
edge(41, 98).
edge(1, 10).
edge(122, 134).
edge(43, 107).
edge(30, 65).
edge(15, 94).
edge(37, 163).
edge(73, 144).
edge(45, 66).
edge(30, 113).
edge(51, 126).
edge(131, 143).
edge(69, 84).
edge(2, 61).
edge(31, 101).
edge(28, 54).
edge(18, 94).
edge(14, 92).
edge(83, 88).
edge(99, 153).
edge(57, 117).
edge(84, 133).
edge(3, 65).
edge(52, 73).
edge(24, 44).
edge(70, 82).
edge(137, 163).
edge(139, 154).
edge(28, 137).
edge(81, 165).
edge(67, 74).
edge(99, 148).
edge(32, 105).
edge(45, 145).
edge(0, 66).
edge(102, 114).
edge(57, 60).
edge(51, 102).
edge(125, 157).
edge(21, 122).
edge(6, 31).
edge(50, 156).
edge(67, 96).
edge(21, 147).
edge(64, 90).
edge(58, 113).
edge(88, 127).
edge(33, 52).
edge(5, 55).
edge(124, 160).
edge(108, 134).
edge(84, 137).
edge(122, 124).
edge(40, 101).
edge(78, 87).
edge(81, 148).
edge(68, 78).
edge(80, 142).
edge(12, 74).
edge(0, 3).
edge(65, 70).
edge(15, 79).
edge(19, 109).
edge(41, 160).
edge(54, 79).
edge(124, 140).
edge(9, 16).
edge(70, 107).
edge(30, 110).
edge(41, 135).
edge(2, 148).
edge(84, 109).
edge(2, 154).
edge(31, 133).
edge(117, 165).
edge(56, 137).
edge(0, 15).
edge(135, 148).
edge(30, 50).
edge(94, 113).
edge(44, 97).
edge(39, 152).
edge(84, 165).
edge(88, 144).
edge(17, 70).
edge(21, 107).
edge(25, 159).
edge(29, 133).
edge(140, 145).
edge(41, 105).
edge(19, 118).
edge(54, 70).
edge(26, 160).
edge(11, 43).
edge(71, 141).
edge(12, 136).
edge(43, 126).
edge(19, 60).
edge(63, 92).
edge(0, 118).
edge(19, 65).
edge(34, 115).
edge(118, 121).
edge(20, 104).
edge(14, 102).
edge(12, 153).
edge(31, 74).
edge(101, 142).
edge(35, 148).
edge(123, 131).
edge(34, 59).
edge(7, 79).
edge(68, 124).
edge(76, 81).
edge(110, 118).
edge(58, 87).
edge(98, 142).
edge(47, 96).
edge(28, 118).
edge(91, 114).
edge(10, 93).
edge(90, 126).
edge(18, 161).
edge(22, 114).
edge(63, 107).
edge(66, 138).
edge(2, 113).
edge(100, 152).
edge(46, 161).
edge(64, 107).
edge(96, 141).
edge(20, 157).
edge(42, 117).
edge(53, 74).
edge(22, 77).
edge(21, 120).
edge(88, 109).
edge(137, 152).
edge(128, 136).
edge(29, 114).
edge(25, 116).
edge(86, 95).
edge(45, 52).
edge(19, 86).
edge(2, 35).
edge(12, 143).
edge(85, 118).
edge(63, 133).
edge(36, 94).
edge(70, 78).
edge(43, 51).
edge(88, 137).
edge(3, 125).
edge(150, 159).
edge(71, 78).
edge(38, 40).
edge(81, 136).
edge(0, 97).
edge(143, 146).
edge(33, 54).
edge(63, 96).
edge(29, 50).
edge(114, 131).
edge(71, 88).
edge(88, 99).
edge(113, 116).
edge(124, 139).
edge(41, 81).
edge(8, 44).
edge(53, 77).
edge(22, 98).
edge(52, 150).
edge(71, 101).
edge(3, 39).
edge(26, 37).
edge(40, 148).
edge(21, 55).
edge(0, 68).
edge(97, 113).
edge(44, 164).
edge(112, 121).
edge(31, 124).
edge(41, 80).
edge(58, 88).
edge(93, 158).
edge(112, 165).
edge(149, 158).
edge(103, 153).
edge(83, 91).
edge(120, 126).
edge(90, 106).
edge(10, 134).
edge(28, 88).
edge(66, 146).
edge(43, 147).
edge(33, 67).
edge(11, 153).
edge(94, 162).
edge(79, 92).
edge(74, 158).
edge(27, 122).
edge(49, 92).
edge(61, 96).
edge(71, 98).
edge(25, 147).
edge(111, 125).
edge(3, 53).
edge(102, 125).
edge(2, 155).
edge(62, 150).
edge(57, 163).
edge(156, 157).
edge(119, 134).
edge(3, 49).
edge(1, 11).
edge(5, 117).
edge(63, 83).
edge(67, 69).
edge(28, 128).
edge(136, 165).
edge(89, 103).
edge(60, 118).
edge(100, 119).
edge(111, 158).
edge(5, 106).
edge(9, 38).
edge(20, 31).
edge(25, 96).
edge(37, 61).
edge(4, 62).
edge(11, 67).
edge(28, 44).
edge(88, 116).
edge(50, 74).
edge(6, 128).
edge(45, 64).
edge(91, 130).
edge(7, 107).
edge(22, 134).
edge(73, 74).
edge(0, 50).
edge(48, 62).
edge(9, 100).
edge(107, 127).
edge(15, 80).
edge(96, 97).
edge(68, 110).
edge(74, 103).
edge(63, 98).
edge(34, 118).
edge(29, 103).
edge(9, 17).
edge(55, 128).
edge(70, 142).
edge(80, 95).
edge(122, 123).
edge(39, 115).
edge(111, 148).
edge(1, 6).
edge(58, 144).
edge(141, 145).
edge(13, 148).
edge(26, 137).
edge(59, 66).
edge(103, 128).
edge(59, 144).
edge(98, 161).
edge(91, 93).
edge(103, 116).
edge(77, 101).
edge(5, 8).
edge(38, 67).
edge(65, 80).
edge(12, 73).
edge(88, 153).
edge(67, 77).
edge(30, 76).
edge(36, 136).
edge(40, 103).
edge(74, 92).
edge(45, 68).
edge(60, 74).
edge(36, 144).
edge(108, 111).
edge(46, 78).
edge(11, 24).
edge(8, 46).
edge(98, 155).
edge(4, 96).
edge(14, 133).
edge(62, 110).
edge(111, 120).
edge(83, 141).
edge(32, 162).
edge(58, 119).
edge(13, 90).
edge(62, 74).
edge(20, 96).
edge(35, 67).
edge(1, 15).
edge(161, 163).
edge(37, 99).
edge(46, 114).
edge(120, 137).
edge(145, 163).
edge(23, 114).
edge(65, 133).
edge(94, 122).
edge(110, 146).
edge(5, 120).
edge(33, 104).
edge(4, 110).
edge(120, 141).
edge(102, 145).
edge(58, 139).
edge(17, 149).
edge(47, 66).
edge(88, 117).
edge(4, 164).
edge(27, 66).
edge(13, 155).
edge(41, 58).
edge(107, 151).
edge(68, 74).
edge(44, 48).
edge(73, 145).
edge(38, 42).
edge(57, 59).
edge(5, 47).
edge(9, 77).
edge(97, 159).
edge(7, 159).
edge(15, 45).
edge(80, 149).
edge(31, 54).
edge(78, 84).
edge(56, 136).
edge(38, 92).
edge(37, 81).
edge(1, 78).
edge(77, 138).
edge(45, 88).
edge(45, 115).
edge(81, 151).
edge(23, 142).
edge(10, 135).
edge(84, 134).
edge(12, 43).
edge(0, 99).
edge(41, 56).
edge(8, 159).
edge(77, 79).
edge(133, 165).
edge(13, 91).
edge(54, 56).
edge(148, 165).
edge(100, 141).
edge(74, 105).
edge(104, 145).
edge(36, 148).
edge(150, 165).
edge(72, 123).
edge(11, 59).
edge(101, 122).
edge(7, 33).
edge(104, 108).
edge(74, 111).
edge(44, 54).
edge(30, 52).
edge(49, 50).
edge(62, 64).
edge(55, 142).
edge(0, 114).
edge(8, 123).
edge(33, 78).
edge(53, 150).
edge(38, 142).
edge(145, 158).
edge(62, 157).
edge(44, 146).
edge(27, 39).
edge(32, 33).
edge(21, 154).
edge(4, 51).
edge(71, 99).
edge(10, 103).
edge(14, 31).
edge(79, 132).
edge(29, 107).
edge(29, 37).
edge(109, 131).
edge(73, 86).
edge(41, 143).
edge(14, 19).
edge(23, 74).
edge(72, 99).
edge(16, 150).
edge(80, 159).
edge(117, 126).
edge(70, 73).
edge(134, 145).
edge(87, 108).
edge(37, 51).
edge(66, 140).
edge(74, 76).
edge(20, 143).
edge(75, 78).
edge(76, 120).
edge(10, 80).
edge(64, 83).
edge(64, 120).
edge(11, 36).
edge(54, 83).
edge(95, 97).
edge(117, 118).
edge(92, 162).
edge(149, 151).
edge(80, 150).
edge(149, 165).
edge(129, 144).
edge(34, 61).
edge(22, 62).
edge(2, 80).
edge(28, 142).
edge(53, 66).
edge(23, 147).
edge(14, 137).
edge(119, 141).
edge(22, 106).
edge(86, 118).
edge(50, 67).
edge(95, 153).
edge(7, 135).
edge(14, 57).
edge(73, 119).
edge(114, 123).
edge(32, 131).
edge(66, 89).
edge(43, 121).
edge(35, 73).
edge(34, 52).
edge(135, 137).
edge(44, 165).
edge(27, 94).
edge(49, 88).
edge(82, 108).
edge(21, 60).
edge(118, 148).
edge(24, 146).
edge(76, 114).
edge(60, 79).
edge(103, 125).
edge(55, 135).
edge(95, 143).
edge(8, 26).
edge(66, 148).
edge(26, 47).
edge(11, 129).
edge(13, 163).
edge(8, 38).
edge(57, 110).
edge(22, 64).
edge(22, 49).
edge(13, 129).
edge(27, 141).
edge(63, 69).
edge(122, 146).
edge(97, 158).
edge(93, 131).
edge(34, 83).
edge(27, 86).
edge(60, 127).
edge(123, 136).
edge(51, 123).
edge(31, 132).
edge(24, 109).
edge(58, 93).
edge(121, 151).
edge(77, 143).
edge(14, 125).
edge(26, 162).
edge(66, 107).
edge(30, 74).
edge(0, 55).
edge(61, 123).
edge(42, 136).
edge(132, 150).
edge(41, 148).
edge(16, 159).
edge(40, 142).
edge(125, 156).
edge(30, 89).
edge(25, 67).
edge(19, 155).
edge(91, 112).
edge(105, 133).
edge(41, 48).
edge(32, 46).
edge(35, 45).
edge(97, 160).
edge(62, 84).
edge(48, 59).
edge(72, 74).
edge(59, 63).
edge(13, 89).
edge(92, 155).
edge(27, 57).
edge(9, 114).
edge(0, 74).
edge(33, 91).
edge(21, 27).
edge(8, 113).
edge(65, 162).
edge(64, 110).
edge(114, 125).
edge(103, 139).
edge(18, 23).
edge(136, 139).
edge(55, 151).
edge(77, 91).
edge(12, 15).
edge(71, 85).
edge(95, 155).
edge(116, 163).
edge(85, 123).
edge(22, 125).
edge(88, 152).
edge(89, 135).
edge(130, 138).
edge(107, 163).
edge(23, 30).
edge(6, 100).
edge(26, 46).
edge(131, 165).
edge(50, 107).
edge(23, 72).
edge(17, 143).
edge(134, 156).
edge(91, 159).
edge(37, 69).
edge(27, 63).
edge(108, 151).
edge(66, 117).
edge(110, 150).
edge(159, 160).
edge(82, 151).
edge(133, 140).
edge(74, 155).
edge(25, 109).
edge(17, 122).
edge(18, 140).
edge(53, 105).
edge(93, 157).
edge(45, 65).
edge(45, 99).
edge(140, 160).
edge(18, 135).
edge(110, 127).
edge(137, 161).
edge(67, 148).
edge(67, 76).
edge(124, 132).
edge(72, 139).
edge(95, 149).
edge(60, 114).
edge(76, 94).
edge(28, 124).
edge(25, 55).
edge(25, 33).
edge(58, 138).
edge(126, 141).
edge(5, 100).
edge(7, 13).
edge(128, 144).
edge(23, 54).
edge(37, 134).
edge(101, 105).
edge(35, 154).
edge(55, 76).
edge(6, 86).
edge(82, 119).
edge(72, 164).
edge(28, 66).
edge(30, 108).
edge(15, 74).
edge(46, 103).
edge(16, 127).
edge(66, 106).
edge(42, 52).
edge(30, 159).
edge(142, 163).
edge(7, 106).
edge(61, 66).
edge(76, 96).
edge(103, 142).
edge(41, 55).
edge(33, 152).
edge(4, 21).
edge(48, 136).
edge(55, 88).
edge(22, 40).
edge(0, 155).
edge(130, 145).
edge(88, 104).
edge(18, 106).
edge(158, 162).
edge(144, 149).
edge(32, 109).
edge(95, 145).
edge(63, 124).
edge(75, 156).
edge(11, 102).
edge(65, 68).
edge(150, 164).
edge(113, 153).
edge(18, 160).
edge(79, 114).
edge(73, 128).
edge(106, 162).
edge(25, 45).
edge(20, 113).
edge(102, 117).
edge(21, 155).
edge(109, 110).
edge(57, 156).
edge(48, 99).
edge(125, 131).
edge(2, 12).
edge(108, 127).
edge(48, 104).
edge(54, 93).
edge(22, 103).
edge(47, 77).
edge(78, 155).
edge(8, 27).
edge(71, 114).
edge(31, 42).
edge(64, 134).
edge(55, 79).
edge(49, 115).
edge(52, 145).
edge(36, 127).
edge(31, 103).
edge(50, 118).
edge(12, 149).
edge(95, 162).
edge(125, 150).
edge(67, 143).
edge(77, 78).
edge(60, 158).
edge(9, 27).
edge(18, 62).
edge(34, 81).
edge(69, 158).
edge(16, 160).
edge(8, 69).
edge(59, 79).
edge(63, 94).
edge(41, 90).
edge(71, 134).
edge(11, 34).
edge(0, 21).
edge(40, 58).
edge(71, 96).
edge(42, 64).
edge(7, 65).
edge(125, 159).
edge(4, 43).
edge(67, 123).
edge(62, 92).
edge(97, 147).
edge(6, 21).
edge(7, 119).
edge(33, 102).
edge(21, 99).
edge(54, 112).
edge(35, 103).
edge(90, 161).
edge(55, 60).
edge(17, 54).
edge(49, 80).
edge(29, 105).
edge(26, 41).
edge(2, 53).
edge(71, 113).
edge(79, 130).
edge(39, 130).
edge(69, 144).
edge(96, 128).
edge(82, 118).
edge(92, 161).
edge(116, 158).
edge(149, 157).
edge(29, 106).
edge(87, 150).
edge(52, 139).
edge(39, 45).
edge(110, 135).
edge(12, 164).
edge(105, 146).
edge(76, 110).
edge(5, 46).
edge(42, 89).
edge(125, 136).
edge(19, 28).
edge(84, 85).
edge(39, 120).
edge(26, 104).
edge(8, 151).
edge(56, 86).
edge(107, 137).
edge(116, 126).
edge(2, 137).
edge(95, 126).
edge(31, 51).
edge(93, 129).
edge(12, 138).
edge(49, 103).
edge(91, 126).
edge(66, 94).
edge(67, 75).
edge(16, 118).
edge(34, 73).
edge(33, 77).
edge(73, 120).
edge(93, 110).
edge(31, 75).
edge(15, 134).
edge(93, 102).
edge(103, 162).
edge(153, 157).
edge(8, 158).
edge(86, 142).
edge(56, 105).
edge(130, 141).
edge(66, 97).
edge(48, 124).
edge(13, 60).
edge(93, 160).
edge(8, 85).
edge(24, 122).
edge(59, 112).
edge(0, 151).
edge(91, 165).
edge(55, 73).
edge(82, 157).
edge(84, 125).
edge(109, 130).
edge(2, 161).
edge(10, 63).
edge(48, 61).
edge(105, 122).
edge(32, 161).
edge(34, 62).
edge(21, 142).
edge(22, 156).
edge(58, 74).
edge(36, 108).
edge(72, 103).
edge(72, 127).
edge(74, 81).
edge(31, 125).
edge(66, 141).
edge(45, 86).
edge(48, 141).
edge(115, 127).
edge(59, 146).
edge(53, 141).
edge(46, 48).
edge(18, 42).
edge(22, 111).
edge(29, 74).
edge(47, 59).
edge(44, 156).
edge(38, 116).
edge(24, 54).
edge(64, 70).
edge(76, 137).
edge(50, 91).
edge(25, 108).
edge(90, 136).
edge(22, 142).
edge(75, 89).
edge(161, 162).
edge(70, 106).
edge(52, 89).
edge(9, 20).
edge(17, 139).
edge(13, 50).
edge(77, 104).
edge(88, 149).
edge(28, 165).
edge(46, 141).
edge(43, 88).
edge(72, 95).
edge(13, 121).
edge(114, 160).
edge(0, 57).
edge(26, 109).
edge(67, 122).
edge(41, 87).
edge(92, 122).
edge(40, 111).
edge(78, 124).
edge(35, 164).
edge(114, 159).
edge(132, 145).
edge(56, 158).
edge(13, 77).
edge(2, 21).
edge(61, 122).
edge(44, 140).
edge(158, 160).
edge(23, 80).
edge(127, 136).
edge(43, 111).
edge(64, 118).
edge(42, 76).
edge(102, 139).
edge(1, 150).
edge(114, 162).
edge(0, 53).
edge(81, 124).
edge(27, 110).
edge(114, 121).
edge(26, 120).
edge(36, 71).
edge(114, 127).
edge(58, 124).
edge(56, 134).
edge(27, 159).
edge(19, 89).
edge(34, 160).
edge(17, 23).
edge(24, 75).
edge(54, 97).
edge(71, 150).
edge(11, 69).
edge(21, 130).
edge(109, 153).
edge(25, 60).
edge(54, 90).
edge(63, 74).
edge(62, 144).
edge(51, 58).
edge(39, 40).
edge(67, 70).
edge(26, 42).
edge(100, 154).
edge(122, 155).
edge(83, 123).
edge(64, 152).
edge(104, 162).
edge(98, 117).
edge(95, 108).
edge(74, 122).
edge(55, 124).
edge(17, 27).
edge(48, 76).
edge(43, 145).
edge(24, 74).
edge(29, 47).
edge(81, 117).
edge(39, 54).
edge(31, 59).
edge(41, 92).
edge(122, 137).
edge(109, 145).
edge(102, 147).
edge(54, 102).
edge(13, 123).
edge(21, 111).
edge(48, 74).
edge(76, 148).
edge(12, 42).
edge(50, 63).
edge(31, 151).
edge(82, 84).
edge(40, 105).
edge(54, 63).
edge(135, 152).
edge(86, 140).
edge(63, 120).
edge(77, 147).
edge(67, 80).
edge(41, 130).
edge(97, 110).
edge(116, 138).
edge(149, 150).
edge(3, 80).
edge(52, 105).
edge(113, 136).
edge(65, 165).
edge(90, 121).
edge(53, 126).
edge(104, 122).
edge(16, 98).
edge(86, 123).
edge(92, 127).
edge(100, 136).
edge(7, 29).
edge(86, 149).
edge(109, 124).
edge(130, 136).
edge(10, 122).
edge(5, 143).
edge(0, 28).
edge(131, 157).
edge(7, 56).
edge(48, 66).
edge(77, 164).
edge(39, 100).
edge(3, 63).
edge(2, 125).
edge(3, 50).
edge(94, 100).
edge(24, 32).
edge(37, 113).
edge(28, 96).
edge(35, 123).
edge(3, 38).
edge(67, 108).
edge(148, 161).
edge(26, 29).
edge(118, 146).
edge(78, 126).
edge(122, 136).
edge(13, 127).
edge(80, 144).
edge(52, 70).
edge(105, 141).
edge(29, 43).
edge(16, 57).
edge(104, 160).
edge(22, 41).
edge(44, 163).
edge(26, 108).
edge(145, 156).
edge(71, 111).
edge(47, 125).
edge(59, 77).
edge(56, 156).
edge(36, 77).
edge(54, 150).
edge(96, 145).
edge(7, 85).
edge(45, 109).
edge(63, 95).
edge(70, 165).
edge(139, 148).
edge(130, 150).
edge(84, 117).
edge(38, 112).
edge(18, 118).
edge(115, 128).
edge(6, 29).
edge(86, 136).
edge(75, 119).
edge(12, 66).
edge(101, 147).
edge(22, 130).
edge(96, 160).
edge(69, 147).
edge(49, 104).
edge(97, 156).
edge(13, 82).
edge(17, 79).
edge(130, 163).
edge(49, 99).
edge(9, 52).
edge(101, 144).
edge(2, 13).
edge(90, 124).
edge(6, 145).
edge(65, 78).
edge(21, 159).
edge(15, 86).
edge(9, 86).
edge(30, 153).
edge(18, 112).
edge(39, 158).
edge(32, 146).
edge(21, 42).
edge(30, 53).
edge(67, 132).
edge(36, 65).
edge(17, 41).
edge(97, 117).
edge(131, 162).
edge(67, 152).
edge(28, 86).
edge(119, 130).
edge(5, 32).
edge(15, 135).
edge(142, 158).
edge(39, 72).
edge(19, 103).
edge(71, 162).
edge(52, 117).
edge(8, 143).
edge(73, 162).
edge(9, 139).
edge(76, 162).
edge(74, 118).
edge(76, 99).
edge(83, 85).
edge(133, 154).
edge(50, 78).
edge(25, 102).
edge(65, 124).
edge(9, 73).
edge(61, 101).
edge(101, 153).
edge(41, 78).
edge(75, 128).
edge(84, 145).
edge(54, 84).
edge(78, 100).
edge(109, 160).
edge(23, 93).
edge(44, 155).
edge(0, 17).
edge(117, 156).
edge(32, 75).
edge(16, 19).
edge(137, 157).
edge(108, 154).
edge(17, 74).
edge(30, 106).
edge(38, 83).
edge(1, 144).
edge(113, 158).
edge(106, 124).
edge(82, 107).
edge(58, 112).
edge(42, 91).
edge(50, 98).
edge(32, 69).
edge(27, 80).
edge(1, 153).
edge(5, 150).
edge(29, 141).
edge(121, 156).
edge(66, 84).
edge(1, 8).
edge(37, 46).
edge(58, 107).
edge(18, 126).
edge(106, 120).
edge(9, 26).
edge(71, 151).
edge(66, 80).
edge(105, 145).
edge(112, 126).
edge(114, 140).
edge(131, 132).
edge(77, 133).
edge(85, 99).
edge(32, 79).
edge(7, 157).
edge(11, 30).
edge(71, 72).
edge(26, 115).
edge(64, 151).
edge(2, 116).
edge(43, 149).
edge(120, 163).
edge(4, 88).
edge(46, 58).
edge(54, 151).
edge(32, 134).
edge(60, 87).
edge(146, 163).
edge(21, 88).
edge(21, 114).
edge(154, 159).
edge(15, 40).
edge(111, 159).
edge(83, 147).
edge(104, 129).
edge(105, 151).
edge(66, 99).
edge(69, 110).
edge(16, 38).
edge(83, 109).
edge(23, 106).
edge(79, 151).
edge(53, 162).
edge(110, 144).
edge(133, 155).
edge(10, 48).
edge(110, 117).
edge(19, 74).
edge(2, 33).
edge(9, 148).
edge(20, 99).
edge(78, 123).
edge(120, 162).
edge(19, 149).
edge(74, 104).
edge(15, 153).
edge(97, 126).
edge(54, 66).
edge(49, 133).
edge(29, 46).
edge(92, 130).
edge(0, 121).
edge(53, 129).
edge(24, 102).
edge(48, 75).
edge(63, 131).
edge(1, 101).
edge(153, 158).
edge(47, 157).
edge(9, 134).
edge(107, 142).
edge(19, 95).
edge(136, 152).
edge(97, 127).
edge(43, 117).
edge(4, 12).
edge(25, 128).
edge(52, 127).
edge(18, 154).
edge(54, 127).
edge(63, 137).
edge(17, 19).
edge(154, 162).
edge(111, 163).
edge(35, 110).
edge(16, 146).
edge(23, 131).
edge(116, 117).
edge(96, 147).
edge(2, 87).
edge(47, 110).
edge(38, 146).
edge(74, 83).
edge(62, 125).
edge(89, 142).
edge(129, 131).
edge(124, 148).
edge(147, 154).
edge(110, 114).
edge(120, 151).
edge(10, 75).
edge(31, 158).
edge(59, 109).
edge(139, 165).
edge(13, 97).
edge(54, 78).
edge(94, 145).
edge(111, 124).
edge(39, 122).
edge(24, 114).
edge(93, 105).
edge(16, 32).
edge(7, 98).
edge(97, 155).
edge(71, 136).
edge(15, 42).
edge(65, 79).
edge(32, 133).
edge(32, 71).
edge(107, 111).
edge(88, 98).
edge(44, 50).
edge(42, 149).
edge(28, 131).
edge(46, 127).
edge(108, 159).
edge(104, 157).
edge(56, 151).
edge(1, 29).
edge(10, 124).
edge(53, 82).
edge(47, 146).
edge(108, 165).
edge(5, 28).
edge(28, 42).
edge(65, 104).
edge(120, 142).
edge(78, 86).
edge(31, 152).
edge(7, 17).
edge(4, 154).
edge(29, 66).
edge(25, 59).
edge(0, 137).
edge(22, 110).
edge(29, 63).
edge(31, 70).
edge(75, 91).
edge(109, 139).
edge(84, 161).
edge(2, 32).
edge(25, 62).
edge(79, 109).
edge(95, 140).
edge(16, 82).
edge(9, 87).
edge(110, 129).
edge(71, 83).
edge(5, 80).
edge(138, 144).
edge(43, 135).
edge(36, 154).
edge(22, 59).
edge(41, 163).
edge(17, 25).
edge(62, 70).
edge(14, 160).
edge(12, 70).
edge(12, 79).
edge(38, 132).
edge(14, 72).
edge(65, 137).
edge(25, 80).
edge(52, 130).
edge(56, 131).
edge(29, 35).
edge(16, 87).
edge(52, 126).
edge(40, 48).
edge(63, 100).
edge(40, 121).
edge(74, 107).
edge(76, 95).
edge(114, 120).
edge(71, 125).
edge(122, 141).
edge(53, 99).
edge(8, 32).
edge(88, 163).
edge(33, 159).
edge(142, 160).
edge(22, 133).
edge(19, 121).
edge(57, 106).
edge(128, 164).
edge(60, 61).
edge(53, 69).
edge(62, 140).
edge(63, 114).
edge(29, 120).
edge(33, 95).
edge(105, 165).
edge(74, 87).
edge(29, 163).
edge(25, 47).
edge(23, 150).
edge(26, 52).
edge(119, 123).
edge(139, 158).
edge(34, 117).
edge(158, 161).
edge(44, 127).
edge(21, 139).
edge(0, 144).
edge(109, 165).
edge(54, 95).
edge(70, 98).
edge(45, 130).
edge(20, 135).
edge(31, 94).
edge(16, 17).
edge(2, 160).
edge(42, 66).
edge(74, 123).
edge(4, 151).
edge(17, 51).
edge(1, 12).
edge(54, 125).
edge(21, 82).
edge(103, 135).
edge(32, 147).
edge(115, 154).
edge(104, 105).
edge(51, 124).
edge(47, 71).
edge(43, 163).
edge(97, 139).
edge(95, 101).
edge(105, 154).
edge(59, 131).
edge(13, 118).
edge(78, 114).
edge(84, 130).
edge(28, 115).
edge(79, 116).
edge(113, 148).
edge(72, 114).
edge(75, 84).
edge(45, 119).
edge(26, 55).
edge(61, 76).
edge(15, 57).
edge(55, 63).
edge(68, 115).
edge(17, 46).
edge(108, 155).
edge(82, 101).
edge(70, 71).
edge(4, 121).
edge(30, 139).
edge(77, 86).
edge(7, 131).
edge(102, 150).
edge(16, 111).
edge(102, 129).
edge(120, 165).
edge(65, 105).
edge(107, 147).
edge(136, 141).
edge(52, 97).
edge(77, 139).
edge(43, 112).
edge(102, 116).
edge(108, 124).
edge(93, 134).
edge(45, 139).
edge(61, 145).
edge(57, 164).
edge(61, 149).
edge(81, 110).
edge(13, 73).
edge(6, 114).
edge(33, 73).
edge(14, 100).
edge(99, 159).
edge(13, 86).
edge(14, 93).
edge(2, 92).
edge(57, 115).
edge(2, 79).
edge(136, 150).
edge(12, 16).
edge(86, 163).
edge(54, 67).
edge(50, 56).
edge(140, 147).
edge(67, 97).
edge(105, 162).
edge(49, 114).
edge(94, 160).
edge(71, 77).
edge(17, 45).
edge(30, 73).
edge(41, 161).
edge(44, 161).
edge(15, 110).
edge(52, 65).
edge(62, 111).
edge(3, 87).
edge(0, 162).
edge(48, 162).
edge(27, 34).
edge(88, 151).
edge(159, 162).
edge(5, 132).
edge(29, 78).
edge(63, 84).
edge(8, 87).
edge(21, 131).
edge(95, 122).
edge(126, 164).
edge(3, 86).
edge(29, 161).
edge(23, 127).
edge(30, 36).
edge(11, 161).
edge(102, 159).
edge(18, 156).
edge(39, 77).
edge(134, 150).
edge(10, 56).
edge(14, 115).
edge(28, 150).
edge(40, 67).
edge(103, 132).
edge(43, 86).
edge(2, 100).
edge(18, 107).
edge(52, 83).
edge(21, 47).
edge(25, 42).
edge(42, 127).
edge(125, 135).
edge(58, 135).
edge(128, 148).
edge(64, 116).
edge(113, 165).
edge(19, 61).
edge(13, 122).
edge(110, 123).
edge(64, 108).
edge(60, 109).
edge(58, 127).
edge(22, 120).
edge(13, 96).
edge(66, 96).
edge(37, 140).
edge(42, 145).
edge(83, 99).
edge(12, 140).
edge(10, 86).
edge(65, 125).
edge(142, 157).
edge(9, 128).
edge(39, 129).
edge(82, 89).
edge(26, 151).
edge(75, 135).
edge(63, 162).
edge(107, 134).
edge(64, 81).
edge(50, 149).
edge(74, 149).
edge(10, 53).
edge(85, 140).
edge(76, 141).
edge(96, 112).
edge(65, 141).
edge(59, 62).
edge(83, 86).
edge(50, 160).
edge(42, 101).
edge(5, 56).
edge(84, 153).
edge(71, 73).
edge(8, 106).
edge(62, 160).
edge(106, 145).
edge(61, 83).
edge(146, 150).
edge(64, 150).
edge(25, 113).
edge(128, 159).
edge(83, 130).
edge(54, 126).
edge(71, 102).
edge(74, 102).
edge(61, 161).
edge(77, 85).
edge(12, 113).
edge(83, 98).
edge(37, 103).
edge(27, 77).
edge(72, 161).
edge(91, 104).
edge(133, 149).
edge(106, 116).
edge(15, 131).
edge(19, 157).
edge(44, 70).
edge(47, 111).
edge(94, 147).
edge(51, 84).
edge(58, 110).
edge(3, 41).
edge(58, 76).
edge(8, 61).
edge(17, 77).
edge(66, 151).
edge(15, 161).
edge(37, 127).
edge(43, 59).
edge(43, 52).
edge(23, 26).
edge(16, 104).
edge(23, 70).
edge(2, 117).
edge(9, 41).
edge(88, 147).
edge(89, 143).
edge(56, 144).
edge(77, 150).
edge(24, 103).
edge(24, 40).
edge(37, 96).
edge(6, 143).
edge(138, 165).
edge(6, 80).
edge(160, 164).
edge(20, 122).
edge(40, 59).
edge(74, 114).
edge(23, 58).
edge(29, 48).
edge(2, 120).
edge(26, 28).
edge(36, 58).
edge(44, 74).
edge(82, 125).
edge(37, 159).
edge(36, 160).
edge(43, 131).
edge(83, 133).
edge(48, 110).
edge(1, 117).
edge(50, 127).
edge(59, 71).
edge(45, 124).
edge(60, 62).
edge(15, 55).
edge(109, 121).
edge(39, 127).
edge(11, 106).
edge(56, 157).
edge(4, 25).
edge(58, 122).
edge(92, 123).
edge(160, 162).
edge(13, 23).
edge(62, 149).
edge(15, 98).
edge(89, 155).
edge(45, 110).
edge(100, 104).
edge(58, 90).
edge(5, 48).
edge(81, 88).
edge(58, 89).
edge(19, 47).
edge(130, 133).
edge(15, 104).
edge(8, 39).
edge(46, 50).
edge(50, 129).
edge(1, 138).
edge(47, 57).
edge(80, 87).
edge(111, 146).
edge(58, 103).
edge(49, 109).
edge(10, 147).
edge(25, 165).
edge(59, 93).
edge(44, 62).
edge(9, 43).
edge(38, 117).
edge(2, 48).
edge(34, 152).
edge(64, 135).
edge(92, 154).
edge(3, 51).
edge(109, 143).
edge(32, 85).
edge(74, 140).
edge(34, 48).
edge(40, 70).
edge(65, 114).
edge(5, 148).
edge(3, 76).
edge(144, 157).
edge(32, 135).
edge(62, 85).
edge(54, 162).
edge(69, 146).
edge(0, 37).
edge(1, 34).
edge(51, 61).
edge(36, 38).
edge(43, 156).
edge(68, 148).
edge(127, 143).
edge(40, 53).
edge(57, 68).
edge(18, 139).
edge(20, 88).
edge(90, 158).
edge(47, 101).
edge(146, 155).
edge(11, 128).
edge(65, 77).
edge(73, 131).
edge(1, 47).
edge(12, 104).
edge(7, 88).
edge(84, 129).
edge(65, 81).
edge(70, 143).
edge(19, 29).
edge(67, 156).
edge(17, 37).
edge(58, 83).
edge(44, 162).
edge(24, 76).
edge(22, 124).
edge(89, 162).
edge(148, 164).
edge(25, 152).
edge(67, 159).
edge(48, 154).
edge(95, 135).
edge(37, 53).
edge(132, 148).
edge(119, 135).
edge(46, 66).
edge(45, 100).
edge(23, 52).
edge(101, 121).
edge(89, 126).
edge(42, 102).
edge(20, 102).
edge(30, 64).
edge(140, 154).
edge(25, 69).
edge(3, 156).
edge(20, 149).
edge(26, 153).
edge(58, 63).
edge(17, 109).
edge(89, 107).
edge(51, 75).
edge(44, 96).
edge(84, 88).
edge(16, 101).
edge(9, 25).
edge(6, 69).
edge(112, 140).
edge(121, 159).
edge(21, 72).
edge(21, 86).
edge(56, 92).
edge(74, 116).
edge(49, 83).
edge(26, 154).
edge(70, 75).
edge(60, 65).
edge(99, 151).
edge(29, 132).
edge(73, 156).
edge(15, 163).
edge(106, 111).
edge(27, 162).
edge(51, 103).
edge(119, 161).
edge(28, 64).
edge(71, 87).
edge(16, 83).
edge(47, 150).
edge(70, 129).
edge(61, 165).
edge(91, 154).
edge(81, 149).
edge(85, 117).
edge(16, 28).
edge(80, 157).
edge(20, 38).
edge(17, 124).
edge(65, 117).
edge(40, 126).
edge(1, 94).
edge(135, 139).
edge(5, 66).
edge(48, 102).
edge(37, 88).
edge(21, 85).
edge(17, 101).
edge(65, 130).
edge(97, 104).
edge(0, 128).
edge(111, 117).
edge(63, 138).
edge(143, 157).
edge(80, 125).
edge(119, 160).
edge(57, 74).
edge(25, 61).
edge(70, 74).
edge(100, 103).
edge(65, 152).
edge(24, 137).
edge(6, 87).
edge(110, 115).
edge(26, 165).
edge(24, 150).
edge(22, 37).
edge(56, 57).
edge(87, 137).
edge(89, 146).
edge(3, 24).
edge(42, 124).
edge(64, 74).
edge(55, 70).
edge(81, 106).
edge(129, 158).
edge(39, 110).
edge(23, 109).
edge(64, 89).
edge(54, 110).
edge(24, 134).
edge(100, 142).
edge(111, 139).
edge(46, 113).
edge(113, 130).
edge(30, 163).
edge(70, 72).
edge(0, 138).
edge(33, 96).
edge(1, 5).
edge(12, 120).
edge(1, 14).
edge(18, 136).
edge(12, 129).
edge(42, 126).
edge(66, 112).
edge(65, 134).
edge(47, 98).
edge(65, 94).
edge(62, 79).
edge(7, 160).
edge(92, 134).
edge(5, 7).
edge(1, 20).
edge(10, 164).
edge(25, 131).
edge(28, 43).
edge(62, 163).
edge(26, 73).
edge(134, 162).
edge(89, 161).
edge(76, 164).
edge(33, 164).
edge(91, 164).
edge(28, 80).
edge(66, 71).
edge(66, 86).
edge(42, 58).
edge(29, 52).
edge(30, 158).
edge(32, 64).
edge(27, 73).
edge(37, 161).
edge(81, 125).
edge(47, 124).
edge(88, 125).
edge(64, 102).
edge(102, 119).
edge(122, 129).
edge(53, 161).
edge(9, 118).
edge(144, 161).
edge(50, 159).
edge(108, 143).
edge(67, 126).
edge(7, 150).
edge(24, 49).
edge(69, 83).
edge(65, 109).
edge(73, 93).
edge(5, 90).
edge(93, 164).
edge(32, 66).
edge(145, 157).
edge(83, 87).
edge(21, 62).
edge(54, 143).
edge(109, 137).
edge(18, 117).
edge(10, 110).
edge(71, 107).
edge(114, 128).
edge(69, 148).
edge(60, 75).
edge(112, 160).
edge(24, 28).
edge(2, 3).
edge(119, 158).
edge(8, 88).
edge(40, 135).
edge(10, 79).
edge(1, 45).
edge(42, 62).
edge(4, 147).
edge(54, 100).
edge(94, 98).
edge(66, 88).
edge(2, 118).
edge(30, 82).
edge(3, 109).
edge(45, 94).
edge(126, 140).
edge(26, 106).
edge(57, 116).
edge(75, 149).
edge(39, 98).
edge(80, 151).
edge(2, 34).
edge(30, 86).
edge(31, 109).
edge(4, 134).
edge(68, 103).
edge(6, 135).
edge(70, 94).
edge(30, 62).
edge(95, 123).
edge(32, 39).
edge(48, 57).
edge(3, 139).
edge(9, 135).
edge(51, 106).
edge(14, 84).
edge(94, 135).
edge(56, 162).
edge(53, 85).
edge(88, 106).
edge(100, 117).
edge(93, 113).
edge(80, 162).
edge(121, 128).
edge(95, 150).
edge(37, 106).
edge(108, 162).
edge(47, 139).
edge(13, 112).
edge(31, 119).
edge(6, 134).
edge(45, 125).
edge(40, 114).
edge(8, 60).
edge(79, 155).
edge(4, 61).
edge(54, 144).
edge(4, 71).
edge(2, 134).
edge(92, 153).
edge(67, 114).
edge(75, 148).
edge(106, 135).
edge(106, 138).
edge(86, 106).
edge(89, 93).
edge(82, 105).
edge(143, 150).
edge(33, 136).
edge(115, 161).
edge(20, 24).
edge(28, 85).
edge(6, 164).
edge(47, 93).
edge(71, 127).
edge(106, 109).
edge(17, 81).
edge(91, 137).
edge(17, 141).
edge(59, 103).
edge(105, 147).
edge(80, 91).
edge(12, 123).
edge(12, 65).
edge(11, 80).
edge(48, 135).
edge(0, 115).
edge(83, 112).
edge(22, 149).
edge(36, 161).
edge(56, 143).
edge(19, 113).
edge(1, 61).
edge(130, 155).
edge(4, 144).
edge(59, 151).
edge(21, 102).
edge(5, 162).
edge(111, 118).
edge(75, 164).
edge(59, 129).
edge(74, 132).
edge(3, 120).
edge(148, 158).
edge(108, 116).
edge(107, 140).
edge(150, 162).
edge(105, 107).
edge(41, 44).
edge(56, 59).
edge(95, 161).
edge(6, 118).
edge(54, 129).
edge(26, 163).
edge(19, 111).
edge(82, 99).
edge(73, 122).
edge(1, 143).
edge(45, 114).
edge(52, 152).
edge(23, 124).
edge(127, 138).
edge(0, 20).
edge(8, 89).
edge(0, 39).
edge(126, 149).
edge(84, 116).
edge(90, 148).
edge(145, 153).
edge(78, 118).
edge(105, 155).
edge(9, 105).
edge(82, 115).
edge(4, 94).
edge(66, 116).
edge(9, 117).
edge(119, 159).
edge(57, 132).
edge(26, 35).
edge(56, 83).
edge(86, 117).
edge(96, 123).
edge(74, 79).
edge(35, 124).
edge(35, 40).
edge(44, 45).
edge(55, 109).
edge(71, 147).
edge(35, 128).
edge(96, 134).
edge(0, 91).
edge(16, 50).
edge(64, 117).
edge(125, 164).
edge(85, 143).
edge(32, 86).
edge(25, 99).
edge(41, 147).
edge(42, 100).
edge(16, 129).
edge(117, 143).
edge(31, 96).
edge(70, 102).
edge(121, 124).
edge(19, 133).
edge(123, 132).
edge(134, 137).
edge(45, 76).
edge(5, 22).
edge(84, 110).
edge(8, 54).
edge(45, 129).
edge(75, 142).
edge(36, 44).
edge(3, 82).
edge(21, 84).
edge(1, 147).
edge(44, 136).
edge(13, 142).
edge(13, 160).
edge(19, 139).
edge(18, 109).
edge(21, 31).
edge(96, 156).
edge(104, 158).
edge(32, 141).
edge(41, 121).
edge(25, 135).
edge(28, 33).
edge(132, 158).
edge(123, 165).
edge(12, 32).
edge(34, 153).
edge(129, 135).
edge(60, 119).
edge(3, 99).
edge(109, 152).
edge(83, 104).
edge(84, 131).
edge(30, 122).
edge(21, 101).
edge(27, 105).
edge(34, 96).
edge(8, 111).
edge(10, 145).
edge(83, 157).
edge(46, 49).
edge(53, 163).
edge(43, 140).
edge(5, 11).
edge(15, 64).
edge(18, 81).
edge(89, 149).
edge(148, 156).
edge(20, 134).
edge(93, 156).
edge(114, 143).
edge(79, 121).
edge(63, 134).
edge(143, 145).
edge(22, 101).
edge(59, 157).
edge(20, 116).
edge(85, 111).
edge(14, 71).
edge(75, 155).
edge(48, 50).
edge(92, 93).
edge(33, 160).
edge(41, 114).
edge(62, 90).
edge(85, 87).
edge(27, 93).
edge(111, 162).
edge(86, 112).
edge(147, 162).
edge(89, 127).
edge(18, 30).
edge(51, 153).
edge(108, 128).
edge(77, 87).
edge(4, 6).
edge(21, 54).
edge(32, 87).
edge(138, 159).
edge(114, 135).
edge(29, 70).
edge(70, 153).
edge(3, 55).
edge(66, 161).
edge(34, 116).
edge(132, 139).
edge(42, 48).
edge(66, 134).
edge(9, 157).
edge(150, 153).
edge(66, 91).
edge(142, 159).
edge(43, 70).
edge(126, 132).
edge(9, 72).
edge(9, 47).
edge(6, 97).
edge(68, 151).
edge(150, 160).
edge(22, 33).
edge(38, 134).
edge(44, 51).
edge(10, 26).
edge(92, 96).
edge(27, 149).
edge(6, 52).
edge(4, 152).
edge(13, 25).
edge(61, 111).
edge(59, 95).
edge(48, 79).
edge(100, 144).
edge(29, 159).
edge(1, 126).
edge(99, 164).
edge(0, 164).
edge(11, 48).
edge(43, 101).
edge(3, 155).
edge(103, 138).
edge(65, 83).
edge(72, 163).
edge(141, 151).
edge(75, 151).
edge(39, 69).
edge(11, 85).
edge(60, 132).
edge(12, 37).
edge(53, 152).
edge(56, 109).
edge(24, 135).
edge(47, 138).
edge(12, 23).
edge(28, 105).
edge(56, 71).
edge(19, 117).
edge(70, 88).
edge(23, 85).
edge(81, 153).
edge(59, 122).
edge(29, 82).
edge(77, 110).
edge(13, 65).
edge(39, 73).
edge(38, 133).
edge(30, 37).
edge(59, 98).
edge(67, 120).
edge(68, 85).
edge(13, 94).
edge(11, 72).
edge(83, 159).
edge(61, 144).
edge(80, 164).
edge(24, 51).
edge(24, 61).
edge(108, 122).
edge(45, 126).
edge(78, 159).
edge(68, 94).
edge(110, 161).
edge(32, 116).
edge(96, 132).
edge(11, 115).
edge(139, 144).
edge(33, 46).
edge(70, 152).
edge(104, 147).
edge(33, 137).
edge(42, 118).
edge(9, 61).
edge(14, 46).
edge(38, 86).
edge(34, 47).
edge(32, 140).
edge(24, 95).
edge(98, 138).
edge(40, 78).
edge(71, 132).
edge(80, 110).
edge(4, 136).
edge(66, 70).
edge(89, 114).
edge(77, 84).
edge(66, 139).
edge(5, 14).
edge(53, 151).
edge(57, 127).
edge(85, 100).
edge(80, 89).
edge(16, 116).
edge(30, 46).
edge(36, 164).
edge(88, 154).
edge(63, 80).
edge(43, 161).
edge(19, 106).
edge(5, 152).
edge(39, 112).
edge(89, 95).
edge(81, 102).
edge(4, 53).
edge(38, 70).
edge(70, 130).
edge(90, 152).
edge(93, 163).
edge(10, 54).
edge(84, 152).
edge(116, 137).
edge(18, 35).
edge(135, 151).
edge(26, 144).
edge(2, 105).
edge(126, 159).
edge(34, 142).
edge(94, 104).
edge(10, 120).
edge(62, 124).
edge(36, 96).
edge(109, 118).
edge(12, 30).
edge(40, 42).
edge(5, 61).
edge(62, 102).
edge(127, 132).
edge(84, 149).
edge(27, 49).
edge(22, 82).
edge(16, 73).
edge(72, 156).
edge(78, 140).
edge(59, 64).
edge(5, 124).
edge(32, 74).
edge(7, 22).
edge(128, 138).
edge(97, 131).
edge(4, 95).
edge(26, 66).
edge(8, 145).
edge(85, 145).
edge(78, 106).
edge(11, 79).
edge(5, 52).
edge(36, 39).
edge(30, 104).
edge(49, 72).
edge(27, 64).
edge(13, 70).
edge(129, 138).
edge(35, 143).
edge(126, 160).
edge(68, 104).
edge(68, 144).
edge(115, 120).
edge(106, 142).
edge(63, 163).
edge(4, 45).
edge(58, 68).
edge(118, 149).
edge(18, 29).
edge(96, 161).
edge(120, 153).
edge(52, 57).
edge(109, 134).
edge(35, 93).
edge(142, 162).
edge(26, 103).
edge(67, 83).
edge(72, 94).
edge(59, 138).
edge(18, 144).
edge(49, 144).
edge(74, 157).
edge(76, 108).
edge(125, 148).
edge(86, 127).
edge(40, 141).
edge(28, 40).
edge(38, 52).
edge(0, 120).
edge(29, 33).
edge(32, 136).
edge(27, 123).
edge(106, 156).
edge(35, 140).
edge(112, 155).
edge(16, 100).
edge(67, 151).
edge(24, 116).
edge(39, 145).
edge(7, 143).
edge(140, 141).
edge(86, 115).
edge(62, 128).
edge(57, 150).
edge(74, 145).
edge(35, 108).
edge(26, 79).
edge(11, 121).
edge(32, 100).
edge(76, 156).
edge(2, 142).
edge(86, 94).
edge(98, 156).
edge(46, 137).
edge(34, 43).
edge(28, 154).
edge(17, 75).
edge(101, 119).
edge(145, 151).
edge(1, 151).
edge(91, 146).
edge(42, 83).
edge(7, 123).
edge(10, 34).
edge(12, 148).
edge(56, 132).
edge(23, 56).
edge(6, 30).
edge(9, 142).
edge(94, 134).
edge(100, 150).
edge(43, 54).
edge(23, 121).
edge(27, 33).
edge(26, 125).
edge(123, 147).
edge(121, 131).
edge(49, 159).
edge(45, 146).
edge(33, 80).
edge(45, 108).
edge(87, 114).
edge(92, 104).
edge(14, 17).
edge(122, 147).
edge(84, 120).
edge(159, 163).
edge(24, 111).
edge(33, 114).
edge(76, 131).
edge(16, 110).
edge(36, 90).
edge(55, 72).
edge(9, 108).
edge(59, 101).
edge(15, 128).
edge(99, 118).
edge(69, 103).
edge(43, 47).
edge(49, 84).
edge(125, 139).
edge(148, 160).
edge(116, 128).
edge(86, 131).
edge(16, 30).
edge(9, 131).
edge(44, 52).
edge(14, 65).
edge(50, 62).
edge(48, 100).
edge(0, 78).
edge(89, 111).
edge(72, 133).
edge(38, 68).
edge(144, 164).
edge(79, 124).
edge(107, 136).
edge(39, 85).
edge(22, 65).
edge(40, 130).
edge(4, 64).
edge(106, 144).
edge(69, 120).
edge(87, 121).
edge(103, 127).
edge(56, 148).
edge(7, 47).
edge(38, 77).
edge(17, 99).
edge(19, 112).
edge(44, 86).
edge(55, 147).
edge(36, 137).
edge(82, 94).
edge(115, 139).
edge(23, 162).
edge(11, 104).
edge(17, 88).
edge(139, 162).
edge(102, 115).
edge(85, 116).
edge(114, 136).
edge(0, 33).
edge(8, 64).
edge(98, 135).
edge(6, 61).
edge(45, 155).
edge(121, 125).
edge(91, 110).
edge(0, 82).
edge(19, 80).
edge(117, 142).
edge(21, 117).
edge(53, 83).
edge(34, 70).
edge(42, 72).
edge(95, 110).
edge(9, 48).
edge(105, 136).
edge(22, 55).
edge(112, 157).
edge(16, 23).
edge(37, 132).
edge(8, 121).
edge(35, 158).
edge(82, 148).
edge(85, 161).
edge(126, 143).
edge(62, 76).
edge(9, 113).
edge(15, 144).
edge(89, 92).
edge(122, 130).
edge(75, 79).
edge(13, 147).
edge(52, 62).
edge(11, 55).
edge(104, 119).
edge(79, 138).
edge(50, 143).
edge(44, 133).
edge(37, 57).
edge(29, 73).
edge(51, 112).
edge(99, 141).
edge(71, 146).
edge(2, 149).
edge(30, 129).
edge(104, 164).
edge(4, 41).
edge(10, 66).
edge(133, 141).
edge(97, 108).
edge(70, 108).
edge(27, 135).
edge(108, 110).
edge(14, 150).
edge(78, 107).
edge(9, 74).
edge(10, 23).
edge(1, 118).
edge(6, 62).
edge(75, 108).
edge(32, 123).
edge(88, 128).
edge(98, 162).
edge(49, 132).
edge(50, 138).
edge(40, 73).
edge(3, 137).
edge(3, 17).
edge(1, 52).
edge(84, 92).
edge(90, 165).
edge(99, 147).
edge(19, 79).
edge(90, 111).
edge(115, 144).
edge(53, 121).
edge(0, 83).
edge(75, 122).
edge(76, 116).
edge(61, 109).
edge(56, 103).
edge(79, 117).
edge(130, 151).
edge(60, 77).
edge(84, 164).
edge(121, 141).
edge(28, 50).
edge(21, 135).
edge(74, 108).
edge(16, 148).
edge(10, 33).
edge(123, 153).
edge(4, 116).
edge(38, 161).
edge(66, 119).
edge(13, 51).
edge(27, 78).
edge(12, 135).
edge(80, 146).
edge(99, 157).
edge(82, 113).
edge(5, 39).
edge(79, 97).
edge(112, 143).
edge(38, 154).
edge(90, 132).
edge(51, 149).
edge(71, 106).
edge(14, 25).
edge(11, 77).
edge(44, 123).
edge(12, 13).
edge(44, 129).
edge(80, 160).
edge(71, 160).
edge(82, 143).
edge(9, 154).
edge(112, 164).
edge(69, 141).
edge(83, 127).
edge(15, 96).
edge(53, 112).
edge(55, 150).
edge(16, 132).
edge(69, 118).
edge(23, 75).
edge(2, 96).
edge(2, 93).
edge(57, 143).
edge(84, 141).
edge(36, 67).
edge(20, 26).
edge(28, 97).
edge(60, 165).
edge(7, 137).
edge(156, 163).
edge(121, 134).
edge(81, 119).
edge(39, 92).
edge(14, 60).
edge(43, 61).
edge(80, 106).
edge(101, 106).
edge(115, 164).
edge(33, 92).
edge(41, 89).
edge(73, 76).
edge(6, 13).
edge(57, 102).
edge(144, 160).
edge(17, 90).
edge(82, 138).
edge(105, 148).
edge(23, 105).
edge(38, 106).
edge(3, 75).
edge(116, 151).
edge(159, 164).
edge(104, 146).
edge(64, 128).
edge(13, 164).
edge(25, 28).
edge(138, 161).
edge(101, 163).
edge(30, 31).
edge(56, 73).
edge(54, 71).
edge(82, 144).
edge(104, 131).
edge(121, 139).
edge(110, 154).
edge(27, 136).
edge(78, 113).
edge(89, 133).
edge(134, 135).
edge(3, 46).
edge(57, 112).
edge(16, 123).
edge(9, 115).
edge(24, 96).
edge(27, 153).
edge(7, 59).
edge(131, 156).
edge(124, 145).
edge(51, 100).
edge(50, 133).
edge(137, 141).
edge(86, 143).
edge(41, 131).
edge(35, 62).
edge(19, 151).
edge(20, 125).
edge(45, 122).
edge(59, 125).
edge(65, 72).
edge(65, 150).
edge(23, 44).
edge(134, 152).
edge(35, 81).
edge(70, 136).
edge(37, 116).
edge(37, 110).
edge(83, 93).
edge(43, 157).
edge(81, 164).
edge(90, 96).
edge(32, 102).
edge(76, 152).
edge(58, 70).
edge(15, 39).
edge(77, 135).
edge(59, 126).
edge(36, 113).
edge(123, 139).
edge(31, 144).
edge(48, 72).
edge(5, 9).
edge(26, 129).
edge(116, 133).
edge(27, 83).
edge(46, 70).
edge(111, 128).
edge(16, 141).
edge(41, 66).
edge(42, 156).
edge(7, 9).
edge(17, 128).
edge(5, 72).
edge(21, 125).
edge(1, 58).
edge(126, 127).
edge(25, 118).
edge(76, 165).
edge(104, 159).
edge(24, 136).
edge(23, 48).
edge(17, 56).
edge(8, 15).
edge(30, 146).
edge(105, 149).
edge(37, 164).
edge(15, 69).
edge(76, 118).
edge(11, 158).
edge(37, 66).
edge(11, 14).
edge(51, 155).
edge(4, 39).
edge(31, 46).
edge(7, 18).
edge(68, 72).
edge(88, 155).
edge(73, 137).
edge(38, 121).
edge(80, 153).
edge(67, 125).
edge(34, 99).
edge(70, 101).
edge(61, 112).
edge(61, 80).
edge(13, 136).
edge(4, 157).
edge(33, 98).
edge(19, 148).
edge(82, 139).
edge(46, 79).
edge(25, 151).
edge(41, 109).
edge(74, 93).
edge(10, 123).
edge(18, 39).
edge(57, 99).
edge(136, 138).
edge(115, 153).
edge(85, 151).
edge(15, 91).
edge(50, 163).
edge(58, 115).
edge(67, 155).
edge(73, 117).
edge(9, 146).
edge(46, 55).
edge(50, 99).
edge(63, 161).
edge(36, 70).
edge(110, 131).
edge(127, 163).
edge(27, 44).
edge(97, 146).
edge(132, 162).
edge(126, 151).
edge(68, 69).
edge(22, 113).
edge(24, 38).
edge(114, 164).
edge(6, 162).
edge(37, 65).
edge(115, 123).
edge(13, 78).
edge(96, 117).
edge(23, 137).
edge(15, 127).
edge(56, 119).
edge(2, 44).
edge(48, 87).
edge(51, 95).
edge(101, 148).
edge(118, 133).
edge(101, 138).
edge(31, 111).
edge(58, 109).
edge(99, 111).
edge(85, 163).
edge(48, 115).
edge(51, 113).
edge(115, 122).
edge(12, 115).
edge(12, 105).
edge(45, 96).
edge(87, 118).
edge(55, 164).
edge(118, 141).
edge(74, 109).
edge(78, 121).
edge(28, 65).
edge(70, 159).
edge(49, 106).
edge(47, 136).
edge(7, 51).
edge(13, 109).
edge(13, 64).
edge(10, 102).
edge(75, 87).
edge(64, 113).
edge(99, 160).
edge(51, 120).
edge(78, 154).
edge(9, 50).
edge(35, 129).
edge(111, 114).
edge(61, 100).
edge(120, 121).
edge(51, 83).
edge(81, 133).
edge(38, 137).
edge(100, 135).
edge(124, 144).
edge(86, 130).
edge(126, 155).
edge(3, 108).
edge(83, 124).
edge(69, 155).
edge(19, 120).
edge(29, 115).
edge(47, 100).
edge(38, 141).
edge(1, 133).
edge(29, 40).
edge(107, 161).
edge(127, 153).
edge(13, 76).
edge(19, 55).
edge(120, 150).
edge(57, 122).
edge(46, 130).
edge(38, 110).
edge(81, 160).
edge(134, 144).
edge(59, 60).
edge(30, 148).
edge(110, 142).
edge(28, 92).
edge(29, 149).
edge(28, 106).
edge(99, 119).
edge(17, 18).
edge(91, 156).
edge(108, 158).
edge(21, 161).
edge(62, 86).
edge(18, 49).
edge(11, 13).
edge(64, 157).
edge(4, 8).
edge(4, 93).
edge(6, 111).
edge(62, 129).
edge(8, 91).
edge(88, 96).
edge(43, 95).
edge(54, 72).
edge(33, 138).
edge(75, 98).
edge(75, 133).
edge(62, 82).
edge(10, 45).
edge(96, 155).
edge(154, 156).
edge(47, 109).
edge(118, 151).
edge(105, 125).
edge(143, 155).
edge(53, 138).
edge(24, 125).
edge(11, 150).
edge(8, 47).
edge(123, 163).
edge(20, 137).
edge(4, 142).
edge(71, 140).
edge(31, 79).
edge(121, 147).
edge(49, 64).
edge(54, 92).
edge(106, 154).
edge(84, 112).
edge(52, 149).
edge(20, 150).
edge(25, 84).
edge(19, 82).
edge(55, 86).
edge(2, 122).
edge(95, 103).
edge(13, 117).
edge(42, 44).
edge(16, 154).
edge(11, 151).
edge(43, 143).
edge(72, 119).
edge(96, 148).
edge(33, 139).
edge(23, 96).
edge(47, 94).
edge(132, 154).
edge(80, 133).
edge(25, 119).
edge(57, 134).
edge(69, 113).
edge(84, 123).
edge(144, 151).
edge(71, 75).
edge(0, 42).
edge(18, 113).
edge(107, 133).
edge(62, 93).
edge(73, 163).
edge(91, 94).
edge(74, 80).
edge(103, 148).
edge(22, 151).
edge(107, 139).
edge(29, 157).
edge(27, 28).
edge(101, 116).
edge(139, 155).
edge(43, 133).
edge(133, 136).
edge(88, 138).
edge(65, 138).
edge(130, 157).
edge(10, 72).
edge(110, 128).
edge(58, 80).
edge(53, 128).
edge(70, 93).
edge(8, 93).
edge(20, 94).
edge(61, 128).
edge(145, 148).
edge(31, 83).
edge(116, 119).
edge(152, 159).
edge(67, 129).
edge(31, 115).
edge(12, 137).
edge(15, 118).
edge(5, 163).
edge(12, 151).
edge(0, 8).
edge(68, 121).
edge(4, 29).
edge(27, 161).
edge(91, 100).
edge(13, 63).
edge(84, 107).
edge(99, 103).
edge(18, 104).
edge(53, 118).
edge(78, 115).
edge(3, 144).
edge(76, 151).
edge(26, 57).
edge(90, 94).
edge(129, 164).
edge(3, 113).
edge(62, 95).
edge(17, 49).
edge(64, 82).
edge(52, 91).
edge(19, 150).
edge(102, 164).
edge(47, 141).
edge(98, 141).
edge(83, 146).
edge(29, 112).
edge(44, 103).
edge(115, 118).
edge(11, 157).
edge(15, 17).
edge(47, 140).
edge(75, 141).
edge(10, 148).
edge(30, 68).
edge(21, 128).
edge(32, 150).
edge(27, 79).
edge(56, 139).
edge(8, 115).
edge(92, 112).
edge(88, 129).
edge(4, 28).
edge(9, 69).
edge(24, 35).
edge(85, 91).
edge(123, 161).
edge(10, 15).
edge(89, 124).
edge(92, 102).
edge(16, 41).
edge(10, 92).
edge(62, 88).
edge(50, 119).
edge(114, 138).
edge(3, 71).
edge(2, 156).
edge(14, 15).
edge(41, 159).
edge(76, 78).
edge(126, 148).
edge(140, 156).
edge(118, 163).
edge(22, 58).
edge(17, 159).
edge(63, 160).
edge(102, 107).
edge(156, 160).
edge(2, 131).
edge(11, 124).
edge(48, 83).
edge(55, 74).
edge(28, 82).
edge(5, 26).
edge(25, 156).
edge(36, 123).
edge(46, 151).
edge(107, 112).
edge(36, 73).
edge(8, 57).
edge(36, 158).
edge(18, 108).
edge(17, 157).
edge(81, 116).
edge(47, 55).
edge(62, 121).
edge(87, 161).
edge(5, 34).
edge(19, 125).
edge(84, 102).
edge(107, 126).
edge(46, 106).
edge(14, 33).
edge(46, 162).
edge(60, 99).
edge(61, 82).
edge(65, 128).
edge(2, 132).
edge(14, 48).
edge(133, 160).
edge(11, 127).
edge(67, 140).
edge(4, 34).
edge(30, 72).
edge(43, 67).
edge(72, 147).
edge(22, 52).
edge(54, 155).
edge(2, 20).
edge(98, 164).
edge(37, 104).
edge(124, 126).
edge(15, 105).
edge(43, 104).
edge(18, 145).
edge(1, 3).
edge(19, 165).
edge(79, 80).
edge(14, 131).
edge(157, 158).
edge(3, 159).
edge(5, 82).
edge(113, 161).
edge(23, 165).
edge(68, 139).
edge(59, 121).
edge(101, 155).
edge(51, 161).
edge(38, 56).
edge(49, 90).
edge(86, 110).
edge(5, 63).
edge(100, 101).
edge(70, 111).
edge(86, 156).
edge(36, 75).
edge(22, 136).
edge(56, 67).
edge(23, 158).
edge(113, 119).
edge(31, 55).
edge(49, 101).
edge(100, 156).
edge(25, 93).
edge(86, 99).
edge(19, 22).
edge(20, 92).
edge(102, 146).
edge(75, 131).
edge(104, 106).
edge(126, 134).
edge(24, 33).
edge(96, 119).
edge(81, 89).
edge(22, 94).
edge(97, 133).
edge(37, 122).
edge(64, 114).
edge(59, 154).
edge(11, 45).
edge(50, 57).
edge(7, 139).
edge(20, 159).
edge(83, 158).
edge(20, 35).
edge(123, 156).
edge(12, 18).
edge(116, 120).
edge(19, 69).
edge(41, 153).
edge(26, 85).
edge(15, 123).
edge(82, 98).
edge(101, 159).
edge(42, 82).
edge(37, 85).
edge(18, 85).
edge(38, 157).
edge(39, 153).
edge(85, 147).
edge(95, 104).
edge(39, 150).
edge(126, 153).
edge(30, 130).
edge(137, 148).
edge(8, 96).
edge(26, 53).
edge(125, 151).
edge(63, 113).
edge(49, 157).
edge(65, 121).
edge(13, 100).
edge(25, 95).
edge(88, 119).
edge(101, 133).
edge(127, 129).
edge(56, 64).
edge(113, 164).
edge(45, 63).
edge(2, 106).
edge(21, 103).
edge(83, 142).
edge(41, 67).
edge(18, 115).
edge(5, 159).
edge(124, 131).
edge(39, 118).
edge(84, 118).
edge(93, 112).
edge(56, 95).
edge(40, 46).
edge(36, 142).
edge(95, 121).
edge(36, 52).
edge(23, 154).
edge(64, 105).
edge(97, 99).
edge(91, 139).
edge(85, 114).
edge(93, 154).
edge(13, 24).
edge(75, 147).
edge(51, 148).
edge(13, 57).
edge(34, 163).
edge(60, 69).
edge(160, 161).
edge(11, 19).
edge(61, 84).
edge(129, 134).
edge(68, 123).
edge(61, 95).
edge(66, 79).
edge(36, 140).
edge(23, 86).
edge(3, 157).
edge(27, 42).
edge(55, 136).
edge(120, 148).
edge(143, 165).
edge(10, 30).
edge(103, 163).
edge(9, 79).
edge(90, 159).
edge(2, 25).
edge(15, 44).
edge(35, 39).
edge(22, 68).
edge(60, 153).
edge(19, 34).
edge(93, 125).
edge(10, 127).
edge(63, 139).
edge(146, 158).
edge(55, 71).
edge(49, 61).
edge(18, 102).
edge(41, 59).
edge(23, 161).
edge(50, 81).
edge(11, 50).
edge(92, 119).
edge(82, 130).
edge(52, 158).
edge(16, 42).
edge(33, 147).
edge(145, 150).
edge(23, 95).
edge(16, 119).
edge(29, 45).
edge(129, 149).
edge(120, 136).
edge(20, 50).
edge(47, 104).
edge(21, 93).
edge(38, 94).
edge(10, 144).
edge(54, 81).
edge(20, 49).
edge(23, 153).
edge(104, 132).
edge(4, 104).
edge(4, 155).
edge(111, 149).
edge(42, 56).
edge(6, 158).
edge(12, 78).
edge(76, 147).
edge(35, 117).
edge(133, 148).
edge(12, 49).
edge(92, 101).
edge(107, 144).
edge(35, 142).
edge(60, 128).
edge(58, 101).
edge(56, 135).
edge(29, 152).
edge(26, 118).
edge(45, 152).
edge(49, 156).
edge(38, 164).
edge(4, 76).
edge(30, 132).
edge(23, 117).
edge(97, 120).
edge(86, 157).
edge(36, 93).
edge(27, 52).
edge(73, 79).
edge(67, 142).
edge(7, 90).
edge(54, 142).
edge(12, 152).
edge(77, 118).
edge(69, 125).
edge(94, 148).
edge(2, 143).
edge(16, 97).
edge(22, 139).
edge(57, 114).
edge(21, 126).
edge(36, 69).
edge(136, 162).
edge(123, 129).
edge(15, 60).
edge(20, 126).
edge(81, 85).
edge(44, 90).
edge(65, 89).
edge(33, 75).
edge(23, 78).
edge(90, 120).
edge(28, 81).
edge(68, 143).
edge(104, 134).
edge(144, 152).
edge(23, 143).
edge(4, 101).
edge(35, 84).
edge(44, 99).
edge(4, 153).
edge(49, 82).
edge(30, 95).
edge(82, 142).
edge(18, 162).
edge(61, 69).
edge(38, 148).
edge(44, 73).
edge(102, 103).
edge(83, 118).
edge(93, 161).
edge(35, 163).
edge(142, 144).
edge(109, 115).
edge(59, 148).
edge(61, 105).
edge(17, 26).
edge(30, 100).
edge(24, 67).
edge(7, 48).
edge(38, 127).
edge(37, 62).
edge(19, 129).
edge(11, 132).
edge(139, 164).
edge(7, 36).
edge(20, 43).
edge(15, 59).
edge(75, 86).
edge(21, 74).
edge(10, 109).
edge(52, 68).
edge(72, 96).
edge(121, 130).
edge(16, 48).
edge(28, 41).
edge(26, 62).
edge(26, 124).
edge(14, 149).
edge(28, 146).
edge(37, 89).
edge(124, 159).
edge(91, 132).
edge(43, 60).
edge(17, 82).
edge(109, 164).
edge(121, 160).
edge(79, 152).
edge(40, 43).
edge(28, 109).
edge(23, 146).
edge(30, 142).
edge(83, 117).
edge(127, 135).
edge(107, 124).
edge(41, 156).
edge(127, 146).
edge(61, 152).
edge(132, 137).
edge(45, 149).
edge(77, 98).
edge(90, 91).
edge(2, 57).
edge(32, 143).
edge(85, 156).
edge(30, 125).
edge(56, 101).
edge(53, 165).
edge(52, 76).
edge(0, 64).
edge(88, 156).
edge(51, 80).
edge(74, 96).
edge(131, 155).
edge(17, 47).
edge(86, 161).
edge(141, 159).
edge(7, 124).
edge(3, 31).
edge(5, 42).
edge(53, 114).
edge(90, 143).
edge(0, 109).
edge(96, 113).
edge(35, 68).
edge(25, 89).
edge(66, 133).
edge(70, 91).
edge(7, 132).
edge(151, 158).
edge(28, 148).
edge(18, 121).
edge(13, 137).
edge(55, 65).
edge(73, 85).
edge(21, 73).
edge(123, 127).
edge(134, 149).
edge(64, 141).
edge(42, 61).
edge(24, 123).
edge(98, 159).
edge(21, 91).
edge(51, 114).
edge(70, 80).
edge(67, 149).
edge(132, 149).
edge(64, 126).
edge(106, 121).
edge(57, 65).
edge(56, 110).
edge(117, 121).
edge(97, 129).
edge(132, 152).
edge(83, 162).
edge(41, 61).
edge(46, 165).
edge(155, 165).
edge(53, 108).
edge(36, 138).
edge(1, 7).
edge(61, 74).
edge(69, 128).
edge(74, 115).
edge(61, 156).
edge(26, 27).
edge(137, 154).
edge(0, 35).
edge(23, 76).
edge(65, 99).
edge(10, 132).
edge(50, 144).
edge(93, 148).
edge(8, 86).
edge(81, 87).
edge(25, 38).
edge(54, 57).
edge(9, 11).
edge(22, 66).
edge(40, 61).
edge(70, 95).
edge(74, 138).
edge(75, 163).
edge(57, 153).
edge(62, 161).
edge(122, 142).
edge(127, 139).
edge(41, 128).
edge(14, 98).
edge(25, 154).
edge(4, 98).
edge(83, 110).
edge(28, 60).
edge(80, 102).
edge(43, 69).
edge(57, 145).
edge(121, 132).
edge(10, 163).
edge(58, 121).
edge(54, 153).
edge(86, 137).
edge(11, 130).
edge(94, 142).
edge(32, 112).
edge(6, 140).
edge(69, 137).
edge(54, 156).
edge(96, 116).
edge(40, 54).
edge(87, 126).
edge(144, 155).
edge(79, 123).
edge(43, 105).
edge(0, 146).
edge(70, 133).
edge(28, 107).
edge(81, 129).
edge(18, 159).
edge(36, 91).
edge(31, 50).
edge(76, 88).
edge(7, 57).
edge(101, 137).
edge(123, 162).
edge(90, 156).
edge(73, 84).
edge(9, 153).
edge(61, 117).
edge(10, 84).
edge(127, 131).
edge(94, 156).
edge(78, 149).
edge(17, 59).
edge(2, 159).
edge(32, 59).
edge(42, 146).
edge(37, 156).
edge(22, 99).
edge(37, 82).
edge(123, 152).
edge(63, 130).
edge(2, 104).
edge(110, 152).
edge(94, 152).
edge(41, 139).
edge(75, 152).
edge(70, 86).
edge(49, 62).
edge(105, 142).
edge(85, 162).
edge(24, 132).
edge(111, 113).
edge(60, 150).
edge(56, 80).
edge(14, 53).
edge(22, 143).
edge(58, 160).
edge(29, 128).
edge(46, 144).
edge(115, 129).
edge(81, 161).
edge(46, 104).
edge(13, 72).
edge(81, 134).
edge(79, 148).
edge(86, 103).
edge(52, 140).
edge(35, 138).
edge(71, 156).
edge(147, 155).
edge(155, 156).
edge(47, 132).
edge(47, 105).
edge(120, 134).
edge(33, 142).
edge(104, 126).
edge(14, 35).
edge(126, 139).
edge(31, 47).
edge(158, 165).
edge(80, 129).
edge(69, 74).
edge(136, 147).
edge(15, 106).
edge(14, 47).
edge(114, 142).
edge(5, 49).
edge(25, 74).
edge(3, 64).
edge(40, 154).
edge(26, 60).
edge(40, 75).
edge(67, 86).
edge(82, 117).
edge(21, 57).
edge(88, 150).
edge(78, 148).
edge(45, 93).
edge(100, 105).
edge(126, 165).
edge(98, 109).
edge(90, 162).
edge(7, 149).
edge(65, 142).
edge(43, 120).
edge(2, 19).
edge(18, 83).
edge(40, 96).
edge(6, 33).
edge(120, 158).
edge(39, 48).
edge(10, 87).
edge(98, 149).
edge(49, 121).
edge(42, 81).
edge(4, 149).
edge(34, 82).
edge(46, 116).
edge(0, 131).
edge(78, 91).
edge(26, 136).
edge(49, 70).
edge(50, 134).
edge(124, 125).
edge(116, 136).
edge(16, 135).
edge(144, 148).
edge(0, 56).
edge(61, 62).
edge(103, 150).
edge(13, 26).
edge(78, 120).
edge(22, 87).
edge(7, 34).
edge(122, 127).
edge(91, 158).
edge(44, 117).
edge(8, 128).
edge(104, 156).
edge(36, 56).
edge(13, 130).
edge(65, 154).
edge(52, 66).
edge(85, 153).
edge(23, 63).
edge(30, 90).
edge(33, 130).
edge(87, 125).
edge(111, 131).
edge(60, 142).
edge(82, 154).
edge(70, 137).
edge(8, 50).
edge(125, 165).
edge(66, 120).
edge(117, 131).
edge(122, 135).
edge(83, 152).
edge(31, 136).
edge(59, 117).
edge(24, 155).
edge(47, 149).
edge(2, 50).
edge(76, 82).
edge(9, 110).
edge(91, 163).
edge(41, 83).
edge(118, 126).
edge(31, 164).
edge(17, 28).
edge(0, 14).
edge(126, 163).
edge(29, 109).
edge(83, 111).
edge(92, 132).
edge(45, 50).
edge(16, 39).
edge(22, 91).
edge(20, 74).
edge(28, 164).
edge(18, 149).
edge(12, 53).
edge(88, 130).
edge(100, 118).
edge(133, 137).
edge(20, 151).
edge(7, 66).
edge(58, 136).
edge(40, 163).
edge(116, 159).
edge(96, 102).
edge(15, 136).
edge(138, 145).
edge(21, 52).
edge(103, 136).
edge(127, 147).
edge(52, 101).
edge(2, 101).
edge(101, 151).
edge(103, 164).
edge(7, 161).
edge(10, 149).
edge(112, 162).
edge(0, 36).
edge(13, 98).
edge(67, 103).
edge(114, 130).
edge(17, 137).
edge(59, 90).
edge(84, 93).
edge(61, 131).
edge(45, 67).
edge(12, 144).
edge(97, 112).
edge(63, 106).
edge(130, 156).
edge(104, 154).
edge(23, 116).
edge(49, 111).
edge(56, 138).
edge(128, 139).
edge(36, 116).
edge(27, 117).
edge(35, 66).
edge(33, 84).
edge(14, 42).
edge(70, 162).
edge(94, 103).
edge(14, 99).
edge(114, 145).
edge(61, 63).
edge(81, 132).
edge(152, 164).
edge(16, 112).
edge(23, 126).
edge(62, 143).
edge(40, 93).
edge(28, 56).
edge(5, 25).
edge(106, 160).
edge(75, 146).
edge(41, 103).
edge(120, 123).
edge(12, 19).
edge(68, 118).
edge(101, 149).
edge(133, 164).
edge(116, 118).
edge(3, 101).
edge(7, 115).
edge(16, 133).
edge(92, 126).
edge(10, 143).
edge(18, 127).
edge(125, 140).
edge(110, 136).
edge(51, 150).
edge(14, 156).
edge(14, 116).
edge(74, 90).
edge(83, 137).
edge(24, 161).
edge(37, 49).
edge(38, 113).
edge(152, 165).
edge(99, 128).
edge(128, 145).
edge(63, 155).
edge(28, 122).
edge(75, 93).
edge(130, 131).
edge(98, 144).
edge(21, 127).
edge(11, 12).
edge(79, 111).
edge(60, 76).
edge(8, 71).
edge(45, 89).
edge(3, 162).
edge(33, 101).
edge(120, 149).
edge(1, 31).
edge(118, 147).
edge(57, 165).
edge(15, 129).
edge(44, 88).
edge(116, 121).
edge(33, 135).
edge(24, 36).
edge(16, 47).
edge(3, 142).
edge(36, 121).
edge(10, 101).
edge(2, 76).
edge(27, 143).
edge(24, 90).
edge(55, 104).
edge(87, 93).
edge(90, 122).
edge(80, 145).
edge(20, 67).
edge(87, 144).
edge(56, 164).
edge(6, 155).
edge(16, 71).
edge(68, 128).
edge(72, 152).
edge(7, 41).
edge(8, 98).
edge(20, 107).
edge(61, 102).
edge(0, 89).
edge(98, 130).
edge(83, 96).
edge(113, 118).
edge(122, 145).
edge(13, 34).
edge(13, 102).
edge(16, 27).
edge(4, 73).
edge(121, 164).
edge(129, 155).
edge(35, 147).
edge(123, 150).
edge(44, 110).
edge(41, 84).
edge(62, 141).
edge(101, 108).
edge(68, 155).
edge(135, 144).
edge(76, 91).
edge(45, 137).
edge(36, 85).
edge(39, 142).
edge(50, 122).
edge(17, 145).
edge(127, 162).
edge(18, 129).
edge(60, 157).
edge(118, 120).
edge(42, 50).
edge(111, 165).
edge(28, 116).
edge(30, 103).
edge(25, 98).
edge(157, 164).
edge(92, 106).
edge(145, 146).
edge(103, 145).
edge(121, 126).
edge(19, 77).
edge(10, 12).
edge(52, 116).
edge(48, 56).
edge(118, 144).
edge(22, 123).
edge(21, 53).
edge(135, 157).
edge(6, 107).
edge(37, 136).
edge(7, 108).
edge(121, 129).
edge(20, 46).
edge(11, 56).
edge(70, 126).
edge(18, 132).
edge(28, 35).
edge(94, 151).
edge(46, 99).
edge(36, 37).
edge(18, 66).
edge(30, 92).
edge(18, 60).
edge(18, 164).
edge(15, 63).
edge(37, 150).
edge(15, 107).
edge(61, 146).
edge(90, 99).
edge(26, 127).
edge(109, 135).
edge(7, 53).
edge(1, 141).
edge(123, 135).
edge(50, 82).
edge(36, 45).
edge(9, 78).
edge(119, 157).
edge(21, 39).
edge(70, 113).
edge(110, 140).
edge(44, 94).
edge(125, 141).
edge(20, 66).
edge(7, 146).
edge(34, 136).
edge(80, 88).
edge(155, 160).
edge(91, 143).
edge(70, 92).
edge(104, 135).
edge(22, 51).
edge(81, 90).
edge(2, 36).
edge(43, 118).
edge(113, 157).
edge(11, 16).
edge(35, 69).
edge(35, 97).
edge(4, 106).
edge(12, 139).
edge(25, 81).
edge(35, 50).
edge(97, 123).
edge(101, 162).
edge(24, 106).
edge(32, 35).
edge(46, 81).
edge(26, 31).
edge(48, 73).
edge(72, 145).
edge(39, 151).
edge(104, 155).
edge(48, 90).
edge(85, 94).
edge(46, 68).
edge(46, 146).
edge(77, 129).
edge(55, 106).
edge(19, 64).
edge(59, 104).
edge(72, 116).
edge(126, 154).
edge(3, 70).
edge(11, 136).
edge(37, 130).
edge(21, 150).
edge(75, 107).
edge(64, 93).
edge(24, 126).
edge(52, 155).
edge(53, 148).
edge(46, 89).
edge(37, 108).
edge(15, 150).
edge(89, 115).
edge(0, 13).
edge(92, 115).
edge(39, 141).
edge(46, 155).
edge(61, 91).
edge(93, 124).
edge(14, 126).
edge(34, 76).
edge(19, 84).
edge(25, 34).
edge(15, 90).
edge(19, 144).
edge(15, 31).
edge(29, 90).
edge(0, 62).
edge(79, 150).
edge(2, 54).
edge(56, 160).
edge(50, 97).
edge(60, 66).
edge(94, 133).
edge(37, 154).
edge(53, 124).
edge(26, 36).
edge(5, 119).
edge(3, 16).
edge(7, 105).
edge(46, 133).
edge(61, 98).
edge(20, 98).
edge(53, 120).
edge(101, 141).
edge(141, 144).
edge(64, 153).
edge(51, 117).
edge(66, 90).
edge(32, 142).
edge(71, 112).
edge(0, 96).
edge(102, 156).
edge(13, 108).
edge(99, 114).
edge(30, 93).
edge(72, 78).
edge(2, 126).
edge(106, 164).
edge(0, 88).
edge(45, 136).
edge(104, 120).
edge(17, 119).
edge(48, 120).
edge(14, 162).
edge(99, 154).
edge(151, 157).
edge(58, 106).
edge(68, 157).
edge(45, 140).
edge(20, 89).
edge(21, 26).
edge(61, 77).
edge(90, 110).
edge(43, 116).
edge(41, 117).
edge(34, 148).
edge(10, 129).
edge(45, 60).
edge(144, 146).
edge(6, 103).
edge(14, 147).
edge(21, 56).
edge(6, 129).
edge(20, 55).
edge(43, 113).
edge(9, 161).
edge(28, 159).
edge(108, 164).
edge(125, 161).
edge(156, 158).
edge(39, 136).
edge(78, 112).
edge(34, 77).
edge(31, 71).
edge(10, 117).
edge(75, 154).
edge(0, 77).
edge(12, 33).
edge(2, 41).
edge(35, 53).
edge(88, 114).
edge(7, 62).
edge(124, 156).
edge(112, 127).
edge(74, 91).
edge(39, 59).
edge(96, 152).
edge(78, 96).
edge(30, 97).
edge(70, 103).
edge(10, 25).
edge(16, 91).
edge(63, 85).
edge(40, 161).
edge(63, 143).
edge(81, 162).
edge(64, 149).
edge(39, 44).
edge(53, 142).
edge(49, 68).
edge(55, 120).
edge(7, 93).
edge(53, 113).
edge(62, 87).
edge(32, 124).
edge(129, 157).
edge(0, 106).
edge(9, 28).
edge(57, 129).
edge(19, 134).
edge(33, 165).
edge(87, 113).
edge(109, 116).
edge(65, 131).
edge(143, 160).
edge(99, 124).
edge(27, 160).
edge(87, 141).
edge(27, 131).
edge(132, 151).
edge(9, 164).
edge(111, 121).
edge(102, 133).
edge(17, 162).
edge(0, 129).
edge(90, 98).
edge(7, 49).
edge(6, 138).
edge(105, 119).
edge(22, 57).
edge(7, 21).
edge(114, 118).
edge(69, 79).
edge(114, 126).
edge(31, 37).
edge(79, 89).
edge(98, 121).
edge(34, 126).
edge(42, 135).
edge(19, 116).
edge(83, 156).
edge(2, 67).
edge(25, 32).
edge(68, 91).
edge(1, 82).
edge(46, 131).
edge(12, 100).
edge(67, 85).
edge(32, 67).
edge(46, 82).
edge(110, 148).
edge(71, 81).
edge(28, 48).
edge(54, 160).
edge(114, 117).
edge(57, 101).
edge(99, 145).
edge(70, 138).
edge(39, 97).
edge(9, 144).
edge(13, 149).
edge(122, 151).
edge(33, 79).
edge(73, 159).
edge(128, 154).
edge(147, 164).
edge(27, 75).
edge(37, 83).
edge(91, 105).
edge(68, 90).
edge(113, 147).
edge(55, 137).
edge(60, 140).
edge(55, 101).
edge(6, 104).
edge(4, 7).
edge(2, 128).
edge(78, 97).
edge(6, 23).
edge(63, 126).
edge(119, 162).
edge(7, 83).
edge(52, 71).
edge(35, 52).
edge(6, 58).
edge(8, 40).
edge(15, 116).
edge(60, 131).
edge(11, 28).
edge(0, 23).
edge(34, 149).
edge(95, 148).
edge(22, 109).
edge(55, 95).
edge(72, 138).
edge(86, 93).
edge(79, 164).
edge(42, 157).
edge(93, 126).
edge(19, 142).
edge(19, 131).
edge(34, 84).
edge(116, 122).
edge(113, 126).
edge(48, 164).
edge(10, 16).
edge(31, 72).
edge(24, 25).
edge(134, 153).
edge(72, 131).
edge(50, 152).
edge(57, 125).
edge(62, 136).
edge(17, 36).
edge(59, 139).
edge(55, 68).
edge(57, 91).
edge(133, 147).
edge(56, 127).
edge(93, 130).
edge(59, 84).
edge(31, 118).
edge(38, 64).
edge(33, 44).
edge(139, 143).
edge(111, 130).
edge(116, 156).
edge(43, 75).
edge(24, 144).
edge(46, 157).
edge(96, 109).
edge(104, 149).
edge(55, 69).
edge(109, 112).
edge(132, 146).
edge(1, 22).
edge(119, 140).
edge(87, 146).
edge(0, 161).
edge(33, 116).
edge(17, 57).
edge(31, 106).
edge(19, 122).
edge(44, 67).
edge(17, 140).
edge(76, 93).
edge(31, 64).
edge(16, 103).
edge(33, 68).
edge(25, 161).
edge(41, 115).
edge(33, 90).
edge(6, 18).
edge(4, 90).
edge(73, 97).
edge(43, 57).
edge(83, 136).
edge(39, 104).
edge(123, 130).
edge(42, 43).
edge(80, 103).
edge(68, 140).
edge(33, 40).
edge(47, 165).
edge(6, 12).
edge(16, 140).
edge(99, 161).
edge(85, 102).
edge(88, 115).
edge(74, 152).
edge(102, 106).
edge(36, 128).
edge(9, 120).
edge(82, 104).
edge(31, 84).
edge(117, 160).
edge(77, 80).
edge(38, 123).
edge(117, 154).
edge(12, 90).
edge(155, 159).
edge(26, 64).
edge(29, 58).
edge(53, 164).
edge(30, 118).
edge(24, 112).
edge(138, 162).
edge(24, 127).
edge(14, 28).
edge(80, 97).
edge(36, 106).
edge(23, 49).
edge(102, 138).
edge(50, 155).
edge(40, 99).
edge(95, 159).
edge(68, 159).
edge(100, 164).
edge(89, 134).
edge(77, 103).
edge(1, 42).
edge(48, 94).
edge(55, 57).
edge(38, 88).
edge(61, 107).
edge(23, 111).
edge(78, 130).
edge(15, 72).
edge(64, 68).
edge(45, 120).
edge(29, 134).
edge(144, 158).
edge(142, 152).
edge(4, 52).
edge(6, 38).
edge(84, 87).
edge(6, 151).
edge(80, 158).
edge(102, 130).
edge(19, 140).
edge(34, 109).
edge(99, 110).
edge(93, 142).
edge(18, 46).
edge(21, 137).
edge(73, 104).
edge(81, 105).
edge(97, 149).
edge(1, 98).
edge(120, 132).
edge(5, 137).
edge(100, 127).
edge(51, 54).
edge(99, 109).
edge(3, 27).
edge(128, 129).
edge(60, 163).
edge(26, 123).
edge(67, 106).
edge(14, 122).
edge(100, 109).
edge(23, 159).
edge(6, 139).
edge(5, 125).
edge(102, 141).
edge(60, 137).
edge(19, 33).
edge(2, 24).
edge(79, 128).
edge(77, 108).
edge(45, 107).
edge(50, 135).
edge(87, 162).
edge(12, 40).
edge(94, 121).
edge(53, 107).
edge(79, 161).
edge(63, 78).
edge(27, 71).
edge(52, 111).
edge(25, 106).
edge(4, 26).
edge(12, 108).
edge(1, 139).
edge(20, 142).
edge(31, 99).
edge(70, 85).
edge(152, 162).
edge(38, 87).
edge(2, 129).
edge(129, 151).
edge(56, 91).
edge(83, 140).
edge(67, 94).
edge(10, 159).
edge(128, 156).
edge(94, 128).
edge(8, 25).
edge(117, 152).
edge(13, 157).
edge(51, 88).
edge(87, 134).
edge(54, 123).
edge(13, 159).
edge(6, 37).
edge(135, 143).
edge(65, 127).
edge(29, 34).
edge(118, 145).
edge(28, 71).
edge(98, 111).
edge(120, 154).
edge(57, 107).
edge(29, 31).
edge(70, 149).
edge(123, 159).
edge(81, 146).
edge(131, 164).
edge(61, 141).
edge(39, 161).
edge(44, 76).
edge(14, 26).
edge(5, 18).
edge(71, 110).
edge(27, 145).
edge(50, 158).
edge(88, 122).
edge(48, 134).
edge(84, 103).
edge(124, 164).
edge(25, 66).
edge(8, 77).
edge(22, 146).
edge(152, 158).
edge(50, 146).
edge(20, 36).
edge(131, 151).
edge(40, 51).
edge(15, 77).
edge(49, 140).
edge(112, 114).
edge(79, 165).
edge(101, 107).
edge(68, 97).
edge(4, 107).
edge(103, 130).
edge(66, 111).
edge(82, 88).
edge(115, 133).
edge(13, 105).
edge(20, 61).
edge(154, 164).
edge(126, 131).
edge(9, 124).
edge(76, 87).
edge(30, 81).
edge(131, 144).
edge(0, 75).
edge(46, 51).
edge(7, 26).
edge(148, 153).
edge(104, 148).
edge(64, 154).
edge(29, 150).
edge(29, 125).
edge(45, 103).
edge(53, 72).
edge(82, 109).
edge(41, 82).
edge(106, 153).
edge(33, 118).
edge(15, 139).
edge(11, 134).
edge(53, 144).
edge(33, 158).
edge(100, 110).
edge(2, 94).
edge(65, 144).
edge(36, 153).
edge(66, 129).
edge(97, 161).
edge(49, 91).
edge(114, 157).
edge(30, 43).
edge(41, 99).
edge(6, 101).
edge(88, 91).
edge(111, 147).
edge(68, 129).
edge(105, 137).
edge(8, 156).
edge(30, 126).
edge(16, 124).
edge(45, 113).
edge(91, 135).
edge(13, 48).
edge(62, 101).
edge(29, 101).
edge(84, 143).
edge(35, 86).
edge(7, 120).
edge(17, 118).
edge(66, 162).
edge(23, 90).
edge(108, 146).
edge(106, 147).
edge(140, 165).
edge(5, 138).
edge(108, 109).
edge(11, 119).
edge(38, 115).
edge(47, 137).
edge(126, 130).
edge(16, 158).
edge(6, 66).
edge(70, 124).
edge(63, 105).
edge(81, 155).
edge(97, 118).
edge(84, 89).
edge(77, 109).
edge(68, 162).
edge(24, 78).
edge(47, 145).
edge(122, 161).
edge(136, 151).
edge(44, 69).
edge(16, 94).
edge(94, 109).
edge(86, 125).
edge(8, 129).
edge(0, 63).
edge(17, 34).
edge(55, 84).
edge(108, 112).
edge(9, 163).
edge(92, 164).
edge(58, 152).
edge(3, 147).
edge(56, 154).
edge(43, 49).
edge(79, 134).
edge(92, 111).
edge(12, 119).
edge(113, 146).
edge(57, 97).
edge(74, 113).
edge(6, 68).
edge(40, 52).
edge(31, 160).
edge(92, 137).
edge(55, 121).
edge(3, 88).
edge(72, 79).
edge(51, 101).
edge(159, 165).
edge(12, 159).
edge(15, 157).
edge(57, 81).
edge(92, 98).
edge(33, 103).
edge(116, 131).
edge(65, 129).
edge(42, 106).
edge(41, 51).
edge(6, 65).
edge(130, 147).
edge(33, 126).
edge(97, 150).
edge(33, 59).
edge(83, 150).
edge(73, 147).
edge(8, 110).
edge(61, 65).
edge(95, 114).
edge(61, 130).
edge(34, 102).
edge(26, 141).
edge(58, 145).
edge(40, 112).
edge(29, 44).
edge(141, 150).
edge(14, 105).
edge(105, 113).
edge(11, 17).
edge(129, 156).
edge(16, 80).
edge(18, 124).
edge(68, 163).
edge(55, 78).
edge(39, 51).
edge(100, 112).
edge(5, 44).
edge(124, 153).
edge(27, 140).
edge(79, 143).
edge(115, 135).
edge(1, 64).
edge(10, 27).
edge(99, 129).
edge(0, 122).
edge(8, 35).
edge(92, 156).
edge(83, 106).
edge(4, 48).
edge(1, 30).
edge(69, 97).
edge(115, 141).
edge(30, 141).
edge(49, 138).
edge(17, 29).
edge(74, 154).
edge(20, 90).
edge(60, 85).
edge(51, 110).
edge(87, 139).
edge(44, 141).
edge(86, 150).
edge(40, 162).
edge(42, 141).
edge(14, 121).
edge(89, 100).
edge(33, 110).
edge(45, 54).
edge(1, 107).
edge(0, 154).
edge(31, 60).
edge(3, 67).
edge(37, 54).
edge(10, 89).
edge(54, 165).
edge(109, 128).
edge(66, 122).
edge(107, 123).
edge(8, 16).
edge(124, 161).
edge(67, 109).
edge(13, 110).
edge(32, 36).
edge(101, 132).
edge(13, 56).
edge(11, 82).
edge(157, 161).
edge(95, 109).
edge(5, 30).
edge(82, 153).
edge(20, 140).
edge(91, 113).
edge(71, 95).
edge(47, 65).
edge(110, 120).
edge(21, 108).
edge(27, 59).
edge(7, 138).
edge(26, 38).
edge(3, 81).
edge(33, 58).
edge(116, 141).
edge(47, 130).
edge(113, 159).
edge(91, 133).
edge(0, 70).
edge(59, 92).
edge(87, 91).
edge(97, 101).
edge(5, 58).
edge(23, 69).
edge(27, 81).
edge(65, 116).
edge(76, 85).
edge(117, 164).
edge(55, 144).
edge(76, 154).
edge(108, 115).
edge(74, 94).
edge(14, 32).
edge(81, 131).
edge(50, 165).
edge(45, 153).
edge(124, 141).
edge(30, 83).
edge(43, 46).
edge(57, 89).
edge(68, 119).
edge(98, 140).
edge(55, 75).
edge(115, 130).
edge(54, 59).
edge(51, 79).
edge(128, 142).
edge(8, 102).
edge(42, 68).
edge(129, 154).
edge(53, 80).
edge(47, 51).
edge(74, 164).
edge(0, 165).
edge(94, 123).
edge(31, 130).
edge(18, 37).
edge(53, 158).
edge(111, 141).
edge(77, 82).
edge(33, 85).
edge(15, 89).
edge(29, 98).
edge(78, 151).
edge(61, 106).
edge(32, 157).
edge(17, 133).
edge(116, 144).
edge(89, 150).
edge(108, 157).
edge(93, 97).
edge(98, 122).
edge(8, 127).
edge(22, 126).
edge(49, 126).
edge(39, 89).
edge(3, 26).
edge(38, 108).
edge(34, 55).
edge(118, 134).
edge(104, 161).
edge(42, 140).
edge(117, 120).
edge(94, 131).
edge(5, 103).
edge(109, 146).
edge(147, 158).
edge(55, 159).
edge(39, 139).
edge(122, 143).
edge(65, 96).
edge(26, 76).
edge(21, 121).
edge(10, 52).
edge(4, 74).
edge(65, 143).
edge(55, 64).
edge(63, 90).
edge(26, 30).
edge(5, 95).
edge(60, 133).
edge(16, 46).
edge(23, 37).
edge(90, 108).
edge(61, 143).
edge(54, 134).
edge(14, 154).
edge(56, 108).
edge(52, 79).
edge(99, 123).
edge(73, 80).
edge(29, 117).
edge(161, 165).
edge(69, 87).
edge(27, 139).
edge(5, 69).
edge(52, 154).
edge(18, 99).
edge(134, 142).
edge(87, 127).
edge(75, 105).
edge(126, 128).
edge(47, 120).
edge(49, 78).
edge(111, 160).
edge(21, 133).
edge(8, 146).
edge(115, 158).
edge(19, 68).
edge(16, 107).
edge(16, 153).
edge(87, 107).
edge(38, 105).
edge(115, 132).
edge(24, 133).
edge(38, 65).
edge(19, 143).
edge(137, 142).
edge(65, 120).
edge(101, 161).
edge(51, 154).
edge(98, 126).
edge(88, 132).
edge(26, 130).
edge(26, 69).
edge(44, 142).
edge(12, 112).
edge(38, 41).
edge(31, 149).
edge(71, 119).
edge(94, 138).
edge(0, 110).
edge(37, 165).
edge(44, 59).
edge(92, 94).
edge(43, 66).
edge(42, 54).
edge(69, 106).
edge(25, 134).
edge(63, 110).
edge(35, 63).
edge(131, 141).
edge(94, 154).
edge(40, 68).
edge(92, 144).
edge(53, 57).
edge(16, 164).
edge(11, 29).
edge(32, 98).
edge(40, 86).
edge(51, 152).
edge(1, 39).
edge(11, 76).
edge(20, 22).
edge(26, 99).
edge(15, 35).
edge(46, 136).
edge(22, 38).
edge(68, 81).
edge(83, 160).
edge(91, 142).
edge(108, 150).
edge(60, 146).
edge(30, 131).
edge(18, 24).
edge(57, 137).
edge(43, 90).
edge(13, 68).
edge(22, 121).
edge(7, 86).
edge(29, 42).
edge(9, 121).
edge(138, 160).
edge(32, 113).
edge(108, 125).
edge(53, 55).
edge(37, 48).
edge(28, 132).
edge(22, 25).
edge(61, 124).
edge(119, 149).
edge(8, 14).
edge(80, 109).
edge(39, 156).
edge(40, 146).
edge(63, 79).
edge(107, 159).
edge(17, 126).
edge(72, 136).
edge(3, 152).
edge(102, 162).
edge(41, 108).
edge(5, 10).
edge(72, 160).
edge(60, 156).
edge(66, 123).
edge(9, 141).
edge(84, 127).
edge(133, 152).
edge(17, 125).
edge(24, 57).
edge(59, 127).
edge(20, 121).
edge(122, 156).
edge(130, 161).
edge(115, 163).
edge(5, 109).
edge(1, 36).
edge(29, 151).
edge(15, 147).
edge(128, 140).
edge(24, 71).
edge(127, 150).
edge(119, 164).
edge(73, 165).
edge(69, 130).
edge(113, 127).
edge(46, 110).
edge(35, 43).
edge(16, 115).
edge(56, 161).
edge(49, 137).
edge(67, 84).
edge(86, 144).
edge(39, 93).
edge(35, 139).
edge(52, 120).
edge(125, 155).
edge(79, 144).
edge(2, 119).
edge(13, 80).
edge(85, 164).
edge(92, 110).
edge(63, 119).
edge(46, 124).
edge(113, 144).
edge(28, 120).
edge(9, 71).
edge(35, 125).
edge(51, 162).
edge(24, 68).
edge(34, 63).
edge(60, 123).
edge(41, 46).
edge(11, 58).
edge(93, 107).
edge(95, 120).
edge(143, 148).
edge(67, 93).
edge(56, 77).
edge(33, 112).
edge(87, 154).
edge(51, 55).
edge(118, 154).
edge(37, 115).
edge(4, 92).
edge(16, 149).
edge(96, 108).
edge(67, 111).
edge(20, 105).
edge(6, 47).
edge(72, 132).
edge(77, 145).
edge(84, 126).
edge(102, 111).
edge(39, 101).
edge(36, 133).
edge(41, 91).
edge(39, 124).
edge(152, 154).
edge(94, 117).
edge(58, 157).
edge(0, 22).
edge(79, 91).
edge(121, 140).
edge(74, 125).
edge(54, 69).
edge(34, 68).
edge(29, 144).
edge(75, 90).
edge(16, 95).
edge(27, 72).
edge(54, 119).
edge(12, 58).
edge(135, 140).
edge(105, 118).
edge(89, 102).
edge(77, 114).
edge(46, 95).
edge(110, 156).
edge(105, 131).
edge(100, 114).
edge(97, 138).
edge(5, 108).
edge(2, 127).
edge(38, 102).
edge(36, 126).
edge(42, 75).
edge(44, 120).
edge(7, 101).
edge(21, 51).
edge(25, 91).
edge(49, 131).
edge(54, 117).
edge(0, 90).
edge(63, 136).
edge(18, 93).
edge(54, 105).
edge(64, 67).
edge(98, 129).
edge(21, 36).
edge(14, 67).
edge(2, 63).
edge(37, 162).
edge(107, 120).
edge(76, 121).
edge(9, 44).
edge(7, 114).
edge(73, 92).
edge(40, 119).
edge(27, 133).
edge(6, 94).
edge(51, 96).
edge(84, 135).
edge(102, 143).
edge(37, 97).
edge(121, 150).
edge(44, 148).
edge(68, 125).
edge(95, 164).
edge(28, 68).
edge(38, 85).
edge(117, 163).
edge(47, 102).
edge(6, 153).
edge(41, 62).
edge(50, 72).
edge(136, 163).
edge(39, 135).
edge(120, 156).
edge(122, 131).
edge(116, 142).
edge(14, 79).
edge(64, 159).
edge(110, 130).
edge(9, 31).
edge(68, 89).
edge(18, 55).
edge(95, 141).
edge(76, 89).
edge(93, 123).
edge(57, 121).
edge(74, 161).
edge(14, 111).
edge(111, 150).
edge(7, 54).
edge(16, 144).
edge(66, 154).
edge(108, 126).
edge(16, 108).
edge(18, 47).
edge(17, 156).
edge(1, 92).
edge(62, 135).
edge(24, 60).
edge(113, 115).
edge(117, 130).
edge(53, 96).
edge(36, 92).
edge(25, 90).
edge(21, 160).
edge(112, 138).
edge(47, 81).
edge(137, 150).
edge(16, 40).
edge(55, 80).
edge(72, 111).
edge(57, 108).
edge(36, 111).
edge(93, 103).
edge(135, 155).
edge(79, 94).
edge(80, 94).
edge(8, 63).
edge(19, 99).
edge(24, 85).
edge(77, 90).
edge(26, 117).
edge(7, 81).
edge(35, 48).
edge(2, 28).
edge(129, 140).
edge(104, 152).
edge(68, 122).
edge(101, 118).
edge(6, 76).
edge(41, 49).
edge(22, 100).
edge(51, 165).
edge(12, 55).
edge(85, 122).
edge(14, 85).
edge(42, 87).
edge(15, 102).
edge(65, 84).
edge(38, 99).
edge(65, 145).
edge(27, 111).
edge(39, 125).
edge(25, 29).
edge(58, 165).
edge(40, 63).
edge(42, 97).
edge(66, 145).
edge(32, 129).
edge(13, 106).
edge(10, 59).
edge(103, 157).
edge(94, 153).
edge(9, 103).
edge(27, 130).
edge(23, 79).
edge(18, 45).
edge(32, 128).
edge(22, 95).
edge(123, 142).
edge(4, 63).
edge(28, 62).
edge(100, 124).
edge(67, 101).
edge(8, 53).
edge(76, 113).
edge(102, 134).
edge(14, 110).
edge(75, 124).
edge(27, 46).
edge(63, 91).
edge(33, 66).
edge(34, 100).
edge(15, 50).
edge(65, 73).
edge(103, 146).
edge(109, 156).
edge(0, 76).
edge(20, 47).
edge(0, 132).
edge(24, 70).
edge(49, 94).
edge(151, 163).
edge(55, 112).
edge(32, 56).
edge(10, 42).
edge(35, 111).
edge(1, 146).
edge(150, 152).
edge(119, 145).
edge(4, 125).
edge(49, 154).
edge(122, 140).
edge(93, 95).
edge(75, 104).
edge(129, 133).
edge(27, 148).
edge(52, 118).
edge(94, 124).
edge(84, 159).
edge(76, 136).
edge(80, 131).
edge(13, 84).
edge(0, 34).
edge(92, 103).
edge(98, 123).
edge(48, 98).
edge(8, 131).
edge(89, 96).
edge(36, 88).
edge(29, 91).
edge(127, 156).
edge(44, 114).
edge(56, 93).
edge(77, 88).
edge(119, 150).
edge(37, 76).
edge(1, 62).
edge(23, 107).
edge(63, 67).
edge(45, 147).
edge(139, 161).
edge(1, 125).
edge(61, 90).
edge(80, 152).
edge(9, 127).
edge(57, 71).
edge(99, 150).
edge(49, 66).
edge(37, 145).
edge(63, 145).
edge(10, 81).
edge(27, 127).
edge(39, 103).
edge(94, 163).
edge(64, 144).
edge(0, 117).
edge(112, 142).
edge(41, 101).
edge(77, 151).
edge(25, 133).
edge(28, 111).
edge(31, 138).
edge(6, 108).
edge(81, 112).
edge(125, 153).
edge(80, 104).
edge(115, 136).
edge(64, 130).
edge(48, 63).
edge(106, 157).
edge(48, 52).
edge(19, 158).
edge(8, 79).
edge(33, 70).
edge(40, 45).
edge(18, 92).
edge(38, 120).
edge(25, 39).
edge(105, 126).
edge(15, 54).
edge(64, 137).
edge(129, 130).
edge(9, 156).
edge(59, 82).
edge(40, 110).
edge(78, 85).
edge(30, 48).
edge(25, 121).
edge(33, 153).
edge(40, 133).
edge(9, 109).
edge(31, 150).
edge(141, 162).
edge(37, 64).
edge(1, 80).
edge(60, 101).
edge(86, 145).
edge(35, 91).
edge(116, 145).
edge(68, 138).
edge(118, 124).
edge(62, 66).
edge(30, 145).
edge(48, 64).
edge(48, 157).
edge(43, 44).
edge(70, 81).
edge(126, 135).
edge(89, 131).
edge(29, 49).
edge(74, 129).
edge(125, 144).
edge(8, 28).
edge(28, 156).
edge(0, 59).
edge(111, 142).
edge(132, 161).
edge(58, 86).
edge(20, 131).
edge(37, 148).
edge(132, 157).
edge(77, 121).
edge(46, 123).
edge(51, 132).
edge(46, 85).
edge(18, 95).
edge(38, 76).
edge(10, 21).
edge(120, 159).
edge(37, 149).
edge(62, 80).
edge(121, 133).
edge(36, 122).
edge(142, 151).
edge(4, 46).
edge(20, 69).
edge(7, 111).
edge(28, 149).
edge(24, 83).
edge(135, 163).
edge(21, 28).
edge(33, 55).
edge(71, 76).
edge(63, 141).
edge(44, 150).
edge(97, 121).
edge(51, 164).
edge(21, 106).
edge(30, 147).
edge(35, 120).
edge(10, 150).
edge(107, 125).
edge(128, 161).
edge(20, 70).
edge(45, 53).
edge(11, 52).
edge(2, 27).
edge(21, 32).
edge(67, 147).
edge(52, 106).
edge(85, 154).
edge(42, 161).
edge(16, 52).
edge(3, 18).
edge(49, 146).
edge(83, 129).
edge(100, 160).
edge(54, 58).
edge(0, 147).
edge(116, 149).
edge(20, 97).
edge(85, 113).
edge(83, 105).
edge(108, 121).
edge(7, 43).
edge(48, 92).
edge(113, 132).
edge(48, 139).
edge(13, 62).
edge(56, 142).
edge(6, 24).
edge(54, 82).
edge(46, 56).
edge(56, 90).
edge(8, 109).
edge(30, 114).
edge(19, 21).
edge(52, 87).
edge(64, 100).
edge(2, 108).
edge(68, 141).
edge(31, 105).
edge(40, 84).
edge(1, 156).
edge(18, 125).
edge(73, 164).
edge(66, 136).
edge(43, 97).
edge(141, 147).
edge(97, 152).
edge(15, 151).
edge(55, 81).
edge(8, 72).
edge(7, 45).
edge(34, 135).
edge(79, 126).
edge(112, 130).
edge(42, 70).
edge(92, 131).
edge(64, 162).
edge(34, 121).
edge(114, 147).
edge(31, 142).
edge(20, 163).
edge(4, 44).
edge(46, 129).
edge(58, 100).
edge(34, 155).
edge(61, 139).
edge(117, 129).
edge(85, 101).
edge(102, 161).
edge(33, 163).
edge(26, 152).
edge(141, 165).
edge(1, 132).
edge(20, 83).
edge(17, 62).
edge(79, 125).
edge(6, 45).
edge(33, 56).
edge(40, 80).
edge(46, 84).
edge(7, 16).
edge(59, 120).
edge(25, 26).
edge(16, 35).
edge(141, 161).
edge(109, 114).
edge(54, 122).
edge(60, 80).
edge(8, 116).
edge(8, 52).
edge(118, 140).
edge(59, 123).
edge(94, 155).
edge(3, 151).
edge(67, 81).
edge(109, 151).
edge(29, 147).
edge(3, 36).
edge(54, 118).
edge(17, 85).
edge(81, 143).
edge(96, 153).
edge(7, 97).
edge(4, 5).
edge(9, 45).
edge(67, 79).
edge(22, 154).
edge(38, 74).
edge(29, 146).
edge(88, 102).
edge(113, 125).
edge(54, 77).
edge(37, 92).
edge(125, 138).
edge(54, 99).
edge(37, 59).
edge(42, 57).
edge(37, 109).
edge(18, 77).
edge(41, 145).
edge(38, 163).
edge(53, 143).
edge(39, 67).
edge(20, 27).
edge(83, 165).
edge(11, 61).
edge(3, 98).
edge(40, 98).
edge(27, 37).
edge(85, 121).
edge(52, 75).
edge(8, 66).
edge(4, 86).
edge(146, 165).
edge(110, 113).
edge(53, 154).
edge(37, 87).
edge(50, 80).
edge(44, 153).
edge(27, 163).
edge(37, 151).
edge(7, 133).
edge(123, 164).
edge(56, 114).
edge(108, 160).
edge(11, 114).
edge(87, 115).
edge(67, 136).
edge(123, 125).
edge(33, 35).
edge(141, 143).
edge(83, 102).
edge(47, 75).
edge(63, 132).
edge(10, 76).
edge(19, 104).
edge(50, 145).
edge(97, 109).
edge(62, 72).
edge(95, 133).
edge(38, 69).
edge(31, 52).
edge(29, 119).
edge(51, 163).
edge(87, 122).
edge(20, 48).
edge(73, 94).
edge(24, 163).
edge(22, 144).
edge(46, 138).
edge(76, 129).
edge(108, 135).
edge(4, 124).
edge(39, 86).
edge(15, 141).
edge(82, 103).
edge(8, 34).
edge(30, 155).
edge(8, 137).
edge(102, 148).
edge(35, 114).
edge(32, 127).
edge(54, 65).
edge(0, 133).
edge(57, 58).
edge(146, 149).
edge(41, 133).
edge(71, 116).
edge(10, 22).
edge(104, 109).
edge(72, 149).
edge(116, 150).
edge(132, 141).
edge(126, 156).
edge(120, 145).
edge(28, 108).
edge(60, 95).
edge(5, 104).
edge(130, 143).
edge(85, 127).
edge(46, 156).
edge(19, 130).
edge(140, 164).
edge(81, 95).
edge(132, 153).
edge(8, 97).
edge(134, 155).
edge(11, 68).
edge(97, 148).
edge(49, 74).
edge(12, 102).
edge(17, 142).
edge(34, 150).
edge(137, 164).
edge(3, 35).
edge(144, 165).
edge(20, 32).
edge(50, 77).
edge(82, 126).
edge(89, 129).
edge(51, 69).
edge(7, 128).
edge(141, 152).
edge(75, 113).
edge(9, 145).
edge(17, 35).
edge(42, 92).
edge(12, 87).
edge(76, 163).
edge(87, 101).
edge(62, 119).
edge(105, 117).
edge(67, 92).
edge(47, 153).
edge(30, 39).
edge(79, 85).
edge(105, 129).
edge(4, 132).
edge(133, 157).
edge(64, 106).
edge(89, 117).
edge(100, 132).
edge(4, 60).
edge(30, 124).
edge(17, 107).
edge(21, 115).
edge(94, 141).
edge(26, 48).
edge(22, 116).
edge(29, 99).
edge(18, 80).
edge(3, 28).
edge(30, 80).
edge(28, 63).
edge(105, 106).
edge(97, 163).
edge(16, 117).
edge(16, 151).
edge(99, 121).
edge(60, 161).
edge(82, 161).
edge(74, 75).
edge(137, 138).
edge(9, 29).
edge(101, 165).
edge(74, 136).
edge(30, 156).
edge(37, 80).
edge(124, 135).
edge(111, 140).
edge(2, 49).
edge(59, 153).
edge(66, 72).
edge(14, 82).
edge(79, 142).
edge(65, 76).
edge(28, 83).
edge(112, 156).
edge(10, 68).
edge(79, 90).
edge(111, 136).
edge(75, 134).
edge(47, 88).
edge(12, 31).
edge(10, 105).
edge(37, 112).
edge(37, 124).
edge(41, 158).
edge(67, 105).
edge(93, 143).
edge(53, 127).
edge(104, 142).
edge(28, 34).
edge(93, 116).
edge(42, 114).
edge(24, 48).
edge(79, 102).
edge(19, 107).
edge(16, 68).
edge(58, 126).
edge(10, 69).
edge(109, 159).
edge(19, 67).
edge(68, 105).
edge(49, 97).
edge(89, 140).
edge(75, 80).
edge(115, 142).
edge(1, 104).
edge(121, 138).
edge(61, 94).
edge(67, 72).
edge(8, 30).
edge(61, 119).
edge(72, 144).
edge(103, 151).
edge(124, 138).
edge(58, 84).
edge(1, 152).
edge(8, 20).
edge(1, 135).
edge(78, 110).
edge(100, 133).
edge(69, 149).
edge(20, 145).
edge(51, 122).
edge(21, 144).
edge(24, 58).
edge(12, 25).
edge(120, 138).
edge(133, 146).
edge(15, 41).
edge(139, 151).
edge(26, 110).
edge(2, 42).
edge(3, 6).
edge(45, 81).
edge(16, 53).
edge(66, 98).
edge(11, 37).
edge(128, 163).
edge(37, 153).
edge(51, 92).
edge(49, 59).
edge(3, 154).
edge(17, 103).
edge(3, 145).
edge(55, 96).
edge(140, 150).
edge(26, 158).
edge(52, 164).
edge(38, 138).
edge(21, 29).
edge(84, 115).
edge(36, 131).
edge(68, 126).
edge(15, 138).
edge(59, 158).
edge(46, 98).
edge(120, 139).
edge(49, 163).
edge(18, 141).
edge(24, 31).
edge(58, 75).
edge(55, 97).
edge(76, 132).
edge(7, 151).
edge(34, 113).
edge(15, 24).
edge(11, 142).
edge(121, 146).
edge(127, 134).
edge(7, 109).
edge(55, 82).
edge(111, 123).
edge(127, 158).
edge(47, 63).
edge(44, 137).
edge(54, 131).
edge(52, 109).
edge(35, 89).
edge(72, 151).
edge(55, 115).
edge(48, 142).
edge(0, 134).
edge(107, 131).
edge(84, 121).
edge(4, 118).
edge(106, 151).
edge(95, 112).
edge(108, 140).
edge(0, 103).
edge(5, 128).
edge(0, 46).
edge(72, 135).
edge(1, 105).
edge(14, 101).
edge(39, 60).
edge(42, 59).
edge(43, 98).
edge(144, 162).
edge(114, 129).
edge(54, 141).
edge(51, 108).
edge(10, 50).
edge(108, 113).
edge(55, 118).
edge(59, 124).
edge(73, 107).
edge(72, 97).
edge(43, 103).
edge(139, 141).
edge(8, 80).
edge(11, 53).
edge(78, 129).
edge(6, 92).
edge(66, 149).
edge(18, 34).
edge(46, 63).
edge(41, 165).
edge(5, 151).
edge(20, 73).
edge(92, 152).
edge(10, 128).
edge(98, 128).
edge(25, 145).
edge(5, 154).
edge(24, 110).
edge(36, 97).
edge(72, 92).
edge(89, 116).
edge(125, 134).
edge(48, 108).
edge(37, 131).
edge(107, 158).
edge(4, 57).
edge(67, 100).
edge(100, 125).
edge(32, 68).
edge(37, 133).
edge(28, 100).
edge(3, 89).
edge(35, 96).
edge(4, 72).
edge(44, 126).
edge(5, 116).
edge(49, 51).
edge(5, 146).
edge(15, 122).
edge(24, 41).
edge(60, 135).
edge(7, 63).
edge(84, 150).
edge(114, 137).
edge(18, 75).
edge(94, 114).
edge(19, 62).
edge(55, 125).
edge(38, 39).
edge(32, 40).
edge(131, 158).
edge(127, 142).
edge(49, 52).
edge(0, 141).
edge(48, 125).
edge(9, 132).
edge(67, 115).
edge(77, 125).
edge(13, 31).
edge(56, 118).
edge(11, 126).
edge(78, 99).
edge(14, 141).
edge(26, 54).
edge(6, 39).
edge(47, 103).
edge(46, 47).
edge(15, 53).
edge(34, 134).
edge(72, 107).
edge(128, 147).
edge(53, 54).
edge(42, 131).
edge(91, 92).
edge(94, 108).
edge(60, 111).
edge(62, 138).
edge(12, 51).
edge(2, 84).
edge(116, 154).
edge(93, 139).
edge(73, 157).
edge(33, 145).
edge(0, 47).
edge(90, 118).
edge(66, 102).
edge(47, 64).
edge(137, 162).
edge(17, 116).
edge(147, 153).
edge(16, 74).
edge(53, 95).
edge(38, 57).
edge(89, 104).
edge(99, 113).
edge(40, 89).
edge(11, 46).
edge(65, 98).
edge(10, 165).
edge(127, 141).
edge(23, 29).
edge(55, 98).
edge(24, 140).
edge(9, 58).
edge(64, 87).
edge(17, 87).
edge(13, 158).
edge(40, 125).
edge(28, 151).
edge(36, 60).
edge(25, 68).
edge(76, 134).
edge(109, 133).
edge(64, 124).
edge(128, 155).
edge(12, 117).
edge(24, 143).
edge(2, 165).
edge(12, 97).
edge(98, 157).
edge(11, 25).
edge(17, 53).
edge(59, 73).
edge(100, 107).
edge(138, 152).
edge(25, 43).
edge(129, 139).
edge(117, 145).
edge(46, 71).
edge(65, 107).
edge(138, 163).
edge(18, 134).
edge(113, 145).
edge(76, 122).
edge(73, 75).
edge(91, 141).
edge(33, 128).
edge(70, 112).
edge(113, 114).
edge(107, 130).
edge(97, 111).
edge(65, 75).
edge(21, 145).
edge(123, 157).
edge(28, 37).
edge(1, 41).
edge(44, 111).
edge(42, 67).
edge(4, 77).
edge(23, 88).
edge(89, 118).
edge(95, 106).
edge(153, 161).
edge(65, 118).
edge(92, 113).
edge(18, 143).
edge(87, 100).
edge(39, 82).
edge(9, 82).
edge(97, 124).
edge(37, 52).
edge(22, 74).
edge(49, 125).
edge(75, 97).
edge(92, 140).
edge(126, 158).
edge(60, 141).
edge(24, 56).
edge(4, 126).
edge(66, 85).
edge(48, 126).
edge(5, 53).
edge(67, 145).
edge(66, 158).
edge(66, 131).
edge(24, 164).
edge(56, 75).
edge(80, 100).
edge(58, 114).
edge(73, 116).
edge(50, 136).
edge(0, 29).
edge(52, 129).
edge(68, 132).
edge(10, 104).
edge(123, 158).
edge(11, 63).
edge(110, 157).
edge(77, 153).
edge(25, 44).
edge(26, 70).
edge(7, 141).
edge(140, 162).
edge(68, 73).
edge(85, 141).
edge(11, 20).
edge(110, 159).
edge(89, 147).
edge(99, 136).
edge(1, 129).
edge(11, 108).
edge(18, 91).
edge(136, 161).
edge(134, 148).
edge(15, 26).
edge(15, 162).
edge(35, 126).
edge(103, 159).
edge(83, 128).
edge(0, 48).
edge(72, 106).
edge(7, 127).
edge(52, 61).
edge(80, 83).
edge(54, 120).
edge(28, 119).
edge(14, 30).
edge(45, 128).
edge(83, 132).
edge(0, 107).
edge(104, 121).
edge(59, 108).
edge(35, 150).
edge(65, 122).
edge(93, 132).
edge(12, 99).
edge(27, 156).
edge(47, 83).
edge(5, 67).
edge(115, 117).
edge(74, 99).
edge(15, 121).
edge(94, 144).
edge(3, 47).
edge(115, 145).
edge(145, 165).
edge(59, 149).
edge(37, 41).
edge(117, 125).
edge(4, 47).
edge(33, 144).
edge(47, 127).
edge(111, 126).
edge(50, 117).
edge(16, 45).
edge(13, 42).
edge(40, 164).
edge(43, 91).
edge(27, 119).
edge(97, 98).
edge(15, 88).
edge(7, 96).
edge(15, 108).
edge(54, 106).
edge(54, 138).
edge(12, 118).
edge(47, 133).
edge(7, 72).
edge(100, 106).
edge(62, 165).
edge(61, 114).
edge(29, 140).
edge(81, 127).
edge(67, 119).
edge(13, 113).
edge(42, 153).
edge(25, 120).
edge(0, 40).
edge(119, 125).
edge(10, 131).
edge(59, 142).
edge(113, 121).
edge(53, 149).
edge(105, 108).
edge(33, 125).
edge(105, 109).
edge(38, 98).
edge(48, 80).
edge(60, 64).
edge(130, 162).
edge(5, 77).
edge(49, 116).
edge(8, 99).
edge(66, 110).
edge(122, 139).
edge(64, 127).
edge(28, 130).
edge(101, 128).
edge(16, 138).
edge(24, 89).
edge(21, 119).
edge(33, 123).
edge(13, 74).
edge(46, 52).
edge(41, 149).
edge(135, 149).
edge(88, 113).
edge(22, 161).
edge(21, 89).
edge(1, 120).
edge(25, 86).
edge(4, 83).
edge(109, 120).
edge(10, 100).
edge(114, 148).
edge(33, 99).
edge(12, 114).
edge(110, 158).
edge(135, 141).
edge(49, 95).
edge(106, 133).
edge(81, 94).
edge(137, 144).
edge(70, 99).
edge(73, 142).
edge(134, 136).
edge(4, 131).
edge(155, 162).
edge(114, 150).
edge(28, 75).
edge(121, 127).
edge(69, 99).
edge(49, 161).
edge(9, 147).
edge(78, 90).
edge(111, 133).
edge(85, 155).
edge(29, 96).
edge(28, 161).
edge(48, 96).
edge(23, 164).
edge(76, 138).
edge(122, 144).
edge(35, 144).
edge(29, 77).
edge(84, 139).
edge(79, 113).
edge(105, 114).
edge(38, 59).
edge(119, 139).
edge(134, 161).
edge(78, 119).
edge(17, 152).
edge(58, 151).
edge(50, 92).
edge(38, 55).
edge(54, 128).
edge(55, 114).
edge(25, 110).
edge(35, 75).
edge(28, 69).
edge(48, 133).
edge(71, 143).
edge(25, 127).
edge(7, 91).
edge(48, 119).
edge(127, 152).
edge(43, 83).
edge(76, 159).
edge(44, 151).
edge(6, 25).
edge(58, 137).
edge(22, 90).
edge(151, 160).
edge(13, 144).
edge(74, 85).
edge(88, 112).
edge(38, 103).
edge(77, 160).
edge(117, 159).
edge(95, 138).
edge(48, 160).
edge(88, 111).
edge(70, 131).
edge(23, 66).
edge(107, 132).
edge(5, 111).
edge(51, 78).
edge(86, 128).
edge(152, 156).
edge(28, 70).
edge(124, 158).
edge(63, 97).
edge(70, 76).
edge(86, 160).
edge(47, 123).
edge(79, 105).
edge(71, 164).
edge(22, 35).
edge(4, 32).
edge(4, 84).
edge(36, 112).
edge(25, 117).
edge(91, 151).
edge(21, 94).
edge(74, 112).
edge(19, 91).
edge(65, 86).
edge(59, 78).
edge(39, 116).
edge(42, 155).
edge(1, 124).
edge(20, 130).
edge(134, 143).
edge(42, 123).
edge(58, 128).
edge(115, 137).
edge(32, 34).
edge(27, 53).
edge(81, 152).
edge(20, 76).
edge(38, 71).
edge(45, 165).
edge(67, 98).
edge(22, 160).
edge(15, 16).
edge(46, 69).
edge(6, 91).
edge(48, 77).
edge(58, 133).
edge(7, 152).
edge(67, 158).
edge(115, 156).
edge(75, 125).
edge(73, 96).
edge(1, 145).
edge(45, 57).
edge(20, 111).
edge(52, 93).
edge(71, 86).
edge(95, 129).
edge(36, 51).
edge(105, 123).
edge(9, 106).
edge(102, 140).
edge(60, 144).
edge(145, 164).
edge(102, 108).
edge(55, 85).
edge(11, 141).
edge(81, 86).
edge(98, 112).
edge(9, 89).
edge(15, 143).
edge(128, 160).
edge(8, 164).
edge(9, 67).
edge(40, 62).
edge(37, 157).
edge(131, 149).
edge(22, 137).
edge(131, 152).
edge(82, 124).
edge(87, 147).
edge(61, 158).
edge(4, 40).
edge(51, 71).
edge(21, 151).
edge(129, 160).
edge(87, 133).
edge(48, 86).
edge(139, 145).
edge(0, 108).
edge(32, 51).
edge(12, 126).
edge(93, 94).
edge(49, 160).
edge(57, 135).
edge(46, 91).
edge(36, 100).
edge(67, 134).
edge(110, 155).
edge(72, 81).
edge(88, 100).
edge(50, 101).
edge(69, 127).
edge(27, 165).
edge(63, 82).
edge(13, 44).
edge(27, 113).
edge(8, 10).
edge(45, 143).
edge(19, 44).
edge(31, 48).
edge(38, 145).
edge(26, 122).
edge(57, 105).
edge(125, 163).
edge(42, 148).
edge(85, 95).
edge(35, 74).
edge(51, 89).
edge(6, 165).
edge(23, 57).
edge(46, 107).
edge(54, 101).
edge(71, 84).
edge(42, 134).
edge(73, 114).
edge(22, 108).
edge(34, 94).
edge(36, 117).
edge(137, 153).
edge(80, 130).
edge(67, 90).
edge(111, 115).
edge(34, 129).
edge(109, 138).
edge(23, 28).
edge(56, 111).
edge(116, 153).
edge(65, 91).
edge(80, 112).
edge(99, 142).
edge(49, 142).
edge(116, 157).
edge(8, 81).
edge(24, 30).
edge(10, 43).
edge(7, 44).
edge(42, 125).
edge(141, 160).
edge(33, 117).
edge(38, 162).
edge(51, 63).
edge(52, 122).
edge(17, 132).
edge(46, 76).
edge(87, 128).
edge(47, 92).
edge(155, 157).
edge(155, 158).
edge(35, 64).
edge(90, 141).
edge(0, 156).
edge(106, 128).
edge(60, 105).
edge(97, 135).
edge(82, 149).
edge(72, 75).
edge(15, 76).
edge(14, 27).
edge(68, 102).
edge(39, 99).
edge(5, 83).
edge(58, 78).
edge(28, 49).
edge(48, 137).
edge(109, 129).
edge(86, 88).
edge(35, 51).
edge(31, 102).
edge(46, 111).
edge(38, 97).
edge(91, 128).
edge(51, 159).
edge(121, 155).
edge(16, 120).
edge(77, 142).
edge(66, 121).
edge(87, 140).
edge(65, 146).
edge(83, 138).
edge(82, 132).
edge(23, 62).
edge(0, 140).
edge(3, 129).
edge(74, 143).
edge(62, 152).
edge(17, 153).
edge(2, 145).
edge(132, 147).
edge(6, 102).
edge(28, 155).
edge(137, 160).
edge(122, 126).
edge(98, 132).
edge(11, 18).
edge(73, 127).
edge(36, 145).
edge(34, 98).
edge(64, 73).
edge(54, 130).
edge(55, 110).
edge(66, 144).
edge(20, 52).
edge(10, 108).
edge(13, 54).
edge(94, 99).
edge(71, 105).
edge(10, 47).
edge(88, 94).
edge(148, 155).
edge(117, 158).
edge(10, 146).
edge(37, 155).
edge(31, 107).
edge(71, 155).
edge(27, 152).
edge(31, 155).
edge(65, 100).
edge(139, 146).
edge(6, 48).
edge(6, 74).
edge(59, 88).
edge(34, 91).
edge(25, 149).
edge(11, 110).
edge(84, 140).
edge(2, 110).
edge(26, 102).
edge(6, 125).
edge(84, 156).
edge(9, 122).
edge(50, 130).
edge(35, 160).
edge(34, 37).
edge(37, 86).
edge(52, 147).
edge(27, 92).
edge(44, 105).
edge(147, 165).
edge(52, 157).
edge(86, 101).
edge(118, 129).
edge(4, 82).
edge(98, 143).
edge(56, 165).
edge(7, 38).
edge(45, 55).
edge(18, 101).
edge(145, 159).
edge(35, 105).
edge(71, 158).
edge(62, 75).
edge(47, 56).
edge(16, 131).
edge(32, 130).
edge(63, 104).
edge(16, 130).
edge(33, 162).
edge(36, 115).
edge(113, 149).
edge(55, 119).
edge(124, 163).
edge(59, 134).
edge(52, 59).
edge(72, 102).
edge(125, 146).
edge(8, 104).
edge(1, 75).
edge(81, 108).
edge(72, 154).
edge(22, 152).
edge(10, 158).
edge(48, 149).
edge(53, 67).
edge(38, 118).
edge(117, 139).
edge(71, 123).
edge(90, 105).
edge(62, 99).
edge(69, 164).
edge(89, 98).
edge(146, 161).
edge(51, 53).
edge(78, 144).
edge(71, 74).
edge(39, 42).
edge(77, 128).
edge(123, 126).
edge(133, 161).
edge(24, 149).
edge(3, 90).
edge(1, 56).
edge(23, 94).
edge(103, 109).
edge(17, 98).
edge(42, 95).
edge(99, 122).
edge(36, 87).
edge(99, 106).
edge(104, 153).
edge(109, 125).
edge(91, 108).
edge(9, 137).
edge(11, 160).
edge(62, 139).
edge(87, 117).
edge(39, 109).
edge(4, 81).
edge(89, 139).
edge(49, 148).
edge(27, 116).
edge(84, 132).
edge(32, 164).
edge(32, 38).
edge(7, 122).
edge(63, 65).
edge(26, 87).
edge(101, 102).
edge(11, 84).
edge(34, 130).
edge(74, 89).
edge(112, 146).
edge(82, 110).
edge(49, 151).
edge(17, 31).
edge(6, 95).
edge(38, 45).
edge(38, 144).
edge(29, 130).
edge(75, 162).
edge(26, 72).
edge(35, 71).
edge(128, 152).
edge(31, 110).
edge(73, 87).
edge(112, 123).
edge(45, 112).
edge(72, 146).
edge(102, 126).
edge(56, 126).
edge(12, 142).
edge(29, 165).
edge(89, 128).
edge(8, 103).
edge(27, 51).
edge(17, 113).
edge(58, 97).
edge(112, 149).
edge(23, 92).
edge(3, 79).
edge(25, 31).
edge(64, 65).
edge(48, 53).
edge(101, 134).
edge(71, 122).
edge(7, 112).
edge(4, 65).
edge(69, 91).
edge(23, 51).
edge(31, 36).
edge(64, 103).
edge(0, 49).
edge(100, 157).
edge(0, 112).
edge(7, 19).
edge(1, 43).
edge(57, 109).
edge(92, 150).
edge(68, 120).
edge(62, 159).
edge(46, 139).
edge(93, 128).
edge(39, 102).
edge(39, 41).
edge(87, 99).
edge(10, 18).
edge(58, 164).
edge(13, 69).
edge(7, 77).
edge(72, 104).
edge(6, 132).
edge(26, 40).
edge(117, 162).
edge(46, 67).
edge(133, 156).
edge(63, 99).
edge(131, 134).
edge(73, 133).
edge(15, 68).
edge(58, 111).
edge(112, 134).
edge(20, 58).
edge(49, 98).
edge(15, 111).
edge(90, 139).
edge(18, 78).
edge(29, 138).
edge(3, 8).
edge(17, 96).
edge(101, 123).
edge(94, 116).
edge(105, 121).
edge(99, 130).
edge(42, 162).
edge(34, 45).
edge(56, 98).
edge(85, 135).
edge(43, 160).
edge(36, 162).
edge(47, 62).
edge(22, 115).
edge(16, 92).
edge(147, 151).
edge(46, 62).
edge(82, 92).
edge(51, 85).
edge(0, 93).
edge(72, 121).
edge(14, 107).
edge(23, 112).
edge(42, 139).
edge(3, 110).
edge(20, 114).
edge(110, 138).
edge(44, 119).
edge(70, 163).
edge(27, 43).
edge(36, 43).
edge(125, 130).
edge(130, 149).
edge(74, 82).
edge(71, 126).
edge(6, 144).
edge(34, 127).
edge(98, 113).
edge(55, 162).
edge(18, 65).
edge(115, 162).
edge(133, 138).
edge(24, 129).
edge(12, 95).
edge(36, 84).
edge(38, 126).
edge(30, 88).
edge(6, 43).
edge(36, 53).
edge(10, 20).
edge(72, 89).
edge(88, 164).
edge(56, 100).
edge(105, 120).
edge(96, 103).
edge(4, 56).
edge(34, 158).
edge(10, 113).
edge(76, 150).
edge(47, 119).
edge(37, 75).
edge(12, 89).
edge(14, 29).
edge(108, 119).
edge(4, 113).
edge(4, 137).
edge(68, 84).
edge(49, 135).
edge(86, 154).
edge(51, 128).
edge(67, 112).
edge(3, 93).
edge(97, 141).
edge(1, 24).
edge(128, 153).
edge(69, 152).
edge(107, 165).
edge(67, 116).
edge(51, 141).
edge(102, 152).
edge(40, 144).
edge(45, 62).
edge(55, 146).
edge(100, 163).
edge(15, 52).
edge(22, 97).
edge(73, 141).
edge(85, 90).
edge(67, 117).
edge(13, 47).
edge(109, 113).
edge(132, 164).
edge(53, 111).
edge(1, 109).
edge(60, 110).
edge(29, 51).
edge(65, 135).
edge(20, 138).
edge(11, 143).
edge(20, 106).
edge(6, 113).
edge(10, 111).
edge(50, 162).
edge(8, 21).
edge(53, 65).
edge(89, 165).
edge(22, 53).
edge(52, 90).
edge(20, 62).
edge(2, 144).
edge(37, 95).
edge(61, 118).
edge(60, 88).
edge(96, 122).
edge(2, 59).
edge(19, 57).
edge(55, 132).
edge(12, 150).
edge(52, 107).
edge(28, 160).
edge(19, 156).
edge(78, 153).
edge(37, 143).
edge(63, 81).
edge(11, 137).
edge(60, 92).
edge(1, 28).
edge(63, 116).
edge(29, 41).
edge(99, 156).
edge(89, 158).
edge(32, 119).
edge(98, 119).
edge(58, 82).
edge(18, 71).
edge(15, 100).
edge(46, 145).
edge(91, 102).
edge(32, 70).
edge(86, 132).
edge(6, 161).
edge(1, 131).
edge(105, 156).
edge(68, 111).
edge(89, 120).
edge(81, 107).
edge(34, 146).
edge(107, 138).
edge(87, 120).
edge(116, 125).
edge(31, 153).
edge(53, 136).
edge(87, 157).
edge(43, 153).
edge(137, 143).
edge(74, 98).
edge(41, 144).
weight(0, 5).
weight(1, 22).
weight(2, 5).
weight(3, 12).
weight(4, 4).
weight(5, 10).
weight(6, 2).
weight(7, 21).
weight(8, 1).
weight(9, 11).
weight(10, 4).
weight(11, 2).
weight(12, 8).
weight(13, 7).
weight(14, 7).
weight(15, 9).
weight(16, 23).
weight(17, 1).
weight(18, 9).
weight(19, 20).
weight(20, 22).
weight(21, 2).
weight(22, 9).
weight(23, 20).
weight(24, 6).
weight(25, 6).
weight(26, 7).
weight(27, 6).
weight(28, 10).
weight(29, 17).
weight(30, 22).
weight(31, 9).
weight(32, 21).
weight(33, 7).
weight(34, 21).
weight(35, 5).
weight(36, 19).
weight(37, 10).
weight(38, 1).
weight(39, 15).
weight(40, 23).
weight(41, 4).
weight(42, 15).
weight(43, 7).
weight(44, 21).
weight(45, 22).
weight(46, 9).
weight(47, 12).
weight(48, 11).
weight(49, 8).
weight(50, 14).
weight(51, 2).
weight(52, 20).
weight(53, 1).
weight(54, 8).
weight(55, 5).
weight(56, 2).
weight(57, 19).
weight(58, 4).
weight(59, 20).
weight(60, 8).
weight(61, 11).
weight(62, 23).
weight(63, 19).
weight(64, 4).
weight(65, 4).
weight(66, 18).
weight(67, 6).
weight(68, 6).
weight(69, 18).
weight(70, 7).
weight(71, 17).
weight(72, 13).
weight(73, 5).
weight(74, 2).
weight(75, 11).
weight(76, 20).
weight(77, 13).
weight(78, 7).
weight(79, 17).
weight(80, 3).
weight(81, 6).
weight(82, 21).
weight(83, 3).
weight(84, 18).
weight(85, 23).
weight(86, 16).
weight(87, 23).
weight(88, 14).
weight(89, 4).
weight(90, 2).
weight(91, 10).
weight(92, 10).
weight(93, 15).
weight(94, 9).
weight(95, 9).
weight(96, 16).
weight(97, 18).
weight(98, 21).
weight(99, 9).
weight(100, 9).
weight(101, 16).
weight(102, 3).
weight(103, 5).
weight(104, 23).
weight(105, 22).
weight(106, 13).
weight(107, 18).
weight(108, 18).
weight(109, 11).
weight(110, 4).
weight(111, 23).
weight(112, 9).
weight(113, 12).
weight(114, 14).
weight(115, 20).
weight(116, 5).
weight(117, 15).
weight(118, 20).
weight(119, 14).
weight(120, 4).
weight(121, 3).
weight(122, 21).
weight(123, 4).
weight(124, 8).
weight(125, 23).
weight(126, 11).
weight(127, 21).
weight(128, 12).
weight(129, 23).
weight(130, 11).
weight(131, 12).
weight(132, 8).
weight(133, 9).
weight(134, 23).
weight(135, 7).
weight(136, 12).
weight(137, 21).
weight(138, 5).
weight(139, 16).
weight(140, 5).
weight(141, 5).
weight(142, 11).
weight(143, 21).
weight(144, 19).
weight(145, 17).
weight(146, 2).
weight(147, 17).
weight(148, 10).
weight(149, 23).
weight(150, 18).
weight(151, 16).
weight(152, 22).
weight(153, 15).
weight(154, 1).
weight(155, 12).
weight(156, 13).
weight(157, 17).
weight(158, 9).
weight(159, 5).
weight(160, 4).
weight(161, 21).
weight(162, 18).
weight(163, 12).
weight(164, 13).
weight(165, 18).

{in(V)} :- node(V).
:- in(U), in(V), U < V, not edge(U,V).
:~ not in(V), weight(V,W). [W@1,V]
