node(0..170).
edge(0, 9).
edge(24, 124).
edge(18, 156).
edge(74, 120).
edge(70, 141).
edge(67, 101).
edge(120, 163).
edge(56, 116).
edge(26, 69).
edge(2, 6).
edge(54, 164).
edge(89, 162).
edge(18, 131).
edge(64, 158).
edge(8, 52).
edge(146, 151).
edge(26, 58).
edge(55, 88).
edge(106, 149).
edge(38, 56).
edge(112, 114).
edge(98, 101).
edge(52, 57).
edge(49, 101).
edge(37, 111).
edge(135, 142).
edge(8, 149).
edge(87, 96).
edge(25, 129).
edge(1, 156).
edge(27, 131).
edge(55, 147).
edge(143, 146).
edge(88, 154).
edge(51, 90).
edge(52, 151).
edge(77, 84).
edge(18, 162).
edge(153, 162).
edge(64, 100).
edge(68, 111).
edge(89, 94).
edge(14, 163).
edge(29, 166).
edge(57, 154).
edge(26, 32).
edge(45, 93).
edge(26, 27).
edge(25, 32).
edge(117, 134).
edge(48, 110).
edge(112, 152).
edge(88, 113).
edge(6, 29).
edge(37, 69).
edge(13, 84).
edge(101, 121).
edge(51, 112).
edge(7, 160).
edge(160, 166).
edge(55, 128).
edge(131, 142).
edge(22, 42).
edge(28, 111).
edge(97, 132).
edge(48, 145).
edge(4, 139).
edge(93, 94).
edge(105, 158).
edge(52, 75).
edge(23, 149).
edge(84, 157).
edge(93, 127).
edge(62, 105).
edge(66, 114).
edge(44, 49).
edge(23, 141).
edge(6, 28).
edge(89, 149).
edge(56, 95).
edge(25, 161).
edge(24, 42).
edge(71, 78).
edge(21, 170).
edge(33, 42).
edge(123, 165).
edge(2, 5).
edge(102, 122).
edge(19, 155).
edge(69, 131).
edge(5, 145).
edge(129, 161).
edge(2, 115).
edge(79, 148).
edge(45, 143).
edge(53, 152).
edge(22, 61).
edge(34, 40).
edge(85, 118).
edge(81, 150).
edge(22, 44).
edge(51, 96).
edge(84, 92).
edge(49, 158).
edge(17, 81).
edge(27, 84).
edge(95, 143).
edge(14, 60).
edge(8, 158).
edge(23, 152).
edge(129, 166).
edge(61, 67).
edge(29, 109).
edge(29, 125).
edge(50, 109).
edge(33, 142).
edge(127, 133).
edge(34, 127).
edge(136, 144).
edge(40, 147).
edge(53, 107).
edge(12, 133).
edge(32, 71).
edge(98, 162).
edge(76, 103).
edge(47, 170).
edge(2, 100).
edge(61, 131).
edge(74, 168).
edge(142, 158).
edge(81, 87).
edge(69, 128).
edge(35, 54).
edge(77, 110).
edge(64, 129).
edge(70, 162).
edge(90, 160).
edge(32, 39).
edge(139, 159).
edge(70, 71).
edge(55, 165).
edge(11, 55).
edge(13, 15).
edge(4, 35).
edge(36, 47).
edge(15, 78).
edge(41, 155).
edge(3, 30).
edge(32, 78).
edge(161, 169).
edge(101, 119).
edge(143, 159).
edge(22, 82).
edge(35, 55).
edge(20, 67).
edge(40, 130).
edge(25, 147).
edge(23, 163).
edge(22, 90).
edge(43, 105).
edge(21, 97).
edge(15, 124).
edge(80, 87).
edge(34, 137).
edge(17, 66).
edge(14, 93).
edge(36, 110).
edge(1, 47).
edge(69, 101).
edge(32, 60).
edge(17, 114).
edge(40, 54).
edge(43, 147).
edge(124, 154).
edge(3, 33).
edge(67, 143).
edge(90, 114).
edge(6, 17).
edge(90, 132).
edge(3, 29).
edge(31, 101).
edge(127, 162).
edge(45, 89).
edge(45, 163).
edge(95, 169).
edge(16, 85).
edge(84, 113).
edge(60, 125).
edge(43, 56).
edge(28, 118).
edge(112, 130).
edge(57, 84).
edge(129, 137).
edge(3, 52).
edge(0, 136).
edge(19, 149).
edge(43, 90).
edge(6, 30).
edge(96, 102).
edge(54, 151).
edge(30, 51).
edge(20, 93).
edge(47, 150).
edge(83, 142).
edge(21, 78).
edge(44, 66).
edge(85, 111).
edge(73, 84).
edge(0, 10).
edge(83, 141).
edge(4, 146).
edge(75, 156).
edge(97, 162).
edge(117, 144).
edge(123, 158).
edge(66, 84).
edge(44, 85).
edge(32, 164).
edge(90, 97).
edge(25, 150).
edge(0, 78).
edge(51, 135).
edge(91, 136).
edge(71, 130).
edge(45, 82).
edge(102, 103).
edge(27, 32).
edge(58, 74).
edge(48, 116).
edge(19, 156).
edge(21, 37).
edge(113, 166).
edge(19, 105).
edge(39, 108).
edge(39, 84).
edge(16, 158).
edge(33, 122).
edge(15, 60).
edge(27, 85).
edge(30, 56).
edge(89, 107).
edge(44, 169).
edge(119, 156).
edge(20, 43).
edge(125, 137).
edge(86, 163).
edge(36, 151).
edge(46, 53).
edge(115, 148).
edge(21, 168).
edge(123, 129).
edge(51, 169).
edge(87, 167).
edge(63, 100).
edge(81, 117).
edge(30, 62).
edge(38, 139).
edge(3, 166).
edge(3, 6).
edge(52, 168).
edge(5, 128).
edge(65, 115).
edge(137, 169).
edge(4, 34).
edge(20, 88).
edge(75, 85).
edge(21, 88).
edge(4, 167).
edge(0, 75).
edge(152, 157).
edge(50, 164).
edge(146, 167).
edge(1, 34).
edge(83, 112).
edge(45, 69).
edge(17, 34).
edge(45, 58).
edge(3, 112).
edge(7, 34).
edge(9, 102).
edge(58, 133).
edge(2, 154).
edge(62, 157).
edge(92, 143).
edge(162, 170).
edge(13, 156).
edge(25, 169).
edge(30, 101).
edge(17, 29).
edge(26, 52).
edge(32, 142).
edge(38, 66).
edge(13, 26).
edge(98, 169).
edge(141, 161).
edge(32, 161).
edge(58, 82).
edge(72, 118).
edge(48, 88).
edge(95, 111).
edge(1, 32).
edge(94, 161).
edge(5, 157).
edge(125, 127).
edge(12, 73).
edge(35, 65).
edge(58, 130).
edge(40, 75).
edge(26, 147).
edge(112, 115).
edge(107, 157).
edge(67, 130).
edge(108, 118).
edge(73, 103).
edge(119, 125).
edge(84, 87).
edge(109, 128).
edge(38, 55).
edge(7, 165).
edge(139, 142).
edge(42, 126).
edge(132, 139).
edge(34, 103).
edge(100, 105).
edge(50, 58).
edge(42, 111).
edge(40, 117).
edge(99, 107).
edge(12, 97).
edge(21, 138).
edge(87, 129).
edge(68, 168).
edge(46, 132).
edge(44, 67).
edge(1, 7).
edge(108, 146).
edge(28, 79).
edge(18, 30).
edge(93, 111).
edge(27, 60).
edge(124, 169).
edge(9, 37).
edge(89, 105).
edge(34, 85).
edge(32, 56).
edge(95, 97).
edge(76, 150).
edge(105, 154).
edge(55, 99).
edge(27, 167).
edge(6, 117).
edge(8, 56).
edge(17, 87).
edge(12, 107).
edge(144, 147).
edge(71, 156).
edge(106, 165).
edge(28, 120).
edge(97, 120).
edge(36, 100).
edge(127, 169).
edge(70, 168).
edge(9, 31).
edge(18, 29).
edge(6, 125).
edge(14, 75).
edge(10, 73).
edge(58, 152).
edge(14, 38).
edge(78, 96).
edge(15, 114).
edge(3, 22).
edge(45, 108).
edge(53, 75).
edge(1, 48).
edge(110, 112).
edge(46, 161).
edge(3, 36).
edge(3, 83).
edge(96, 121).
edge(4, 135).
edge(48, 65).
edge(11, 166).
edge(59, 154).
edge(8, 39).
edge(68, 136).
edge(93, 157).
edge(60, 165).
edge(32, 99).
edge(112, 170).
edge(14, 95).
edge(13, 114).
edge(79, 142).
edge(59, 144).
edge(40, 113).
edge(113, 169).
edge(98, 156).
edge(108, 155).
edge(35, 66).
edge(88, 135).
edge(89, 155).
edge(29, 121).
edge(18, 61).
edge(102, 167).
edge(63, 95).
edge(51, 107).
edge(148, 156).
edge(22, 49).
edge(116, 161).
edge(11, 137).
edge(27, 126).
edge(31, 133).
edge(18, 98).
edge(128, 130).
edge(54, 146).
edge(75, 113).
edge(10, 168).
edge(76, 84).
edge(12, 131).
edge(59, 120).
edge(115, 120).
edge(52, 108).
edge(52, 58).
edge(129, 147).
edge(66, 78).
edge(32, 75).
edge(33, 112).
edge(64, 131).
edge(132, 166).
edge(30, 94).
edge(2, 55).
edge(129, 136).
edge(6, 64).
edge(22, 127).
edge(62, 148).
edge(81, 84).
edge(19, 145).
edge(5, 129).
edge(28, 157).
edge(29, 80).
edge(32, 46).
edge(42, 89).
edge(129, 159).
edge(24, 145).
edge(148, 164).
edge(32, 168).
edge(161, 165).
edge(36, 144).
edge(74, 89).
edge(24, 80).
edge(15, 70).
edge(86, 112).
edge(18, 56).
edge(117, 124).
edge(32, 106).
edge(13, 165).
edge(55, 102).
edge(106, 127).
edge(9, 14).
edge(55, 138).
edge(56, 170).
edge(43, 150).
edge(127, 146).
edge(65, 117).
edge(12, 20).
edge(38, 64).
edge(57, 73).
edge(43, 100).
edge(23, 43).
edge(87, 143).
edge(11, 134).
edge(35, 123).
edge(4, 25).
edge(120, 167).
edge(107, 164).
edge(48, 138).
edge(119, 126).
edge(121, 159).
edge(112, 159).
edge(21, 166).
edge(65, 95).
edge(4, 134).
edge(118, 127).
edge(140, 147).
edge(50, 91).
edge(20, 64).
edge(16, 161).
edge(78, 164).
edge(37, 134).
edge(8, 109).
edge(45, 116).
edge(51, 151).
edge(46, 95).
edge(12, 26).
edge(58, 69).
edge(84, 111).
edge(106, 125).
edge(45, 50).
edge(57, 87).
edge(138, 153).
edge(11, 67).
edge(72, 105).
edge(88, 134).
edge(2, 28).
edge(91, 100).
edge(50, 99).
edge(28, 168).
edge(0, 104).
edge(88, 121).
edge(136, 162).
edge(19, 122).
edge(26, 152).
edge(20, 70).
edge(65, 84).
edge(101, 106).
edge(42, 125).
edge(7, 57).
edge(85, 156).
edge(85, 103).
edge(25, 102).
edge(29, 151).
edge(7, 101).
edge(22, 31).
edge(33, 145).
edge(2, 27).
edge(21, 44).
edge(99, 163).
edge(24, 56).
edge(33, 157).
edge(44, 68).
edge(33, 120).
edge(19, 150).
edge(9, 140).
edge(18, 70).
edge(13, 101).
edge(61, 110).
edge(4, 150).
edge(59, 121).
edge(116, 126).
edge(22, 34).
edge(72, 84).
edge(63, 160).
edge(7, 50).
edge(108, 152).
edge(94, 136).
edge(22, 68).
edge(8, 44).
edge(41, 104).
edge(64, 67).
edge(18, 149).
edge(15, 144).
edge(6, 122).
edge(84, 140).
edge(26, 141).
edge(119, 154).
edge(4, 56).
edge(33, 84).
edge(100, 132).
edge(71, 166).
edge(29, 146).
edge(18, 68).
edge(84, 162).
edge(12, 150).
edge(87, 92).
edge(21, 81).
edge(94, 146).
edge(15, 81).
edge(102, 166).
edge(141, 156).
edge(32, 94).
edge(104, 117).
edge(97, 119).
edge(62, 151).
edge(141, 142).
edge(65, 129).
edge(133, 140).
edge(52, 140).
edge(114, 156).
edge(111, 128).
edge(27, 74).
edge(83, 146).
edge(65, 86).
edge(12, 66).
edge(26, 55).
edge(29, 127).
edge(112, 136).
edge(97, 125).
edge(119, 153).
edge(26, 119).
edge(53, 112).
edge(19, 127).
edge(78, 165).
edge(49, 82).
edge(93, 152).
edge(44, 141).
edge(111, 124).
edge(50, 64).
edge(128, 142).
edge(21, 145).
edge(37, 121).
edge(115, 138).
edge(10, 59).
edge(38, 65).
edge(74, 145).
edge(60, 68).
edge(12, 74).
edge(11, 144).
edge(2, 145).
edge(17, 101).
edge(25, 84).
edge(51, 156).
edge(9, 38).
edge(150, 166).
edge(44, 146).
edge(78, 104).
edge(57, 146).
edge(1, 153).
edge(4, 47).
edge(11, 68).
edge(1, 116).
edge(31, 126).
edge(42, 116).
edge(55, 92).
edge(2, 166).
edge(5, 111).
edge(3, 78).
edge(105, 169).
edge(27, 40).
edge(136, 165).
edge(89, 157).
edge(77, 81).
edge(17, 38).
edge(35, 110).
edge(7, 51).
edge(25, 91).
edge(20, 157).
edge(34, 84).
edge(144, 165).
edge(64, 84).
edge(29, 147).
edge(31, 110).
edge(76, 105).
edge(52, 158).
edge(71, 108).
edge(68, 143).
edge(15, 61).
edge(17, 135).
edge(49, 112).
edge(97, 161).
edge(111, 129).
edge(4, 101).
edge(45, 146).
edge(99, 150).
edge(2, 50).
edge(31, 47).
edge(5, 17).
edge(27, 165).
edge(19, 24).
edge(98, 119).
edge(17, 104).
edge(105, 131).
edge(18, 94).
edge(110, 140).
edge(117, 160).
edge(74, 141).
edge(123, 125).
edge(93, 121).
edge(65, 89).
edge(5, 118).
edge(54, 113).
edge(163, 164).
edge(23, 167).
edge(62, 142).
edge(68, 144).
edge(85, 138).
edge(142, 169).
edge(83, 148).
edge(109, 145).
edge(124, 142).
edge(51, 164).
edge(56, 105).
edge(53, 94).
edge(21, 144).
edge(29, 168).
edge(18, 59).
edge(12, 30).
edge(56, 166).
edge(94, 124).
edge(27, 98).
edge(21, 36).
edge(3, 64).
edge(79, 168).
edge(60, 118).
edge(42, 64).
edge(61, 66).
edge(43, 135).
edge(54, 156).
edge(31, 53).
edge(124, 135).
edge(124, 133).
edge(78, 118).
edge(53, 165).
edge(68, 149).
edge(75, 152).
edge(5, 143).
edge(93, 108).
edge(21, 154).
edge(94, 106).
edge(92, 114).
edge(153, 170).
edge(71, 127).
edge(24, 159).
edge(2, 36).
edge(16, 94).
edge(106, 152).
edge(35, 78).
edge(38, 146).
edge(9, 120).
edge(85, 99).
edge(30, 167).
edge(113, 122).
edge(106, 113).
edge(58, 110).
edge(64, 133).
edge(67, 104).
edge(9, 158).
edge(90, 103).
edge(38, 157).
edge(127, 144).
edge(128, 137).
edge(77, 99).
edge(41, 169).
edge(10, 147).
edge(125, 135).
edge(111, 127).
edge(44, 112).
edge(8, 35).
edge(9, 10).
edge(3, 34).
edge(133, 155).
edge(33, 65).
edge(45, 157).
edge(54, 59).
edge(72, 157).
edge(110, 165).
edge(3, 116).
edge(14, 106).
edge(15, 82).
edge(25, 33).
edge(112, 147).
edge(62, 106).
edge(29, 100).
edge(126, 159).
edge(45, 54).
edge(73, 150).
edge(51, 167).
edge(54, 121).
edge(72, 138).
edge(81, 163).
edge(124, 153).
edge(86, 120).
edge(102, 147).
edge(108, 162).
edge(39, 53).
edge(7, 66).
edge(142, 168).
edge(40, 143).
edge(41, 162).
edge(119, 151).
edge(92, 162).
edge(55, 159).
edge(63, 170).
edge(46, 78).
edge(46, 148).
edge(40, 66).
edge(53, 162).
edge(4, 53).
edge(4, 154).
edge(11, 91).
edge(6, 143).
edge(119, 128).
edge(37, 57).
edge(93, 126).
edge(95, 145).
edge(24, 96).
edge(126, 143).
edge(5, 88).
edge(110, 120).
edge(36, 142).
edge(99, 105).
edge(4, 55).
edge(5, 52).
edge(19, 69).
edge(75, 105).
edge(2, 43).
edge(33, 77).
edge(52, 95).
edge(32, 107).
edge(141, 159).
edge(24, 44).
edge(42, 144).
edge(41, 64).
edge(128, 133).
edge(50, 77).
edge(49, 69).
edge(45, 130).
edge(69, 147).
edge(21, 135).
edge(29, 32).
edge(5, 48).
edge(39, 64).
edge(47, 147).
edge(43, 163).
edge(0, 91).
edge(41, 151).
edge(7, 68).
edge(26, 162).
edge(122, 131).
edge(86, 140).
edge(75, 137).
edge(55, 148).
edge(114, 169).
edge(28, 128).
edge(45, 84).
edge(12, 113).
edge(19, 47).
edge(10, 65).
edge(137, 160).
edge(61, 169).
edge(25, 166).
edge(69, 161).
edge(35, 130).
edge(31, 136).
edge(8, 67).
edge(31, 56).
edge(0, 164).
edge(70, 77).
edge(26, 127).
edge(23, 77).
edge(1, 29).
edge(24, 36).
edge(58, 125).
edge(145, 152).
edge(117, 165).
edge(81, 118).
edge(79, 140).
edge(85, 160).
edge(52, 54).
edge(44, 116).
edge(56, 144).
edge(5, 89).
edge(9, 27).
edge(79, 136).
edge(25, 120).
edge(62, 80).
edge(59, 126).
edge(29, 31).
edge(55, 95).
edge(21, 58).
edge(132, 136).
edge(27, 113).
edge(44, 110).
edge(22, 109).
edge(8, 102).
edge(89, 91).
edge(45, 141).
edge(69, 143).
edge(103, 106).
edge(54, 155).
edge(14, 80).
edge(19, 57).
edge(57, 93).
edge(2, 76).
edge(99, 111).
edge(60, 109).
edge(111, 170).
edge(3, 161).
edge(112, 144).
edge(68, 85).
edge(44, 48).
edge(89, 131).
edge(35, 58).
edge(104, 164).
edge(92, 161).
edge(25, 154).
edge(98, 116).
edge(54, 81).
edge(124, 160).
edge(93, 155).
edge(52, 146).
edge(32, 110).
edge(9, 170).
edge(59, 156).
edge(43, 164).
edge(95, 137).
edge(55, 65).
edge(85, 166).
edge(100, 109).
edge(129, 134).
edge(102, 150).
edge(7, 156).
edge(16, 110).
edge(15, 98).
edge(116, 162).
edge(53, 72).
edge(6, 82).
edge(83, 88).
edge(94, 149).
edge(74, 137).
edge(30, 85).
edge(66, 125).
edge(1, 2).
edge(126, 162).
edge(69, 107).
edge(55, 59).
edge(59, 93).
edge(21, 59).
edge(27, 153).
edge(116, 170).
edge(30, 65).
edge(129, 151).
edge(44, 119).
edge(38, 69).
edge(19, 68).
edge(65, 75).
edge(103, 107).
edge(14, 122).
edge(96, 106).
edge(43, 117).
edge(75, 108).
edge(30, 150).
edge(28, 158).
edge(106, 169).
edge(46, 107).
edge(36, 140).
edge(61, 154).
edge(46, 118).
edge(58, 160).
edge(29, 94).
edge(116, 168).
edge(135, 138).
edge(59, 168).
edge(2, 34).
edge(132, 170).
edge(84, 159).
edge(67, 98).
edge(106, 142).
edge(87, 163).
edge(90, 168).
edge(52, 122).
edge(61, 133).
edge(1, 79).
edge(93, 153).
edge(84, 98).
edge(0, 3).
edge(18, 71).
edge(16, 49).
edge(145, 167).
edge(28, 30).
edge(125, 148).
edge(61, 149).
edge(24, 101).
edge(165, 166).
edge(99, 148).
edge(3, 132).
edge(15, 142).
edge(89, 163).
edge(119, 161).
edge(119, 155).
edge(65, 150).
edge(27, 70).
edge(22, 46).
edge(11, 30).
edge(33, 99).
edge(71, 169).
edge(57, 170).
edge(17, 68).
edge(32, 158).
edge(18, 66).
edge(87, 105).
edge(98, 164).
edge(13, 116).
edge(44, 71).
edge(25, 29).
edge(2, 135).
edge(25, 35).
edge(41, 92).
edge(35, 62).
edge(70, 144).
edge(85, 114).
edge(62, 68).
edge(76, 92).
edge(5, 131).
edge(71, 87).
edge(100, 157).
edge(51, 88).
edge(43, 46).
edge(0, 100).
edge(12, 31).
edge(49, 118).
edge(109, 140).
edge(41, 131).
edge(14, 141).
edge(106, 167).
edge(136, 170).
edge(109, 155).
edge(25, 60).
edge(10, 16).
edge(34, 64).
edge(102, 116).
edge(5, 75).
edge(37, 110).
edge(40, 101).
edge(12, 59).
edge(27, 55).
edge(41, 146).
edge(10, 117).
edge(72, 167).
edge(59, 135).
edge(93, 169).
edge(8, 14).
edge(1, 162).
edge(19, 82).
edge(53, 79).
edge(115, 165).
edge(7, 45).
edge(11, 33).
edge(66, 141).
edge(14, 26).
edge(51, 57).
edge(14, 35).
edge(56, 81).
edge(131, 147).
edge(61, 74).
edge(13, 59).
edge(48, 50).
edge(17, 161).
edge(51, 106).
edge(82, 160).
edge(22, 106).
edge(36, 111).
edge(51, 104).
edge(73, 85).
edge(58, 61).
edge(119, 123).
edge(120, 138).
edge(24, 109).
edge(26, 96).
edge(30, 160).
edge(93, 146).
edge(55, 163).
edge(34, 122).
edge(20, 154).
edge(73, 100).
edge(147, 162).
edge(71, 160).
edge(29, 85).
edge(60, 102).
edge(44, 128).
edge(79, 83).
edge(19, 23).
edge(1, 108).
edge(14, 83).
edge(11, 36).
edge(107, 118).
edge(87, 101).
edge(25, 113).
edge(39, 132).
edge(113, 131).
edge(22, 35).
edge(20, 63).
edge(11, 66).
edge(44, 120).
edge(48, 117).
edge(4, 130).
edge(64, 141).
edge(13, 137).
edge(37, 81).
edge(48, 154).
edge(59, 167).
edge(12, 117).
edge(18, 146).
edge(34, 70).
edge(66, 147).
edge(64, 125).
edge(88, 91).
edge(160, 169).
edge(167, 170).
edge(154, 167).
edge(28, 87).
edge(8, 141).
edge(145, 161).
edge(156, 161).
edge(70, 150).
edge(14, 138).
edge(32, 47).
edge(79, 116).
edge(69, 92).
edge(22, 112).
edge(47, 149).
edge(53, 160).
edge(47, 102).
edge(24, 39).
edge(115, 127).
edge(17, 37).
edge(5, 164).
edge(99, 109).
edge(34, 156).
edge(91, 99).
edge(10, 159).
edge(13, 159).
edge(13, 120).
edge(107, 122).
edge(122, 163).
edge(125, 144).
edge(43, 83).
edge(67, 81).
edge(79, 169).
edge(23, 31).
edge(16, 99).
edge(11, 81).
edge(49, 78).
edge(23, 88).
edge(45, 79).
edge(72, 161).
edge(50, 106).
edge(68, 150).
edge(49, 163).
edge(45, 145).
edge(11, 17).
edge(152, 169).
edge(20, 159).
edge(28, 99).
edge(27, 116).
edge(17, 65).
edge(51, 157).
edge(39, 93).
edge(123, 149).
edge(95, 110).
edge(35, 133).
edge(118, 119).
edge(16, 54).
edge(19, 56).
edge(128, 163).
edge(67, 151).
edge(11, 114).
edge(96, 128).
edge(45, 162).
edge(73, 164).
edge(74, 104).
edge(46, 63).
edge(65, 69).
edge(95, 140).
edge(134, 153).
edge(59, 146).
edge(7, 144).
edge(88, 160).
edge(132, 143).
edge(19, 59).
edge(33, 86).
edge(85, 117).
edge(56, 99).
edge(110, 135).
edge(30, 168).
edge(10, 105).
edge(54, 109).
edge(26, 88).
edge(86, 165).
edge(126, 142).
edge(118, 121).
edge(2, 119).
edge(125, 134).
edge(50, 115).
edge(120, 158).
edge(15, 128).
edge(13, 43).
edge(75, 77).
edge(112, 126).
edge(34, 80).
edge(36, 52).
edge(129, 168).
edge(87, 125).
edge(94, 157).
edge(123, 162).
edge(3, 105).
edge(29, 48).
edge(104, 163).
edge(1, 46).
edge(28, 124).
edge(45, 72).
edge(70, 148).
edge(32, 123).
edge(67, 161).
edge(32, 98).
edge(56, 143).
edge(11, 101).
edge(132, 161).
edge(131, 140).
edge(10, 163).
edge(158, 170).
edge(47, 113).
edge(31, 102).
edge(39, 43).
edge(42, 69).
edge(7, 170).
edge(59, 94).
edge(135, 162).
edge(86, 89).
edge(157, 169).
edge(40, 94).
edge(26, 45).
edge(74, 122).
edge(8, 154).
edge(17, 123).
edge(72, 155).
edge(42, 127).
edge(43, 154).
edge(53, 58).
edge(16, 144).
edge(2, 139).
edge(144, 160).
edge(7, 76).
edge(46, 131).
edge(96, 137).
edge(106, 131).
edge(108, 164).
edge(69, 170).
edge(98, 133).
edge(29, 41).
edge(64, 75).
edge(47, 60).
edge(64, 101).
edge(35, 101).
edge(11, 84).
edge(17, 152).
edge(47, 61).
edge(42, 108).
edge(127, 170).
edge(26, 35).
edge(89, 154).
edge(17, 125).
edge(67, 112).
edge(62, 135).
edge(110, 137).
edge(45, 170).
edge(34, 63).
edge(10, 21).
edge(84, 122).
edge(129, 148).
edge(86, 108).
edge(6, 38).
edge(63, 90).
edge(69, 94).
edge(35, 49).
edge(42, 151).
edge(74, 130).
edge(12, 160).
edge(87, 110).
edge(55, 140).
edge(0, 54).
edge(105, 111).
edge(19, 67).
edge(23, 38).
edge(7, 71).
edge(0, 144).
edge(16, 45).
edge(67, 149).
edge(87, 149).
edge(1, 105).
edge(6, 97).
edge(12, 96).
edge(88, 93).
edge(48, 56).
edge(108, 121).
edge(118, 166).
edge(72, 123).
edge(17, 102).
edge(8, 152).
edge(75, 139).
edge(18, 28).
edge(142, 162).
edge(101, 108).
edge(9, 33).
edge(30, 61).
edge(96, 135).
edge(7, 17).
edge(32, 122).
edge(4, 136).
edge(120, 155).
edge(6, 25).
edge(52, 132).
edge(122, 123).
edge(109, 122).
edge(9, 103).
edge(83, 154).
edge(36, 84).
edge(103, 133).
edge(122, 152).
edge(94, 115).
edge(37, 163).
edge(77, 133).
edge(114, 154).
edge(31, 87).
edge(29, 88).
edge(85, 101).
edge(98, 152).
edge(145, 158).
edge(89, 92).
edge(50, 165).
edge(39, 89).
edge(12, 63).
edge(21, 75).
edge(31, 54).
edge(95, 130).
edge(115, 126).
edge(77, 94).
edge(15, 45).
edge(117, 166).
edge(68, 133).
edge(48, 49).
edge(18, 105).
edge(52, 63).
edge(59, 151).
edge(68, 89).
edge(1, 64).
edge(57, 97).
edge(104, 138).
edge(106, 168).
edge(93, 123).
edge(62, 143).
edge(90, 165).
edge(100, 144).
edge(75, 87).
edge(75, 155).
edge(31, 165).
edge(48, 80).
edge(126, 150).
edge(56, 112).
edge(3, 117).
edge(5, 39).
edge(38, 93).
edge(18, 114).
edge(122, 136).
edge(16, 139).
edge(2, 159).
edge(122, 158).
edge(36, 120).
edge(116, 121).
edge(8, 26).
edge(26, 73).
edge(45, 144).
edge(26, 121).
edge(76, 146).
edge(22, 156).
edge(67, 95).
edge(20, 82).
edge(126, 154).
edge(22, 76).
edge(46, 119).
edge(57, 68).
edge(115, 170).
edge(32, 166).
edge(73, 140).
edge(85, 148).
edge(143, 147).
edge(123, 138).
edge(11, 133).
edge(74, 146).
edge(6, 130).
edge(32, 76).
edge(5, 167).
edge(12, 37).
edge(65, 152).
edge(109, 112).
edge(76, 89).
edge(18, 103).
edge(9, 75).
edge(7, 15).
edge(20, 22).
edge(102, 138).
edge(0, 59).
edge(91, 121).
edge(15, 147).
edge(11, 63).
edge(89, 127).
edge(71, 94).
edge(11, 160).
edge(82, 155).
edge(6, 57).
edge(114, 138).
edge(46, 92).
edge(48, 160).
edge(79, 115).
edge(2, 103).
edge(12, 79).
edge(17, 130).
edge(12, 157).
edge(156, 157).
edge(117, 151).
edge(41, 143).
edge(71, 164).
edge(81, 92).
edge(34, 148).
edge(96, 169).
edge(11, 121).
edge(48, 164).
edge(29, 153).
edge(37, 125).
edge(127, 152).
edge(19, 26).
edge(28, 35).
edge(13, 61).
edge(46, 105).
edge(18, 89).
edge(26, 64).
edge(32, 113).
edge(2, 20).
edge(39, 50).
edge(89, 119).
edge(85, 137).
edge(66, 106).
edge(110, 166).
edge(42, 156).
edge(83, 153).
edge(119, 129).
edge(16, 46).
edge(127, 161).
edge(129, 163).
edge(152, 155).
edge(74, 109).
edge(2, 49).
edge(35, 53).
edge(15, 68).
edge(16, 122).
edge(111, 114).
edge(23, 124).
edge(86, 148).
edge(44, 78).
edge(73, 125).
edge(76, 100).
edge(27, 124).
edge(12, 105).
edge(52, 107).
edge(46, 59).
edge(11, 78).
edge(7, 89).
edge(66, 150).
edge(99, 116).
edge(56, 100).
edge(7, 59).
edge(38, 121).
edge(62, 155).
edge(80, 141).
edge(48, 91).
edge(105, 161).
edge(39, 158).
edge(4, 123).
edge(44, 157).
edge(112, 162).
edge(91, 143).
edge(43, 121).
edge(4, 67).
edge(54, 57).
edge(10, 37).
edge(21, 56).
edge(101, 139).
edge(6, 48).
edge(78, 145).
edge(91, 102).
edge(8, 168).
edge(28, 43).
edge(51, 120).
edge(140, 162).
edge(3, 165).
edge(10, 137).
edge(47, 95).
edge(25, 63).
edge(79, 127).
edge(31, 52).
edge(47, 92).
edge(6, 85).
edge(85, 124).
edge(55, 127).
edge(16, 41).
edge(36, 76).
edge(53, 150).
edge(16, 36).
edge(44, 102).
edge(93, 165).
edge(30, 38).
edge(109, 151).
edge(102, 128).
edge(4, 10).
edge(72, 162).
edge(20, 141).
edge(118, 148).
edge(48, 170).
edge(58, 92).
edge(70, 152).
edge(1, 33).
edge(24, 85).
edge(66, 74).
edge(140, 152).
edge(71, 91).
edge(18, 113).
edge(47, 81).
edge(42, 128).
edge(79, 144).
edge(27, 95).
edge(50, 126).
edge(70, 124).
edge(63, 101).
edge(18, 100).
edge(37, 58).
edge(74, 80).
edge(38, 44).
edge(86, 142).
edge(130, 152).
edge(48, 62).
edge(58, 138).
edge(25, 167).
edge(78, 153).
edge(60, 94).
edge(21, 163).
edge(34, 68).
edge(133, 153).
edge(1, 12).
edge(56, 138).
edge(89, 159).
edge(68, 86).
edge(75, 121).
edge(24, 28).
edge(4, 147).
edge(8, 27).
edge(68, 159).
edge(2, 156).
edge(65, 157).
edge(116, 117).
edge(34, 96).
edge(131, 151).
edge(121, 122).
edge(79, 155).
edge(45, 91).
edge(26, 164).
edge(13, 86).
edge(22, 66).
edge(70, 118).
edge(66, 89).
edge(44, 99).
edge(37, 38).
edge(32, 89).
edge(31, 122).
edge(47, 88).
edge(81, 142).
edge(9, 169).
edge(71, 109).
edge(124, 158).
edge(29, 132).
edge(14, 46).
edge(135, 143).
edge(74, 140).
edge(47, 76).
edge(62, 140).
edge(135, 169).
edge(51, 162).
edge(91, 166).
edge(45, 138).
edge(80, 158).
edge(84, 107).
edge(79, 139).
edge(55, 122).
edge(87, 142).
edge(15, 87).
edge(138, 164).
edge(1, 152).
edge(66, 138).
edge(133, 157).
edge(12, 45).
edge(7, 24).
edge(49, 70).
edge(50, 142).
edge(13, 33).
edge(46, 153).
edge(112, 124).
edge(43, 51).
edge(132, 158).
edge(87, 133).
edge(40, 115).
edge(35, 126).
edge(66, 127).
edge(122, 143).
edge(130, 163).
edge(90, 157).
edge(8, 70).
edge(96, 158).
edge(8, 150).
edge(50, 75).
edge(45, 76).
edge(13, 73).
edge(15, 51).
edge(40, 134).
edge(61, 100).
edge(75, 127).
edge(7, 150).
edge(15, 91).
edge(42, 71).
edge(88, 132).
edge(37, 167).
edge(34, 161).
edge(110, 151).
edge(95, 102).
edge(9, 81).
edge(10, 145).
edge(23, 160).
edge(95, 158).
edge(44, 152).
edge(91, 137).
edge(7, 29).
edge(120, 139).
edge(29, 162).
edge(24, 47).
edge(26, 68).
edge(39, 130).
edge(61, 91).
edge(102, 139).
edge(46, 99).
edge(29, 133).
edge(72, 91).
edge(48, 51).
edge(12, 19).
edge(129, 143).
edge(8, 84).
edge(12, 70).
edge(43, 57).
edge(23, 40).
edge(42, 133).
edge(91, 167).
edge(113, 128).
edge(3, 137).
edge(21, 93).
edge(74, 170).
edge(46, 124).
edge(45, 133).
edge(146, 163).
edge(42, 119).
edge(7, 42).
edge(7, 41).
edge(80, 84).
edge(79, 97).
edge(89, 168).
edge(61, 151).
edge(122, 138).
edge(130, 146).
edge(66, 90).
edge(23, 42).
edge(75, 132).
edge(125, 164).
edge(19, 45).
edge(152, 166).
edge(2, 37).
edge(49, 98).
edge(71, 135).
edge(36, 89).
edge(47, 65).
edge(39, 46).
edge(57, 85).
edge(70, 87).
edge(16, 159).
edge(87, 126).
edge(54, 111).
edge(48, 151).
edge(53, 71).
edge(40, 85).
edge(98, 158).
edge(48, 141).
edge(31, 64).
edge(87, 169).
edge(35, 107).
edge(95, 115).
edge(131, 146).
edge(28, 160).
edge(92, 124).
edge(4, 78).
edge(10, 15).
edge(51, 143).
edge(15, 17).
edge(106, 150).
edge(34, 155).
edge(128, 140).
edge(113, 158).
edge(20, 59).
edge(42, 79).
edge(80, 136).
edge(64, 164).
edge(80, 168).
edge(107, 158).
edge(1, 117).
edge(54, 130).
edge(22, 85).
edge(0, 117).
edge(69, 142).
edge(42, 104).
edge(46, 64).
edge(13, 65).
edge(13, 142).
edge(3, 73).
edge(12, 142).
edge(75, 149).
edge(44, 70).
edge(113, 154).
edge(46, 96).
edge(43, 109).
edge(41, 68).
edge(68, 107).
edge(48, 74).
edge(28, 53).
edge(45, 64).
edge(121, 160).
edge(47, 116).
edge(119, 159).
edge(4, 131).
edge(19, 79).
edge(43, 103).
edge(31, 145).
edge(44, 96).
edge(82, 90).
edge(56, 118).
edge(40, 97).
edge(72, 170).
edge(42, 90).
edge(26, 105).
edge(108, 124).
edge(12, 163).
edge(33, 107).
edge(111, 148).
edge(24, 79).
edge(16, 104).
edge(21, 156).
edge(108, 119).
edge(135, 136).
edge(72, 112).
edge(119, 122).
edge(0, 165).
edge(37, 117).
edge(112, 118).
edge(36, 43).
edge(113, 132).
edge(89, 139).
edge(61, 141).
edge(35, 51).
edge(41, 152).
edge(13, 166).
edge(48, 95).
edge(120, 152).
edge(92, 153).
edge(142, 150).
edge(104, 126).
edge(1, 147).
edge(20, 89).
edge(1, 16).
edge(26, 120).
edge(63, 77).
edge(139, 148).
edge(59, 139).
edge(58, 170).
edge(121, 132).
edge(0, 74).
edge(24, 92).
edge(8, 12).
edge(142, 164).
edge(106, 164).
edge(1, 111).
edge(54, 85).
edge(19, 78).
edge(16, 26).
edge(36, 93).
edge(26, 158).
edge(14, 25).
edge(15, 65).
edge(14, 126).
edge(25, 27).
edge(28, 101).
edge(21, 89).
edge(40, 70).
edge(14, 143).
edge(35, 91).
edge(55, 90).
edge(20, 115).
edge(68, 130).
edge(14, 160).
edge(9, 137).
edge(146, 152).
edge(18, 21).
edge(20, 39).
edge(29, 106).
edge(95, 112).
edge(39, 140).
edge(85, 142).
edge(145, 146).
edge(79, 153).
edge(88, 129).
edge(2, 74).
edge(75, 96).
edge(145, 169).
edge(98, 154).
edge(55, 164).
edge(35, 118).
edge(79, 117).
edge(16, 74).
edge(29, 42).
edge(44, 144).
edge(116, 133).
edge(8, 145).
edge(73, 133).
edge(79, 143).
edge(52, 60).
edge(98, 117).
edge(32, 133).
edge(32, 85).
edge(31, 132).
edge(122, 141).
edge(118, 123).
edge(42, 112).
edge(3, 13).
edge(32, 87).
edge(17, 71).
edge(4, 14).
edge(55, 69).
edge(25, 107).
edge(32, 143).
edge(29, 56).
edge(1, 170).
edge(19, 63).
edge(76, 78).
edge(111, 132).
edge(65, 96).
edge(22, 168).
edge(72, 106).
edge(142, 149).
edge(58, 149).
edge(37, 115).
edge(79, 163).
edge(132, 163).
edge(14, 85).
edge(68, 135).
edge(14, 131).
edge(49, 109).
edge(63, 166).
edge(7, 28).
edge(32, 68).
edge(56, 83).
edge(33, 97).
edge(60, 74).
edge(74, 86).
edge(91, 139).
edge(63, 140).
edge(75, 169).
edge(42, 88).
edge(20, 29).
edge(139, 154).
edge(106, 170).
edge(0, 40).
edge(50, 55).
edge(80, 115).
edge(96, 109).
edge(66, 105).
edge(110, 156).
edge(123, 151).
edge(50, 80).
edge(55, 73).
edge(66, 82).
edge(92, 98).
edge(16, 153).
edge(105, 149).
edge(93, 101).
edge(40, 169).
edge(17, 25).
edge(20, 57).
edge(21, 133).
edge(56, 123).
edge(127, 135).
edge(38, 127).
edge(140, 165).
edge(5, 76).
edge(68, 76).
edge(73, 126).
edge(35, 114).
edge(36, 54).
edge(16, 166).
edge(10, 128).
edge(53, 103).
edge(12, 28).
edge(50, 104).
edge(46, 79).
edge(142, 144).
edge(46, 126).
edge(80, 166).
edge(8, 98).
edge(52, 82).
edge(3, 147).
edge(117, 121).
edge(25, 26).
edge(32, 104).
edge(6, 115).
edge(110, 148).
edge(65, 158).
edge(81, 107).
edge(84, 86).
edge(45, 65).
edge(37, 141).
edge(15, 34).
edge(1, 118).
edge(123, 148).
edge(16, 39).
edge(13, 124).
edge(0, 46).
edge(54, 169).
edge(100, 145).
edge(134, 156).
edge(43, 63).
edge(104, 129).
edge(77, 87).
edge(127, 141).
edge(98, 107).
edge(36, 119).
edge(99, 134).
edge(59, 71).
edge(58, 64).
edge(8, 30).
edge(70, 116).
edge(56, 82).
edge(27, 164).
edge(16, 101).
edge(5, 47).
edge(18, 52).
edge(15, 69).
edge(12, 158).
edge(33, 150).
edge(8, 41).
edge(64, 135).
edge(75, 159).
edge(27, 92).
edge(22, 80).
edge(73, 130).
edge(35, 153).
edge(64, 76).
edge(78, 132).
edge(89, 133).
edge(91, 161).
edge(29, 95).
edge(45, 120).
edge(67, 137).
edge(42, 84).
edge(131, 133).
edge(22, 161).
edge(0, 93).
edge(52, 104).
edge(13, 98).
edge(32, 112).
edge(37, 51).
edge(90, 153).
edge(54, 122).
edge(13, 83).
edge(13, 108).
edge(90, 116).
edge(120, 122).
edge(18, 148).
edge(108, 132).
edge(118, 160).
edge(70, 157).
edge(32, 77).
edge(74, 90).
edge(29, 54).
edge(20, 167).
edge(125, 162).
edge(5, 26).
edge(24, 138).
edge(50, 150).
edge(10, 144).
edge(130, 137).
edge(44, 126).
edge(13, 77).
edge(92, 137).
edge(100, 161).
edge(76, 161).
edge(92, 126).
edge(26, 166).
edge(95, 141).
edge(115, 159).
edge(30, 87).
edge(48, 70).
edge(102, 104).
edge(36, 109).
edge(71, 86).
edge(1, 115).
edge(68, 151).
edge(0, 121).
edge(37, 166).
edge(36, 85).
edge(21, 136).
edge(43, 70).
edge(16, 81).
edge(7, 87).
edge(123, 127).
edge(83, 126).
edge(44, 87).
edge(13, 21).
edge(2, 25).
edge(44, 106).
edge(44, 89).
edge(62, 164).
edge(7, 31).
edge(89, 134).
edge(91, 151).
edge(73, 122).
edge(18, 109).
edge(0, 130).
edge(47, 142).
edge(9, 92).
edge(11, 24).
edge(27, 133).
edge(52, 166).
edge(21, 34).
edge(54, 167).
edge(37, 152).
edge(90, 95).
edge(99, 112).
edge(109, 123).
edge(48, 135).
edge(116, 138).
edge(35, 169).
edge(88, 151).
edge(74, 143).
edge(48, 64).
edge(45, 149).
edge(60, 87).
edge(94, 141).
edge(118, 154).
edge(10, 101).
edge(3, 38).
edge(51, 100).
edge(79, 109).
edge(6, 138).
edge(44, 118).
edge(38, 114).
edge(17, 170).
edge(160, 170).
edge(67, 119).
edge(38, 39).
edge(13, 149).
edge(72, 98).
edge(55, 124).
edge(21, 113).
edge(15, 37).
edge(138, 158).
edge(4, 105).
edge(81, 156).
edge(7, 20).
edge(9, 72).
edge(55, 117).
edge(136, 153).
edge(33, 63).
edge(105, 108).
edge(33, 168).
edge(78, 93).
edge(12, 25).
edge(119, 166).
edge(23, 168).
edge(58, 111).
edge(8, 66).
edge(143, 169).
edge(92, 110).
edge(51, 138).
edge(57, 58).
edge(37, 113).
edge(2, 80).
edge(18, 111).
edge(8, 147).
edge(111, 161).
edge(75, 119).
edge(2, 72).
edge(37, 73).
edge(52, 80).
edge(40, 58).
edge(158, 160).
edge(148, 165).
edge(132, 162).
edge(46, 120).
edge(50, 101).
edge(36, 145).
edge(53, 73).
edge(40, 56).
edge(119, 132).
edge(89, 97).
edge(17, 44).
edge(34, 97).
edge(57, 100).
edge(116, 160).
edge(164, 170).
edge(42, 135).
edge(48, 126).
edge(5, 146).
edge(6, 22).
edge(14, 81).
edge(54, 88).
edge(39, 163).
edge(10, 138).
edge(32, 69).
edge(75, 142).
edge(143, 153).
edge(12, 119).
edge(44, 163).
edge(141, 164).
edge(98, 150).
edge(0, 141).
edge(33, 114).
edge(73, 159).
edge(28, 37).
edge(77, 95).
edge(41, 110).
edge(0, 56).
edge(137, 155).
edge(44, 62).
edge(29, 77).
edge(16, 136).
edge(31, 93).
edge(108, 157).
edge(59, 73).
edge(138, 154).
edge(22, 170).
edge(48, 102).
edge(47, 154).
edge(42, 68).
edge(7, 153).
edge(104, 132).
edge(35, 60).
edge(30, 37).
edge(130, 143).
edge(26, 145).
edge(131, 169).
edge(22, 145).
edge(12, 169).
edge(23, 35).
edge(127, 140).
edge(151, 162).
edge(110, 168).
edge(25, 156).
edge(10, 17).
edge(51, 66).
edge(62, 67).
edge(0, 44).
edge(28, 46).
edge(29, 70).
edge(134, 139).
edge(2, 90).
edge(26, 167).
edge(17, 67).
edge(23, 97).
edge(17, 116).
edge(25, 101).
edge(114, 165).
edge(87, 93).
edge(41, 135).
edge(105, 126).
edge(16, 121).
edge(95, 126).
edge(80, 155).
edge(85, 146).
edge(56, 71).
edge(151, 169).
edge(28, 68).
edge(65, 135).
edge(69, 151).
edge(110, 147).
edge(59, 130).
edge(50, 143).
edge(93, 168).
edge(0, 70).
edge(142, 167).
edge(12, 82).
edge(129, 146).
edge(80, 112).
edge(37, 79).
edge(107, 129).
edge(59, 142).
edge(49, 61).
edge(97, 146).
edge(5, 28).
edge(135, 154).
edge(8, 131).
edge(138, 146).
edge(52, 117).
edge(90, 109).
edge(117, 133).
edge(64, 89).
edge(28, 39).
edge(58, 85).
edge(29, 130).
edge(125, 141).
edge(73, 77).
edge(66, 86).
edge(132, 159).
edge(8, 134).
edge(17, 127).
edge(84, 144).
edge(0, 101).
edge(72, 86).
edge(28, 59).
edge(16, 23).
edge(16, 31).
edge(119, 168).
edge(9, 26).
edge(86, 90).
edge(21, 40).
edge(61, 129).
edge(30, 137).
edge(63, 167).
edge(120, 161).
edge(65, 113).
edge(83, 101).
edge(69, 84).
edge(67, 83).
edge(149, 155).
edge(45, 75).
edge(39, 66).
edge(44, 123).
edge(20, 100).
edge(57, 150).
edge(45, 71).
edge(129, 149).
edge(44, 158).
edge(43, 116).
edge(104, 157).
edge(35, 165).
edge(111, 154).
edge(21, 26).
edge(6, 96).
edge(27, 137).
edge(3, 122).
edge(16, 127).
edge(48, 123).
edge(8, 78).
edge(18, 65).
edge(59, 86).
edge(92, 165).
edge(72, 81).
edge(51, 68).
edge(96, 134).
edge(6, 87).
edge(14, 20).
edge(131, 149).
edge(99, 143).
edge(84, 133).
edge(48, 96).
edge(12, 141).
edge(88, 116).
edge(82, 101).
edge(85, 109).
edge(29, 170).
edge(29, 148).
edge(24, 72).
edge(101, 114).
edge(29, 110).
edge(64, 97).
edge(23, 60).
edge(109, 144).
edge(48, 58).
edge(117, 142).
edge(16, 86).
edge(81, 159).
edge(12, 112).
edge(27, 49).
edge(25, 87).
edge(114, 155).
edge(23, 84).
edge(80, 97).
edge(116, 131).
edge(37, 136).
edge(70, 134).
edge(94, 156).
edge(22, 98).
edge(152, 163).
edge(64, 161).
edge(15, 47).
edge(73, 155).
edge(80, 118).
edge(93, 112).
edge(22, 30).
edge(78, 135).
edge(75, 94).
edge(65, 90).
edge(51, 53).
edge(3, 17).
edge(100, 125).
edge(63, 64).
edge(119, 170).
edge(19, 84).
edge(30, 104).
edge(45, 68).
edge(13, 75).
edge(34, 100).
edge(36, 126).
edge(8, 142).
edge(2, 111).
edge(69, 117).
edge(87, 115).
edge(39, 156).
edge(52, 159).
edge(68, 145).
edge(10, 77).
edge(141, 170).
edge(98, 126).
edge(31, 127).
edge(15, 137).
edge(155, 161).
edge(5, 144).
edge(79, 165).
edge(106, 123).
edge(102, 135).
edge(55, 79).
edge(36, 63).
edge(105, 140).
edge(33, 66).
edge(70, 147).
edge(12, 155).
edge(7, 32).
edge(47, 115).
edge(123, 134).
edge(44, 167).
edge(80, 140).
edge(87, 97).
edge(63, 103).
edge(9, 160).
edge(97, 136).
edge(79, 98).
edge(39, 107).
edge(6, 62).
edge(130, 161).
edge(12, 98).
edge(19, 54).
edge(82, 117).
edge(72, 142).
edge(34, 72).
edge(16, 77).
edge(41, 167).
edge(35, 68).
edge(24, 97).
edge(102, 153).
edge(59, 74).
edge(28, 169).
edge(28, 69).
edge(122, 130).
edge(8, 153).
edge(28, 161).
edge(65, 74).
edge(55, 91).
edge(7, 94).
edge(111, 116).
edge(84, 153).
edge(15, 74).
edge(24, 111).
edge(43, 53).
edge(50, 122).
edge(21, 77).
edge(62, 131).
edge(21, 51).
edge(141, 166).
edge(31, 98).
edge(73, 90).
edge(61, 97).
edge(98, 122).
edge(14, 148).
edge(14, 119).
edge(115, 121).
edge(84, 99).
edge(105, 163).
edge(50, 84).
edge(49, 90).
edge(97, 143).
edge(103, 148).
edge(114, 134).
edge(82, 156).
edge(65, 110).
edge(139, 157).
edge(106, 117).
edge(32, 40).
edge(65, 92).
edge(37, 77).
edge(6, 37).
edge(82, 166).
edge(88, 163).
edge(104, 112).
edge(49, 55).
edge(1, 164).
edge(7, 141).
edge(108, 144).
edge(113, 161).
edge(132, 169).
edge(14, 64).
edge(98, 118).
edge(62, 125).
edge(70, 166).
edge(22, 137).
edge(44, 64).
edge(73, 157).
edge(25, 42).
edge(32, 65).
edge(78, 154).
edge(17, 57).
edge(24, 83).
edge(95, 99).
edge(41, 78).
edge(91, 169).
edge(20, 130).
edge(125, 147).
edge(19, 103).
edge(3, 169).
edge(28, 29).
edge(91, 97).
edge(121, 163).
edge(18, 116).
edge(43, 146).
edge(13, 46).
edge(58, 147).
edge(68, 156).
edge(19, 108).
edge(21, 134).
edge(3, 110).
edge(100, 115).
edge(76, 88).
edge(111, 142).
edge(92, 156).
edge(79, 84).
edge(64, 149).
edge(77, 143).
edge(48, 159).
edge(8, 63).
edge(96, 148).
edge(3, 32).
edge(101, 104).
edge(18, 115).
edge(72, 77).
edge(112, 168).
edge(86, 164).
edge(134, 145).
edge(12, 53).
edge(22, 142).
edge(30, 145).
edge(21, 28).
edge(33, 92).
edge(10, 129).
edge(54, 90).
edge(164, 166).
edge(22, 141).
edge(24, 129).
edge(113, 152).
edge(58, 66).
edge(30, 80).
edge(22, 105).
edge(41, 170).
edge(124, 170).
edge(21, 71).
edge(59, 152).
edge(33, 81).
edge(23, 131).
edge(10, 134).
edge(118, 165).
edge(52, 136).
edge(104, 158).
edge(58, 60).
edge(6, 16).
edge(24, 102).
edge(28, 51).
edge(29, 156).
edge(120, 169).
edge(112, 122).
edge(12, 110).
edge(33, 98).
edge(123, 143).
edge(15, 134).
edge(7, 108).
edge(80, 89).
edge(82, 167).
edge(47, 55).
edge(130, 166).
edge(96, 145).
edge(65, 118).
edge(126, 135).
edge(18, 54).
edge(105, 156).
edge(89, 165).
edge(23, 153).
edge(166, 169).
edge(20, 33).
edge(36, 44).
edge(123, 126).
edge(56, 126).
edge(125, 160).
edge(130, 133).
edge(123, 141).
edge(25, 89).
edge(101, 116).
edge(113, 127).
edge(46, 130).
edge(14, 34).
edge(6, 86).
edge(97, 101).
edge(125, 158).
edge(93, 150).
edge(79, 101).
edge(64, 152).
edge(117, 128).
edge(25, 131).
edge(2, 131).
edge(8, 45).
edge(29, 49).
edge(0, 23).
edge(100, 140).
edge(110, 149).
edge(89, 108).
edge(10, 31).
edge(114, 123).
edge(6, 50).
edge(20, 148).
edge(71, 133).
edge(60, 113).
edge(103, 116).
edge(18, 86).
edge(64, 140).
edge(10, 24).
edge(67, 167).
edge(55, 105).
edge(81, 93).
edge(95, 164).
edge(135, 149).
edge(15, 39).
edge(86, 92).
edge(16, 108).
edge(39, 95).
edge(9, 49).
edge(98, 105).
edge(40, 120).
edge(42, 138).
edge(90, 150).
edge(26, 106).
edge(60, 88).
edge(58, 101).
edge(97, 112).
edge(0, 25).
edge(11, 109).
edge(94, 169).
edge(35, 154).
edge(74, 144).
edge(1, 169).
edge(17, 117).
edge(36, 107).
edge(48, 129).
edge(5, 36).
edge(40, 122).
edge(77, 131).
edge(26, 143).
edge(28, 65).
edge(78, 107).
edge(26, 85).
edge(61, 130).
edge(35, 157).
edge(103, 109).
edge(36, 156).
edge(80, 85).
edge(3, 168).
edge(79, 92).
edge(11, 145).
edge(85, 102).
edge(111, 137).
edge(118, 162).
edge(25, 86).
edge(8, 38).
edge(55, 109).
edge(30, 162).
edge(10, 97).
edge(44, 155).
edge(23, 104).
edge(148, 152).
edge(54, 83).
edge(3, 10).
edge(126, 144).
edge(6, 147).
edge(78, 150).
edge(1, 68).
edge(16, 168).
edge(91, 125).
edge(92, 134).
edge(85, 152).
edge(9, 149).
edge(123, 170).
edge(104, 146).
edge(93, 142).
edge(41, 122).
edge(90, 122).
edge(23, 166).
edge(84, 93).
edge(2, 114).
edge(9, 36).
edge(107, 140).
edge(34, 41).
edge(18, 58).
edge(27, 128).
edge(9, 162).
edge(24, 149).
edge(37, 96).
edge(43, 160).
edge(88, 136).
edge(143, 155).
edge(95, 101).
edge(34, 115).
edge(124, 128).
edge(108, 145).
edge(12, 58).
edge(106, 139).
edge(42, 168).
edge(82, 128).
edge(17, 54).
edge(15, 48).
edge(127, 139).
edge(91, 128).
edge(81, 153).
edge(61, 80).
edge(9, 121).
edge(97, 158).
edge(5, 120).
edge(133, 164).
edge(58, 124).
edge(63, 66).
edge(4, 66).
edge(1, 107).
edge(38, 112).
edge(10, 154).
edge(56, 97).
edge(22, 38).
edge(37, 72).
edge(16, 28).
edge(78, 169).
edge(58, 100).
edge(19, 95).
edge(30, 89).
edge(51, 137).
edge(16, 80).
edge(81, 126).
edge(40, 98).
edge(69, 103).
edge(12, 91).
edge(29, 57).
edge(50, 57).
edge(17, 106).
edge(84, 124).
edge(28, 50).
edge(47, 122).
edge(5, 50).
edge(154, 160).
edge(10, 131).
edge(22, 139).
edge(15, 106).
edge(145, 160).
edge(101, 131).
edge(16, 58).
edge(25, 105).
edge(38, 48).
edge(11, 102).
edge(6, 100).
edge(89, 167).
edge(124, 166).
edge(28, 106).
edge(66, 97).
edge(103, 139).
edge(107, 167).
edge(93, 103).
edge(74, 100).
edge(72, 102).
edge(15, 140).
edge(80, 162).
edge(46, 71).
edge(30, 138).
edge(0, 39).
edge(86, 146).
edge(1, 44).
edge(2, 41).
edge(83, 136).
edge(1, 37).
edge(131, 161).
edge(48, 128).
edge(11, 157).
edge(7, 158).
edge(117, 125).
edge(8, 124).
edge(59, 72).
edge(42, 75).
edge(43, 52).
edge(29, 116).
edge(35, 43).
edge(57, 120).
edge(25, 139).
edge(10, 52).
edge(77, 124).
edge(29, 119).
edge(12, 50).
edge(114, 121).
edge(14, 101).
edge(117, 168).
edge(114, 161).
edge(2, 65).
edge(109, 149).
edge(35, 150).
edge(13, 151).
edge(106, 158).
edge(40, 127).
edge(13, 40).
edge(24, 100).
edge(14, 157).
edge(38, 102).
edge(91, 152).
edge(9, 167).
edge(60, 150).
edge(56, 76).
edge(78, 109).
edge(78, 117).
edge(22, 43).
edge(38, 103).
edge(14, 61).
edge(15, 86).
edge(73, 145).
edge(115, 132).
edge(15, 31).
edge(118, 132).
edge(1, 157).
edge(15, 80).
edge(39, 161).
edge(156, 164).
edge(133, 148).
edge(8, 72).
edge(53, 95).
edge(70, 119).
edge(73, 123).
edge(17, 160).
edge(44, 104).
edge(31, 169).
edge(62, 159).
edge(31, 66).
edge(29, 51).
edge(81, 124).
edge(18, 124).
edge(104, 153).
edge(8, 32).
edge(20, 71).
edge(154, 166).
edge(79, 141).
edge(67, 91).
edge(113, 167).
edge(56, 59).
edge(51, 67).
edge(56, 113).
edge(48, 149).
edge(113, 148).
edge(40, 53).
edge(39, 133).
edge(142, 148).
edge(31, 76).
edge(149, 163).
edge(8, 54).
edge(40, 159).
edge(102, 151).
edge(19, 40).
edge(73, 80).
edge(80, 131).
edge(41, 138).
edge(50, 112).
edge(10, 135).
edge(110, 144).
edge(51, 113).
edge(62, 84).
edge(71, 107).
edge(36, 113).
edge(51, 114).
edge(17, 144).
edge(43, 102).
edge(31, 111).
edge(89, 143).
edge(116, 141).
edge(163, 170).
edge(18, 139).
edge(112, 153).
edge(19, 125).
edge(53, 108).
edge(5, 115).
edge(12, 149).
edge(17, 52).
edge(47, 164).
edge(16, 73).
edge(97, 110).
edge(81, 155).
edge(105, 144).
edge(49, 89).
edge(54, 160).
edge(24, 87).
edge(101, 156).
edge(13, 125).
edge(88, 95).
edge(59, 116).
edge(21, 153).
edge(116, 152).
edge(151, 170).
edge(79, 131).
edge(57, 152).
edge(60, 153).
edge(134, 159).
edge(33, 139).
edge(108, 149).
edge(80, 148).
edge(55, 126).
edge(81, 165).
edge(13, 68).
edge(15, 40).
edge(76, 139).
edge(95, 153).
edge(1, 75).
edge(12, 49).
edge(59, 160).
edge(71, 83).
edge(59, 134).
edge(11, 32).
edge(29, 135).
edge(95, 138).
edge(84, 150).
edge(5, 22).
edge(10, 29).
edge(64, 163).
edge(0, 95).
edge(53, 170).
edge(38, 90).
edge(71, 153).
edge(6, 47).
edge(81, 140).
edge(10, 95).
edge(30, 91).
edge(102, 162).
edge(57, 67).
edge(36, 150).
edge(89, 93).
edge(22, 140).
edge(125, 161).
edge(45, 95).
edge(34, 50).
edge(6, 141).
edge(16, 76).
edge(113, 140).
edge(70, 78).
edge(6, 108).
edge(35, 105).
edge(0, 79).
edge(9, 134).
edge(76, 110).
edge(25, 59).
edge(94, 165).
edge(65, 168).
edge(11, 12).
edge(23, 27).
edge(90, 135).
edge(48, 113).
edge(35, 42).
edge(107, 170).
edge(139, 160).
edge(10, 162).
edge(97, 106).
edge(17, 39).
edge(85, 107).
edge(48, 75).
edge(53, 147).
edge(18, 125).
edge(128, 132).
edge(70, 100).
edge(68, 125).
edge(18, 121).
edge(1, 74).
edge(9, 113).
edge(63, 76).
edge(115, 137).
edge(121, 128).
edge(12, 99).
edge(64, 78).
edge(90, 94).
edge(2, 165).
edge(7, 95).
edge(52, 120).
edge(84, 90).
edge(23, 143).
edge(117, 118).
edge(66, 128).
edge(15, 113).
edge(48, 87).
edge(50, 123).
edge(76, 156).
edge(116, 156).
edge(74, 114).
edge(23, 110).
edge(27, 108).
edge(70, 160).
edge(34, 129).
edge(6, 126).
edge(9, 32).
edge(12, 72).
edge(102, 158).
edge(99, 139).
edge(34, 136).
edge(64, 71).
edge(47, 108).
edge(49, 114).
edge(49, 161).
edge(108, 116).
edge(13, 97).
edge(56, 114).
edge(16, 138).
edge(21, 151).
edge(57, 69).
edge(47, 138).
edge(106, 141).
edge(42, 166).
edge(0, 50).
edge(81, 138).
edge(47, 120).
edge(49, 64).
edge(7, 27).
edge(39, 148).
edge(32, 105).
edge(91, 155).
edge(77, 170).
edge(42, 46).
edge(34, 102).
edge(21, 130).
edge(57, 149).
edge(1, 86).
edge(20, 92).
edge(52, 162).
edge(46, 166).
edge(109, 143).
edge(13, 93).
edge(86, 121).
edge(32, 131).
edge(38, 94).
edge(12, 62).
edge(128, 147).
edge(74, 131).
edge(94, 151).
edge(31, 124).
edge(51, 160).
edge(22, 40).
edge(140, 143).
edge(51, 125).
edge(72, 156).
edge(15, 155).
edge(143, 157).
edge(66, 102).
edge(116, 124).
edge(137, 151).
edge(2, 141).
edge(38, 67).
edge(123, 132).
edge(91, 113).
edge(80, 159).
edge(74, 103).
edge(116, 123).
edge(81, 157).
edge(35, 86).
edge(46, 114).
edge(70, 149).
edge(87, 107).
edge(19, 159).
edge(33, 154).
edge(9, 135).
edge(14, 136).
edge(78, 158).
edge(44, 97).
edge(31, 158).
edge(65, 164).
edge(71, 90).
edge(3, 47).
edge(21, 159).
edge(9, 156).
edge(120, 145).
edge(35, 149).
edge(35, 147).
edge(12, 46).
edge(35, 79).
edge(15, 151).
edge(3, 74).
edge(32, 116).
edge(52, 112).
edge(87, 150).
edge(7, 148).
edge(4, 9).
edge(63, 96).
edge(56, 137).
edge(18, 82).
edge(34, 54).
edge(41, 99).
edge(19, 100).
edge(94, 162).
edge(10, 41).
edge(125, 128).
edge(44, 107).
edge(82, 165).
edge(34, 77).
edge(69, 112).
edge(73, 165).
edge(52, 105).
edge(33, 160).
edge(23, 78).
edge(31, 135).
edge(36, 163).
edge(0, 83).
edge(118, 124).
edge(120, 162).
edge(146, 166).
edge(99, 170).
edge(107, 113).
edge(21, 86).
edge(136, 147).
edge(47, 124).
edge(70, 74).
edge(3, 57).
edge(92, 163).
edge(28, 151).
edge(96, 140).
edge(1, 133).
edge(148, 170).
edge(63, 68).
edge(114, 119).
edge(91, 126).
edge(82, 143).
edge(34, 159).
edge(95, 109).
edge(23, 64).
edge(74, 156).
edge(33, 59).
edge(62, 136).
edge(117, 148).
edge(24, 133).
edge(57, 95).
edge(130, 138).
edge(45, 106).
edge(14, 129).
edge(8, 163).
edge(36, 42).
edge(0, 49).
edge(88, 168).
edge(66, 107).
edge(124, 148).
edge(29, 145).
edge(57, 165).
edge(41, 100).
edge(65, 156).
edge(14, 108).
edge(139, 144).
edge(2, 22).
edge(82, 104).
edge(39, 147).
edge(31, 33).
edge(93, 119).
edge(63, 87).
edge(158, 161).
edge(63, 91).
edge(27, 170).
edge(5, 87).
edge(0, 98).
edge(76, 155).
edge(67, 136).
edge(89, 102).
edge(43, 141).
edge(89, 158).
edge(62, 116).
edge(34, 47).
edge(31, 68).
edge(102, 109).
edge(10, 63).
edge(48, 143).
edge(0, 146).
edge(26, 81).
edge(16, 64).
edge(111, 145).
edge(38, 161).
edge(4, 26).
edge(74, 81).
edge(140, 166).
edge(104, 106).
edge(93, 118).
edge(100, 122).
edge(116, 135).
edge(4, 89).
edge(60, 98).
edge(78, 100).
edge(73, 124).
edge(53, 127).
edge(95, 163).
edge(67, 110).
edge(94, 125).
edge(6, 73).
edge(44, 127).
edge(91, 130).
edge(49, 66).
edge(27, 144).
edge(5, 45).
edge(76, 123).
edge(84, 118).
edge(46, 140).
edge(31, 170).
edge(33, 149).
edge(94, 130).
edge(61, 162).
edge(13, 45).
edge(123, 160).
edge(78, 141).
edge(20, 134).
edge(55, 134).
edge(25, 118).
edge(91, 95).
edge(15, 103).
edge(87, 157).
edge(33, 100).
edge(82, 144).
edge(92, 104).
edge(21, 31).
edge(105, 167).
edge(28, 54).
edge(33, 141).
edge(41, 79).
edge(126, 137).
edge(1, 19).
edge(18, 153).
edge(131, 148).
edge(18, 104).
edge(110, 131).
edge(8, 9).
edge(14, 27).
edge(79, 121).
edge(122, 170).
edge(34, 37).
edge(29, 44).
edge(78, 133).
edge(44, 105).
edge(62, 146).
edge(149, 159).
edge(29, 126).
edge(24, 147).
edge(20, 106).
edge(109, 110).
edge(80, 104).
edge(10, 48).
edge(72, 87).
edge(108, 140).
edge(4, 27).
edge(75, 95).
edge(57, 112).
edge(21, 123).
edge(121, 139).
edge(86, 126).
edge(45, 156).
edge(39, 114).
edge(101, 165).
edge(29, 38).
edge(37, 43).
edge(105, 115).
edge(2, 68).
edge(57, 96).
edge(15, 23).
edge(89, 112).
edge(119, 162).
edge(40, 83).
edge(31, 105).
edge(127, 151).
edge(52, 110).
edge(106, 140).
edge(135, 163).
edge(77, 88).
edge(113, 145).
edge(29, 143).
edge(81, 169).
edge(115, 131).
edge(99, 133).
edge(116, 125).
edge(130, 151).
edge(99, 131).
edge(84, 97).
edge(54, 119).
edge(65, 137).
edge(71, 155).
edge(28, 153).
edge(58, 139).
edge(5, 141).
edge(72, 168).
edge(41, 51).
edge(108, 130).
edge(30, 116).
edge(29, 128).
edge(10, 110).
edge(42, 162).
edge(26, 104).
edge(82, 105).
edge(76, 154).
edge(9, 148).
edge(14, 109).
edge(83, 145).
edge(100, 108).
edge(45, 105).
edge(7, 133).
edge(22, 101).
edge(35, 135).
edge(16, 43).
edge(22, 91).
edge(12, 36).
edge(10, 27).
edge(84, 94).
edge(62, 102).
edge(19, 48).
edge(120, 135).
edge(59, 158).
edge(20, 87).
edge(27, 111).
edge(10, 94).
edge(6, 106).
edge(34, 109).
edge(42, 65).
edge(83, 93).
edge(34, 133).
edge(31, 36).
edge(14, 79).
edge(7, 22).
edge(11, 159).
edge(40, 167).
edge(85, 169).
edge(5, 161).
edge(3, 15).
edge(78, 157).
edge(52, 121).
edge(46, 151).
edge(41, 112).
edge(8, 13).
edge(86, 169).
edge(125, 170).
edge(12, 100).
edge(48, 79).
edge(6, 153).
edge(49, 126).
edge(32, 129).
edge(28, 149).
edge(86, 123).
edge(59, 117).
edge(85, 153).
edge(51, 109).
edge(89, 121).
edge(36, 103).
edge(23, 159).
edge(31, 137).
edge(78, 106).
edge(34, 104).
edge(22, 111).
edge(67, 111).
edge(35, 116).
edge(90, 120).
edge(63, 156).
edge(54, 99).
edge(86, 131).
edge(148, 159).
edge(15, 18).
edge(7, 111).
edge(152, 161).
edge(22, 119).
edge(123, 152).
edge(69, 132).
edge(55, 81).
edge(14, 142).
edge(128, 148).
edge(26, 132).
edge(71, 128).
edge(90, 111).
edge(131, 134).
edge(68, 132).
edge(7, 11).
edge(100, 135).
edge(93, 147).
edge(8, 40).
edge(15, 26).
edge(126, 133).
edge(40, 79).
edge(45, 132).
edge(111, 163).
edge(86, 168).
edge(74, 117).
edge(54, 152).
edge(41, 85).
edge(4, 98).
edge(45, 90).
edge(31, 139).
edge(20, 168).
edge(135, 144).
edge(61, 117).
edge(95, 131).
edge(7, 84).
edge(108, 122).
edge(88, 107).
edge(65, 88).
edge(6, 124).
edge(37, 147).
edge(33, 57).
edge(13, 141).
edge(15, 42).
edge(11, 106).
edge(8, 161).
edge(43, 162).
edge(109, 136).
edge(82, 139).
edge(69, 108).
edge(74, 169).
edge(57, 163).
edge(21, 104).
edge(42, 52).
edge(60, 64).
edge(102, 163).
edge(11, 69).
edge(8, 165).
edge(57, 133).
edge(33, 101).
edge(86, 137).
edge(60, 123).
edge(36, 55).
edge(79, 122).
edge(22, 81).
edge(48, 104).
edge(34, 49).
edge(61, 120).
edge(149, 165).
edge(76, 87).
edge(47, 56).
edge(142, 165).
edge(115, 130).
edge(158, 168).
edge(52, 74).
edge(72, 154).
edge(11, 111).
edge(22, 100).
edge(21, 33).
edge(19, 49).
edge(61, 116).
edge(41, 45).
edge(45, 98).
edge(108, 150).
edge(46, 135).
edge(55, 101).
edge(76, 113).
edge(74, 88).
edge(101, 152).
edge(75, 163).
edge(64, 70).
edge(60, 127).
edge(53, 61).
edge(11, 155).
edge(123, 135).
edge(89, 115).
edge(83, 156).
edge(28, 105).
edge(20, 140).
edge(61, 142).
edge(56, 92).
edge(21, 65).
edge(91, 92).
edge(6, 135).
edge(88, 167).
edge(13, 89).
edge(66, 76).
edge(28, 62).
edge(27, 156).
edge(28, 58).
edge(23, 162).
edge(13, 103).
edge(110, 134).
edge(84, 123).
edge(29, 62).
edge(98, 165).
edge(11, 117).
edge(91, 164).
edge(44, 161).
edge(58, 71).
edge(116, 140).
edge(95, 121).
edge(104, 144).
edge(49, 110).
edge(1, 120).
edge(111, 139).
edge(18, 167).
edge(39, 105).
edge(59, 125).
edge(54, 124).
edge(45, 87).
edge(104, 136).
edge(90, 159).
edge(84, 134).
edge(87, 89).
edge(83, 155).
edge(130, 162).
edge(7, 72).
edge(11, 26).
edge(63, 89).
edge(75, 112).
edge(137, 147).
edge(84, 101).
edge(35, 93).
edge(53, 89).
edge(20, 35).
edge(68, 94).
edge(4, 71).
edge(113, 151).
edge(21, 39).
edge(59, 136).
edge(81, 86).
edge(67, 77).
edge(38, 89).
edge(104, 118).
edge(47, 146).
edge(104, 113).
edge(29, 72).
edge(4, 170).
edge(25, 109).
edge(57, 124).
edge(2, 75).
edge(65, 85).
edge(31, 138).
edge(2, 149).
edge(32, 50).
edge(12, 138).
edge(10, 88).
edge(5, 30).
edge(3, 104).
edge(29, 97).
edge(5, 94).
edge(104, 125).
edge(4, 127).
edge(86, 133).
edge(45, 134).
edge(54, 115).
edge(90, 104).
edge(33, 64).
edge(5, 116).
edge(149, 168).
edge(46, 52).
edge(113, 121).
edge(44, 165).
edge(68, 108).
edge(44, 148).
edge(20, 104).
edge(35, 82).
edge(110, 143).
edge(5, 96).
edge(36, 75).
edge(76, 111).
edge(40, 57).
edge(96, 170).
edge(24, 120).
edge(106, 159).
edge(62, 69).
edge(69, 160).
edge(24, 82).
edge(5, 23).
edge(117, 149).
edge(7, 146).
edge(14, 154).
edge(0, 119).
edge(63, 148).
edge(83, 165).
edge(100, 170).
edge(6, 133).
edge(45, 161).
edge(59, 141).
edge(35, 131).
edge(8, 15).
edge(95, 127).
edge(52, 160).
edge(83, 160).
edge(28, 67).
edge(52, 89).
edge(83, 140).
edge(51, 126).
edge(25, 70).
edge(20, 38).
edge(110, 153).
edge(69, 95).
edge(64, 130).
edge(113, 124).
edge(87, 135).
edge(39, 118).
edge(94, 139).
edge(69, 148).
edge(52, 126).
edge(113, 142).
edge(96, 163).
edge(131, 170).
edge(44, 91).
edge(40, 73).
edge(49, 133).
edge(27, 161).
edge(127, 149).
edge(56, 169).
edge(15, 143).
edge(32, 153).
edge(4, 77).
edge(127, 137).
edge(126, 155).
edge(42, 106).
edge(33, 83).
edge(35, 40).
edge(168, 169).
edge(55, 145).
edge(2, 105).
edge(1, 103).
edge(18, 145).
edge(49, 170).
edge(31, 51).
edge(42, 147).
edge(10, 30).
edge(100, 123).
edge(24, 160).
edge(62, 149).
edge(83, 162).
edge(24, 119).
edge(4, 22).
edge(64, 155).
edge(4, 106).
edge(95, 161).
edge(134, 141).
edge(3, 97).
edge(93, 164).
edge(94, 135).
edge(56, 161).
edge(12, 164).
edge(50, 135).
edge(59, 153).
edge(30, 36).
edge(100, 155).
edge(34, 86).
edge(17, 159).
edge(54, 55).
edge(59, 149).
edge(63, 80).
edge(60, 72).
edge(12, 166).
edge(102, 134).
edge(70, 145).
edge(84, 114).
edge(5, 109).
edge(75, 117).
edge(39, 47).
edge(50, 107).
edge(44, 46).
edge(90, 147).
edge(62, 103).
edge(8, 103).
edge(27, 101).
edge(0, 27).
edge(46, 82).
edge(23, 45).
edge(99, 125).
edge(28, 31).
edge(155, 159).
edge(55, 96).
edge(103, 167).
edge(52, 90).
edge(30, 120).
edge(132, 153).
edge(48, 118).
edge(88, 99).
edge(142, 156).
edge(55, 93).
edge(51, 85).
edge(10, 42).
edge(144, 161).
edge(123, 168).
edge(90, 129).
edge(29, 134).
edge(66, 148).
edge(95, 106).
edge(77, 152).
edge(105, 148).
edge(111, 140).
edge(6, 118).
edge(1, 3).
edge(130, 134).
edge(74, 138).
edge(19, 42).
edge(22, 146).
edge(87, 91).
edge(1, 124).
edge(25, 134).
edge(56, 107).
edge(25, 39).
edge(47, 129).
edge(7, 54).
edge(20, 30).
edge(47, 136).
edge(75, 101).
edge(54, 143).
edge(107, 123).
edge(32, 118).
edge(0, 73).
edge(99, 144).
edge(57, 148).
edge(76, 149).
edge(70, 75).
edge(63, 83).
edge(34, 125).
edge(5, 29).
edge(12, 39).
edge(25, 141).
edge(67, 169).
edge(113, 163).
edge(34, 52).
edge(41, 77).
edge(26, 139).
edge(39, 124).
edge(14, 62).
edge(85, 104).
edge(24, 136).
edge(3, 63).
edge(89, 138).
edge(15, 88).
edge(85, 170).
edge(63, 128).
edge(102, 133).
edge(75, 82).
edge(19, 91).
edge(71, 137).
edge(165, 168).
edge(47, 111).
edge(30, 67).
edge(151, 159).
edge(95, 167).
edge(24, 35).
edge(28, 71).
edge(14, 29).
edge(64, 111).
edge(53, 131).
edge(131, 154).
edge(20, 25).
edge(39, 135).
edge(21, 121).
edge(103, 165).
edge(4, 122).
edge(12, 15).
edge(85, 150).
edge(27, 67).
edge(2, 69).
edge(24, 106).
edge(73, 136).
edge(38, 137).
edge(66, 96).
edge(2, 81).
edge(79, 164).
edge(14, 58).
edge(26, 67).
edge(90, 128).
edge(105, 106).
edge(30, 99).
edge(126, 134).
edge(111, 130).
edge(49, 140).
edge(15, 63).
edge(1, 165).
edge(56, 134).
edge(6, 72).
edge(104, 110).
edge(112, 141).
edge(16, 34).
edge(10, 20).
edge(22, 132).
edge(34, 71).
edge(86, 166).
edge(24, 123).
edge(58, 159).
edge(33, 72).
edge(25, 114).
edge(24, 139).
edge(43, 49).
edge(149, 152).
edge(5, 113).
edge(86, 144).
edge(124, 155).
edge(9, 64).
edge(29, 155).
edge(9, 68).
edge(10, 33).
edge(52, 148).
edge(57, 78).
edge(158, 169).
edge(53, 129).
edge(125, 136).
edge(46, 128).
edge(7, 90).
edge(1, 125).
edge(99, 124).
edge(49, 67).
edge(103, 154).
edge(28, 135).
edge(131, 162).
edge(8, 100).
edge(4, 92).
edge(97, 169).
edge(117, 120).
edge(16, 98).
edge(94, 160).
edge(71, 170).
edge(113, 123).
edge(34, 94).
edge(39, 97).
edge(8, 16).
edge(95, 136).
edge(73, 154).
edge(11, 35).
edge(23, 95).
edge(26, 87).
edge(115, 136).
edge(79, 132).
edge(94, 103).
edge(70, 73).
edge(91, 120).
edge(83, 164).
edge(73, 101).
edge(70, 126).
edge(19, 20).
edge(19, 41).
edge(28, 102).
edge(77, 161).
edge(107, 147).
edge(79, 157).
edge(56, 167).
edge(3, 54).
edge(45, 160).
edge(30, 74).
edge(7, 35).
edge(13, 111).
edge(15, 136).
edge(27, 45).
edge(4, 120).
edge(110, 164).
edge(4, 117).
edge(44, 124).
edge(6, 8).
edge(67, 135).
edge(104, 170).
edge(118, 150).
edge(65, 160).
edge(24, 66).
edge(122, 161).
edge(80, 137).
edge(13, 155).
edge(11, 61).
edge(58, 117).
edge(89, 132).
edge(65, 141).
edge(22, 115).
edge(39, 112).
edge(55, 155).
edge(63, 157).
edge(44, 88).
edge(140, 167).
edge(3, 96).
edge(126, 140).
edge(49, 65).
edge(9, 97).
edge(141, 169).
edge(18, 91).
edge(82, 140).
edge(95, 166).
edge(45, 154).
edge(24, 59).
edge(44, 83).
edge(21, 63).
edge(22, 158).
edge(107, 134).
edge(97, 156).
edge(92, 133).
edge(53, 154).
edge(129, 131).
edge(62, 141).
edge(61, 88).
edge(99, 165).
edge(31, 100).
edge(141, 147).
edge(11, 50).
edge(4, 85).
edge(38, 77).
edge(15, 130).
edge(24, 140).
edge(85, 164).
edge(65, 140).
edge(77, 137).
edge(69, 74).
edge(71, 104).
edge(32, 144).
edge(2, 164).
edge(23, 61).
edge(42, 82).
edge(68, 84).
edge(42, 95).
edge(16, 100).
edge(56, 85).
edge(68, 74).
edge(16, 47).
edge(0, 34).
edge(82, 163).
edge(79, 80).
edge(103, 120).
edge(16, 118).
edge(9, 61).
edge(6, 60).
edge(26, 41).
edge(40, 139).
edge(21, 54).
edge(45, 122).
edge(64, 162).
edge(40, 71).
edge(107, 121).
edge(153, 163).
edge(28, 83).
edge(13, 55).
edge(40, 163).
edge(56, 90).
edge(111, 165).
edge(55, 168).
edge(27, 114).
edge(43, 92).
edge(43, 97).
edge(0, 170).
edge(0, 169).
edge(36, 48).
edge(101, 154).
edge(63, 165).
edge(90, 131).
edge(76, 93).
edge(36, 86).
edge(6, 169).
edge(88, 143).
edge(15, 169).
edge(97, 111).
edge(57, 119).
edge(23, 140).
edge(28, 57).
edge(7, 37).
edge(88, 109).
edge(38, 68).
edge(34, 167).
edge(13, 105).
edge(36, 104).
edge(139, 165).
edge(109, 125).
edge(136, 140).
edge(0, 62).
edge(144, 170).
edge(109, 164).
edge(128, 165).
edge(10, 54).
edge(7, 104).
edge(29, 58).
edge(29, 138).
edge(33, 47).
edge(6, 91).
edge(147, 148).
edge(39, 80).
edge(17, 140).
edge(54, 102).
edge(58, 88).
edge(74, 107).
edge(36, 96).
edge(92, 108).
edge(9, 130).
edge(0, 128).
edge(22, 77).
edge(91, 109).
edge(102, 168).
edge(71, 113).
edge(148, 160).
edge(39, 85).
edge(94, 121).
edge(15, 75).
edge(43, 89).
edge(0, 90).
edge(26, 109).
edge(58, 90).
edge(2, 126).
edge(97, 138).
edge(26, 43).
edge(61, 148).
edge(96, 115).
edge(6, 67).
edge(29, 111).
edge(78, 136).
edge(119, 135).
edge(94, 133).
edge(21, 22).
edge(12, 152).
edge(18, 119).
edge(15, 66).
edge(131, 141).
edge(35, 122).
edge(129, 160).
edge(7, 52).
edge(78, 128).
edge(111, 112).
edge(53, 60).
edge(142, 160).
edge(83, 100).
edge(119, 143).
edge(47, 117).
edge(57, 156).
edge(40, 149).
edge(35, 142).
edge(21, 48).
edge(77, 112).
edge(24, 91).
edge(22, 149).
edge(60, 76).
edge(76, 86).
edge(120, 160).
edge(60, 91).
edge(93, 133).
edge(32, 100).
edge(11, 72).
edge(51, 103).
edge(45, 46).
edge(58, 91).
edge(13, 144).
edge(111, 122).
edge(31, 149).
edge(102, 152).
edge(101, 125).
edge(13, 52).
edge(122, 149).
edge(20, 108).
edge(15, 149).
edge(38, 158).
edge(26, 160).
edge(2, 168).
edge(1, 161).
edge(51, 59).
edge(114, 148).
edge(136, 145).
edge(82, 137).
edge(26, 123).
edge(121, 151).
edge(20, 109).
edge(85, 165).
edge(113, 144).
edge(0, 154).
edge(65, 165).
edge(20, 124).
edge(57, 142).
edge(3, 170).
edge(16, 59).
edge(1, 134).
edge(119, 142).
edge(62, 150).
edge(54, 66).
edge(72, 153).
edge(44, 117).
edge(2, 11).
edge(128, 161).
edge(101, 107).
edge(77, 154).
edge(57, 81).
edge(30, 144).
edge(6, 98).
edge(72, 163).
edge(76, 80).
edge(27, 42).
edge(96, 147).
edge(33, 140).
edge(107, 151).
edge(103, 150).
edge(54, 125).
edge(13, 167).
edge(128, 162).
edge(87, 116).
edge(45, 150).
edge(65, 166).
edge(28, 162).
edge(75, 168).
edge(53, 118).
edge(55, 150).
edge(68, 69).
edge(1, 77).
edge(13, 157).
edge(76, 91).
edge(10, 82).
edge(127, 132).
edge(82, 108).
edge(8, 114).
edge(72, 152).
edge(35, 90).
edge(95, 165).
edge(55, 56).
edge(87, 146).
edge(23, 72).
edge(3, 139).
edge(20, 96).
edge(63, 112).
edge(63, 88).
edge(43, 74).
edge(8, 137).
edge(63, 155).
edge(49, 83).
edge(16, 169).
edge(64, 136).
edge(49, 60).
edge(58, 126).
edge(39, 92).
edge(136, 137).
edge(26, 122).
edge(56, 162).
edge(39, 72).
edge(5, 66).
edge(67, 124).
edge(97, 122).
edge(24, 150).
edge(49, 123).
edge(16, 112).
edge(136, 166).
edge(18, 62).
edge(104, 122).
edge(10, 140).
edge(5, 163).
edge(93, 116).
edge(65, 138).
edge(42, 103).
edge(27, 120).
edge(69, 83).
edge(95, 162).
edge(49, 111).
edge(17, 86).
edge(129, 169).
edge(86, 97).
edge(30, 31).
edge(92, 149).
edge(92, 166).
edge(19, 34).
edge(5, 8).
edge(65, 142).
edge(6, 163).
edge(61, 132).
edge(108, 117).
edge(52, 79).
edge(98, 113).
edge(23, 70).
edge(20, 138).
edge(100, 136).
edge(22, 136).
edge(92, 100).
edge(119, 146).
edge(13, 36).
edge(111, 134).
edge(42, 102).
edge(137, 154).
edge(38, 61).
edge(3, 31).
edge(22, 102).
edge(16, 167).
edge(47, 73).
edge(42, 67).
edge(12, 52).
edge(25, 162).
edge(71, 141).
edge(72, 100).
edge(44, 56).
edge(60, 146).
edge(77, 139).
edge(145, 165).
edge(150, 157).
edge(89, 128).
edge(29, 144).
edge(67, 157).
edge(9, 53).
edge(10, 119).
edge(82, 115).
edge(28, 144).
edge(72, 137).
edge(21, 62).
edge(118, 139).
edge(6, 134).
edge(100, 139).
edge(50, 56).
edge(143, 166).
edge(54, 138).
edge(53, 140).
edge(65, 134).
edge(3, 124).
edge(90, 106).
edge(76, 107).
edge(151, 166).
edge(43, 101).
edge(87, 145).
edge(56, 79).
edge(110, 128).
edge(9, 76).
edge(37, 54).
edge(16, 32).
edge(14, 36).
edge(16, 61).
edge(32, 53).
edge(137, 146).
edge(56, 69).
edge(81, 132).
edge(24, 27).
edge(43, 133).
edge(14, 16).
edge(88, 94).
edge(145, 155).
edge(92, 138).
edge(36, 166).
edge(48, 73).
edge(61, 136).
edge(82, 168).
edge(9, 145).
edge(14, 70).
edge(99, 104).
edge(22, 169).
edge(24, 76).
edge(28, 125).
edge(22, 151).
edge(11, 131).
edge(21, 108).
edge(28, 146).
edge(76, 153).
edge(34, 151).
edge(34, 57).
edge(71, 106).
edge(9, 143).
edge(48, 78).
edge(16, 40).
edge(135, 152).
edge(75, 138).
edge(114, 120).
edge(6, 33).
edge(68, 134).
edge(86, 87).
edge(101, 111).
edge(96, 126).
edge(5, 91).
edge(70, 96).
edge(78, 156).
edge(137, 150).
edge(63, 163).
edge(66, 104).
edge(4, 108).
edge(7, 8).
edge(0, 145).
edge(38, 43).
edge(0, 102).
edge(39, 65).
edge(22, 67).
edge(95, 135).
edge(81, 108).
edge(8, 167).
edge(33, 61).
edge(59, 101).
edge(5, 169).
edge(31, 167).
edge(65, 105).
edge(46, 73).
edge(91, 142).
edge(53, 144).
edge(79, 113).
edge(17, 113).
edge(88, 122).
edge(29, 113).
edge(93, 167).
edge(48, 54).
edge(65, 145).
edge(9, 115).
edge(63, 135).
edge(124, 139).
edge(25, 137).
edge(39, 128).
edge(51, 141).
edge(1, 139).
edge(35, 120).
edge(1, 70).
edge(10, 100).
edge(97, 129).
edge(35, 163).
edge(78, 116).
edge(46, 155).
edge(96, 116).
edge(106, 157).
edge(64, 88).
edge(41, 80).
edge(34, 112).
edge(95, 116).
edge(47, 96).
edge(24, 169).
edge(4, 142).
edge(80, 91).
edge(42, 143).
edge(24, 69).
edge(11, 140).
edge(28, 52).
edge(64, 165).
edge(36, 116).
edge(114, 124).
edge(67, 94).
edge(78, 155).
edge(54, 148).
edge(50, 114).
edge(121, 153).
edge(19, 141).
edge(36, 37).
edge(17, 156).
edge(14, 67).
edge(159, 166).
edge(29, 104).
edge(29, 43).
edge(94, 107).
edge(139, 161).
edge(6, 157).
edge(14, 169).
edge(15, 110).
edge(37, 68).
edge(64, 116).
edge(20, 133).
edge(68, 154).
edge(38, 134).
edge(143, 144).
edge(42, 140).
edge(102, 127).
edge(116, 155).
edge(61, 134).
edge(16, 120).
edge(32, 41).
edge(60, 106).
edge(31, 164).
edge(22, 78).
edge(138, 160).
edge(157, 164).
edge(77, 91).
edge(124, 168).
edge(17, 88).
edge(140, 159).
edge(64, 148).
edge(79, 118).
edge(48, 157).
edge(51, 128).
edge(45, 159).
edge(26, 30).
edge(1, 93).
edge(54, 127).
edge(114, 131).
edge(93, 97).
edge(33, 147).
edge(37, 128).
edge(121, 165).
edge(6, 79).
edge(103, 140).
edge(14, 22).
edge(138, 149).
edge(7, 137).
edge(73, 89).
edge(115, 119).
edge(71, 102).
edge(38, 168).
edge(64, 93).
edge(40, 108).
edge(68, 98).
edge(35, 38).
edge(16, 147).
edge(109, 111).
edge(67, 99).
edge(46, 102).
edge(23, 118).
edge(55, 60).
edge(0, 120).
edge(58, 108).
edge(149, 167).
edge(66, 113).
edge(84, 103).
edge(58, 93).
edge(1, 166).
edge(70, 97).
edge(21, 98).
edge(107, 115).
edge(72, 122).
edge(49, 120).
edge(10, 122).
edge(84, 116).
edge(26, 97).
edge(36, 59).
edge(7, 53).
edge(2, 143).
edge(34, 69).
edge(34, 131).
edge(105, 116).
edge(38, 59).
edge(34, 67).
edge(4, 13).
edge(117, 137).
edge(42, 130).
edge(1, 88).
edge(22, 110).
edge(78, 166).
edge(51, 77).
edge(39, 139).
edge(72, 115).
edge(85, 131).
edge(62, 153).
edge(2, 82).
edge(51, 155).
edge(75, 160).
edge(3, 133).
edge(58, 135).
edge(80, 90).
edge(109, 121).
edge(4, 133).
edge(127, 160).
edge(0, 35).
edge(4, 140).
edge(1, 109).
edge(19, 65).
edge(49, 128).
edge(58, 168).
edge(8, 156).
edge(56, 84).
edge(77, 104).
edge(2, 94).
edge(68, 82).
edge(49, 74).
edge(31, 108).
edge(51, 60).
edge(46, 104).
edge(115, 116).
edge(13, 29).
edge(64, 169).
edge(17, 36).
edge(121, 168).
edge(66, 116).
edge(0, 84).
edge(104, 123).
edge(4, 38).
edge(69, 134).
edge(72, 164).
edge(93, 102).
edge(40, 129).
edge(136, 154).
edge(26, 156).
edge(80, 86).
edge(49, 62).
edge(19, 137).
edge(12, 41).
edge(114, 140).
edge(47, 103).
edge(91, 94).
edge(13, 138).
edge(112, 155).
edge(61, 103).
edge(109, 131).
edge(33, 51).
edge(95, 129).
edge(0, 134).
edge(133, 152).
edge(10, 120).
edge(120, 150).
edge(23, 79).
edge(16, 135).
edge(82, 127).
edge(31, 125).
edge(3, 142).
edge(62, 156).
edge(6, 164).
edge(33, 67).
edge(52, 109).
edge(7, 113).
edge(25, 34).
edge(30, 155).
edge(8, 133).
edge(23, 120).
edge(89, 106).
edge(49, 169).
edge(42, 124).
edge(80, 103).
edge(12, 42).
edge(26, 84).
edge(90, 163).
edge(24, 130).
edge(4, 61).
edge(80, 128).
edge(74, 147).
edge(84, 147).
edge(103, 134).
edge(24, 131).
edge(34, 168).
edge(47, 68).
edge(92, 123).
edge(34, 98).
edge(38, 117).
edge(22, 51).
edge(56, 158).
edge(17, 147).
edge(159, 168).
edge(114, 143).
edge(36, 129).
edge(30, 126).
edge(99, 145).
edge(22, 114).
edge(2, 134).
edge(49, 87).
edge(2, 77).
edge(47, 72).
edge(19, 131).
edge(27, 76).
edge(54, 110).
edge(98, 111).
edge(59, 161).
edge(71, 100).
edge(57, 109).
edge(93, 149).
edge(41, 117).
edge(29, 98).
edge(8, 125).
edge(155, 158).
edge(11, 99).
edge(31, 114).
edge(47, 131).
edge(10, 149).
edge(42, 97).
edge(10, 123).
edge(32, 91).
edge(92, 128).
edge(66, 135).
edge(30, 154).
edge(142, 163).
edge(49, 108).
edge(12, 55).
edge(108, 154).
edge(68, 78).
edge(144, 157).
edge(68, 139).
edge(153, 159).
edge(54, 116).
edge(75, 92).
edge(65, 76).
edge(77, 132).
edge(157, 163).
edge(166, 168).
edge(90, 139).
edge(18, 97).
edge(116, 127).
edge(0, 129).
edge(52, 156).
edge(6, 148).
edge(88, 162).
edge(62, 120).
edge(96, 167).
edge(41, 130).
edge(159, 164).
edge(31, 162).
edge(135, 153).
edge(21, 29).
edge(81, 112).
edge(30, 140).
edge(98, 110).
edge(15, 145).
edge(55, 70).
edge(69, 156).
edge(2, 53).
edge(31, 131).
edge(28, 131).
edge(21, 50).
edge(69, 110).
edge(1, 112).
edge(51, 163).
edge(38, 70).
edge(13, 170).
edge(16, 152).
edge(81, 105).
edge(91, 148).
edge(66, 153).
edge(7, 110).
edge(73, 118).
edge(81, 110).
edge(50, 149).
edge(160, 165).
edge(127, 131).
edge(134, 149).
edge(8, 92).
edge(149, 169).
edge(26, 65).
edge(63, 151).
edge(57, 160).
edge(119, 124).
edge(75, 88).
edge(73, 87).
edge(24, 99).
edge(102, 149).
edge(32, 93).
edge(19, 52).
edge(102, 154).
edge(40, 48).
edge(19, 27).
edge(25, 130).
edge(12, 143).
edge(39, 56).
edge(5, 121).
edge(44, 149).
edge(27, 159).
edge(17, 128).
edge(64, 120).
edge(161, 163).
edge(67, 115).
edge(4, 143).
edge(28, 36).
edge(68, 71).
edge(168, 170).
edge(5, 112).
edge(72, 166).
edge(42, 123).
edge(9, 18).
edge(67, 100).
edge(67, 128).
edge(86, 109).
edge(92, 95).
edge(1, 135).
edge(110, 133).
edge(36, 78).
edge(19, 123).
edge(37, 71).
edge(7, 70).
edge(110, 118).
edge(110, 126).
edge(59, 131).
edge(61, 68).
edge(20, 54).
edge(18, 141).
edge(53, 142).
edge(110, 129).
edge(113, 162).
edge(73, 161).
edge(50, 78).
edge(103, 159).
edge(139, 167).
edge(72, 117).
edge(1, 154).
edge(53, 85).
edge(61, 121).
edge(99, 118).
edge(18, 42).
edge(79, 82).
edge(96, 168).
edge(68, 141).
edge(76, 157).
edge(7, 26).
edge(126, 158).
edge(30, 142).
edge(56, 94).
edge(13, 92).
edge(46, 157).
edge(7, 105).
edge(34, 51).
edge(133, 161).
edge(34, 169).
edge(46, 152).
edge(57, 117).
edge(18, 163).
edge(35, 88).
edge(8, 120).
edge(0, 20).
edge(33, 119).
edge(27, 66).
edge(93, 151).
edge(26, 161).
edge(32, 51).
edge(17, 33).
edge(137, 163).
edge(62, 113).
edge(2, 23).
edge(28, 49).
edge(107, 127).
edge(57, 118).
edge(66, 111).
edge(121, 134).
edge(22, 117).
edge(14, 52).
edge(9, 161).
edge(24, 30).
edge(138, 166).
edge(2, 151).
edge(59, 133).
edge(104, 143).
edge(61, 164).
edge(31, 146).
edge(50, 105).
edge(73, 95).
edge(24, 118).
edge(99, 149).
edge(4, 65).
edge(77, 111).
edge(26, 62).
edge(130, 165).
edge(72, 130).
edge(49, 130).
edge(154, 164).
edge(61, 159).
edge(82, 98).
edge(139, 168).
edge(78, 149).
edge(154, 157).
edge(80, 95).
edge(12, 147).
edge(13, 18).
edge(88, 111).
edge(55, 83).
edge(103, 163).
edge(29, 114).
edge(65, 169).
edge(63, 147).
edge(152, 170).
edge(37, 151).
edge(106, 108).
edge(61, 165).
edge(137, 142).
edge(13, 162).
edge(6, 131).
edge(114, 162).
edge(5, 18).
edge(18, 102).
edge(37, 168).
edge(4, 24).
edge(29, 37).
edge(100, 134).
edge(35, 156).
edge(34, 132).
edge(42, 83).
edge(30, 35).
edge(14, 123).
edge(81, 146).
edge(72, 121).
edge(115, 163).
edge(23, 100).
edge(84, 85).
edge(70, 165).
edge(18, 47).
edge(59, 80).
edge(29, 165).
edge(60, 128).
edge(35, 125).
edge(94, 138).
edge(70, 91).
edge(23, 55).
edge(17, 157).
edge(20, 112).
edge(162, 164).
edge(110, 125).
edge(23, 53).
edge(108, 127).
edge(34, 164).
edge(47, 105).
edge(13, 118).
edge(38, 100).
edge(87, 158).
edge(38, 145).
edge(19, 167).
edge(53, 62).
edge(115, 153).
edge(61, 101).
edge(35, 36).
edge(47, 110).
edge(71, 95).
edge(74, 95).
edge(165, 170).
edge(41, 128).
edge(88, 165).
edge(82, 87).
edge(98, 138).
edge(90, 169).
edge(23, 47).
edge(112, 150).
edge(20, 65).
edge(116, 145).
edge(49, 116).
edge(44, 130).
edge(110, 127).
edge(4, 54).
edge(21, 47).
edge(33, 38).
edge(140, 164).
edge(77, 122).
edge(30, 151).
edge(17, 137).
edge(3, 46).
edge(12, 144).
edge(16, 84).
edge(21, 41).
edge(3, 162).
edge(8, 18).
edge(37, 137).
edge(98, 132).
edge(45, 88).
edge(7, 157).
edge(43, 155).
edge(35, 80).
edge(95, 170).
edge(55, 74).
edge(59, 148).
edge(1, 97).
edge(49, 92).
edge(56, 142).
edge(25, 127).
edge(41, 61).
edge(0, 64).
edge(23, 122).
edge(38, 165).
edge(76, 98).
edge(85, 120).
edge(47, 127).
edge(99, 157).
edge(47, 97).
edge(115, 157).
edge(8, 110).
edge(89, 164).
edge(23, 99).
edge(74, 155).
edge(147, 157).
edge(144, 158).
edge(41, 102).
edge(100, 131).
edge(9, 129).
edge(30, 164).
edge(39, 166).
edge(34, 123).
edge(6, 40).
edge(62, 122).
edge(10, 84).
edge(8, 33).
edge(54, 79).
edge(104, 121).
edge(105, 164).
edge(16, 93).
edge(41, 42).
edge(20, 117).
edge(152, 159).
edge(56, 80).
edge(137, 165).
edge(43, 64).
edge(29, 67).
edge(66, 140).
edge(3, 12).
edge(73, 149).
edge(2, 163).
edge(6, 113).
edge(40, 104).
edge(40, 161).
edge(74, 157).
edge(67, 70).
edge(30, 54).
edge(100, 164).
edge(92, 129).
edge(61, 111).
edge(85, 154).
edge(116, 146).
edge(46, 81).
edge(32, 135).
edge(71, 76).
edge(64, 132).
edge(89, 124).
edge(32, 152).
edge(100, 121).
edge(69, 80).
edge(108, 134).
edge(25, 108).
edge(33, 69).
edge(1, 73).
edge(11, 88).
edge(28, 166).
edge(34, 141).
edge(11, 62).
edge(38, 105).
edge(144, 168).
edge(99, 160).
edge(57, 126).
edge(27, 146).
edge(152, 168).
edge(29, 73).
edge(53, 69).
edge(142, 166).
edge(80, 169).
edge(43, 68).
edge(129, 153).
edge(56, 106).
edge(127, 166).
edge(145, 162).
edge(108, 163).
edge(23, 75).
edge(108, 168).
edge(46, 168).
edge(72, 135).
edge(35, 41).
edge(53, 158).
edge(113, 120).
edge(83, 135).
edge(81, 135).
edge(46, 72).
edge(47, 64).
edge(96, 104).
edge(124, 141).
edge(21, 82).
edge(49, 97).
edge(20, 45).
edge(68, 80).
edge(18, 165).
edge(131, 167).
edge(24, 55).
edge(119, 131).
edge(28, 44).
edge(165, 167).
edge(33, 79).
edge(1, 30).
edge(31, 59).
edge(79, 89).
edge(55, 84).
edge(96, 152).
edge(44, 142).
edge(18, 20).
edge(133, 144).
edge(4, 21).
edge(85, 130).
edge(86, 127).
edge(64, 123).
edge(100, 117).
edge(140, 156).
edge(102, 164).
edge(34, 81).
edge(30, 95).
edge(24, 153).
edge(129, 150).
edge(28, 107).
edge(30, 75).
edge(12, 109).
edge(21, 122).
edge(6, 168).
edge(169, 170).
edge(24, 71).
edge(107, 135).
edge(113, 146).
edge(57, 158).
edge(104, 155).
edge(76, 129).
edge(60, 71).
edge(43, 86).
edge(10, 167).
edge(36, 72).
edge(8, 74).
edge(74, 96).
edge(16, 96).
edge(32, 160).
edge(60, 108).
edge(137, 164).
edge(23, 32).
edge(4, 97).
edge(79, 128).
edge(92, 121).
edge(9, 16).
edge(41, 72).
edge(53, 145).
edge(24, 84).
edge(48, 137).
edge(32, 97).
edge(73, 120).
edge(20, 136).
edge(53, 132).
edge(8, 146).
edge(1, 114).
edge(73, 131).
edge(48, 124).
edge(115, 117).
edge(15, 90).
edge(15, 105).
edge(60, 134).
edge(30, 103).
edge(4, 51).
edge(103, 122).
edge(69, 157).
edge(69, 97).
edge(148, 157).
edge(3, 146).
edge(29, 101).
edge(59, 108).
edge(97, 157).
edge(154, 168).
edge(25, 58).
edge(96, 144).
edge(94, 159).
edge(46, 146).
edge(14, 145).
edge(16, 156).
edge(12, 103).
edge(43, 85).
edge(2, 167).
edge(31, 121).
edge(23, 51).
edge(27, 149).
edge(44, 53).
edge(7, 145).
edge(45, 137).
edge(36, 141).
edge(37, 82).
edge(76, 83).
edge(64, 127).
edge(8, 162).
edge(81, 114).
edge(123, 124).
edge(70, 111).
edge(104, 167).
edge(25, 52).
edge(3, 93).
edge(30, 121).
edge(78, 130).
edge(52, 116).
edge(19, 136).
edge(4, 39).
edge(74, 79).
edge(53, 55).
edge(93, 130).
edge(46, 55).
edge(118, 161).
edge(52, 170).
edge(71, 101).
edge(30, 117).
edge(30, 96).
edge(43, 108).
edge(92, 154).
edge(33, 143).
edge(87, 104).
edge(10, 71).
edge(28, 73).
edge(58, 123).
edge(53, 156).
edge(96, 157).
edge(59, 100).
edge(46, 51).
edge(15, 135).
edge(111, 123).
edge(50, 93).
edge(133, 138).
edge(105, 109).
edge(63, 127).
edge(60, 85).
edge(118, 156).
edge(116, 137).
edge(63, 107).
edge(16, 87).
edge(111, 160).
edge(27, 73).
edge(25, 76).
edge(33, 43).
edge(91, 163).
edge(6, 27).
edge(25, 40).
edge(5, 55).
edge(73, 143).
edge(55, 106).
edge(62, 101).
edge(46, 97).
edge(0, 152).
edge(40, 59).
edge(18, 122).
edge(6, 32).
edge(140, 163).
edge(13, 143).
edge(41, 161).
edge(106, 161).
edge(126, 138).
edge(1, 129).
edge(115, 167).
edge(93, 96).
edge(63, 84).
edge(29, 53).
edge(4, 145).
edge(49, 167).
edge(81, 130).
edge(22, 86).
edge(130, 168).
edge(82, 153).
edge(102, 156).
edge(48, 162).
edge(132, 134).
edge(39, 122).
edge(48, 161).
edge(60, 126).
edge(126, 146).
edge(123, 131).
edge(80, 163).
edge(82, 97).
edge(74, 83).
edge(1, 113).
edge(111, 156).
edge(61, 87).
edge(67, 89).
edge(54, 94).
edge(32, 55).
edge(37, 139).
edge(10, 92).
edge(57, 90).
edge(54, 61).
edge(111, 125).
edge(23, 108).
edge(11, 165).
edge(22, 70).
edge(17, 72).
edge(58, 134).
edge(68, 161).
edge(2, 3).
edge(62, 124).
edge(3, 85).
edge(72, 94).
edge(38, 116).
edge(14, 133).
edge(50, 70).
edge(22, 57).
edge(39, 58).
edge(66, 136).
edge(120, 148).
edge(88, 115).
edge(147, 164).
edge(18, 160).
edge(27, 127).
edge(97, 102).
edge(9, 86).
edge(64, 86).
edge(65, 82).
edge(113, 139).
edge(62, 170).
edge(37, 75).
edge(57, 63).
edge(54, 133).
edge(59, 155).
edge(71, 103).
edge(90, 117).
edge(76, 114).
edge(7, 16).
edge(90, 98).
edge(150, 158).
edge(97, 130).
edge(54, 104).
edge(78, 80).
edge(155, 166).
edge(11, 168).
edge(24, 88).
edge(21, 45).
edge(41, 106).
edge(33, 152).
edge(18, 75).
edge(81, 144).
edge(101, 164).
edge(49, 73).
edge(125, 131).
edge(36, 98).
edge(95, 108).
edge(87, 155).
edge(9, 128).
edge(4, 72).
edge(23, 93).
edge(53, 159).
edge(68, 72).
edge(49, 94).
edge(78, 139).
edge(24, 126).
edge(92, 120).
edge(27, 139).
edge(30, 163).
edge(83, 124).
edge(73, 113).
edge(64, 157).
edge(96, 107).
edge(20, 69).
edge(118, 146).
edge(90, 108).
edge(19, 109).
edge(84, 88).
edge(68, 124).
edge(47, 58).
edge(27, 140).
edge(97, 128).
edge(63, 136).
edge(6, 114).
edge(100, 158).
edge(30, 119).
edge(34, 106).
edge(53, 146).
edge(88, 164).
edge(57, 155).
edge(137, 156).
edge(68, 90).
edge(31, 40).
edge(66, 129).
edge(40, 102).
edge(39, 69).
edge(24, 112).
edge(21, 100).
edge(4, 100).
edge(88, 125).
edge(54, 103).
edge(19, 64).
edge(1, 131).
edge(94, 110).
edge(7, 33).
edge(26, 151).
edge(84, 108).
edge(7, 161).
edge(9, 23).
edge(28, 103).
edge(52, 94).
edge(69, 85).
edge(22, 166).
edge(108, 137).
edge(41, 160).
edge(126, 157).
edge(12, 93).
edge(89, 122).
edge(49, 104).
edge(83, 90).
edge(34, 128).
edge(35, 73).
edge(76, 151).
edge(17, 108).
edge(37, 56).
edge(35, 140).
edge(41, 88).
edge(27, 48).
edge(10, 11).
edge(19, 151).
edge(101, 115).
edge(45, 113).
edge(22, 165).
edge(17, 19).
edge(31, 34).
edge(38, 162).
edge(32, 35).
edge(28, 138).
edge(85, 129).
edge(30, 47).
edge(73, 109).
edge(121, 157).
edge(93, 162).
edge(105, 146).
edge(49, 88).
edge(116, 150).
edge(3, 152).
edge(6, 127).
edge(29, 157).
edge(128, 153).
edge(76, 158).
edge(104, 128).
edge(8, 75).
edge(91, 159).
edge(13, 110).
edge(106, 116).
edge(6, 166).
edge(91, 132).
edge(39, 144).
edge(57, 128).
edge(4, 12).
edge(54, 159).
edge(32, 79).
edge(4, 64).
edge(115, 161).
edge(26, 117).
edge(56, 63).
edge(72, 165).
edge(73, 74).
edge(99, 101).
edge(84, 128).
edge(56, 132).
edge(73, 144).
edge(127, 154).
edge(88, 157).
edge(158, 159).
edge(72, 89).
edge(79, 85).
edge(67, 87).
edge(15, 109).
edge(17, 145).
edge(103, 132).
edge(83, 108).
edge(19, 140).
edge(78, 112).
edge(100, 146).
edge(16, 160).
edge(40, 41).
edge(103, 137).
edge(33, 62).
edge(51, 71).
edge(35, 137).
edge(23, 49).
edge(120, 126).
edge(17, 73).
edge(103, 144).
edge(15, 83).
edge(44, 140).
edge(60, 82).
edge(11, 103).
edge(71, 140).
edge(28, 114).
edge(150, 154).
edge(19, 126).
edge(8, 73).
edge(57, 113).
edge(25, 100).
edge(53, 67).
edge(109, 139).
edge(60, 75).
edge(94, 100).
edge(64, 167).
edge(6, 49).
edge(113, 136).
edge(9, 166).
edge(13, 146).
edge(138, 161).
edge(18, 169).
edge(150, 169).
edge(27, 87).
edge(70, 113).
edge(87, 119).
edge(88, 97).
edge(12, 129).
edge(33, 45).
edge(13, 63).
edge(9, 70).
edge(26, 34).
edge(12, 32).
edge(58, 163).
edge(97, 107).
edge(134, 147).
edge(7, 142).
edge(49, 154).
edge(39, 68).
edge(63, 144).
edge(57, 86).
edge(14, 69).
edge(55, 144).
edge(4, 153).
edge(87, 140).
edge(101, 148).
edge(55, 133).
edge(24, 57).
edge(15, 20).
edge(38, 96).
edge(53, 99).
edge(29, 81).
edge(20, 127).
edge(54, 141).
edge(29, 154).
edge(102, 143).
edge(96, 100).
edge(43, 65).
edge(92, 99).
edge(26, 99).
edge(32, 149).
edge(104, 135).
edge(14, 151).
edge(50, 113).
edge(1, 132).
edge(18, 127).
edge(153, 168).
edge(116, 120).
edge(63, 149).
edge(78, 89).
edge(23, 125).
edge(89, 153).
edge(93, 132).
edge(9, 141).
edge(42, 62).
edge(21, 38).
edge(81, 96).
edge(52, 77).
edge(38, 120).
edge(46, 125).
edge(45, 117).
edge(13, 78).
edge(12, 65).
edge(13, 150).
edge(57, 151).
edge(67, 108).
edge(18, 132).
edge(111, 141).
edge(79, 114).
edge(56, 128).
edge(69, 72).
edge(47, 49).
edge(26, 148).
edge(67, 102).
edge(16, 103).
edge(93, 122).
edge(57, 80).
edge(156, 160).
edge(50, 162).
edge(50, 62).
edge(7, 79).
edge(3, 129).
edge(37, 90).
edge(22, 159).
edge(99, 102).
edge(114, 146).
edge(11, 74).
edge(20, 97).
edge(22, 150).
edge(28, 129).
edge(0, 167).
edge(23, 146).
edge(28, 78).
edge(61, 106).
edge(143, 168).
edge(100, 152).
edge(48, 81).
edge(2, 122).
edge(72, 97).
edge(30, 131).
edge(38, 138).
edge(33, 90).
edge(15, 167).
edge(88, 98).
edge(64, 126).
edge(18, 117).
edge(33, 167).
edge(74, 78).
edge(25, 117).
edge(67, 114).
edge(74, 99).
edge(107, 124).
edge(8, 164).
edge(95, 103).
edge(56, 120).
edge(9, 19).
edge(104, 115).
edge(146, 170).
edge(84, 130).
edge(28, 93).
edge(8, 118).
edge(118, 149).
edge(70, 105).
edge(121, 144).
edge(24, 58).
edge(22, 94).
edge(3, 87).
edge(38, 128).
edge(132, 144).
edge(88, 120).
edge(11, 60).
edge(78, 124).
edge(118, 143).
edge(31, 159).
edge(8, 50).
edge(43, 75).
edge(91, 140).
edge(15, 62).
edge(29, 86).
edge(106, 135).
edge(67, 163).
edge(4, 20).
edge(116, 143).
edge(58, 94).
edge(38, 81).
edge(11, 147).
edge(43, 71).
edge(31, 155).
edge(20, 150).
edge(14, 54).
edge(38, 107).
edge(143, 170).
edge(98, 145).
edge(114, 141).
edge(125, 156).
edge(62, 70).
edge(63, 134).
edge(113, 137).
edge(21, 109).
edge(24, 165).
edge(115, 122).
edge(12, 84).
edge(42, 107).
edge(48, 169).
edge(34, 113).
edge(13, 161).
edge(98, 148).
edge(35, 119).
edge(2, 127).
edge(138, 147).
edge(9, 50).
edge(11, 31).
edge(18, 48).
edge(122, 124).
edge(31, 104).
edge(80, 107).
edge(57, 92).
edge(90, 125).
edge(89, 98).
edge(55, 97).
edge(98, 104).
edge(79, 154).
edge(61, 64).
edge(7, 75).
edge(8, 36).
edge(78, 83).
edge(57, 101).
edge(17, 82).
edge(52, 145).
edge(128, 136).
edge(112, 157).
edge(77, 118).
edge(27, 51).
edge(3, 53).
edge(163, 167).
edge(146, 161).
edge(15, 71).
edge(124, 144).
edge(32, 147).
edge(7, 131).
edge(96, 111).
edge(80, 132).
edge(59, 112).
edge(3, 19).
edge(122, 137).
edge(18, 24).
edge(3, 86).
edge(134, 152).
edge(29, 55).
edge(86, 160).
edge(5, 40).
edge(16, 65).
edge(7, 74).
edge(40, 42).
edge(7, 56).
edge(1, 59).
edge(52, 106).
edge(96, 113).
edge(47, 51).
edge(46, 163).
edge(141, 168).
edge(69, 152).
edge(89, 116).
edge(109, 152).
edge(112, 165).
edge(16, 150).
edge(2, 59).
edge(69, 119).
edge(0, 61).
edge(39, 123).
edge(85, 110).
edge(68, 120).
edge(40, 82).
edge(30, 129).
edge(83, 85).
edge(71, 154).
edge(24, 63).
edge(14, 55).
edge(15, 53).
edge(77, 80).
edge(104, 168).
edge(28, 55).
edge(94, 126).
edge(94, 101).
edge(72, 74).
edge(65, 73).
edge(56, 98).
edge(14, 72).
edge(113, 150).
edge(85, 163).
edge(13, 131).
edge(34, 147).
edge(58, 63).
edge(15, 163).
edge(6, 68).
edge(60, 97).
edge(61, 99).
edge(72, 143).
edge(137, 149).
edge(52, 141).
edge(154, 156).
edge(91, 134).
edge(42, 85).
edge(2, 66).
edge(22, 163).
edge(16, 17).
edge(76, 142).
edge(68, 157).
edge(46, 101).
edge(108, 123).
edge(46, 106).
edge(40, 109).
edge(131, 145).
edge(43, 59).
edge(38, 148).
edge(61, 128).
edge(11, 41).
edge(36, 160).
edge(52, 81).
edge(78, 92).
edge(25, 82).
edge(135, 164).
edge(37, 60).
edge(107, 169).
edge(6, 7).
edge(77, 83).
edge(69, 124).
edge(132, 146).
edge(48, 122).
edge(15, 49).
edge(74, 152).
edge(26, 98).
edge(94, 144).
edge(6, 11).
edge(78, 142).
edge(16, 128).
edge(99, 106).
edge(71, 77).
edge(163, 169).
edge(16, 88).
edge(109, 165).
edge(11, 107).
edge(33, 68).
edge(57, 108).
edge(22, 45).
edge(6, 59).
edge(12, 77).
edge(6, 93).
edge(30, 128).
edge(113, 118).
edge(36, 66).
edge(56, 57).
edge(42, 56).
edge(7, 83).
edge(97, 145).
edge(77, 126).
edge(69, 126).
edge(47, 118).
edge(35, 72).
edge(30, 158).
edge(44, 77).
edge(62, 99).
edge(16, 145).
edge(24, 62).
edge(40, 164).
edge(69, 169).
edge(72, 120).
edge(7, 164).
edge(2, 21).
edge(40, 76).
edge(18, 51).
edge(34, 124).
edge(40, 152).
edge(12, 80).
edge(18, 41).
edge(93, 100).
edge(33, 80).
edge(55, 61).
edge(29, 64).
edge(43, 168).
edge(43, 44).
edge(64, 102).
edge(46, 145).
edge(75, 86).
edge(7, 120).
edge(66, 80).
edge(10, 153).
edge(28, 92).
edge(14, 21).
edge(138, 144).
edge(4, 168).
edge(61, 123).
edge(15, 168).
edge(99, 122).
edge(87, 161).
edge(27, 33).
edge(55, 104).
edge(34, 134).
edge(13, 48).
edge(14, 165).
edge(132, 164).
edge(7, 80).
edge(8, 99).
edge(2, 138).
edge(72, 128).
edge(0, 143).
edge(49, 144).
edge(130, 150).
edge(13, 58).
edge(45, 114).
edge(95, 114).
edge(21, 43).
edge(37, 120).
edge(81, 99).
edge(134, 166).
edge(8, 140).
edge(3, 157).
edge(81, 103).
edge(1, 78).
edge(77, 121).
edge(9, 13).
edge(92, 115).
edge(81, 121).
edge(83, 170).
edge(90, 161).
edge(29, 52).
edge(18, 76).
edge(32, 62).
edge(11, 86).
edge(0, 132).
edge(1, 81).
edge(19, 164).
edge(71, 105).
edge(124, 159).
edge(52, 135).
edge(25, 115).
edge(1, 26).
edge(68, 75).
edge(25, 97).
edge(112, 119).
edge(18, 27).
edge(128, 135).
edge(20, 163).
edge(37, 55).
edge(65, 72).
edge(0, 85).
edge(70, 114).
edge(43, 124).
edge(32, 156).
edge(4, 69).
edge(34, 108).
edge(133, 143).
edge(91, 144).
edge(99, 100).
edge(13, 60).
edge(11, 97).
edge(68, 165).
edge(43, 69).
edge(69, 146).
edge(48, 101).
edge(74, 158).
edge(1, 149).
edge(54, 117).
edge(4, 160).
edge(82, 84).
edge(18, 50).
edge(15, 141).
edge(96, 161).
edge(49, 81).
edge(70, 102).
edge(67, 147).
edge(24, 34).
edge(26, 125).
edge(14, 57).
edge(55, 86).
edge(31, 92).
edge(141, 153).
edge(27, 72).
edge(35, 151).
edge(33, 165).
edge(16, 137).
edge(19, 51).
edge(116, 139).
edge(106, 109).
edge(1, 106).
edge(75, 76).
edge(42, 98).
edge(159, 162).
edge(72, 99).
edge(28, 126).
edge(76, 169).
edge(2, 112).
edge(26, 78).
edge(15, 118).
edge(87, 139).
edge(36, 155).
edge(3, 23).
edge(9, 93).
edge(105, 159).
edge(55, 111).
edge(35, 132).
edge(104, 150).
edge(137, 158).
edge(0, 24).
edge(156, 167).
edge(65, 71).
edge(39, 79).
edge(65, 133).
edge(39, 125).
edge(65, 143).
edge(55, 108).
edge(69, 139).
edge(69, 76).
edge(128, 138).
edge(138, 151).
edge(145, 170).
edge(50, 166).
edge(93, 124).
edge(38, 113).
edge(14, 48).
edge(67, 79).
edge(23, 50).
edge(7, 159).
edge(43, 170).
edge(19, 35).
edge(44, 55).
edge(135, 147).
edge(23, 33).
edge(3, 8).
edge(65, 170).
edge(75, 78).
edge(78, 144).
edge(55, 135).
edge(120, 124).
edge(81, 137).
edge(50, 146).
edge(93, 128).
edge(45, 111).
edge(34, 117).
edge(20, 143).
edge(95, 132).
edge(52, 118).
edge(92, 127).
edge(125, 133).
edge(17, 99).
edge(55, 89).
edge(75, 120).
edge(77, 90).
edge(58, 167).
edge(65, 147).
edge(1, 122).
edge(56, 68).
edge(42, 80).
edge(53, 56).
edge(95, 107).
edge(62, 126).
edge(93, 144).
edge(28, 56).
edge(121, 166).
edge(134, 167).
edge(87, 132).
edge(30, 133).
edge(19, 115).
edge(12, 75).
edge(3, 120).
edge(22, 52).
edge(18, 22).
edge(16, 119).
edge(69, 81).
edge(105, 132).
edge(5, 97).
edge(7, 23).
edge(78, 129).
edge(38, 141).
edge(104, 156).
edge(47, 134).
edge(16, 95).
edge(107, 132).
edge(95, 122).
edge(42, 170).
edge(15, 129).
edge(49, 121).
edge(38, 153).
edge(2, 71).
edge(107, 145).
edge(47, 106).
edge(48, 106).
edge(99, 153).
edge(20, 21).
edge(52, 137).
edge(8, 130).
edge(85, 128).
edge(21, 49).
edge(65, 94).
edge(36, 60).
edge(54, 135).
edge(79, 107).
edge(5, 153).
edge(4, 86).
edge(20, 84).
edge(69, 111).
edge(65, 162).
edge(110, 114).
edge(9, 74).
edge(46, 143).
edge(70, 164).
edge(17, 85).
edge(88, 159).
edge(17, 165).
edge(107, 125).
edge(59, 140).
edge(56, 86).
edge(40, 52).
edge(6, 121).
edge(6, 120).
edge(139, 164).
edge(94, 116).
edge(25, 140).
edge(0, 166).
edge(31, 152).
edge(6, 20).
edge(31, 50).
edge(29, 46).
edge(3, 136).
edge(52, 88).
edge(156, 165).
edge(86, 106).
edge(63, 78).
edge(131, 152).
edge(80, 121).
edge(5, 139).
edge(51, 84).
edge(34, 46).
edge(1, 56).
edge(11, 39).
edge(102, 129).
edge(50, 136).
edge(43, 73).
edge(45, 165).
edge(11, 93).
edge(9, 89).
edge(119, 157).
edge(64, 170).
edge(100, 124).
edge(25, 74).
edge(85, 161).
edge(19, 130).
edge(36, 148).
edge(150, 168).
edge(3, 44).
edge(6, 104).
edge(1, 128).
edge(71, 138).
edge(12, 54).
edge(64, 145).
edge(5, 104).
edge(14, 96).
edge(58, 67).
edge(82, 162).
edge(73, 135).
edge(37, 42).
edge(39, 115).
edge(3, 158).
edge(30, 97).
edge(60, 77).
edge(96, 153).
edge(0, 53).
edge(84, 136).
edge(159, 161).
edge(143, 162).
edge(38, 98).
edge(54, 67).
edge(131, 150).
edge(115, 152).
edge(110, 130).
edge(31, 42).
edge(18, 129).
edge(36, 80).
edge(41, 115).
edge(14, 18).
edge(57, 114).
edge(71, 82).
edge(114, 159).
edge(50, 133).
edge(41, 89).
edge(0, 155).
edge(66, 85).
edge(2, 24).
edge(2, 38).
edge(2, 98).
edge(25, 53).
edge(28, 121).
edge(101, 137).
edge(65, 111).
edge(26, 71).
edge(35, 166).
edge(59, 170).
edge(99, 152).
edge(7, 48).
edge(19, 29).
edge(18, 83).
edge(0, 36).
edge(80, 108).
edge(104, 140).
edge(3, 72).
edge(9, 54).
edge(27, 93).
edge(86, 119).
edge(43, 60).
edge(70, 107).
edge(92, 146).
edge(102, 117).
edge(30, 48).
edge(47, 123).
edge(25, 94).
edge(25, 81).
edge(46, 61).
edge(114, 125).
edge(8, 139).
edge(74, 133).
edge(126, 139).
edge(18, 34).
edge(37, 67).
edge(124, 127).
edge(47, 168).
edge(9, 22).
edge(0, 14).
edge(133, 147).
edge(37, 93).
edge(109, 116).
edge(18, 137).
edge(8, 122).
edge(139, 150).
edge(125, 132).
edge(88, 148).
edge(106, 160).
edge(101, 146).
edge(97, 105).
edge(55, 125).
edge(114, 136).
edge(82, 119).
edge(44, 101).
edge(25, 133).
edge(31, 58).
edge(50, 116).
edge(61, 72).
edge(15, 100).
edge(20, 151).
edge(12, 47).
edge(103, 127).
edge(57, 75).
edge(49, 99).
edge(94, 95).
edge(50, 158).
edge(37, 86).
edge(84, 168).
edge(14, 63).
edge(5, 81).
edge(28, 100).
edge(105, 142).
edge(42, 149).
edge(34, 105).
edge(104, 145).
edge(18, 32).
edge(77, 123).
edge(7, 140).
edge(24, 43).
edge(70, 159).
edge(128, 146).
edge(39, 55).
edge(112, 134).
edge(40, 126).
edge(90, 136).
edge(14, 94).
edge(26, 57).
edge(82, 116).
edge(32, 95).
edge(50, 76).
edge(18, 79).
edge(101, 141).
edge(40, 64).
edge(47, 63).
edge(60, 107).
edge(6, 170).
edge(141, 160).
edge(22, 116).
edge(41, 134).
edge(57, 115).
edge(37, 160).
edge(113, 157).
edge(25, 93).
edge(10, 93).
edge(26, 91).
edge(68, 158).
edge(17, 28).
edge(11, 113).
edge(57, 76).
edge(75, 140).
edge(47, 151).
edge(22, 83).
edge(40, 154).
edge(60, 140).
edge(3, 148).
edge(80, 101).
edge(51, 139).
edge(14, 77).
edge(121, 162).
edge(69, 105).
edge(35, 70).
edge(32, 121).
edge(13, 79).
edge(132, 142).
edge(50, 68).
edge(55, 137).
edge(67, 170).
edge(10, 165).
edge(23, 139).
edge(5, 93).
edge(115, 135).
edge(9, 107).
edge(18, 158).
edge(66, 101).
edge(58, 105).
edge(125, 140).
edge(65, 130).
edge(58, 156).
edge(19, 31).
edge(59, 98).
edge(89, 135).
edge(24, 94).
edge(31, 166).
edge(40, 106).
edge(16, 42).
edge(91, 111).
edge(122, 168).
edge(114, 137).
edge(75, 103).
edge(39, 52).
edge(12, 104).
edge(44, 58).
edge(84, 167).
edge(5, 105).
edge(8, 170).
edge(64, 146).
edge(64, 65).
edge(126, 127).
edge(50, 63).
edge(28, 88).
edge(62, 63).
edge(123, 156).
edge(6, 26).
edge(104, 147).
edge(142, 146).
edge(4, 30).
edge(39, 160).
edge(80, 143).
edge(47, 162).
edge(99, 127).
edge(12, 69).
edge(16, 19).
edge(122, 169).
edge(15, 30).
edge(79, 133).
edge(24, 151).
edge(84, 102).
edge(33, 158).
edge(37, 109).
edge(148, 162).
edge(15, 97).
edge(18, 64).
edge(7, 138).
edge(63, 69).
edge(23, 111).
edge(76, 122).
edge(114, 128).
edge(82, 122).
edge(106, 138).
edge(94, 96).
edge(17, 118).
edge(27, 30).
edge(43, 112).
edge(45, 92).
edge(91, 124).
edge(115, 158).
edge(34, 101).
edge(6, 55).
edge(13, 81).
edge(96, 156).
edge(74, 134).
edge(26, 82).
edge(12, 64).
edge(51, 99).
edge(111, 115).
edge(54, 129).
edge(54, 92).
edge(0, 108).
edge(77, 162).
edge(43, 132).
edge(36, 132).
edge(66, 170).
edge(20, 166).
edge(33, 104).
edge(136, 151).
edge(77, 156).
edge(13, 25).
edge(40, 100).
edge(6, 45).
edge(85, 143).
edge(54, 168).
edge(83, 87).
edge(47, 160).
edge(22, 47).
edge(40, 148).
edge(17, 41).
edge(136, 163).
edge(18, 45).
edge(30, 161).
edge(8, 115).
edge(64, 83).
edge(6, 111).
edge(17, 30).
edge(101, 129).
edge(21, 152).
edge(48, 131).
edge(67, 155).
edge(131, 138).
edge(43, 127).
edge(23, 41).
edge(47, 59).
edge(87, 170).
edge(51, 142).
edge(82, 151).
edge(114, 150).
edge(2, 10).
edge(71, 146).
edge(68, 128).
edge(7, 85).
edge(29, 93).
edge(52, 155).
edge(119, 130).
edge(87, 90).
edge(98, 125).
edge(7, 25).
edge(65, 126).
edge(81, 125).
edge(72, 132).
edge(8, 107).
edge(3, 98).
edge(45, 102).
edge(114, 152).
edge(88, 153).
edge(76, 102).
edge(26, 86).
edge(149, 166).
edge(102, 121).
edge(29, 169).
edge(135, 151).
edge(14, 73).
edge(46, 116).
edge(67, 93).
edge(37, 159).
edge(55, 94).
edge(41, 116).
edge(20, 110).
edge(47, 78).
edge(7, 98).
edge(7, 102).
edge(105, 160).
edge(123, 136).
edge(20, 51).
edge(31, 103).
edge(12, 153).
edge(23, 126).
edge(4, 110).
edge(88, 124).
edge(111, 118).
edge(29, 71).
edge(8, 29).
edge(53, 155).
edge(28, 123).
edge(52, 150).
edge(50, 157).
edge(129, 165).
edge(61, 104).
edge(0, 153).
edge(110, 160).
edge(14, 161).
edge(76, 147).
edge(28, 85).
edge(80, 129).
edge(16, 148).
edge(26, 83).
edge(40, 60).
edge(34, 75).
edge(52, 131).
edge(10, 80).
edge(44, 45).
edge(52, 101).
edge(28, 133).
edge(124, 134).
edge(47, 153).
edge(24, 33).
edge(28, 137).
edge(62, 93).
edge(91, 119).
edge(89, 144).
edge(94, 105).
edge(51, 72).
edge(139, 166).
edge(19, 81).
edge(22, 26).
edge(51, 108).
edge(7, 77).
edge(32, 59).
edge(153, 155).
edge(54, 100).
edge(11, 20).
edge(3, 37).
edge(7, 36).
edge(11, 150).
edge(97, 151).
edge(95, 151).
edge(23, 121).
edge(30, 159).
edge(25, 142).
edge(15, 123).
edge(72, 124).
edge(72, 146).
edge(79, 145).
edge(82, 94).
edge(1, 51).
edge(66, 165).
edge(12, 95).
edge(34, 93).
edge(87, 148).
edge(22, 73).
edge(14, 56).
edge(27, 104).
edge(34, 44).
edge(52, 157).
edge(96, 146).
edge(12, 136).
edge(13, 136).
edge(42, 132).
edge(19, 33).
edge(23, 103).
edge(70, 138).
edge(69, 159).
edge(105, 153).
edge(50, 71).
edge(66, 73).
edge(17, 111).
edge(120, 164).
edge(31, 48).
edge(42, 99).
edge(26, 93).
edge(91, 133).
edge(129, 157).
edge(43, 96).
edge(42, 120).
edge(6, 95).
edge(80, 152).
edge(95, 124).
edge(87, 131).
edge(84, 91).
edge(115, 140).
edge(60, 101).
edge(5, 170).
edge(41, 59).
edge(51, 131).
edge(109, 170).
edge(83, 115).
edge(45, 115).
edge(12, 139).
edge(97, 139).
edge(83, 132).
edge(16, 162).
edge(82, 145).
edge(77, 116).
edge(2, 56).
edge(47, 53).
edge(45, 126).
edge(63, 137).
edge(1, 22).
edge(105, 141).
edge(58, 73).
edge(153, 154).
edge(30, 124).
edge(0, 57).
edge(41, 107).
edge(100, 150).
edge(35, 48).
edge(12, 67).
edge(11, 158).
edge(48, 103).
edge(5, 136).
edge(13, 74).
edge(14, 59).
edge(83, 104).
edge(116, 166).
edge(78, 85).
edge(1, 54).
edge(85, 135).
edge(43, 54).
edge(63, 119).
edge(125, 154).
edge(55, 57).
edge(50, 127).
edge(73, 142).
edge(21, 92).
edge(83, 147).
edge(21, 161).
edge(52, 161).
edge(54, 56).
edge(147, 165).
edge(65, 136).
edge(48, 127).
edge(48, 57).
edge(145, 153).
edge(59, 113).
edge(49, 142).
edge(50, 102).
edge(90, 158).
edge(13, 169).
edge(108, 110).
edge(43, 161).
edge(81, 91).
edge(54, 98).
edge(37, 131).
edge(81, 162).
edge(46, 112).
edge(10, 58).
edge(4, 36).
edge(29, 105).
edge(25, 38).
edge(78, 87).
edge(46, 60).
edge(68, 147).
edge(79, 86).
edge(4, 126).
edge(21, 90).
edge(36, 170).
edge(26, 111).
edge(2, 14).
edge(16, 123).
edge(139, 152).
edge(15, 96).
edge(80, 135).
edge(108, 109).
edge(1, 155).
edge(45, 140).
edge(42, 93).
edge(78, 103).
edge(64, 160).
edge(22, 126).
edge(97, 147).
edge(111, 155).
edge(107, 126).
edge(2, 160).
edge(8, 57).
edge(4, 19).
edge(50, 85).
edge(76, 134).
edge(33, 136).
edge(26, 146).
edge(30, 84).
edge(18, 33).
edge(37, 123).
edge(52, 167).
edge(45, 109).
edge(23, 68).
edge(112, 137).
edge(65, 81).
edge(66, 166).
edge(2, 86).
edge(48, 53).
edge(33, 41).
edge(134, 150).
edge(3, 128).
edge(26, 53).
edge(72, 104).
edge(14, 32).
edge(24, 108).
edge(122, 127).
edge(81, 168).
edge(31, 55).
edge(30, 132).
edge(39, 91).
edge(51, 89).
edge(22, 144).
edge(51, 80).
edge(30, 71).
edge(29, 152).
edge(36, 152).
edge(71, 148).
edge(56, 154).
edge(142, 147).
edge(49, 135).
edge(46, 84).
edge(106, 143).
edge(101, 103).
edge(66, 99).
edge(103, 130).
edge(7, 64).
edge(39, 141).
edge(12, 135).
edge(140, 145).
edge(75, 97).
edge(17, 76).
edge(135, 155).
edge(34, 39).
edge(20, 146).
edge(84, 125).
edge(3, 70).
edge(127, 147).
edge(97, 152).
edge(23, 138).
edge(71, 163).
edge(47, 158).
edge(45, 66).
edge(80, 146).
edge(115, 134).
edge(42, 142).
edge(160, 167).
edge(69, 99).
edge(127, 134).
edge(5, 61).
edge(100, 106).
edge(26, 149).
edge(17, 139).
edge(117, 152).
edge(61, 81).
edge(38, 136).
edge(68, 167).
edge(63, 121).
edge(2, 99).
edge(8, 121).
edge(29, 50).
edge(72, 80).
edge(50, 79).
edge(42, 110).
edge(17, 163).
edge(76, 90).
edge(7, 19).
edge(76, 137).
edge(48, 133).
edge(82, 91).
edge(40, 110).
edge(120, 121).
edge(25, 145).
edge(19, 117).
edge(84, 165).
edge(148, 153).
edge(82, 131).
edge(56, 70).
edge(48, 153).
edge(78, 113).
edge(7, 132).
edge(27, 39).
edge(31, 128).
edge(47, 169).
edge(34, 140).
edge(89, 146).
edge(77, 109).
edge(36, 143).
edge(28, 86).
edge(3, 131).
edge(1, 60).
edge(35, 115).
edge(74, 102).
edge(61, 109).
edge(52, 163).
edge(132, 149).
edge(47, 84).
edge(149, 164).
edge(62, 169).
edge(44, 162).
edge(12, 165).
edge(65, 68).
edge(60, 170).
edge(11, 105).
edge(60, 105).
edge(59, 115).
edge(6, 15).
edge(92, 159).
edge(99, 168).
edge(37, 107).
edge(9, 65).
edge(5, 25).
edge(47, 85).
edge(15, 59).
edge(38, 47).
edge(8, 25).
edge(70, 86).
edge(60, 112).
edge(25, 163).
edge(2, 128).
edge(145, 159).
edge(68, 126).
edge(82, 83).
edge(57, 91).
edge(119, 145).
edge(25, 31).
edge(129, 170).
edge(82, 124).
edge(107, 161).
edge(74, 92).
edge(87, 160).
edge(33, 121).
edge(101, 147).
edge(33, 159).
edge(107, 108).
edge(108, 138).
edge(75, 136).
edge(26, 36).
edge(27, 157).
edge(31, 99).
edge(91, 145).
edge(74, 167).
edge(50, 86).
edge(91, 146).
edge(31, 63).
edge(106, 120).
edge(16, 30).
edge(47, 135).
edge(51, 170).
edge(41, 165).
edge(34, 99).
edge(154, 163).
edge(13, 24).
edge(37, 144).
edge(109, 159).
edge(77, 115).
edge(17, 97).
edge(68, 146).
edge(6, 139).
edge(22, 154).
edge(5, 92).
edge(91, 165).
edge(12, 140).
edge(59, 70).
edge(56, 119).
edge(69, 90).
edge(14, 170).
edge(11, 162).
edge(3, 80).
edge(38, 92).
edge(23, 59).
edge(17, 90).
edge(32, 134).
edge(85, 136).
edge(131, 136).
edge(9, 21).
edge(13, 14).
edge(97, 104).
edge(48, 114).
edge(152, 160).
edge(42, 139).
edge(51, 117).
edge(63, 111).
edge(44, 166).
edge(76, 81).
edge(62, 118).
edge(42, 86).
edge(75, 130).
edge(5, 95).
edge(114, 147).
edge(92, 144).
edge(24, 158).
edge(56, 61).
edge(43, 50).
edge(88, 110).
edge(30, 115).
edge(23, 123).
edge(90, 141).
edge(17, 143).
edge(17, 91).
edge(28, 45).
edge(42, 114).
edge(2, 130).
edge(6, 142).
edge(91, 103).
edge(24, 89).
edge(1, 151).
edge(49, 166).
edge(43, 104).
edge(33, 34).
edge(29, 75).
edge(65, 155).
edge(27, 34).
edge(59, 89).
edge(24, 70).
edge(78, 140).
edge(94, 167).
edge(75, 133).
edge(8, 159).
edge(53, 124).
edge(65, 125).
edge(152, 167).
edge(69, 167).
edge(100, 163).
edge(81, 90).
edge(50, 156).
edge(132, 156).
edge(113, 138).
edge(28, 97).
edge(117, 136).
edge(124, 145).
edge(44, 65).
edge(38, 73).
edge(19, 89).
edge(79, 103).
edge(0, 2).
edge(154, 165).
edge(141, 150).
edge(44, 170).
edge(10, 83).
edge(31, 88).
edge(23, 158).
edge(6, 116).
edge(17, 133).
edge(83, 167).
edge(47, 139).
edge(74, 128).
edge(128, 150).
edge(21, 95).
edge(57, 82).
edge(72, 85).
edge(30, 136).
edge(20, 40).
edge(65, 78).
edge(67, 113).
edge(94, 170).
edge(7, 43).
edge(114, 118).
edge(60, 152).
edge(51, 165).
edge(11, 138).
edge(15, 79).
edge(94, 120).
edge(4, 90).
edge(52, 149).
edge(25, 77).
edge(41, 56).
edge(99, 159).
edge(54, 139).
edge(7, 18).
edge(23, 157).
edge(148, 166).
edge(52, 93).
edge(92, 122).
edge(104, 120).
edge(25, 158).
edge(113, 125).
edge(71, 80).
edge(65, 108).
edge(19, 166).
edge(70, 89).
edge(5, 44).
edge(12, 137).
edge(64, 139).
edge(17, 56).
edge(1, 5).
edge(90, 112).
edge(1, 84).
edge(151, 152).
edge(94, 155).
edge(81, 97).
edge(65, 99).
edge(100, 165).
edge(32, 145).
edge(55, 72).
edge(20, 48).
edge(96, 130).
edge(42, 131).
edge(19, 37).
edge(56, 163).
edge(37, 130).
edge(97, 155).
edge(99, 151).
edge(144, 148).
edge(82, 147).
edge(7, 93).
edge(55, 170).
edge(41, 47).
edge(62, 96).
edge(71, 161).
edge(1, 24).
edge(70, 130).
edge(0, 13).
edge(101, 120).
edge(70, 135).
edge(103, 166).
edge(122, 128).
edge(134, 146).
edge(76, 106).
edge(0, 105).
edge(22, 133).
edge(160, 162).
edge(45, 139).
edge(74, 82).
edge(83, 138).
edge(6, 88).
edge(78, 82).
edge(27, 28).
edge(30, 147).
edge(109, 120).
edge(115, 150).
edge(44, 50).
edge(80, 106).
edge(135, 145).
edge(8, 82).
edge(76, 160).
edge(10, 61).
edge(41, 96).
edge(95, 147).
edge(20, 119).
edge(66, 134).
edge(37, 132).
edge(51, 122).
edge(35, 95).
edge(24, 60).
edge(42, 81).
edge(123, 128).
edge(88, 89).
edge(139, 158).
edge(39, 61).
edge(79, 95).
edge(70, 161).
edge(10, 79).
edge(45, 74).
edge(30, 139).
edge(52, 115).
edge(3, 79).
edge(32, 165).
edge(6, 61).
edge(62, 85).
edge(21, 70).
edge(146, 153).
edge(125, 138).
edge(40, 116).
edge(36, 147).
edge(2, 132).
edge(104, 169).
edge(29, 115).
edge(3, 121).
edge(26, 110).
edge(19, 139).
edge(5, 58).
edge(55, 85).
edge(86, 122).
edge(3, 138).
edge(12, 21).
edge(16, 50).
edge(48, 108).
edge(118, 145).
edge(51, 87).
edge(128, 144).
edge(65, 144).
edge(13, 145).
edge(105, 143).
edge(4, 45).
edge(104, 127).
edge(117, 127).
edge(133, 141).
edge(109, 147).
edge(72, 103).
edge(7, 44).
edge(92, 157).
edge(13, 47).
edge(14, 74).
edge(31, 109).
edge(68, 73).
edge(3, 81).
edge(29, 92).
edge(100, 129).
edge(28, 75).
edge(36, 127).
edge(4, 102).
edge(114, 157).
edge(124, 156).
edge(26, 137).
edge(59, 165).
edge(123, 146).
edge(8, 136).
edge(42, 63).
edge(11, 92).
edge(62, 79).
edge(24, 141).
edge(86, 114).
edge(100, 114).
edge(23, 170).
edge(29, 90).
edge(120, 147).
edge(27, 46).
edge(21, 68).
edge(24, 32).
edge(96, 122).
edge(3, 163).
edge(25, 90).
edge(31, 39).
edge(151, 165).
edge(12, 106).
edge(59, 107).
edge(14, 114).
edge(70, 85).
edge(16, 164).
edge(97, 166).
edge(77, 97).
edge(5, 35).
edge(12, 170).
edge(93, 114).
edge(59, 88).
edge(12, 90).
edge(32, 90).
edge(53, 133).
edge(76, 136).
edge(95, 148).
edge(134, 160).
edge(45, 81).
edge(62, 75).
edge(63, 126).
edge(77, 130).
edge(2, 110).
edge(39, 162).
edge(32, 63).
edge(28, 34).
edge(29, 36).
edge(18, 126).
edge(111, 169).
edge(98, 147).
edge(53, 148).
edge(66, 108).
edge(24, 73).
edge(73, 153).
edge(10, 155).
edge(20, 153).
edge(6, 109).
edge(13, 140).
edge(2, 26).
edge(27, 88).
edge(115, 155).
edge(39, 102).
edge(101, 138).
edge(34, 58).
edge(16, 62).
edge(24, 117).
edge(22, 123).
edge(21, 116).
edge(139, 155).
edge(37, 108).
edge(31, 113).
edge(60, 90).
edge(157, 166).
edge(122, 166).
edge(48, 155).
edge(14, 124).
edge(7, 69).
edge(64, 119).
edge(85, 127).
edge(63, 132).
edge(50, 148).
edge(103, 158).
edge(54, 87).
edge(79, 100).
edge(74, 162).
edge(106, 119).
edge(71, 126).
edge(134, 136).
edge(0, 103).
edge(11, 154).
edge(73, 121).
edge(1, 141).
edge(11, 45).
edge(54, 73).
edge(29, 137).
edge(90, 121).
edge(36, 99).
edge(45, 70).
edge(97, 98).
edge(1, 27).
edge(54, 65).
edge(77, 147).
edge(79, 130).
edge(58, 132).
edge(32, 126).
edge(74, 139).
edge(23, 26).
edge(137, 148).
edge(57, 134).
edge(120, 141).
edge(54, 77).
edge(91, 104).
edge(28, 117).
edge(117, 156).
edge(22, 58).
edge(12, 88).
edge(131, 135).
edge(28, 164).
edge(127, 168).
edge(82, 149).
edge(43, 93).
edge(7, 126).
edge(30, 86).
edge(24, 113).
edge(37, 157).
edge(16, 111).
edge(39, 165).
edge(45, 60).
edge(74, 112).
edge(40, 156).
edge(24, 53).
edge(7, 88).
edge(9, 43).
edge(44, 90).
edge(20, 79).
edge(28, 84).
edge(38, 60).
edge(66, 144).
edge(42, 154).
edge(41, 94).
edge(92, 116).
edge(7, 63).
edge(104, 116).
edge(14, 146).
edge(46, 167).
edge(86, 102).
edge(39, 73).
edge(27, 50).
edge(1, 140).
edge(75, 167).
edge(33, 54).
edge(75, 157).
edge(28, 163).
edge(23, 87).
edge(117, 146).
edge(37, 124).
edge(81, 106).
edge(21, 137).
edge(33, 55).
edge(7, 147).
edge(8, 104).
edge(49, 147).
edge(128, 167).
edge(57, 139).
edge(8, 64).
edge(6, 161).
edge(54, 131).
edge(68, 129).
edge(66, 160).
edge(79, 126).
edge(13, 66).
edge(26, 37).
edge(118, 125).
edge(52, 134).
edge(78, 131).
edge(64, 66).
edge(31, 81).
edge(49, 131).
edge(64, 118).
edge(77, 89).
edge(60, 164).
edge(139, 162).
edge(31, 70).
edge(104, 139).
edge(13, 23).
edge(45, 112).
edge(44, 61).
edge(50, 66).
edge(15, 35).
edge(93, 145).
edge(39, 129).
edge(43, 166).
edge(125, 159).
edge(66, 164).
edge(39, 83).
edge(67, 122).
edge(59, 69).
edge(4, 75).
edge(44, 168).
edge(28, 136).
edge(84, 104).
edge(133, 167).
edge(81, 115).
edge(23, 147).
edge(60, 143).
edge(7, 130).
edge(61, 69).
edge(23, 90).
edge(27, 106).
edge(59, 97).
edge(92, 148).
edge(52, 59).
edge(33, 144).
edge(24, 170).
edge(84, 158).
edge(49, 119).
edge(54, 123).
edge(10, 39).
edge(29, 33).
edge(81, 170).
edge(117, 145).
edge(39, 150).
edge(121, 164).
edge(15, 28).
edge(38, 159).
edge(46, 123).
edge(74, 110).
edge(9, 168).
edge(1, 8).
edge(1, 96).
edge(11, 75).
edge(26, 66).
edge(64, 68).
edge(17, 61).
edge(8, 65).
edge(147, 154).
edge(66, 122).
edge(6, 155).
edge(81, 122).
edge(99, 141).
edge(118, 135).
edge(1, 159).
edge(0, 127).
edge(84, 100).
edge(3, 167).
edge(58, 97).
edge(9, 163).
edge(17, 146).
edge(84, 152).
edge(112, 132).
edge(106, 144).
edge(8, 128).
edge(28, 72).
edge(3, 41).
edge(23, 54).
edge(146, 155).
edge(19, 119).
edge(62, 110).
edge(60, 116).
edge(40, 141).
edge(13, 153).
edge(9, 142).
edge(121, 130).
edge(91, 158).
edge(11, 54).
edge(45, 94).
edge(6, 165).
edge(15, 139).
edge(19, 120).
edge(61, 96).
edge(159, 169).
edge(23, 82).
edge(32, 58).
edge(6, 43).
edge(14, 111).
edge(6, 136).
edge(30, 59).
edge(2, 42).
edge(70, 112).
edge(43, 77).
edge(121, 138).
edge(23, 134).
edge(163, 168).
edge(14, 53).
edge(123, 133).
edge(92, 101).
edge(71, 131).
edge(129, 130).
edge(148, 150).
edge(32, 66).
edge(47, 80).
edge(17, 49).
edge(104, 151).
edge(107, 155).
edge(26, 61).
edge(88, 149).
edge(24, 61).
edge(6, 99).
edge(98, 128).
edge(31, 130).
edge(112, 146).
edge(43, 98).
edge(27, 65).
edge(21, 73).
edge(31, 118).
edge(58, 136).
edge(112, 142).
edge(58, 78).
edge(77, 108).
edge(50, 130).
edge(30, 105).
edge(47, 133).
edge(88, 141).
edge(80, 110).
edge(5, 126).
edge(122, 135).
edge(32, 88).
edge(55, 118).
edge(24, 74).
edge(116, 122).
edge(62, 115).
edge(129, 167).
edge(66, 79).
edge(64, 143).
edge(2, 60).
edge(52, 99).
edge(40, 118).
edge(88, 133).
edge(100, 127).
edge(13, 20).
edge(34, 65).
edge(33, 125).
edge(66, 117).
edge(0, 66).
edge(36, 40).
edge(83, 94).
edge(44, 114).
edge(10, 70).
edge(28, 61).
edge(146, 165).
edge(94, 108).
edge(154, 155).
edge(57, 162).
edge(7, 168).
edge(7, 127).
edge(8, 89).
edge(22, 69).
edge(92, 102).
edge(16, 131).
edge(51, 115).
edge(12, 22).
edge(81, 161).
edge(64, 137).
edge(82, 110).
edge(15, 116).
edge(30, 43).
edge(29, 149).
edge(35, 84).
edge(121, 124).
edge(19, 101).
edge(3, 67).
edge(126, 145).
edge(138, 156).
edge(64, 81).
edge(26, 46).
edge(77, 158).
edge(36, 61).
edge(33, 162).
edge(96, 101).
edge(128, 158).
edge(102, 170).
edge(0, 76).
edge(86, 116).
edge(28, 77).
edge(149, 151).
edge(67, 69).
edge(27, 129).
edge(62, 144).
edge(128, 154).
edge(60, 104).
edge(75, 145).
edge(3, 18).
edge(79, 150).
edge(31, 37).
edge(58, 75).
edge(19, 110).
edge(39, 59).
edge(56, 91).
edge(22, 56).
edge(28, 76).
edge(60, 151).
edge(73, 141).
edge(108, 161).
edge(67, 105).
edge(59, 81).
edge(68, 155).
edge(26, 131).
edge(6, 152).
edge(4, 84).
edge(68, 137).
edge(62, 121).
edge(45, 67).
edge(15, 22).
edge(99, 167).
edge(88, 144).
edge(141, 165).
edge(54, 157).
edge(13, 154).
edge(2, 12).
edge(54, 147).
edge(38, 86).
edge(38, 144).
edge(47, 157).
edge(22, 162).
edge(138, 142).
edge(29, 120).
edge(39, 164).
edge(30, 83).
edge(54, 58).
edge(90, 164).
edge(66, 95).
edge(42, 58).
edge(34, 165).
edge(32, 36).
edge(24, 50).
edge(75, 164).
edge(24, 122).
edge(17, 141).
edge(11, 64).
edge(11, 148).
edge(56, 93).
edge(98, 142).
edge(13, 123).
edge(54, 137).
edge(138, 145).
edge(38, 88).
edge(22, 124).
edge(25, 164).
edge(47, 62).
edge(21, 67).
edge(79, 147).
edge(40, 121).
edge(157, 170).
edge(20, 81).
edge(5, 38).
edge(68, 148).
edge(41, 69).
edge(60, 66).
edge(25, 103).
edge(38, 75).
edge(82, 106).
edge(13, 17).
edge(114, 168).
edge(6, 110).
edge(74, 154).
edge(114, 122).
edge(62, 64).
edge(78, 90).
edge(19, 114).
edge(11, 40).
edge(2, 107).
edge(39, 86).
edge(36, 164).
edge(70, 170).
edge(23, 71).
edge(38, 154).
edge(2, 62).
edge(44, 94).
edge(54, 161).
edge(13, 113).
edge(79, 134).
edge(107, 159).
edge(8, 116).
edge(7, 38).
edge(125, 166).
edge(21, 99).
edge(0, 31).
edge(38, 79).
edge(41, 145).
edge(112, 120).
edge(111, 158).
edge(81, 164).
edge(82, 100).
edge(69, 150).
edge(13, 69).
edge(21, 120).
edge(123, 153).
edge(22, 33).
edge(81, 154).
edge(27, 148).
edge(1, 35).
edge(30, 108).
edge(42, 45).
edge(47, 166).
edge(43, 76).
edge(67, 107).
edge(33, 88).
edge(94, 113).
edge(36, 65).
edge(134, 165).
edge(43, 128).
edge(10, 18).
edge(39, 99).
edge(62, 78).
edge(39, 78).
edge(7, 129).
edge(23, 62).
edge(78, 168).
edge(57, 164).
edge(15, 153).
edge(25, 144).
edge(44, 54).
edge(51, 121).
edge(37, 47).
edge(74, 115).
edge(19, 76).
edge(8, 160).
edge(94, 122).
edge(26, 75).
edge(64, 87).
edge(86, 153).
edge(120, 128).
edge(135, 148).
edge(11, 56).
edge(9, 55).
edge(150, 156).
edge(87, 111).
edge(139, 151).
edge(123, 163).
edge(6, 132).
edge(30, 57).
edge(54, 149).
edge(83, 133).
edge(84, 141).
edge(28, 143).
edge(2, 88).
edge(80, 81).
edge(101, 140).
edge(62, 89).
edge(161, 162).
edge(23, 144).
edge(56, 78).
edge(7, 49).
edge(1, 50).
edge(32, 34).
edge(3, 20).
edge(83, 168).
edge(155, 169).
edge(38, 124).
edge(40, 142).
edge(110, 138).
edge(114, 127).
edge(7, 114).
edge(157, 165).
edge(51, 149).
edge(135, 166).
edge(5, 24).
edge(96, 164).
edge(120, 157).
edge(33, 36).
edge(44, 51).
edge(8, 51).
edge(4, 115).
edge(86, 96).
edge(7, 116).
edge(45, 121).
edge(21, 149).
edge(9, 11).
edge(19, 94).
edge(54, 150).
edge(147, 151).
edge(5, 110).
edge(53, 161).
edge(37, 161).
edge(12, 16).
edge(73, 169).
edge(9, 155).
edge(43, 136).
edge(12, 23).
edge(23, 98).
edge(4, 144).
edge(3, 119).
edge(70, 133).
edge(47, 128).
edge(25, 160).
edge(6, 31).
edge(16, 130).
edge(109, 146).
edge(25, 75).
edge(25, 64).
edge(48, 55).
edge(29, 47).
edge(64, 106).
edge(18, 154).
edge(133, 150).
edge(11, 44).
edge(119, 167).
edge(21, 76).
edge(23, 67).
edge(135, 158).
edge(67, 164).
edge(52, 123).
edge(88, 105).
edge(98, 167).
edge(21, 84).
edge(28, 145).
edge(107, 162).
edge(55, 139).
edge(17, 83).
edge(60, 65).
edge(7, 91).
edge(24, 105).
edge(49, 153).
edge(74, 93).
edge(9, 58).
edge(40, 74).
edge(80, 154).
edge(4, 137).
edge(33, 73).
edge(66, 77).
edge(37, 45).
edge(20, 111).
edge(11, 70).
edge(14, 92).
edge(107, 119).
edge(67, 127).
edge(9, 108).
edge(8, 71).
edge(102, 155).
edge(54, 144).
edge(41, 125).
edge(43, 144).
edge(14, 68).
edge(8, 20).
edge(96, 150).
edge(21, 165).
edge(115, 164).
edge(83, 91).
edge(13, 85).
edge(17, 158).
edge(125, 139).
edge(14, 76).
edge(103, 125).
edge(137, 161).
edge(55, 151).
edge(119, 137).
edge(75, 104).
edge(46, 113).
edge(18, 155).
edge(14, 86).
edge(109, 150).
edge(18, 128).
edge(41, 144).
edge(11, 48).
edge(8, 85).
edge(110, 169).
edge(1, 52).
edge(34, 142).
edge(20, 139).
edge(44, 156).
edge(37, 150).
edge(87, 156).
edge(13, 70).
edge(117, 129).
edge(73, 148).
edge(152, 165).
edge(39, 151).
edge(13, 44).
edge(48, 69).
edge(19, 157).
edge(40, 131).
edge(13, 39).
edge(47, 119).
edge(29, 122).
edge(100, 128).
edge(74, 97).
edge(72, 127).
edge(104, 134).
edge(13, 71).
edge(56, 65).
edge(140, 168).
edge(48, 130).
edge(108, 136).
edge(58, 107).
edge(113, 149).
edge(106, 147).
edge(26, 129).
edge(86, 158).
edge(114, 130).
edge(69, 129).
edge(64, 109).
edge(73, 139).
edge(112, 148).
edge(65, 146).
edge(93, 156).
edge(0, 94).
edge(38, 95).
edge(53, 149).
edge(32, 159).
edge(70, 103).
edge(57, 99).
edge(39, 88).
edge(114, 153).
edge(6, 146).
edge(73, 146).
edge(7, 103).
edge(160, 161).
edge(48, 59).
edge(40, 62).
edge(121, 158).
edge(75, 128).
edge(32, 111).
edge(12, 128).
edge(19, 163).
edge(97, 114).
edge(18, 25).
edge(20, 62).
edge(29, 87).
edge(63, 142).
edge(1, 38).
edge(130, 157).
edge(93, 138).
edge(59, 79).
edge(19, 113).
edge(119, 149).
edge(38, 78).
edge(54, 60).
edge(77, 92).
edge(90, 100).
edge(69, 118).
edge(133, 156).
edge(41, 129).
edge(90, 102).
edge(45, 47).
edge(107, 111).
edge(9, 42).
edge(0, 139).
edge(146, 157).
edge(121, 149).
edge(12, 51).
edge(91, 106).
edge(86, 95).
edge(14, 90).
edge(96, 129).
edge(82, 148).
edge(38, 71).
edge(15, 101).
edge(32, 48).
edge(56, 130).
edge(142, 152).
edge(4, 58).
edge(11, 18).
edge(51, 118).
edge(72, 159).
edge(56, 156).
edge(3, 150).
edge(69, 144).
edge(144, 152).
edge(50, 169).
edge(0, 1).
edge(129, 135).
edge(149, 150).
edge(51, 119).
edge(10, 161).
edge(0, 72).
edge(18, 166).
edge(103, 143).
edge(1, 69).
edge(63, 124).
edge(49, 105).
edge(62, 107).
edge(81, 83).
edge(24, 156).
edge(86, 110).
edge(16, 22).
edge(49, 75).
edge(84, 156).
edge(75, 161).
edge(26, 108).
edge(88, 119).
edge(152, 158).
edge(71, 162).
edge(25, 73).
edge(51, 54).
edge(38, 125).
edge(100, 151).
edge(3, 99).
edge(151, 158).
edge(85, 90).
edge(19, 21).
edge(89, 147).
edge(93, 117).
edge(15, 72).
edge(123, 142).
edge(85, 96).
edge(96, 108).
edge(33, 109).
edge(21, 146).
edge(30, 107).
edge(90, 170).
edge(118, 141).
edge(103, 115).
edge(60, 99).
edge(20, 103).
edge(72, 73).
edge(24, 67).
edge(119, 144).
edge(55, 119).
edge(51, 166).
edge(58, 79).
edge(77, 159).
edge(84, 127).
edge(39, 116).
edge(45, 62).
edge(1, 87).
edge(54, 84).
edge(96, 127).
edge(97, 163).
edge(71, 85).
edge(142, 157).
edge(63, 162).
edge(25, 56).
edge(41, 73).
edge(32, 114).
edge(116, 136).
edge(67, 121).
edge(30, 146).
edge(1, 28).
edge(30, 78).
edge(15, 27).
edge(71, 136).
edge(112, 151).
edge(75, 134).
edge(30, 69).
edge(55, 100).
edge(40, 55).
edge(116, 167).
edge(107, 165).
edge(26, 144).
edge(22, 88).
edge(104, 161).
edge(21, 143).
edge(88, 92).
edge(107, 160).
edge(57, 157).
edge(11, 46).
edge(15, 166).
edge(24, 134).
edge(66, 75).
edge(88, 137).
edge(55, 169).
edge(32, 54).
edge(76, 138).
edge(53, 136).
edge(5, 101).
edge(100, 143).
edge(39, 94).
edge(145, 149).
edge(26, 124).
edge(76, 101).
edge(55, 66).
edge(9, 73).
edge(57, 106).
edge(89, 126).
edge(20, 50).
edge(115, 129).
edge(49, 71).
edge(117, 158).
edge(60, 63).
edge(72, 151).
edge(63, 169).
edge(17, 55).
edge(18, 110).
edge(103, 138).
edge(10, 121).
edge(0, 32).
edge(134, 162).
edge(92, 107).
edge(53, 117).
edge(16, 68).
edge(11, 16).
edge(20, 113).
edge(53, 122).
edge(114, 142).
edge(38, 169).
edge(62, 71).
edge(4, 119).
edge(67, 117).
edge(61, 83).
edge(43, 157).
edge(84, 169).
edge(60, 142).
edge(7, 73).
edge(2, 136).
edge(18, 151).
edge(130, 140).
edge(92, 106).
edge(52, 91).
edge(52, 53).
edge(3, 95).
edge(4, 88).
edge(41, 168).
edge(37, 66).
edge(6, 39).
edge(64, 79).
edge(34, 145).
edge(50, 168).
edge(98, 115).
edge(56, 67).
edge(65, 161).
edge(31, 86).
edge(73, 168).
edge(157, 160).
edge(74, 153).
edge(15, 146).
edge(33, 116).
edge(1, 168).
edge(146, 169).
edge(18, 147).
edge(21, 60).
edge(56, 103).
edge(116, 154).
edge(78, 122).
edge(69, 78).
edge(42, 76).
edge(14, 117).
edge(44, 137).
edge(76, 132).
edge(61, 70).
edge(70, 98).
edge(11, 125).
edge(54, 145).
edge(79, 102).
edge(93, 159).
edge(8, 157).
edge(15, 119).
edge(118, 131).
edge(40, 112).
edge(13, 16).
edge(10, 36).
edge(10, 96).
edge(12, 151).
edge(91, 157).
edge(46, 136).
edge(43, 61).
edge(20, 31).
edge(26, 40).
edge(56, 125).
edge(51, 79).
edge(23, 39).
edge(134, 143).
edge(111, 136).
edge(45, 127).
edge(35, 94).
edge(28, 80).
edge(72, 147).
edge(134, 168).
edge(140, 149).
edge(79, 106).
edge(74, 85).
edge(34, 163).
edge(28, 159).
edge(126, 131).
edge(19, 143).
edge(41, 43).
edge(34, 120).
edge(123, 144).
edge(20, 94).
edge(15, 133).
edge(73, 138).
edge(72, 158).
edge(0, 118).
edge(25, 112).
edge(3, 114).
edge(44, 103).
edge(4, 114).
edge(110, 167).
edge(141, 145).
edge(32, 43).
edge(1, 167).
edge(0, 48).
edge(58, 157).
edge(23, 89).
edge(133, 163).
edge(96, 125).
edge(10, 60).
edge(134, 151).
edge(8, 68).
edge(75, 147).
edge(16, 55).
edge(50, 59).
edge(18, 120).
edge(119, 158).
edge(111, 164).
edge(101, 110).
edge(11, 15).
edge(30, 60).
edge(69, 116).
edge(63, 105).
edge(118, 144).
edge(124, 129).
edge(61, 160).
edge(102, 141).
edge(12, 162).
edge(24, 148).
edge(47, 112).
edge(120, 131).
edge(75, 141).
edge(72, 93).
edge(133, 158).
edge(80, 139).
edge(58, 103).
edge(48, 136).
edge(51, 58).
edge(44, 52).
edge(37, 46).
edge(49, 107).
edge(35, 124).
edge(76, 145).
edge(24, 93).
edge(69, 106).
edge(2, 70).
edge(0, 99).
edge(9, 131).
edge(34, 74).
edge(26, 60).
edge(117, 159).
edge(72, 101).
edge(31, 154).
edge(48, 165).
edge(9, 146).
edge(75, 89).
edge(16, 37).
edge(37, 158).
edge(27, 77).
edge(56, 115).
edge(54, 120).
edge(30, 46).
edge(29, 136).
edge(49, 113).
edge(122, 144).
edge(58, 104).
edge(71, 139).
edge(3, 21).
edge(29, 139).
edge(38, 129).
edge(85, 116).
edge(9, 94).
edge(69, 135).
edge(59, 137).
edge(13, 35).
edge(4, 163).
edge(110, 116).
edge(24, 125).
edge(136, 141).
edge(89, 99).
edge(77, 167).
edge(36, 125).
edge(17, 138).
edge(56, 60).
edge(108, 133).
edge(91, 160).
edge(112, 131).
edge(0, 6).
edge(53, 130).
edge(135, 167).
edge(4, 95).
edge(73, 76).
edge(34, 76).
edge(94, 150).
edge(8, 37).
edge(6, 160).
edge(16, 124).
edge(50, 120).
edge(73, 94).
edge(139, 145).
edge(68, 114).
edge(14, 19).
edge(35, 143).
edge(66, 91).
edge(116, 128).
edge(0, 124).
edge(90, 148).
edge(70, 127).
edge(42, 134).
edge(16, 44).
edge(1, 92).
edge(96, 142).
edge(100, 156).
edge(26, 135).
edge(77, 82).
edge(55, 160).
edge(38, 62).
edge(150, 160).
edge(32, 101).
edge(1, 21).
edge(124, 138).
edge(37, 102).
edge(89, 150).
edge(28, 152).
edge(76, 148).
edge(15, 107).
edge(120, 137).
edge(78, 115).
edge(19, 43).
edge(121, 148).
edge(8, 151).
edge(76, 170).
edge(59, 96).
edge(34, 87).
edge(35, 145).
edge(65, 159).
edge(36, 123).
edge(20, 56).
edge(20, 46).
edge(99, 158).
edge(90, 144).
edge(59, 114).
edge(0, 43).
edge(125, 142).
edge(103, 153).
edge(3, 113).
edge(70, 125).
edge(50, 100).
edge(11, 141).
edge(105, 151).
edge(31, 94).
edge(52, 128).
edge(102, 137).
edge(5, 60).
edge(98, 170).
edge(8, 77).
edge(132, 152).
edge(137, 141).
edge(58, 161).
edge(35, 129).
edge(58, 89).
edge(41, 82).
edge(41, 164).
edge(79, 161).
edge(87, 164).
edge(5, 114).
edge(56, 110).
edge(28, 122).
edge(16, 38).
edge(36, 68).
edge(2, 33).
edge(27, 110).
edge(99, 142).
edge(58, 68).
edge(144, 166).
edge(16, 35).
edge(22, 104).
edge(73, 163).
edge(121, 147).
edge(38, 126).
edge(58, 165).
edge(67, 146).
edge(48, 72).
edge(50, 96).
edge(35, 37).
edge(29, 129).
edge(74, 105).
edge(5, 138).
edge(103, 156).
edge(43, 156).
edge(56, 147).
edge(83, 106).
edge(2, 18).
edge(19, 152).
edge(83, 166).
edge(3, 48).
edge(70, 106).
edge(39, 71).
edge(71, 81).
edge(88, 150).
edge(23, 101).
edge(10, 107).
edge(33, 151).
edge(52, 87).
edge(2, 124).
edge(6, 66).
edge(68, 105).
edge(1, 55).
edge(28, 108).
edge(142, 143).
edge(141, 148).
edge(99, 110).
edge(34, 107).
edge(89, 160).
edge(29, 76).
edge(33, 153).
edge(13, 90).
edge(27, 52).
edge(111, 150).
edge(63, 74).
edge(39, 49).
edge(97, 124).
edge(41, 71).
edge(107, 152).
edge(75, 131).
edge(83, 159).
edge(132, 137).
edge(1, 137).
edge(122, 140).
edge(130, 158).
edge(13, 27).
edge(2, 92).
edge(27, 29).
edge(23, 91).
edge(24, 98).
edge(61, 108).
edge(29, 118).
edge(109, 142).
edge(50, 131).
edge(112, 116).
edge(40, 95).
edge(108, 142).
edge(125, 165).
edge(69, 141).
edge(1, 95).
edge(61, 122).
edge(70, 110).
edge(38, 40).
edge(5, 119).
edge(22, 129).
edge(67, 103).
edge(120, 125).
edge(41, 84).
edge(39, 51).
edge(0, 19).
edge(65, 132).
edge(32, 80).
edge(5, 27).
edge(97, 149).
edge(73, 96).
edge(68, 110).
edge(66, 93).
edge(64, 107).
edge(57, 110).
edge(31, 143).
edge(134, 138).
edge(28, 154).
edge(90, 107).
edge(26, 31).
edge(22, 103).
edge(33, 93).
edge(73, 102).
edge(72, 75).
edge(57, 123).
edge(31, 106).
edge(136, 139).
edge(46, 87).
edge(21, 114).
edge(65, 120).
edge(56, 121).
edge(41, 48).
edge(75, 99).
edge(41, 44).
edge(36, 88).
edge(60, 78).
edge(78, 120).
edge(152, 156).
edge(76, 82).
edge(3, 35).
edge(13, 19).
edge(79, 81).
edge(108, 166).
edge(100, 113).
edge(76, 167).
edge(33, 102).
edge(86, 141).
edge(17, 47).
edge(103, 152).
edge(70, 90).
edge(46, 56).
edge(3, 55).
edge(85, 86).
edge(0, 5).
edge(79, 156).
edge(86, 136).
edge(31, 97).
edge(120, 149).
edge(86, 152).
edge(70, 132).
edge(2, 118).
edge(10, 142).
edge(111, 138).
edge(141, 149).
edge(124, 126).
edge(33, 82).
edge(35, 47).
edge(14, 144).
edge(5, 42).
edge(54, 64).
edge(65, 122).
edge(30, 53).
edge(116, 148).
edge(75, 129).
edge(45, 51).
edge(30, 114).
edge(20, 52).
edge(18, 152).
edge(94, 154).
edge(64, 144).
edge(14, 15).
edge(47, 93).
edge(39, 127).
edge(81, 158).
edge(42, 117).
edge(108, 158).
edge(10, 98).
edge(13, 104).
edge(92, 155).
edge(134, 154).
edge(99, 135).
edge(97, 134).
edge(5, 142).
edge(76, 133).
edge(0, 116).
edge(88, 118).
edge(58, 95).
edge(29, 66).
edge(22, 108).
edge(34, 91).
edge(122, 134).
edge(75, 158).
edge(41, 163).
edge(43, 72).
edge(113, 153).
edge(136, 143).
edge(79, 123).
edge(62, 138).
edge(82, 132).
edge(83, 120).
edge(12, 24).
edge(60, 139).
edge(56, 152).
edge(36, 97).
edge(59, 65).
edge(42, 121).
edge(119, 141).
edge(92, 169).
edge(68, 140).
edge(143, 165).
edge(37, 142).
edge(62, 111).
edge(129, 139).
edge(125, 126).
edge(103, 119).
edge(44, 160).
edge(35, 59).
edge(31, 148).
edge(70, 117).
edge(33, 71).
edge(46, 141).
edge(35, 89).
edge(23, 48).
edge(112, 133).
edge(17, 155).
edge(1, 71).
edge(0, 114).
edge(65, 163).
edge(136, 169).
edge(55, 78).
edge(12, 123).
edge(85, 97).
edge(95, 146).
edge(21, 155).
edge(109, 153).
edge(9, 127).
edge(83, 89).
edge(61, 107).
edge(68, 118).
edge(10, 34).
edge(105, 122).
edge(3, 88).
edge(55, 77).
edge(2, 104).
edge(10, 156).
edge(19, 73).
edge(55, 157).
edge(17, 107).
edge(103, 129).
edge(119, 139).
edge(52, 114).
edge(41, 127).
edge(62, 139).
edge(50, 72).
edge(26, 94).
edge(7, 46).
edge(54, 96).
edge(147, 161).
edge(14, 42).
edge(155, 156).
edge(27, 63).
edge(120, 144).
edge(90, 140).
edge(125, 167).
edge(31, 144).
edge(7, 13).
edge(63, 110).
edge(104, 114).
edge(32, 130).
edge(68, 77).
edge(87, 147).
edge(110, 145).
edge(20, 149).
edge(2, 113).
edge(137, 144).
edge(14, 97).
edge(107, 168).
edge(78, 88).
edge(5, 100).
edge(49, 145).
edge(6, 46).
edge(33, 163).
edge(41, 75).
edge(88, 112).
edge(29, 45).
edge(77, 140).
edge(121, 126).
edge(79, 160).
edge(99, 128).
edge(88, 101).
edge(64, 82).
edge(70, 76).
edge(105, 127).
edge(60, 86).
edge(50, 110).
edge(38, 82).
edge(25, 123).
edge(33, 138).
edge(118, 153).
edge(88, 96).
edge(30, 68).
edge(9, 39).
edge(34, 95).
edge(17, 78).
edge(40, 46).
edge(29, 83).
edge(142, 153).
edge(31, 41).
edge(48, 148).
edge(20, 102).
edge(37, 99).
edge(18, 46).
edge(6, 90).
edge(24, 26).
edge(57, 64).
edge(39, 142).
edge(18, 140).
edge(36, 67).
edge(14, 113).
edge(17, 121).
edge(25, 124).
edge(16, 129).
edge(60, 137).
edge(50, 103).
edge(99, 138).
edge(29, 39).
edge(85, 92).
edge(17, 164).
edge(40, 111).
edge(27, 43).
edge(166, 170).
edge(42, 163).
edge(124, 152).
edge(31, 89).
edge(1, 58).
edge(57, 116).
edge(1, 99).
edge(27, 68).
edge(4, 83).
edge(2, 46).
edge(124, 157).
edge(5, 108).
edge(83, 96).
edge(20, 32).
edge(58, 127).
edge(10, 130).
edge(7, 121).
edge(44, 131).
edge(21, 61).
edge(39, 41).
edge(8, 24).
edge(118, 138).
edge(97, 127).
edge(43, 145).
edge(11, 132).
edge(26, 39).
edge(36, 154).
edge(32, 138).
edge(4, 91).
edge(45, 158).
edge(95, 113).
edge(17, 64).
edge(35, 69).
edge(159, 170).
edge(11, 124).
edge(6, 70).
edge(140, 148).
edge(89, 111).
edge(39, 170).
edge(66, 120).
edge(43, 169).
edge(81, 136).
edge(151, 167).
edge(7, 60).
edge(158, 163).
edge(32, 140).
edge(30, 70).
edge(70, 80).
edge(53, 134).
edge(58, 141).
edge(51, 116).
edge(27, 78).
edge(79, 152).
edge(83, 116).
edge(48, 150).
edge(31, 90).
edge(135, 141).
edge(14, 33).
edge(162, 166).
edge(8, 155).
edge(67, 160).
edge(107, 153).
edge(65, 107).
edge(74, 159).
edge(56, 131).
edge(15, 58).
edge(43, 114).
edge(29, 161).
edge(10, 56).
edge(13, 134).
edge(24, 128).
edge(27, 160).
edge(27, 141).
edge(36, 101).
edge(63, 114).
edge(11, 127).
edge(156, 169).
edge(100, 142).
edge(49, 53).
edge(37, 149).
edge(59, 95).
edge(109, 154).
edge(78, 146).
edge(69, 164).
edge(5, 62).
edge(80, 125).
edge(103, 149).
edge(4, 166).
edge(61, 65).
edge(57, 71).
edge(49, 54).
edge(162, 169).
weight(0, 16).
weight(1, 5).
weight(2, 13).
weight(3, 15).
weight(4, 14).
weight(5, 15).
weight(6, 11).
weight(7, 22).
weight(8, 18).
weight(9, 20).
weight(10, 1).
weight(11, 21).
weight(12, 16).
weight(13, 18).
weight(14, 16).
weight(15, 17).
weight(16, 6).
weight(17, 23).
weight(18, 4).
weight(19, 5).
weight(20, 4).
weight(21, 6).
weight(22, 16).
weight(23, 19).
weight(24, 11).
weight(25, 5).
weight(26, 6).
weight(27, 1).
weight(28, 10).
weight(29, 5).
weight(30, 6).
weight(31, 12).
weight(32, 19).
weight(33, 19).
weight(34, 10).
weight(35, 15).
weight(36, 10).
weight(37, 10).
weight(38, 3).
weight(39, 11).
weight(40, 5).
weight(41, 11).
weight(42, 6).
weight(43, 16).
weight(44, 18).
weight(45, 19).
weight(46, 8).
weight(47, 17).
weight(48, 13).
weight(49, 15).
weight(50, 22).
weight(51, 21).
weight(52, 11).
weight(53, 17).
weight(54, 9).
weight(55, 16).
weight(56, 1).
weight(57, 6).
weight(58, 8).
weight(59, 17).
weight(60, 6).
weight(61, 16).
weight(62, 8).
weight(63, 6).
weight(64, 11).
weight(65, 4).
weight(66, 2).
weight(67, 6).
weight(68, 20).
weight(69, 14).
weight(70, 5).
weight(71, 23).
weight(72, 1).
weight(73, 5).
weight(74, 13).
weight(75, 12).
weight(76, 4).
weight(77, 8).
weight(78, 13).
weight(79, 21).
weight(80, 5).
weight(81, 1).
weight(82, 7).
weight(83, 21).
weight(84, 10).
weight(85, 11).
weight(86, 22).
weight(87, 3).
weight(88, 17).
weight(89, 19).
weight(90, 8).
weight(91, 1).
weight(92, 7).
weight(93, 6).
weight(94, 21).
weight(95, 16).
weight(96, 21).
weight(97, 12).
weight(98, 23).
weight(99, 10).
weight(100, 11).
weight(101, 21).
weight(102, 17).
weight(103, 20).
weight(104, 20).
weight(105, 18).
weight(106, 20).
weight(107, 21).
weight(108, 17).
weight(109, 2).
weight(110, 16).
weight(111, 23).
weight(112, 15).
weight(113, 11).
weight(114, 15).
weight(115, 19).
weight(116, 2).
weight(117, 6).
weight(118, 23).
weight(119, 10).
weight(120, 4).
weight(121, 20).
weight(122, 3).
weight(123, 13).
weight(124, 23).
weight(125, 16).
weight(126, 13).
weight(127, 19).
weight(128, 1).
weight(129, 14).
weight(130, 17).
weight(131, 1).
weight(132, 7).
weight(133, 12).
weight(134, 23).
weight(135, 22).
weight(136, 21).
weight(137, 9).
weight(138, 22).
weight(139, 16).
weight(140, 3).
weight(141, 21).
weight(142, 18).
weight(143, 22).
weight(144, 3).
weight(145, 13).
weight(146, 23).
weight(147, 22).
weight(148, 5).
weight(149, 13).
weight(150, 17).
weight(151, 12).
weight(152, 9).
weight(153, 16).
weight(154, 3).
weight(155, 6).
weight(156, 15).
weight(157, 21).
weight(158, 10).
weight(159, 10).
weight(160, 22).
weight(161, 1).
weight(162, 21).
weight(163, 17).
weight(164, 9).
weight(165, 11).
weight(166, 19).
weight(167, 21).
weight(168, 5).
weight(169, 5).
weight(170, 11).

{in(V)} :- node(V).
:- in(U), in(V), U < V, not edge(U,V).
:~ not in(V), weight(V,W). [W@1,V]
