node(0..178).
edge(52, 177).
edge(13, 46).
edge(63, 91).
edge(54, 142).
edge(15, 167).
edge(60, 105).
edge(9, 95).
edge(55, 107).
edge(38, 87).
edge(47, 155).
edge(47, 62).
edge(69, 155).
edge(91, 101).
edge(2, 162).
edge(26, 38).
edge(123, 176).
edge(5, 130).
edge(3, 164).
edge(3, 87).
edge(9, 123).
edge(94, 113).
edge(67, 125).
edge(92, 126).
edge(37, 132).
edge(3, 137).
edge(81, 111).
edge(133, 169).
edge(21, 115).
edge(11, 89).
edge(43, 52).
edge(25, 88).
edge(126, 130).
edge(40, 163).
edge(21, 144).
edge(24, 148).
edge(156, 169).
edge(85, 152).
edge(59, 128).
edge(41, 140).
edge(120, 169).
edge(159, 169).
edge(58, 64).
edge(118, 163).
edge(125, 149).
edge(36, 76).
edge(68, 130).
edge(39, 150).
edge(149, 161).
edge(19, 157).
edge(12, 100).
edge(102, 150).
edge(84, 138).
edge(27, 52).
edge(10, 96).
edge(54, 83).
edge(152, 159).
edge(64, 98).
edge(70, 120).
edge(66, 169).
edge(66, 141).
edge(89, 153).
edge(56, 109).
edge(62, 111).
edge(66, 177).
edge(44, 111).
edge(13, 152).
edge(26, 132).
edge(23, 137).
edge(17, 116).
edge(20, 144).
edge(147, 166).
edge(35, 54).
edge(140, 163).
edge(8, 146).
edge(4, 64).
edge(72, 137).
edge(8, 17).
edge(133, 144).
edge(41, 172).
edge(22, 34).
edge(8, 169).
edge(6, 138).
edge(99, 170).
edge(44, 57).
edge(20, 136).
edge(5, 128).
edge(41, 132).
edge(153, 168).
edge(47, 178).
edge(79, 153).
edge(15, 161).
edge(91, 105).
edge(24, 76).
edge(31, 111).
edge(1, 43).
edge(71, 137).
edge(54, 143).
edge(38, 45).
edge(28, 94).
edge(49, 135).
edge(19, 118).
edge(23, 62).
edge(83, 137).
edge(13, 122).
edge(39, 114).
edge(12, 160).
edge(8, 26).
edge(26, 150).
edge(20, 64).
edge(29, 117).
edge(79, 105).
edge(47, 51).
edge(31, 93).
edge(152, 177).
edge(19, 28).
edge(27, 78).
edge(80, 107).
edge(169, 174).
edge(137, 153).
edge(97, 169).
edge(18, 144).
edge(10, 19).
edge(42, 62).
edge(107, 167).
edge(128, 143).
edge(82, 99).
edge(37, 67).
edge(107, 164).
edge(7, 97).
edge(60, 95).
edge(5, 141).
edge(5, 70).
edge(79, 152).
edge(118, 143).
edge(156, 178).
edge(35, 84).
edge(11, 146).
edge(131, 163).
edge(71, 97).
edge(15, 130).
edge(30, 125).
edge(147, 171).
edge(28, 174).
edge(33, 44).
edge(17, 158).
edge(77, 153).
edge(21, 124).
edge(129, 173).
edge(78, 161).
edge(38, 119).
edge(10, 61).
edge(4, 67).
edge(107, 171).
edge(33, 116).
edge(100, 158).
edge(117, 120).
edge(152, 166).
edge(24, 130).
edge(118, 151).
edge(14, 143).
edge(4, 24).
edge(45, 131).
edge(88, 97).
edge(10, 140).
edge(78, 159).
edge(18, 111).
edge(26, 129).
edge(3, 28).
edge(35, 95).
edge(37, 73).
edge(5, 154).
edge(50, 100).
edge(105, 135).
edge(98, 104).
edge(1, 35).
edge(71, 128).
edge(159, 168).
edge(133, 145).
edge(20, 126).
edge(38, 102).
edge(141, 174).
edge(24, 174).
edge(13, 98).
edge(62, 76).
edge(157, 170).
edge(23, 129).
edge(116, 165).
edge(51, 125).
edge(146, 150).
edge(21, 52).
edge(9, 48).
edge(67, 107).
edge(14, 40).
edge(31, 135).
edge(0, 5).
edge(82, 176).
edge(19, 65).
edge(90, 133).
edge(1, 142).
edge(34, 37).
edge(103, 166).
edge(29, 157).
edge(51, 86).
edge(24, 170).
edge(100, 142).
edge(72, 122).
edge(59, 70).
edge(98, 100).
edge(90, 104).
edge(47, 75).
edge(105, 121).
edge(1, 122).
edge(129, 176).
edge(6, 109).
edge(26, 139).
edge(1, 54).
edge(2, 10).
edge(126, 127).
edge(13, 139).
edge(96, 128).
edge(39, 82).
edge(16, 54).
edge(112, 136).
edge(74, 77).
edge(38, 176).
edge(140, 171).
edge(134, 155).
edge(118, 132).
edge(65, 173).
edge(98, 120).
edge(99, 153).
edge(136, 141).
edge(10, 125).
edge(27, 55).
edge(8, 93).
edge(92, 151).
edge(74, 88).
edge(11, 105).
edge(61, 90).
edge(75, 143).
edge(32, 109).
edge(50, 86).
edge(26, 110).
edge(117, 149).
edge(47, 65).
edge(7, 170).
edge(63, 168).
edge(90, 118).
edge(143, 152).
edge(29, 151).
edge(46, 129).
edge(87, 104).
edge(66, 89).
edge(137, 164).
edge(120, 178).
edge(109, 113).
edge(27, 37).
edge(4, 136).
edge(111, 143).
edge(35, 177).
edge(22, 121).
edge(38, 63).
edge(109, 129).
edge(32, 115).
edge(11, 102).
edge(16, 96).
edge(102, 105).
edge(31, 100).
edge(154, 161).
edge(60, 84).
edge(17, 156).
edge(54, 139).
edge(32, 56).
edge(44, 153).
edge(35, 107).
edge(59, 69).
edge(19, 59).
edge(64, 156).
edge(138, 158).
edge(28, 163).
edge(45, 157).
edge(59, 102).
edge(56, 82).
edge(23, 111).
edge(75, 175).
edge(33, 146).
edge(17, 167).
edge(31, 163).
edge(48, 56).
edge(43, 168).
edge(87, 172).
edge(22, 88).
edge(40, 72).
edge(3, 169).
edge(78, 129).
edge(86, 166).
edge(81, 82).
edge(25, 104).
edge(31, 159).
edge(17, 78).
edge(112, 149).
edge(28, 145).
edge(39, 165).
edge(18, 139).
edge(30, 114).
edge(115, 121).
edge(152, 163).
edge(87, 141).
edge(114, 115).
edge(168, 172).
edge(30, 63).
edge(149, 153).
edge(147, 151).
edge(1, 27).
edge(25, 157).
edge(62, 104).
edge(23, 109).
edge(16, 98).
edge(11, 53).
edge(136, 146).
edge(22, 135).
edge(83, 85).
edge(65, 157).
edge(1, 83).
edge(14, 100).
edge(113, 121).
edge(23, 96).
edge(59, 117).
edge(89, 146).
edge(3, 99).
edge(128, 177).
edge(37, 79).
edge(6, 94).
edge(36, 160).
edge(34, 74).
edge(12, 19).
edge(143, 165).
edge(87, 96).
edge(2, 90).
edge(35, 175).
edge(126, 140).
edge(21, 59).
edge(36, 131).
edge(9, 55).
edge(18, 124).
edge(107, 155).
edge(15, 110).
edge(4, 140).
edge(52, 60).
edge(49, 81).
edge(63, 75).
edge(3, 138).
edge(56, 169).
edge(32, 67).
edge(17, 60).
edge(29, 94).
edge(133, 154).
edge(53, 107).
edge(67, 103).
edge(131, 148).
edge(1, 100).
edge(51, 74).
edge(9, 27).
edge(134, 145).
edge(87, 134).
edge(110, 112).
edge(36, 53).
edge(76, 89).
edge(4, 85).
edge(12, 52).
edge(26, 54).
edge(122, 147).
edge(52, 171).
edge(34, 131).
edge(11, 112).
edge(94, 157).
edge(40, 51).
edge(130, 151).
edge(49, 88).
edge(3, 136).
edge(161, 167).
edge(69, 80).
edge(38, 69).
edge(34, 162).
edge(70, 80).
edge(34, 141).
edge(3, 173).
edge(123, 145).
edge(6, 141).
edge(45, 102).
edge(70, 75).
edge(11, 125).
edge(61, 99).
edge(103, 131).
edge(32, 101).
edge(23, 152).
edge(9, 141).
edge(50, 154).
edge(134, 177).
edge(23, 105).
edge(16, 104).
edge(79, 165).
edge(64, 119).
edge(84, 126).
edge(65, 95).
edge(5, 164).
edge(53, 138).
edge(25, 147).
edge(6, 173).
edge(68, 152).
edge(7, 31).
edge(21, 116).
edge(35, 160).
edge(33, 115).
edge(69, 163).
edge(86, 117).
edge(58, 160).
edge(7, 123).
edge(97, 125).
edge(61, 85).
edge(61, 64).
edge(131, 174).
edge(72, 129).
edge(37, 87).
edge(18, 67).
edge(74, 75).
edge(62, 93).
edge(118, 153).
edge(20, 172).
edge(1, 121).
edge(66, 139).
edge(81, 169).
edge(7, 105).
edge(0, 160).
edge(8, 155).
edge(159, 165).
edge(28, 156).
edge(17, 178).
edge(77, 151).
edge(12, 152).
edge(54, 99).
edge(135, 173).
edge(14, 81).
edge(50, 66).
edge(11, 136).
edge(111, 167).
edge(93, 106).
edge(55, 79).
edge(23, 51).
edge(15, 113).
edge(77, 121).
edge(145, 162).
edge(58, 116).
edge(1, 15).
edge(37, 85).
edge(33, 38).
edge(65, 110).
edge(75, 79).
edge(5, 138).
edge(84, 150).
edge(74, 89).
edge(9, 175).
edge(34, 68).
edge(0, 60).
edge(156, 158).
edge(132, 137).
edge(23, 130).
edge(0, 16).
edge(39, 173).
edge(11, 66).
edge(89, 175).
edge(110, 154).
edge(122, 130).
edge(40, 89).
edge(51, 53).
edge(62, 127).
edge(4, 141).
edge(46, 68).
edge(98, 144).
edge(12, 101).
edge(24, 110).
edge(9, 43).
edge(5, 14).
edge(7, 75).
edge(8, 55).
edge(29, 84).
edge(151, 160).
edge(1, 31).
edge(3, 56).
edge(6, 84).
edge(65, 119).
edge(4, 96).
edge(98, 178).
edge(31, 80).
edge(3, 145).
edge(91, 138).
edge(52, 131).
edge(90, 157).
edge(0, 41).
edge(54, 75).
edge(37, 96).
edge(74, 174).
edge(1, 55).
edge(30, 161).
edge(69, 156).
edge(2, 153).
edge(37, 93).
edge(59, 113).
edge(140, 148).
edge(79, 121).
edge(11, 113).
edge(116, 131).
edge(26, 170).
edge(81, 131).
edge(101, 172).
edge(23, 176).
edge(61, 137).
edge(43, 67).
edge(25, 122).
edge(30, 67).
edge(71, 91).
edge(44, 156).
edge(58, 129).
edge(45, 108).
edge(136, 171).
edge(31, 137).
edge(117, 148).
edge(53, 135).
edge(12, 161).
edge(76, 117).
edge(87, 111).
edge(6, 111).
edge(56, 117).
edge(49, 150).
edge(71, 79).
edge(10, 160).
edge(55, 102).
edge(152, 155).
edge(71, 160).
edge(37, 103).
edge(12, 18).
edge(98, 108).
edge(86, 138).
edge(81, 93).
edge(16, 106).
edge(122, 133).
edge(51, 163).
edge(68, 98).
edge(76, 134).
edge(94, 100).
edge(128, 162).
edge(124, 135).
edge(77, 87).
edge(14, 26).
edge(103, 164).
edge(6, 8).
edge(68, 107).
edge(29, 98).
edge(123, 124).
edge(66, 133).
edge(62, 63).
edge(42, 98).
edge(2, 96).
edge(125, 143).
edge(104, 162).
edge(43, 92).
edge(59, 94).
edge(6, 26).
edge(16, 40).
edge(19, 53).
edge(1, 144).
edge(33, 117).
edge(155, 177).
edge(151, 178).
edge(148, 160).
edge(37, 142).
edge(147, 153).
edge(151, 177).
edge(30, 139).
edge(56, 138).
edge(60, 69).
edge(62, 129).
edge(29, 172).
edge(77, 165).
edge(38, 134).
edge(28, 161).
edge(44, 143).
edge(126, 142).
edge(2, 139).
edge(43, 48).
edge(0, 162).
edge(8, 120).
edge(41, 146).
edge(29, 128).
edge(49, 85).
edge(103, 163).
edge(29, 35).
edge(39, 136).
edge(20, 149).
edge(19, 61).
edge(77, 158).
edge(71, 132).
edge(112, 121).
edge(103, 132).
edge(68, 140).
edge(105, 113).
edge(94, 177).
edge(7, 71).
edge(83, 84).
edge(56, 95).
edge(31, 143).
edge(100, 140).
edge(99, 166).
edge(147, 164).
edge(26, 176).
edge(12, 71).
edge(10, 26).
edge(37, 147).
edge(81, 138).
edge(106, 144).
edge(67, 72).
edge(16, 153).
edge(36, 178).
edge(59, 118).
edge(33, 94).
edge(108, 126).
edge(34, 46).
edge(37, 133).
edge(11, 127).
edge(53, 78).
edge(16, 154).
edge(72, 120).
edge(78, 150).
edge(125, 137).
edge(6, 174).
edge(124, 129).
edge(9, 168).
edge(77, 112).
edge(94, 131).
edge(12, 135).
edge(41, 151).
edge(112, 158).
edge(91, 92).
edge(1, 13).
edge(24, 101).
edge(57, 72).
edge(94, 115).
edge(159, 175).
edge(8, 159).
edge(0, 67).
edge(23, 143).
edge(75, 101).
edge(98, 173).
edge(71, 133).
edge(15, 22).
edge(36, 38).
edge(43, 147).
edge(82, 150).
edge(12, 145).
edge(150, 163).
edge(135, 139).
edge(99, 143).
edge(36, 142).
edge(70, 160).
edge(17, 33).
edge(57, 85).
edge(42, 122).
edge(50, 103).
edge(119, 173).
edge(96, 161).
edge(85, 105).
edge(57, 73).
edge(27, 88).
edge(27, 70).
edge(96, 163).
edge(131, 158).
edge(116, 170).
edge(161, 178).
edge(26, 116).
edge(44, 141).
edge(10, 94).
edge(89, 91).
edge(20, 51).
edge(13, 24).
edge(44, 98).
edge(23, 144).
edge(135, 145).
edge(40, 128).
edge(29, 141).
edge(135, 136).
edge(106, 134).
edge(13, 133).
edge(6, 177).
edge(112, 150).
edge(7, 173).
edge(64, 172).
edge(93, 165).
edge(1, 170).
edge(72, 101).
edge(54, 136).
edge(62, 174).
edge(56, 101).
edge(51, 170).
edge(38, 135).
edge(12, 164).
edge(62, 68).
edge(5, 172).
edge(120, 137).
edge(63, 150).
edge(152, 164).
edge(107, 178).
edge(75, 102).
edge(46, 160).
edge(27, 90).
edge(10, 45).
edge(48, 107).
edge(8, 88).
edge(72, 95).
edge(1, 135).
edge(25, 38).
edge(17, 119).
edge(36, 93).
edge(9, 33).
edge(9, 28).
edge(80, 145).
edge(47, 88).
edge(38, 78).
edge(72, 152).
edge(78, 139).
edge(85, 154).
edge(10, 101).
edge(64, 107).
edge(96, 146).
edge(107, 157).
edge(13, 159).
edge(5, 106).
edge(61, 71).
edge(99, 116).
edge(18, 150).
edge(110, 136).
edge(108, 171).
edge(9, 148).
edge(59, 152).
edge(27, 51).
edge(40, 82).
edge(17, 145).
edge(94, 124).
edge(0, 27).
edge(88, 132).
edge(124, 162).
edge(26, 83).
edge(37, 90).
edge(48, 175).
edge(20, 173).
edge(84, 155).
edge(142, 174).
edge(144, 169).
edge(68, 108).
edge(26, 104).
edge(94, 176).
edge(38, 101).
edge(108, 156).
edge(52, 70).
edge(53, 175).
edge(101, 124).
edge(35, 119).
edge(150, 168).
edge(4, 118).
edge(90, 126).
edge(19, 78).
edge(7, 61).
edge(32, 103).
edge(40, 86).
edge(119, 133).
edge(47, 59).
edge(31, 87).
edge(91, 110).
edge(80, 165).
edge(130, 172).
edge(46, 165).
edge(66, 102).
edge(79, 132).
edge(118, 129).
edge(63, 71).
edge(27, 170).
edge(113, 154).
edge(13, 111).
edge(1, 66).
edge(26, 58).
edge(87, 164).
edge(156, 160).
edge(42, 55).
edge(106, 172).
edge(64, 126).
edge(44, 177).
edge(10, 14).
edge(40, 57).
edge(23, 74).
edge(50, 168).
edge(92, 142).
edge(47, 122).
edge(56, 85).
edge(63, 153).
edge(87, 166).
edge(87, 94).
edge(100, 153).
edge(22, 118).
edge(48, 84).
edge(88, 109).
edge(46, 88).
edge(123, 174).
edge(24, 93).
edge(110, 128).
edge(8, 113).
edge(0, 55).
edge(2, 82).
edge(54, 117).
edge(16, 68).
edge(24, 113).
edge(45, 83).
edge(68, 170).
edge(15, 144).
edge(30, 60).
edge(72, 99).
edge(97, 145).
edge(62, 117).
edge(81, 133).
edge(84, 87).
edge(38, 147).
edge(88, 173).
edge(108, 117).
edge(34, 73).
edge(50, 106).
edge(53, 164).
edge(108, 137).
edge(28, 45).
edge(11, 114).
edge(64, 71).
edge(73, 94).
edge(124, 164).
edge(87, 149).
edge(81, 150).
edge(63, 88).
edge(167, 177).
edge(6, 34).
edge(44, 131).
edge(67, 83).
edge(80, 153).
edge(59, 125).
edge(66, 95).
edge(111, 149).
edge(56, 88).
edge(30, 148).
edge(14, 113).
edge(25, 36).
edge(141, 147).
edge(37, 51).
edge(17, 117).
edge(55, 77).
edge(58, 60).
edge(102, 109).
edge(106, 163).
edge(37, 122).
edge(14, 78).
edge(117, 132).
edge(127, 158).
edge(78, 85).
edge(69, 72).
edge(52, 92).
edge(92, 170).
edge(11, 129).
edge(8, 32).
edge(28, 154).
edge(3, 38).
edge(101, 160).
edge(19, 115).
edge(74, 129).
edge(3, 77).
edge(74, 126).
edge(145, 167).
edge(136, 167).
edge(34, 139).
edge(39, 132).
edge(126, 170).
edge(81, 117).
edge(73, 100).
edge(22, 117).
edge(26, 43).
edge(89, 173).
edge(129, 172).
edge(16, 61).
edge(19, 82).
edge(69, 130).
edge(54, 121).
edge(57, 129).
edge(19, 98).
edge(23, 161).
edge(3, 175).
edge(116, 153).
edge(118, 120).
edge(43, 81).
edge(103, 112).
edge(38, 126).
edge(13, 114).
edge(122, 125).
edge(15, 93).
edge(50, 72).
edge(19, 129).
edge(16, 148).
edge(2, 128).
edge(57, 119).
edge(39, 85).
edge(102, 177).
edge(18, 129).
edge(56, 157).
edge(4, 130).
edge(60, 177).
edge(29, 108).
edge(84, 142).
edge(6, 92).
edge(152, 178).
edge(106, 152).
edge(83, 161).
edge(35, 124).
edge(41, 47).
edge(56, 113).
edge(118, 122).
edge(56, 156).
edge(155, 168).
edge(29, 106).
edge(137, 150).
edge(155, 162).
edge(22, 178).
edge(140, 141).
edge(38, 42).
edge(13, 50).
edge(23, 150).
edge(6, 86).
edge(20, 101).
edge(8, 80).
edge(41, 78).
edge(67, 87).
edge(52, 82).
edge(99, 157).
edge(150, 170).
edge(99, 161).
edge(21, 68).
edge(31, 160).
edge(55, 85).
edge(1, 12).
edge(74, 122).
edge(109, 122).
edge(57, 71).
edge(104, 140).
edge(27, 84).
edge(132, 138).
edge(27, 135).
edge(123, 168).
edge(51, 176).
edge(2, 64).
edge(14, 20).
edge(35, 110).
edge(63, 103).
edge(37, 38).
edge(128, 163).
edge(1, 22).
edge(52, 156).
edge(9, 144).
edge(116, 146).
edge(30, 100).
edge(144, 174).
edge(55, 132).
edge(61, 77).
edge(104, 161).
edge(65, 89).
edge(56, 158).
edge(92, 177).
edge(94, 119).
edge(62, 142).
edge(47, 157).
edge(57, 79).
edge(79, 91).
edge(17, 31).
edge(83, 92).
edge(111, 134).
edge(4, 15).
edge(86, 113).
edge(14, 58).
edge(10, 135).
edge(16, 157).
edge(18, 35).
edge(7, 116).
edge(16, 17).
edge(83, 148).
edge(19, 154).
edge(90, 99).
edge(70, 143).
edge(44, 144).
edge(20, 124).
edge(73, 143).
edge(38, 98).
edge(89, 127).
edge(21, 72).
edge(18, 49).
edge(91, 99).
edge(24, 128).
edge(17, 111).
edge(65, 66).
edge(50, 81).
edge(55, 154).
edge(68, 84).
edge(65, 123).
edge(79, 155).
edge(7, 46).
edge(11, 133).
edge(83, 149).
edge(28, 158).
edge(143, 162).
edge(97, 158).
edge(91, 162).
edge(97, 118).
edge(102, 131).
edge(35, 106).
edge(63, 95).
edge(5, 59).
edge(61, 119).
edge(42, 118).
edge(14, 135).
edge(49, 79).
edge(27, 92).
edge(55, 94).
edge(68, 96).
edge(90, 160).
edge(145, 148).
edge(9, 122).
edge(19, 66).
edge(14, 130).
edge(123, 162).
edge(62, 96).
edge(26, 35).
edge(151, 153).
edge(29, 71).
edge(73, 74).
edge(3, 41).
edge(61, 93).
edge(21, 175).
edge(57, 173).
edge(170, 175).
edge(74, 116).
edge(73, 96).
edge(42, 71).
edge(94, 138).
edge(69, 89).
edge(128, 131).
edge(96, 136).
edge(19, 29).
edge(23, 140).
edge(52, 124).
edge(30, 58).
edge(111, 129).
edge(23, 149).
edge(86, 176).
edge(4, 149).
edge(73, 77).
edge(17, 166).
edge(116, 139).
edge(100, 118).
edge(64, 160).
edge(11, 101).
edge(10, 121).
edge(47, 151).
edge(4, 94).
edge(56, 148).
edge(10, 112).
edge(114, 176).
edge(32, 71).
edge(98, 170).
edge(1, 137).
edge(29, 90).
edge(39, 121).
edge(27, 115).
edge(50, 138).
edge(8, 81).
edge(55, 160).
edge(62, 164).
edge(22, 44).
edge(69, 173).
edge(99, 111).
edge(113, 127).
edge(56, 112).
edge(101, 130).
edge(130, 169).
edge(8, 34).
edge(10, 163).
edge(83, 101).
edge(13, 58).
edge(45, 133).
edge(35, 176).
edge(131, 172).
edge(174, 175).
edge(77, 125).
edge(53, 89).
edge(110, 115).
edge(41, 103).
edge(13, 127).
edge(108, 116).
edge(15, 121).
edge(78, 79).
edge(67, 92).
edge(70, 85).
edge(62, 172).
edge(61, 141).
edge(20, 84).
edge(76, 97).
edge(26, 165).
edge(100, 160).
edge(18, 137).
edge(63, 113).
edge(34, 154).
edge(14, 68).
edge(79, 114).
edge(96, 100).
edge(69, 86).
edge(2, 81).
edge(25, 154).
edge(25, 158).
edge(9, 65).
edge(120, 130).
edge(34, 54).
edge(41, 136).
edge(105, 138).
edge(40, 81).
edge(116, 130).
edge(112, 119).
edge(20, 21).
edge(27, 117).
edge(17, 89).
edge(43, 74).
edge(23, 124).
edge(156, 173).
edge(11, 55).
edge(35, 148).
edge(105, 157).
edge(18, 177).
edge(25, 143).
edge(64, 174).
edge(79, 86).
edge(150, 159).
edge(44, 142).
edge(41, 42).
edge(82, 88).
edge(8, 121).
edge(34, 156).
edge(125, 151).
edge(91, 108).
edge(123, 147).
edge(151, 169).
edge(8, 84).
edge(25, 168).
edge(21, 61).
edge(126, 148).
edge(56, 150).
edge(51, 103).
edge(3, 10).
edge(2, 175).
edge(13, 162).
edge(51, 91).
edge(12, 119).
edge(41, 150).
edge(49, 78).
edge(28, 160).
edge(60, 129).
edge(3, 92).
edge(21, 119).
edge(3, 121).
edge(71, 83).
edge(67, 174).
edge(18, 36).
edge(2, 68).
edge(93, 175).
edge(81, 167).
edge(30, 149).
edge(136, 137).
edge(19, 169).
edge(72, 74).
edge(122, 139).
edge(83, 152).
edge(120, 127).
edge(32, 68).
edge(46, 171).
edge(163, 174).
edge(100, 151).
edge(2, 111).
edge(37, 166).
edge(118, 135).
edge(7, 175).
edge(2, 104).
edge(32, 167).
edge(45, 70).
edge(11, 139).
edge(4, 63).
edge(20, 113).
edge(33, 110).
edge(21, 87).
edge(55, 168).
edge(39, 40).
edge(112, 151).
edge(57, 135).
edge(3, 142).
edge(25, 95).
edge(148, 175).
edge(72, 98).
edge(50, 135).
edge(98, 99).
edge(73, 89).
edge(11, 130).
edge(92, 129).
edge(27, 153).
edge(28, 153).
edge(18, 136).
edge(67, 73).
edge(44, 160).
edge(56, 174).
edge(9, 17).
edge(28, 151).
edge(13, 73).
edge(6, 158).
edge(34, 121).
edge(151, 158).
edge(1, 44).
edge(144, 149).
edge(86, 126).
edge(25, 84).
edge(34, 169).
edge(15, 165).
edge(77, 137).
edge(114, 154).
edge(46, 147).
edge(69, 111).
edge(57, 152).
edge(111, 169).
edge(32, 169).
edge(80, 101).
edge(114, 125).
edge(70, 164).
edge(129, 136).
edge(146, 164).
edge(54, 177).
edge(48, 120).
edge(57, 58).
edge(15, 25).
edge(12, 44).
edge(95, 143).
edge(36, 85).
edge(67, 71).
edge(20, 89).
edge(9, 73).
edge(124, 143).
edge(67, 118).
edge(96, 134).
edge(100, 152).
edge(37, 111).
edge(60, 147).
edge(5, 46).
edge(119, 121).
edge(25, 63).
edge(109, 147).
edge(22, 134).
edge(41, 84).
edge(125, 146).
edge(19, 44).
edge(28, 164).
edge(27, 137).
edge(155, 178).
edge(39, 101).
edge(49, 145).
edge(54, 178).
edge(72, 176).
edge(28, 86).
edge(154, 166).
edge(64, 78).
edge(20, 131).
edge(107, 158).
edge(26, 160).
edge(34, 67).
edge(113, 134).
edge(52, 162).
edge(139, 157).
edge(72, 119).
edge(161, 170).
edge(101, 155).
edge(0, 106).
edge(3, 115).
edge(99, 122).
edge(21, 141).
edge(64, 140).
edge(28, 177).
edge(29, 30).
edge(58, 59).
edge(108, 151).
edge(75, 138).
edge(161, 177).
edge(8, 177).
edge(130, 134).
edge(0, 129).
edge(69, 158).
edge(141, 154).
edge(13, 100).
edge(7, 18).
edge(129, 132).
edge(29, 99).
edge(68, 157).
edge(70, 83).
edge(0, 130).
edge(38, 115).
edge(45, 136).
edge(86, 177).
edge(59, 135).
edge(153, 170).
edge(133, 158).
edge(32, 160).
edge(74, 155).
edge(28, 113).
edge(52, 94).
edge(90, 143).
edge(24, 133).
edge(35, 137).
edge(17, 109).
edge(62, 163).
edge(90, 168).
edge(63, 127).
edge(82, 152).
edge(101, 106).
edge(24, 114).
edge(131, 142).
edge(86, 159).
edge(50, 73).
edge(81, 130).
edge(107, 121).
edge(123, 134).
edge(130, 168).
edge(37, 84).
edge(111, 117).
edge(20, 177).
edge(149, 174).
edge(128, 138).
edge(55, 171).
edge(20, 154).
edge(156, 172).
edge(29, 135).
edge(51, 136).
edge(48, 153).
edge(26, 74).
edge(24, 116).
edge(52, 146).
edge(16, 145).
edge(99, 140).
edge(19, 85).
edge(39, 116).
edge(66, 99).
edge(153, 173).
edge(118, 127).
edge(62, 79).
edge(31, 65).
edge(31, 126).
edge(43, 85).
edge(90, 156).
edge(91, 112).
edge(0, 28).
edge(85, 162).
edge(5, 27).
edge(26, 125).
edge(23, 93).
edge(9, 173).
edge(33, 62).
edge(72, 157).
edge(80, 173).
edge(36, 172).
edge(30, 147).
edge(18, 34).
edge(117, 122).
edge(149, 165).
edge(54, 140).
edge(129, 152).
edge(43, 114).
edge(94, 114).
edge(61, 76).
edge(110, 172).
edge(38, 41).
edge(40, 141).
edge(22, 104).
edge(69, 104).
edge(51, 172).
edge(1, 64).
edge(82, 170).
edge(63, 108).
edge(53, 101).
edge(119, 123).
edge(53, 94).
edge(33, 78).
edge(88, 103).
edge(7, 70).
edge(89, 112).
edge(0, 123).
edge(72, 84).
edge(70, 169).
edge(170, 178).
edge(55, 82).
edge(169, 175).
edge(4, 84).
edge(1, 94).
edge(47, 56).
edge(120, 153).
edge(92, 172).
edge(63, 90).
edge(111, 126).
edge(76, 94).
edge(9, 99).
edge(16, 108).
edge(105, 114).
edge(57, 104).
edge(112, 128).
edge(96, 108).
edge(48, 119).
edge(15, 76).
edge(15, 86).
edge(80, 169).
edge(49, 50).
edge(15, 143).
edge(59, 91).
edge(122, 170).
edge(65, 156).
edge(111, 177).
edge(50, 109).
edge(63, 93).
edge(50, 61).
edge(119, 129).
edge(0, 83).
edge(91, 136).
edge(67, 175).
edge(2, 149).
edge(24, 92).
edge(90, 128).
edge(51, 79).
edge(0, 122).
edge(80, 135).
edge(71, 154).
edge(96, 178).
edge(23, 36).
edge(122, 158).
edge(63, 140).
edge(2, 53).
edge(22, 154).
edge(124, 175).
edge(151, 174).
edge(26, 107).
edge(15, 158).
edge(39, 155).
edge(94, 137).
edge(12, 56).
edge(44, 110).
edge(67, 104).
edge(44, 174).
edge(34, 120).
edge(41, 44).
edge(17, 48).
edge(162, 170).
edge(58, 136).
edge(55, 139).
edge(20, 119).
edge(133, 168).
edge(10, 173).
edge(132, 165).
edge(17, 153).
edge(45, 78).
edge(58, 140).
edge(85, 117).
edge(125, 153).
edge(35, 66).
edge(27, 35).
edge(63, 78).
edge(62, 70).
edge(69, 75).
edge(22, 73).
edge(83, 88).
edge(12, 140).
edge(21, 73).
edge(39, 124).
edge(76, 148).
edge(82, 106).
edge(45, 87).
edge(146, 176).
edge(45, 94).
edge(9, 136).
edge(44, 86).
edge(113, 160).
edge(59, 159).
edge(153, 158).
edge(9, 26).
edge(46, 155).
edge(141, 170).
edge(69, 157).
edge(46, 60).
edge(110, 158).
edge(49, 68).
edge(146, 177).
edge(47, 82).
edge(38, 157).
edge(51, 99).
edge(6, 157).
edge(1, 150).
edge(38, 142).
edge(82, 149).
edge(26, 47).
edge(112, 138).
edge(98, 142).
edge(122, 160).
edge(28, 46).
edge(91, 126).
edge(121, 146).
edge(15, 122).
edge(12, 27).
edge(39, 72).
edge(2, 121).
edge(4, 46).
edge(67, 178).
edge(13, 128).
edge(75, 170).
edge(46, 148).
edge(155, 172).
edge(110, 166).
edge(25, 178).
edge(35, 62).
edge(92, 98).
edge(6, 12).
edge(140, 150).
edge(51, 102).
edge(21, 97).
edge(129, 151).
edge(105, 169).
edge(6, 33).
edge(27, 58).
edge(46, 133).
edge(44, 68).
edge(46, 106).
edge(103, 147).
edge(48, 157).
edge(18, 148).
edge(14, 142).
edge(124, 145).
edge(73, 175).
edge(97, 122).
edge(10, 176).
edge(126, 136).
edge(39, 118).
edge(10, 162).
edge(77, 130).
edge(13, 14).
edge(8, 69).
edge(12, 24).
edge(25, 91).
edge(70, 134).
edge(32, 114).
edge(138, 168).
edge(5, 76).
edge(77, 126).
edge(151, 173).
edge(82, 92).
edge(110, 149).
edge(70, 108).
edge(63, 159).
edge(120, 161).
edge(20, 169).
edge(33, 143).
edge(17, 67).
edge(93, 144).
edge(66, 116).
edge(71, 129).
edge(56, 99).
edge(132, 163).
edge(64, 118).
edge(27, 112).
edge(24, 40).
edge(41, 148).
edge(8, 144).
edge(53, 73).
edge(76, 93).
edge(78, 105).
edge(19, 175).
edge(36, 126).
edge(18, 62).
edge(89, 148).
edge(0, 8).
edge(12, 91).
edge(37, 55).
edge(76, 121).
edge(44, 151).
edge(41, 176).
edge(28, 149).
edge(23, 160).
edge(104, 176).
edge(93, 138).
edge(67, 124).
edge(64, 127).
edge(105, 175).
edge(14, 116).
edge(58, 148).
edge(1, 7).
edge(40, 151).
edge(20, 27).
edge(73, 148).
edge(102, 110).
edge(136, 168).
edge(43, 135).
edge(92, 163).
edge(20, 77).
edge(64, 75).
edge(62, 72).
edge(70, 121).
edge(66, 75).
edge(38, 89).
edge(85, 106).
edge(77, 97).
edge(18, 133).
edge(80, 125).
edge(16, 94).
edge(23, 119).
edge(20, 82).
edge(66, 125).
edge(156, 175).
edge(144, 151).
edge(17, 44).
edge(80, 111).
edge(142, 163).
edge(108, 138).
edge(18, 57).
edge(5, 81).
edge(55, 142).
edge(28, 73).
edge(50, 76).
edge(172, 176).
edge(5, 43).
edge(8, 33).
edge(33, 35).
edge(40, 145).
edge(41, 85).
edge(3, 126).
edge(53, 159).
edge(13, 16).
edge(0, 107).
edge(48, 128).
edge(97, 98).
edge(55, 92).
edge(136, 163).
edge(8, 28).
edge(62, 83).
edge(53, 172).
edge(48, 123).
edge(139, 145).
edge(26, 95).
edge(116, 145).
edge(42, 56).
edge(5, 115).
edge(58, 85).
edge(113, 129).
edge(70, 100).
edge(13, 106).
edge(2, 45).
edge(110, 127).
edge(78, 119).
edge(33, 53).
edge(32, 150).
edge(32, 80).
edge(57, 109).
edge(58, 72).
edge(96, 107).
edge(9, 117).
edge(62, 154).
edge(94, 170).
edge(21, 37).
edge(57, 86).
edge(17, 164).
edge(13, 77).
edge(40, 49).
edge(29, 115).
edge(1, 71).
edge(43, 75).
edge(48, 67).
edge(24, 85).
edge(62, 124).
edge(4, 69).
edge(110, 117).
edge(37, 46).
edge(114, 175).
edge(48, 88).
edge(39, 49).
edge(71, 118).
edge(34, 168).
edge(34, 77).
edge(28, 62).
edge(99, 137).
edge(34, 44).
edge(2, 26).
edge(8, 109).
edge(16, 30).
edge(54, 155).
edge(8, 53).
edge(53, 84).
edge(65, 148).
edge(164, 176).
edge(16, 87).
edge(19, 49).
edge(117, 152).
edge(30, 124).
edge(4, 106).
edge(16, 32).
edge(15, 56).
edge(43, 137).
edge(95, 139).
edge(52, 152).
edge(19, 142).
edge(87, 93).
edge(13, 108).
edge(31, 174).
edge(85, 128).
edge(115, 168).
edge(122, 149).
edge(114, 140).
edge(71, 151).
edge(132, 176).
edge(9, 53).
edge(62, 155).
edge(31, 62).
edge(51, 68).
edge(13, 117).
edge(69, 143).
edge(97, 102).
edge(24, 155).
edge(12, 176).
edge(78, 130).
edge(118, 150).
edge(93, 103).
edge(70, 145).
edge(30, 51).
edge(79, 93).
edge(115, 167).
edge(82, 134).
edge(76, 142).
edge(16, 46).
edge(6, 156).
edge(100, 125).
edge(113, 155).
edge(54, 159).
edge(86, 89).
edge(72, 102).
edge(25, 65).
edge(3, 19).
edge(46, 63).
edge(94, 133).
edge(83, 99).
edge(27, 66).
edge(33, 141).
edge(133, 165).
edge(86, 169).
edge(79, 92).
edge(92, 125).
edge(126, 147).
edge(41, 81).
edge(63, 116).
edge(40, 52).
edge(11, 93).
edge(34, 172).
edge(15, 142).
edge(25, 40).
edge(120, 122).
edge(11, 91).
edge(25, 90).
edge(117, 129).
edge(107, 165).
edge(44, 78).
edge(46, 140).
edge(16, 126).
edge(92, 155).
edge(23, 159).
edge(67, 119).
edge(103, 168).
edge(132, 162).
edge(100, 120).
edge(5, 94).
edge(115, 150).
edge(37, 127).
edge(51, 155).
edge(31, 158).
edge(39, 145).
edge(88, 131).
edge(107, 110).
edge(40, 53).
edge(95, 108).
edge(55, 58).
edge(14, 155).
edge(7, 158).
edge(119, 171).
edge(48, 79).
edge(52, 115).
edge(37, 63).
edge(149, 154).
edge(142, 156).
edge(85, 121).
edge(63, 151).
edge(134, 135).
edge(73, 165).
edge(95, 141).
edge(41, 67).
edge(110, 111).
edge(24, 165).
edge(134, 158).
edge(61, 129).
edge(53, 126).
edge(71, 153).
edge(6, 81).
edge(11, 121).
edge(76, 166).
edge(24, 77).
edge(54, 161).
edge(40, 111).
edge(107, 148).
edge(46, 91).
edge(54, 154).
edge(103, 120).
edge(97, 142).
edge(40, 124).
edge(58, 80).
edge(71, 114).
edge(164, 167).
edge(49, 102).
edge(148, 176).
edge(44, 126).
edge(54, 56).
edge(59, 108).
edge(42, 123).
edge(79, 138).
edge(42, 75).
edge(33, 100).
edge(60, 88).
edge(26, 121).
edge(95, 117).
edge(129, 137).
edge(104, 106).
edge(36, 92).
edge(123, 128).
edge(10, 114).
edge(20, 110).
edge(7, 160).
edge(65, 91).
edge(56, 91).
edge(146, 175).
edge(65, 176).
edge(49, 113).
edge(46, 130).
edge(101, 173).
edge(72, 169).
edge(57, 174).
edge(63, 173).
edge(95, 107).
edge(94, 142).
edge(72, 100).
edge(51, 167).
edge(142, 168).
edge(25, 44).
edge(17, 155).
edge(37, 171).
edge(37, 104).
edge(125, 155).
edge(94, 97).
edge(54, 97).
edge(19, 105).
edge(137, 177).
edge(68, 113).
edge(140, 169).
edge(13, 140).
edge(48, 74).
edge(84, 151).
edge(19, 79).
edge(9, 37).
edge(153, 174).
edge(9, 66).
edge(0, 178).
edge(32, 155).
edge(25, 116).
edge(158, 170).
edge(127, 149).
edge(116, 124).
edge(77, 105).
edge(105, 156).
edge(132, 135).
edge(3, 88).
edge(52, 100).
edge(49, 71).
edge(105, 141).
edge(83, 150).
edge(119, 122).
edge(15, 73).
edge(100, 121).
edge(33, 55).
edge(26, 96).
edge(48, 50).
edge(94, 153).
edge(81, 151).
edge(109, 151).
edge(106, 138).
edge(62, 166).
edge(112, 123).
edge(5, 86).
edge(57, 157).
edge(52, 117).
edge(87, 113).
edge(90, 163).
edge(25, 109).
edge(17, 47).
edge(115, 161).
edge(65, 117).
edge(84, 118).
edge(144, 161).
edge(113, 147).
edge(53, 150).
edge(108, 162).
edge(76, 169).
edge(26, 90).
edge(136, 176).
edge(5, 18).
edge(84, 140).
edge(17, 85).
edge(18, 72).
edge(51, 57).
edge(52, 128).
edge(3, 168).
edge(44, 69).
edge(2, 146).
edge(0, 2).
edge(33, 113).
edge(42, 136).
edge(92, 115).
edge(7, 25).
edge(101, 131).
edge(32, 136).
edge(41, 77).
edge(74, 103).
edge(104, 132).
edge(69, 153).
edge(100, 172).
edge(10, 78).
edge(18, 140).
edge(20, 107).
edge(121, 147).
edge(5, 100).
edge(5, 82).
edge(130, 177).
edge(35, 78).
edge(26, 31).
edge(30, 91).
edge(106, 125).
edge(130, 148).
edge(23, 81).
edge(14, 92).
edge(113, 177).
edge(73, 126).
edge(24, 140).
edge(70, 103).
edge(88, 120).
edge(43, 56).
edge(80, 103).
edge(5, 12).
edge(97, 100).
edge(64, 166).
edge(75, 162).
edge(82, 83).
edge(132, 159).
edge(108, 157).
edge(41, 104).
edge(155, 167).
edge(13, 34).
edge(111, 130).
edge(109, 152).
edge(70, 90).
edge(33, 171).
edge(97, 151).
edge(53, 139).
edge(34, 113).
edge(50, 69).
edge(80, 90).
edge(160, 173).
edge(122, 138).
edge(71, 88).
edge(59, 162).
edge(35, 73).
edge(13, 17).
edge(0, 25).
edge(65, 137).
edge(4, 129).
edge(22, 139).
edge(88, 178).
edge(167, 176).
edge(67, 158).
edge(9, 94).
edge(92, 132).
edge(90, 105).
edge(36, 119).
edge(48, 63).
edge(79, 159).
edge(89, 162).
edge(47, 48).
edge(87, 161).
edge(32, 61).
edge(86, 104).
edge(116, 134).
edge(4, 91).
edge(87, 112).
edge(18, 105).
edge(27, 177).
edge(27, 114).
edge(20, 133).
edge(80, 152).
edge(111, 142).
edge(139, 156).
edge(40, 149).
edge(16, 162).
edge(13, 156).
edge(16, 117).
edge(73, 128).
edge(84, 102).
edge(9, 153).
edge(35, 58).
edge(98, 146).
edge(80, 82).
edge(32, 99).
edge(43, 90).
edge(47, 52).
edge(20, 81).
edge(96, 135).
edge(76, 167).
edge(6, 78).
edge(6, 145).
edge(29, 126).
edge(39, 154).
edge(88, 154).
edge(61, 127).
edge(76, 126).
edge(138, 159).
edge(3, 110).
edge(58, 153).
edge(147, 163).
edge(7, 132).
edge(26, 152).
edge(140, 155).
edge(108, 112).
edge(51, 78).
edge(123, 138).
edge(108, 174).
edge(84, 85).
edge(104, 105).
edge(36, 103).
edge(31, 50).
edge(88, 95).
edge(49, 172).
edge(20, 123).
edge(4, 102).
edge(85, 87).
edge(7, 107).
edge(28, 111).
edge(20, 94).
edge(71, 108).
edge(42, 113).
edge(2, 105).
edge(87, 150).
edge(9, 32).
edge(97, 130).
edge(20, 141).
edge(93, 104).
edge(80, 97).
edge(142, 158).
edge(104, 126).
edge(49, 122).
edge(117, 137).
edge(98, 169).
edge(34, 152).
edge(126, 166).
edge(0, 139).
edge(1, 175).
edge(23, 76).
edge(41, 86).
edge(129, 158).
edge(2, 14).
edge(11, 119).
edge(23, 171).
edge(4, 66).
edge(10, 130).
edge(81, 98).
edge(114, 126).
edge(124, 130).
edge(4, 155).
edge(30, 137).
edge(32, 72).
edge(28, 65).
edge(42, 108).
edge(43, 120).
edge(21, 47).
edge(12, 133).
edge(10, 79).
edge(18, 63).
edge(48, 171).
edge(46, 65).
edge(53, 132).
edge(47, 125).
edge(88, 121).
edge(2, 65).
edge(20, 165).
edge(28, 127).
edge(125, 135).
edge(118, 134).
edge(7, 93).
edge(68, 169).
edge(145, 149).
edge(51, 120).
edge(47, 49).
edge(21, 148).
edge(46, 142).
edge(3, 96).
edge(88, 152).
edge(5, 119).
edge(34, 167).
edge(14, 23).
edge(1, 25).
edge(26, 106).
edge(54, 122).
edge(98, 171).
edge(83, 157).
edge(58, 83).
edge(70, 151).
edge(77, 152).
edge(35, 81).
edge(95, 110).
edge(17, 23).
edge(53, 151).
edge(21, 118).
edge(107, 163).
edge(7, 79).
edge(110, 129).
edge(74, 113).
edge(78, 98).
edge(48, 117).
edge(90, 159).
edge(88, 156).
edge(76, 163).
edge(4, 125).
edge(76, 125).
edge(112, 169).
edge(15, 170).
edge(28, 107).
edge(40, 140).
edge(22, 40).
edge(114, 129).
edge(16, 74).
edge(45, 152).
edge(26, 39).
edge(5, 35).
edge(170, 171).
edge(29, 83).
edge(36, 75).
edge(143, 168).
edge(30, 150).
edge(1, 63).
edge(66, 93).
edge(70, 172).
edge(36, 108).
edge(7, 88).
edge(32, 144).
edge(54, 171).
edge(45, 64).
edge(27, 136).
edge(68, 69).
edge(22, 27).
edge(45, 134).
edge(25, 139).
edge(22, 103).
edge(30, 135).
edge(135, 141).
edge(58, 92).
edge(85, 144).
edge(94, 123).
edge(14, 39).
edge(36, 150).
edge(74, 76).
edge(14, 95).
edge(153, 154).
edge(58, 122).
edge(3, 161).
edge(15, 58).
edge(32, 76).
edge(0, 65).
edge(163, 164).
edge(123, 164).
edge(115, 164).
edge(100, 107).
edge(37, 124).
edge(91, 161).
edge(79, 109).
edge(64, 162).
edge(18, 109).
edge(85, 89).
edge(158, 177).
edge(79, 131).
edge(46, 97).
edge(109, 119).
edge(120, 142).
edge(12, 167).
edge(142, 146).
edge(65, 164).
edge(47, 129).
edge(69, 137).
edge(18, 175).
edge(134, 151).
edge(61, 105).
edge(82, 85).
edge(138, 142).
edge(54, 100).
edge(33, 163).
edge(11, 52).
edge(11, 75).
edge(26, 178).
edge(9, 19).
edge(42, 175).
edge(135, 177).
edge(19, 103).
edge(97, 146).
edge(33, 47).
edge(9, 154).
edge(80, 161).
edge(20, 174).
edge(84, 106).
edge(126, 161).
edge(10, 120).
edge(25, 68).
edge(103, 111).
edge(78, 99).
edge(45, 126).
edge(40, 104).
edge(72, 148).
edge(48, 176).
edge(46, 59).
edge(9, 139).
edge(56, 146).
edge(91, 175).
edge(39, 169).
edge(73, 130).
edge(143, 167).
edge(4, 133).
edge(51, 122).
edge(19, 91).
edge(18, 59).
edge(71, 167).
edge(56, 123).
edge(12, 21).
edge(54, 163).
edge(109, 137).
edge(20, 24).
edge(40, 135).
edge(0, 140).
edge(39, 164).
edge(87, 168).
edge(47, 105).
edge(3, 54).
edge(159, 162).
edge(99, 149).
edge(5, 88).
edge(14, 161).
edge(101, 163).
edge(16, 115).
edge(17, 88).
edge(95, 137).
edge(91, 127).
edge(135, 151).
edge(68, 151).
edge(101, 149).
edge(50, 126).
edge(101, 105).
edge(12, 87).
edge(33, 157).
edge(128, 137).
edge(34, 61).
edge(51, 173).
edge(18, 157).
edge(125, 175).
edge(96, 130).
edge(81, 154).
edge(31, 123).
edge(137, 172).
edge(47, 109).
edge(25, 141).
edge(9, 63).
edge(3, 113).
edge(102, 146).
edge(32, 52).
edge(11, 32).
edge(22, 32).
edge(40, 122).
edge(134, 160).
edge(63, 106).
edge(75, 178).
edge(36, 98).
edge(40, 101).
edge(126, 162).
edge(87, 119).
edge(85, 145).
edge(9, 38).
edge(68, 162).
edge(29, 132).
edge(30, 73).
edge(109, 143).
edge(50, 131).
edge(11, 135).
edge(96, 112).
edge(41, 45).
edge(82, 140).
edge(118, 141).
edge(17, 73).
edge(15, 162).
edge(30, 130).
edge(157, 176).
edge(142, 143).
edge(15, 107).
edge(135, 174).
edge(24, 73).
edge(11, 17).
edge(156, 165).
edge(149, 169).
edge(56, 73).
edge(1, 39).
edge(69, 126).
edge(102, 161).
edge(7, 165).
edge(0, 163).
edge(19, 42).
edge(122, 143).
edge(9, 176).
edge(27, 116).
edge(12, 130).
edge(43, 79).
edge(128, 134).
edge(35, 112).
edge(43, 103).
edge(66, 127).
edge(105, 124).
edge(166, 167).
edge(16, 122).
edge(55, 109).
edge(22, 64).
edge(14, 29).
edge(65, 97).
edge(27, 143).
edge(0, 144).
edge(40, 109).
edge(36, 105).
edge(1, 3).
edge(3, 59).
edge(27, 147).
edge(52, 63).
edge(65, 175).
edge(48, 49).
edge(154, 156).
edge(21, 130).
edge(63, 164).
edge(35, 93).
edge(8, 175).
edge(101, 139).
edge(84, 133).
edge(50, 160).
edge(10, 47).
edge(16, 158).
edge(33, 64).
edge(29, 155).
edge(91, 109).
edge(2, 44).
edge(2, 11).
edge(83, 132).
edge(11, 71).
edge(40, 125).
edge(31, 129).
edge(13, 67).
edge(28, 155).
edge(8, 35).
edge(0, 171).
edge(110, 173).
edge(18, 88).
edge(93, 94).
edge(28, 35).
edge(52, 155).
edge(47, 64).
edge(16, 99).
edge(71, 123).
edge(16, 95).
edge(29, 156).
edge(61, 149).
edge(72, 147).
edge(10, 174).
edge(9, 155).
edge(90, 106).
edge(90, 139).
edge(4, 174).
edge(32, 83).
edge(31, 86).
edge(26, 143).
edge(85, 120).
edge(40, 119).
edge(64, 79).
edge(22, 37).
edge(126, 133).
edge(76, 144).
edge(104, 155).
edge(13, 172).
edge(169, 173).
edge(101, 136).
edge(57, 144).
edge(6, 16).
edge(47, 171).
edge(72, 167).
edge(25, 174).
edge(15, 46).
edge(86, 139).
edge(62, 114).
edge(8, 99).
edge(9, 149).
edge(97, 147).
edge(143, 173).
edge(59, 154).
edge(129, 141).
edge(51, 161).
edge(30, 54).
edge(121, 151).
edge(42, 170).
edge(90, 108).
edge(63, 129).
edge(82, 120).
edge(12, 177).
edge(56, 115).
edge(48, 92).
edge(55, 175).
edge(31, 40).
edge(34, 161).
edge(144, 164).
edge(82, 98).
edge(101, 117).
edge(31, 176).
edge(138, 162).
edge(21, 42).
edge(36, 57).
edge(4, 101).
edge(36, 174).
edge(75, 95).
edge(39, 112).
edge(75, 108).
edge(106, 124).
edge(91, 176).
edge(78, 151).
edge(130, 141).
edge(105, 149).
edge(99, 131).
edge(58, 172).
edge(42, 145).
edge(172, 178).
edge(75, 117).
edge(65, 142).
edge(99, 121).
edge(100, 126).
edge(12, 70).
edge(10, 175).
edge(68, 147).
edge(58, 78).
edge(80, 120).
edge(109, 177).
edge(40, 172).
edge(39, 86).
edge(1, 120).
edge(35, 173).
edge(74, 163).
edge(99, 125).
edge(87, 110).
edge(9, 47).
edge(95, 175).
edge(112, 177).
edge(4, 48).
edge(16, 43).
edge(119, 154).
edge(107, 130).
edge(131, 152).
edge(59, 145).
edge(18, 52).
edge(69, 125).
edge(28, 171).
edge(25, 52).
edge(23, 48).
edge(8, 149).
edge(21, 111).
edge(83, 130).
edge(39, 159).
edge(97, 104).
edge(69, 142).
edge(62, 108).
edge(12, 110).
edge(65, 103).
edge(12, 88).
edge(126, 173).
edge(2, 7).
edge(173, 175).
edge(110, 174).
edge(36, 102).
edge(40, 95).
edge(66, 157).
edge(106, 153).
edge(20, 150).
edge(24, 176).
edge(3, 43).
edge(24, 94).
edge(140, 167).
edge(13, 44).
edge(87, 174).
edge(59, 86).
edge(54, 103).
edge(67, 138).
edge(52, 119).
edge(0, 172).
edge(84, 103).
edge(35, 70).
edge(69, 94).
edge(22, 42).
edge(8, 52).
edge(56, 77).
edge(27, 146).
edge(86, 157).
edge(34, 101).
edge(109, 148).
edge(62, 122).
edge(53, 60).
edge(105, 134).
edge(15, 157).
edge(139, 170).
edge(39, 76).
edge(30, 144).
edge(107, 172).
edge(38, 76).
edge(10, 136).
edge(57, 154).
edge(57, 160).
edge(30, 85).
edge(3, 9).
edge(75, 91).
edge(63, 111).
edge(90, 170).
edge(87, 127).
edge(21, 117).
edge(7, 129).
edge(95, 149).
edge(3, 123).
edge(15, 37).
edge(38, 73).
edge(14, 124).
edge(91, 155).
edge(0, 169).
edge(159, 173).
edge(46, 109).
edge(74, 161).
edge(77, 108).
edge(36, 151).
edge(79, 113).
edge(17, 81).
edge(9, 35).
edge(103, 138).
edge(9, 166).
edge(75, 99).
edge(62, 156).
edge(107, 141).
edge(138, 164).
edge(138, 173).
edge(7, 96).
edge(77, 113).
edge(102, 171).
edge(42, 51).
edge(36, 148).
edge(152, 167).
edge(64, 113).
edge(5, 21).
edge(15, 19).
edge(18, 130).
edge(41, 68).
edge(80, 140).
edge(89, 150).
edge(21, 158).
edge(33, 73).
edge(96, 160).
edge(5, 126).
edge(90, 125).
edge(47, 135).
edge(12, 105).
edge(36, 61).
edge(9, 160).
edge(51, 56).
edge(86, 106).
edge(31, 162).
edge(60, 112).
edge(13, 23).
edge(94, 175).
edge(8, 167).
edge(14, 46).
edge(2, 160).
edge(1, 119).
edge(3, 89).
edge(28, 41).
edge(116, 147).
edge(36, 65).
edge(83, 145).
edge(62, 105).
edge(11, 64).
edge(100, 101).
edge(69, 174).
edge(25, 136).
edge(0, 146).
edge(40, 150).
edge(64, 122).
edge(86, 165).
edge(124, 167).
edge(100, 127).
edge(3, 65).
edge(98, 168).
edge(110, 155).
edge(34, 175).
edge(92, 164).
edge(126, 139).
edge(121, 159).
edge(102, 118).
edge(82, 148).
edge(46, 153).
edge(114, 149).
edge(89, 138).
edge(74, 87).
edge(13, 78).
edge(80, 132).
edge(32, 44).
edge(1, 127).
edge(56, 86).
edge(117, 125).
edge(27, 96).
edge(68, 132).
edge(156, 162).
edge(32, 102).
edge(6, 160).
edge(28, 116).
edge(33, 56).
edge(99, 138).
edge(41, 80).
edge(121, 149).
edge(51, 88).
edge(33, 63).
edge(131, 177).
edge(54, 90).
edge(1, 20).
edge(53, 102).
edge(41, 90).
edge(23, 31).
edge(99, 156).
edge(103, 176).
edge(89, 165).
edge(62, 67).
edge(92, 156).
edge(116, 164).
edge(134, 139).
edge(64, 114).
edge(139, 152).
edge(19, 48).
edge(46, 61).
edge(143, 159).
edge(105, 167).
edge(142, 177).
edge(30, 33).
edge(19, 165).
edge(66, 122).
edge(91, 130).
edge(51, 177).
edge(3, 5).
edge(64, 124).
edge(93, 153).
edge(21, 168).
edge(18, 68).
edge(54, 60).
edge(21, 99).
edge(26, 77).
edge(85, 96).
edge(22, 165).
edge(74, 99).
edge(84, 137).
edge(4, 10).
edge(77, 86).
edge(15, 177).
edge(96, 152).
edge(6, 64).
edge(129, 159).
edge(59, 147).
edge(132, 143).
edge(135, 170).
edge(110, 144).
edge(43, 174).
edge(3, 84).
edge(9, 124).
edge(77, 98).
edge(105, 140).
edge(5, 101).
edge(8, 45).
edge(163, 169).
edge(5, 26).
edge(30, 131).
edge(140, 152).
edge(25, 34).
edge(45, 178).
edge(137, 162).
edge(40, 156).
edge(82, 107).
edge(40, 165).
edge(7, 67).
edge(95, 160).
edge(27, 151).
edge(54, 64).
edge(65, 80).
edge(96, 176).
edge(91, 158).
edge(45, 49).
edge(90, 112).
edge(121, 162).
edge(68, 175).
edge(108, 142).
edge(75, 90).
edge(11, 44).
edge(67, 170).
edge(69, 81).
edge(32, 158).
edge(44, 155).
edge(40, 105).
edge(84, 107).
edge(133, 141).
edge(17, 106).
edge(84, 160).
edge(46, 159).
edge(29, 41).
edge(1, 97).
edge(110, 122).
edge(55, 99).
edge(13, 107).
edge(12, 143).
edge(57, 102).
edge(26, 118).
edge(95, 165).
edge(108, 133).
edge(39, 111).
edge(69, 105).
edge(61, 65).
edge(53, 99).
edge(125, 156).
edge(114, 164).
edge(13, 59).
edge(47, 79).
edge(63, 176).
edge(58, 66).
edge(48, 154).
edge(76, 114).
edge(135, 166).
edge(135, 159).
edge(22, 41).
edge(2, 115).
edge(73, 164).
edge(17, 151).
edge(35, 170).
edge(24, 68).
edge(75, 141).
edge(52, 167).
edge(78, 158).
edge(0, 134).
edge(37, 129).
edge(109, 139).
edge(2, 113).
edge(74, 154).
edge(6, 42).
edge(128, 171).
edge(57, 168).
edge(13, 36).
edge(102, 117).
edge(94, 118).
edge(31, 41).
edge(4, 99).
edge(64, 137).
edge(49, 136).
edge(78, 143).
edge(91, 118).
edge(73, 156).
edge(44, 95).
edge(21, 86).
edge(66, 172).
edge(30, 68).
edge(133, 174).
edge(12, 40).
edge(29, 63).
edge(24, 144).
edge(20, 26).
edge(44, 147).
edge(60, 138).
edge(8, 148).
edge(116, 141).
edge(78, 173).
edge(71, 138).
edge(3, 53).
edge(124, 132).
edge(13, 62).
edge(58, 93).
edge(30, 171).
edge(5, 73).
edge(118, 133).
edge(8, 104).
edge(110, 163).
edge(68, 172).
edge(44, 102).
edge(0, 157).
edge(62, 123).
edge(151, 170).
edge(6, 168).
edge(6, 166).
edge(55, 69).
edge(14, 154).
edge(100, 175).
edge(52, 64).
edge(127, 138).
edge(69, 147).
edge(94, 132).
edge(26, 51).
edge(146, 152).
edge(30, 140).
edge(52, 168).
edge(49, 62).
edge(161, 173).
edge(69, 146).
edge(91, 164).
edge(21, 120).
edge(60, 79).
edge(31, 133).
edge(86, 101).
edge(57, 110).
edge(69, 121).
edge(117, 156).
edge(37, 94).
edge(7, 131).
edge(62, 98).
edge(26, 112).
edge(40, 80).
edge(38, 172).
edge(10, 97).
edge(69, 131).
edge(41, 94).
edge(76, 147).
edge(22, 112).
edge(87, 167).
edge(47, 136).
edge(24, 163).
edge(125, 160).
edge(111, 113).
edge(12, 142).
edge(10, 98).
edge(102, 156).
edge(29, 61).
edge(55, 140).
edge(93, 139).
edge(137, 159).
edge(91, 131).
edge(6, 96).
edge(88, 114).
edge(70, 153).
edge(107, 132).
edge(43, 172).
edge(69, 150).
edge(109, 165).
edge(32, 121).
edge(45, 107).
edge(109, 158).
edge(91, 163).
edge(142, 148).
edge(122, 129).
edge(116, 149).
edge(59, 175).
edge(144, 146).
edge(72, 153).
edge(8, 56).
edge(34, 75).
edge(11, 24).
edge(4, 23).
edge(55, 71).
edge(39, 102).
edge(58, 96).
edge(18, 86).
edge(60, 107).
edge(59, 79).
edge(65, 168).
edge(18, 56).
edge(135, 142).
edge(14, 108).
edge(4, 31).
edge(102, 119).
edge(20, 156).
edge(11, 69).
edge(118, 123).
edge(57, 87).
edge(32, 70).
edge(115, 163).
edge(14, 64).
edge(60, 141).
edge(39, 70).
edge(19, 150).
edge(29, 116).
edge(41, 75).
edge(46, 164).
edge(30, 165).
edge(37, 89).
edge(132, 174).
edge(49, 174).
edge(50, 151).
edge(68, 150).
edge(38, 140).
edge(25, 155).
edge(75, 104).
edge(82, 161).
edge(126, 164).
edge(50, 110).
edge(50, 62).
edge(3, 55).
edge(28, 118).
edge(125, 138).
edge(139, 176).
edge(34, 119).
edge(77, 163).
edge(66, 84).
edge(49, 63).
edge(64, 134).
edge(55, 78).
edge(33, 96).
edge(53, 96).
edge(65, 143).
edge(76, 160).
edge(43, 60).
edge(72, 111).
edge(15, 137).
edge(25, 111).
edge(118, 172).
edge(17, 93).
edge(133, 175).
edge(71, 101).
edge(38, 149).
edge(113, 139).
edge(85, 115).
edge(60, 173).
edge(88, 149).
edge(91, 142).
edge(16, 42).
edge(97, 157).
edge(48, 108).
edge(111, 127).
edge(99, 103).
edge(25, 117).
edge(23, 58).
edge(18, 51).
edge(11, 12).
edge(42, 146).
edge(45, 127).
edge(126, 137).
edge(103, 142).
edge(120, 149).
edge(16, 105).
edge(143, 148).
edge(33, 40).
edge(32, 91).
edge(85, 93).
edge(120, 133).
edge(38, 92).
edge(38, 47).
edge(148, 162).
edge(62, 75).
edge(10, 44).
edge(7, 41).
edge(35, 55).
edge(54, 148).
edge(28, 95).
edge(3, 39).
edge(143, 164).
edge(84, 167).
edge(87, 163).
edge(136, 157).
edge(29, 124).
edge(2, 130).
edge(63, 171).
edge(112, 148).
edge(47, 131).
edge(143, 144).
edge(53, 154).
edge(132, 177).
edge(98, 114).
edge(7, 148).
edge(18, 170).
edge(92, 148).
edge(95, 159).
edge(113, 130).
edge(4, 138).
edge(55, 155).
edge(84, 143).
edge(46, 101).
edge(23, 39).
edge(79, 130).
edge(12, 158).
edge(40, 147).
edge(7, 65).
edge(101, 167).
edge(13, 15).
edge(73, 159).
edge(72, 96).
edge(90, 93).
edge(93, 132).
edge(81, 158).
edge(12, 69).
edge(28, 159).
edge(96, 164).
edge(42, 131).
edge(17, 32).
edge(97, 144).
edge(63, 107).
edge(83, 94).
edge(5, 175).
edge(88, 146).
edge(57, 84).
edge(23, 86).
edge(18, 138).
edge(50, 53).
edge(24, 139).
edge(111, 154).
edge(56, 131).
edge(74, 115).
edge(31, 124).
edge(28, 109).
edge(158, 166).
edge(24, 91).
edge(67, 106).
edge(7, 133).
edge(59, 129).
edge(32, 117).
edge(71, 146).
edge(53, 72).
edge(32, 154).
edge(8, 174).
edge(4, 58).
edge(43, 66).
edge(3, 61).
edge(92, 141).
edge(17, 76).
edge(37, 172).
edge(47, 137).
edge(18, 92).
edge(58, 166).
edge(61, 62).
edge(120, 124).
edge(72, 93).
edge(5, 62).
edge(100, 102).
edge(127, 176).
edge(72, 166).
edge(33, 81).
edge(118, 175).
edge(16, 72).
edge(134, 170).
edge(28, 70).
edge(0, 167).
edge(4, 110).
edge(25, 89).
edge(16, 140).
edge(37, 101).
edge(85, 134).
edge(34, 36).
edge(1, 134).
edge(57, 83).
edge(5, 161).
edge(19, 30).
edge(1, 160).
edge(116, 160).
edge(16, 86).
edge(109, 153).
edge(25, 78).
edge(0, 153).
edge(56, 134).
edge(83, 155).
edge(36, 154).
edge(80, 100).
edge(22, 170).
edge(103, 160).
edge(78, 146).
edge(39, 138).
edge(26, 151).
edge(129, 131).
edge(97, 166).
edge(39, 147).
edge(28, 152).
edge(91, 133).
edge(59, 168).
edge(57, 63).
edge(22, 74).
edge(38, 177).
edge(148, 151).
edge(110, 157).
edge(0, 70).
edge(83, 110).
edge(101, 146).
edge(36, 115).
edge(143, 174).
edge(19, 110).
edge(1, 96).
edge(8, 66).
edge(20, 85).
edge(111, 148).
edge(5, 25).
edge(60, 103).
edge(66, 110).
edge(94, 165).
edge(74, 105).
edge(55, 76).
edge(129, 157).
edge(11, 46).
edge(66, 150).
edge(56, 114).
edge(3, 122).
edge(47, 119).
edge(168, 177).
edge(93, 124).
edge(16, 176).
edge(14, 35).
edge(9, 105).
edge(13, 80).
edge(87, 145).
edge(111, 175).
edge(103, 143).
edge(50, 177).
edge(42, 105).
edge(5, 120).
edge(18, 40).
edge(42, 53).
edge(42, 52).
edge(109, 160).
edge(9, 70).
edge(40, 93).
edge(82, 102).
edge(69, 132).
edge(9, 137).
edge(60, 132).
edge(51, 93).
edge(29, 133).
edge(15, 72).
edge(51, 162).
edge(72, 106).
edge(75, 168).
edge(57, 120).
edge(12, 51).
edge(67, 127).
edge(35, 114).
edge(76, 83).
edge(81, 170).
edge(0, 128).
edge(110, 133).
edge(36, 55).
edge(55, 177).
edge(123, 171).
edge(54, 57).
edge(54, 111).
edge(8, 62).
edge(86, 102).
edge(17, 142).
edge(20, 66).
edge(94, 106).
edge(11, 28).
edge(19, 132).
edge(140, 161).
edge(11, 60).
edge(38, 143).
edge(14, 166).
edge(43, 148).
edge(53, 146).
edge(69, 74).
edge(4, 45).
edge(6, 163).
edge(39, 92).
edge(34, 93).
edge(24, 169).
edge(10, 32).
edge(60, 155).
edge(25, 83).
edge(58, 119).
edge(77, 159).
edge(154, 170).
edge(13, 142).
edge(100, 114).
edge(80, 113).
edge(57, 176).
edge(26, 126).
edge(72, 135).
edge(12, 120).
edge(63, 128).
edge(106, 126).
edge(108, 161).
edge(24, 118).
edge(55, 153).
edge(16, 25).
edge(30, 66).
edge(108, 115).
edge(14, 136).
edge(107, 126).
edge(126, 135).
edge(34, 166).
edge(41, 112).
edge(18, 94).
edge(88, 158).
edge(0, 110).
edge(6, 140).
edge(72, 164).
edge(4, 21).
edge(41, 100).
edge(103, 148).
edge(46, 100).
edge(137, 145).
edge(112, 142).
edge(175, 176).
edge(11, 164).
edge(91, 157).
edge(87, 175).
edge(26, 142).
edge(45, 111).
edge(46, 64).
edge(7, 34).
edge(73, 136).
edge(117, 144).
edge(102, 142).
edge(138, 178).
edge(16, 53).
edge(32, 51).
edge(12, 86).
edge(92, 122).
edge(61, 166).
edge(29, 102).
edge(28, 68).
edge(153, 166).
edge(98, 161).
edge(55, 83).
edge(32, 66).
edge(40, 142).
edge(8, 22).
edge(80, 139).
edge(40, 94).
edge(73, 151).
edge(130, 140).
edge(80, 124).
edge(20, 29).
edge(11, 171).
edge(105, 127).
edge(35, 128).
edge(162, 174).
edge(114, 137).
edge(33, 148).
edge(17, 110).
edge(16, 171).
edge(68, 176).
edge(25, 46).
edge(24, 43).
edge(26, 158).
edge(49, 176).
edge(7, 137).
edge(11, 87).
edge(11, 74).
edge(34, 43).
edge(13, 103).
edge(69, 149).
edge(159, 178).
edge(142, 165).
edge(60, 67).
edge(20, 163).
edge(36, 159).
edge(16, 141).
edge(97, 153).
edge(47, 126).
edge(22, 129).
edge(127, 140).
edge(64, 150).
edge(82, 116).
edge(3, 171).
edge(0, 64).
edge(48, 80).
edge(87, 114).
edge(124, 137).
edge(14, 90).
edge(71, 135).
edge(9, 88).
edge(8, 30).
edge(37, 95).
edge(21, 43).
edge(15, 118).
edge(124, 155).
edge(47, 111).
edge(45, 92).
edge(27, 40).
edge(16, 107).
edge(5, 162).
edge(73, 154).
edge(71, 157).
edge(7, 118).
edge(24, 57).
edge(43, 130).
edge(87, 90).
edge(89, 93).
edge(45, 113).
edge(29, 147).
edge(23, 40).
edge(12, 50).
edge(132, 140).
edge(96, 175).
edge(22, 141).
edge(14, 172).
edge(32, 95).
edge(81, 100).
edge(96, 103).
edge(82, 123).
edge(71, 169).
edge(61, 116).
edge(106, 122).
edge(57, 118).
edge(55, 74).
edge(20, 155).
edge(74, 95).
edge(130, 150).
edge(46, 51).
edge(34, 88).
edge(67, 153).
edge(6, 151).
edge(98, 153).
edge(35, 67).
edge(0, 50).
edge(95, 113).
edge(58, 159).
edge(30, 116).
edge(15, 154).
edge(70, 144).
edge(93, 158).
edge(21, 164).
edge(77, 119).
edge(53, 165).
edge(5, 67).
edge(4, 82).
edge(102, 114).
edge(49, 101).
edge(13, 26).
edge(75, 96).
edge(26, 88).
edge(15, 40).
edge(16, 55).
edge(78, 107).
edge(5, 108).
edge(174, 176).
edge(42, 95).
edge(44, 67).
edge(69, 140).
edge(75, 145).
edge(99, 152).
edge(105, 173).
edge(40, 127).
edge(69, 110).
edge(124, 172).
edge(49, 61).
edge(128, 165).
edge(78, 100).
edge(3, 108).
edge(62, 169).
edge(143, 176).
edge(20, 138).
edge(22, 110).
edge(19, 58).
edge(124, 138).
edge(77, 118).
edge(5, 142).
edge(57, 167).
edge(111, 171).
edge(144, 148).
edge(33, 127).
edge(30, 178).
edge(33, 106).
edge(45, 99).
edge(25, 159).
edge(69, 133).
edge(56, 119).
edge(121, 128).
edge(14, 99).
edge(50, 54).
edge(61, 120).
edge(62, 152).
edge(29, 173).
edge(16, 150).
edge(18, 79).
edge(93, 143).
edge(15, 78).
edge(36, 83).
edge(36, 43).
edge(58, 144).
edge(90, 129).
edge(173, 176).
edge(88, 174).
edge(1, 178).
edge(139, 149).
edge(153, 169).
edge(67, 163).
edge(99, 104).
edge(53, 87).
edge(72, 134).
edge(81, 153).
edge(143, 172).
edge(56, 105).
edge(24, 66).
edge(71, 149).
edge(55, 56).
edge(53, 95).
edge(81, 115).
edge(83, 126).
edge(54, 104).
edge(15, 126).
edge(31, 113).
edge(48, 133).
edge(81, 139).
edge(58, 149).
edge(43, 138).
edge(18, 161).
edge(102, 107).
edge(79, 102).
edge(65, 94).
edge(148, 154).
edge(27, 125).
edge(171, 173).
edge(48, 95).
edge(84, 96).
edge(47, 77).
edge(14, 85).
edge(54, 84).
edge(53, 125).
edge(56, 170).
edge(138, 148).
edge(59, 114).
edge(27, 94).
edge(154, 157).
edge(99, 114).
edge(43, 121).
edge(4, 175).
edge(18, 123).
edge(63, 94).
edge(50, 162).
edge(38, 175).
edge(37, 58).
edge(67, 177).
edge(73, 113).
edge(119, 130).
edge(28, 51).
edge(19, 87).
edge(25, 138).
edge(28, 50).
edge(57, 122).
edge(9, 51).
edge(77, 117).
edge(59, 121).
edge(2, 171).
edge(22, 52).
edge(32, 35).
edge(4, 151).
edge(66, 80).
edge(61, 92).
edge(1, 174).
edge(60, 131).
edge(32, 85).
edge(73, 160).
edge(113, 153).
edge(77, 147).
edge(91, 154).
edge(28, 143).
edge(15, 138).
edge(36, 89).
edge(19, 119).
edge(8, 25).
edge(109, 161).
edge(38, 145).
edge(23, 123).
edge(74, 85).
edge(54, 116).
edge(163, 176).
edge(119, 167).
edge(31, 94).
edge(6, 155).
edge(60, 81).
edge(58, 176).
edge(140, 146).
edge(69, 99).
edge(45, 79).
edge(116, 144).
edge(11, 33).
edge(97, 139).
edge(15, 57).
edge(37, 125).
edge(18, 44).
edge(112, 178).
edge(111, 118).
edge(58, 113).
edge(21, 170).
edge(80, 171).
edge(120, 160).
edge(55, 68).
edge(114, 161).
edge(80, 128).
edge(27, 85).
edge(40, 103).
edge(37, 43).
edge(48, 106).
edge(20, 167).
edge(126, 165).
edge(20, 148).
edge(85, 140).
edge(16, 131).
edge(30, 95).
edge(104, 109).
edge(20, 70).
edge(100, 150).
edge(78, 93).
edge(136, 150).
edge(95, 177).
edge(41, 61).
edge(113, 125).
edge(11, 36).
edge(52, 163).
edge(1, 108).
edge(166, 169).
edge(140, 173).
edge(46, 163).
edge(115, 116).
edge(58, 105).
edge(64, 82).
edge(43, 97).
edge(163, 167).
edge(129, 148).
edge(15, 23).
edge(12, 34).
edge(45, 80).
edge(65, 104).
edge(148, 165).
edge(4, 47).
edge(105, 136).
edge(122, 171).
edge(99, 175).
edge(50, 166).
edge(85, 98).
edge(82, 171).
edge(38, 97).
edge(79, 162).
edge(47, 63).
edge(122, 164).
edge(17, 104).
edge(152, 175).
edge(1, 52).
edge(24, 154).
edge(68, 112).
edge(147, 177).
edge(34, 91).
edge(5, 104).
edge(94, 178).
edge(62, 150).
edge(6, 134).
edge(142, 176).
edge(109, 175).
edge(54, 132).
edge(136, 144).
edge(72, 126).
edge(0, 133).
edge(55, 66).
edge(33, 109).
edge(52, 159).
edge(73, 125).
edge(107, 118).
edge(31, 117).
edge(17, 28).
edge(15, 174).
edge(14, 43).
edge(79, 157).
edge(34, 57).
edge(86, 112).
edge(28, 67).
edge(16, 65).
edge(63, 124).
edge(45, 65).
edge(57, 143).
edge(68, 114).
edge(87, 123).
edge(104, 175).
edge(9, 81).
edge(120, 167).
edge(153, 160).
edge(11, 81).
edge(52, 73).
edge(115, 165).
edge(131, 171).
edge(62, 158).
edge(92, 93).
edge(101, 175).
edge(9, 169).
edge(25, 161).
edge(127, 154).
edge(136, 156).
edge(109, 123).
edge(135, 140).
edge(114, 139).
edge(62, 116).
edge(60, 124).
edge(84, 123).
edge(97, 119).
edge(56, 161).
edge(55, 173).
edge(43, 154).
edge(13, 29).
edge(37, 123).
edge(112, 143).
edge(48, 85).
edge(53, 160).
edge(91, 137).
edge(85, 111).
edge(13, 40).
edge(119, 157).
edge(71, 112).
edge(40, 85).
edge(160, 165).
edge(68, 177).
edge(60, 170).
edge(88, 171).
edge(27, 74).
edge(60, 111).
edge(67, 120).
edge(63, 114).
edge(71, 90).
edge(54, 169).
edge(25, 31).
edge(67, 116).
edge(81, 142).
edge(70, 146).
edge(72, 159).
edge(52, 174).
edge(84, 89).
edge(26, 98).
edge(134, 165).
edge(96, 156).
edge(36, 63).
edge(85, 143).
edge(61, 100).
edge(108, 134).
edge(4, 150).
edge(7, 178).
edge(63, 76).
edge(0, 95).
edge(92, 119).
edge(3, 45).
edge(0, 161).
edge(25, 42).
edge(27, 144).
edge(64, 176).
edge(14, 34).
edge(75, 124).
edge(65, 135).
edge(69, 167).
edge(50, 89).
edge(40, 102).
edge(0, 56).
edge(0, 100).
edge(16, 58).
edge(44, 121).
edge(78, 121).
edge(115, 156).
edge(51, 116).
edge(108, 158).
edge(83, 160).
edge(40, 168).
edge(123, 146).
edge(70, 139).
edge(47, 92).
edge(73, 153).
edge(0, 52).
edge(106, 164).
edge(13, 48).
edge(79, 170).
edge(32, 108).
edge(86, 133).
edge(67, 145).
edge(116, 126).
edge(70, 77).
edge(13, 177).
edge(26, 81).
edge(87, 88).
edge(11, 80).
edge(121, 138).
edge(3, 127).
edge(8, 37).
edge(90, 122).
edge(65, 118).
edge(86, 170).
edge(46, 116).
edge(34, 176).
edge(31, 46).
edge(12, 139).
edge(23, 170).
edge(12, 166).
edge(6, 105).
edge(3, 6).
edge(6, 178).
edge(55, 119).
edge(54, 91).
edge(17, 80).
edge(29, 121).
edge(81, 155).
edge(148, 163).
edge(1, 85).
edge(88, 110).
edge(5, 97).
edge(7, 63).
edge(96, 133).
edge(51, 117).
edge(62, 91).
edge(62, 162).
edge(42, 128).
edge(9, 18).
edge(41, 92).
edge(105, 125).
edge(36, 74).
edge(103, 104).
edge(60, 74).
edge(92, 121).
edge(36, 64).
edge(25, 173).
edge(12, 17).
edge(98, 105).
edge(83, 164).
edge(112, 160).
edge(6, 132).
edge(55, 93).
edge(107, 125).
edge(10, 149).
edge(19, 151).
edge(41, 128).
edge(125, 169).
edge(160, 164).
edge(22, 167).
edge(8, 48).
edge(142, 147).
edge(39, 131).
edge(52, 169).
edge(14, 104).
edge(23, 166).
edge(95, 172).
edge(15, 164).
edge(27, 31).
edge(1, 68).
edge(75, 166).
edge(106, 167).
edge(18, 76).
edge(10, 93).
edge(42, 60).
edge(44, 103).
edge(115, 155).
edge(48, 71).
edge(29, 177).
edge(16, 89).
edge(8, 83).
edge(2, 131).
edge(81, 99).
edge(119, 163).
edge(27, 86).
edge(46, 75).
edge(77, 160).
edge(69, 109).
edge(11, 61).
edge(6, 27).
edge(157, 173).
edge(161, 172).
edge(0, 97).
edge(114, 168).
edge(68, 92).
edge(88, 117).
edge(81, 168).
edge(6, 61).
edge(130, 143).
edge(35, 138).
edge(23, 164).
edge(44, 118).
edge(20, 164).
edge(127, 167).
edge(63, 120).
edge(152, 158).
edge(21, 23).
edge(11, 156).
edge(45, 77).
edge(27, 121).
edge(5, 174).
edge(14, 141).
edge(153, 172).
edge(100, 137).
edge(73, 119).
edge(84, 113).
edge(132, 154).
edge(22, 84).
edge(100, 162).
edge(72, 88).
edge(60, 136).
edge(133, 167).
edge(86, 168).
edge(44, 48).
edge(19, 101).
edge(148, 150).
edge(138, 146).
edge(45, 159).
edge(26, 92).
edge(150, 152).
edge(98, 131).
edge(61, 98).
edge(3, 68).
edge(23, 102).
edge(58, 101).
edge(105, 162).
edge(118, 137).
edge(45, 166).
edge(160, 171).
edge(76, 104).
edge(8, 126).
edge(11, 165).
edge(22, 56).
edge(28, 77).
edge(7, 166).
edge(29, 42).
edge(35, 88).
edge(57, 116).
edge(14, 120).
edge(35, 68).
edge(17, 99).
edge(72, 107).
edge(31, 136).
edge(7, 164).
edge(69, 95).
edge(30, 59).
edge(143, 171).
edge(75, 86).
edge(140, 143).
edge(107, 134).
edge(24, 125).
edge(49, 87).
edge(63, 161).
edge(25, 87).
edge(122, 177).
edge(1, 11).
edge(127, 141).
edge(32, 128).
edge(107, 139).
edge(148, 156).
edge(6, 70).
edge(1, 172).
edge(80, 127).
edge(96, 122).
edge(48, 166).
edge(161, 162).
edge(35, 96).
edge(24, 50).
edge(73, 118).
edge(80, 133).
edge(52, 98).
edge(15, 98).
edge(60, 75).
edge(79, 143).
edge(94, 150).
edge(65, 162).
edge(25, 43).
edge(54, 108).
edge(91, 145).
edge(149, 175).
edge(7, 43).
edge(25, 169).
edge(99, 120).
edge(29, 48).
edge(114, 147).
edge(124, 134).
edge(38, 81).
edge(103, 116).
edge(102, 167).
edge(26, 85).
edge(9, 76).
edge(7, 135).
edge(14, 132).
edge(120, 135).
edge(133, 171).
edge(33, 85).
edge(116, 152).
edge(47, 123).
edge(54, 66).
edge(171, 176).
edge(0, 44).
edge(42, 129).
edge(96, 144).
edge(24, 29).
edge(151, 161).
edge(79, 80).
edge(65, 93).
edge(28, 84).
edge(56, 76).
edge(35, 52).
edge(51, 146).
edge(26, 64).
edge(55, 91).
edge(99, 132).
edge(80, 170).
edge(75, 85).
edge(80, 118).
edge(134, 152).
edge(61, 97).
edge(46, 71).
edge(25, 29).
edge(66, 156).
edge(49, 117).
edge(84, 105).
edge(116, 162).
edge(8, 171).
edge(93, 134).
edge(113, 122).
edge(10, 129).
edge(40, 170).
edge(19, 141).
edge(115, 169).
edge(23, 45).
edge(103, 113).
edge(12, 109).
edge(83, 172).
edge(49, 163).
edge(80, 130).
edge(104, 131).
edge(53, 80).
edge(34, 52).
edge(83, 158).
edge(59, 149).
edge(17, 53).
edge(158, 160).
edge(51, 145).
edge(13, 33).
edge(6, 82).
edge(40, 99).
edge(56, 140).
edge(79, 136).
edge(105, 116).
edge(57, 59).
edge(72, 163).
edge(32, 50).
edge(76, 170).
edge(64, 167).
edge(19, 124).
edge(48, 87).
edge(27, 61).
edge(2, 140).
edge(40, 131).
edge(16, 38).
edge(15, 151).
edge(57, 74).
edge(117, 126).
edge(20, 135).
edge(48, 52).
edge(35, 143).
edge(59, 158).
edge(39, 47).
edge(151, 168).
edge(49, 156).
edge(85, 174).
edge(82, 119).
edge(111, 166).
edge(101, 102).
edge(13, 125).
edge(96, 168).
edge(17, 37).
edge(18, 145).
edge(7, 91).
edge(60, 137).
edge(105, 118).
edge(14, 45).
edge(3, 153).
edge(55, 114).
edge(101, 168).
edge(22, 177).
edge(6, 50).
edge(83, 169).
edge(2, 13).
edge(131, 157).
edge(91, 139).
edge(12, 115).
edge(73, 84).
edge(84, 175).
edge(7, 72).
edge(141, 157).
edge(135, 144).
edge(118, 126).
edge(47, 107).
edge(46, 167).
edge(142, 178).
edge(59, 132).
edge(15, 175).
edge(117, 128).
edge(133, 140).
edge(55, 80).
edge(37, 81).
edge(107, 159).
edge(53, 130).
edge(53, 144).
edge(60, 100).
edge(124, 170).
edge(39, 48).
edge(80, 146).
edge(30, 172).
edge(112, 166).
edge(14, 60).
edge(56, 172).
edge(85, 167).
edge(98, 129).
edge(25, 171).
edge(110, 160).
edge(60, 116).
edge(5, 87).
edge(16, 36).
edge(50, 114).
edge(63, 92).
edge(78, 125).
edge(22, 116).
edge(131, 144).
edge(0, 135).
edge(26, 75).
edge(13, 64).
edge(54, 144).
edge(6, 139).
edge(70, 170).
edge(77, 100).
edge(51, 121).
edge(129, 166).
edge(26, 145).
edge(61, 158).
edge(13, 143).
edge(140, 164).
edge(9, 74).
edge(9, 68).
edge(12, 112).
edge(62, 82).
edge(53, 156).
edge(41, 167).
edge(64, 100).
edge(130, 178).
edge(88, 96).
edge(40, 123).
edge(72, 73).
edge(54, 146).
edge(57, 75).
edge(8, 13).
edge(77, 143).
edge(52, 151).
edge(130, 154).
edge(81, 166).
edge(30, 45).
edge(25, 175).
edge(32, 156).
edge(9, 111).
edge(2, 84).
edge(58, 63).
edge(37, 41).
edge(71, 177).
edge(150, 162).
edge(8, 158).
edge(46, 150).
edge(25, 146).
edge(53, 131).
edge(2, 22).
edge(22, 168).
edge(8, 143).
edge(63, 178).
edge(8, 10).
edge(66, 104).
edge(1, 10).
edge(93, 108).
edge(48, 58).
edge(14, 156).
edge(51, 92).
edge(3, 17).
edge(47, 116).
edge(49, 160).
edge(83, 119).
edge(66, 69).
edge(122, 146).
edge(46, 50).
edge(5, 8).
edge(85, 125).
edge(50, 67).
edge(66, 120).
edge(9, 158).
edge(23, 55).
edge(49, 138).
edge(4, 142).
edge(59, 80).
edge(17, 25).
edge(8, 97).
edge(61, 175).
edge(95, 154).
edge(40, 48).
edge(113, 151).
edge(139, 168).
edge(10, 77).
edge(77, 133).
edge(108, 119).
edge(38, 136).
edge(110, 177).
edge(69, 103).
edge(6, 21).
edge(32, 116).
edge(122, 151).
edge(5, 169).
edge(89, 133).
edge(74, 175).
edge(122, 174).
edge(98, 123).
edge(89, 107).
edge(63, 130).
edge(87, 109).
edge(68, 173).
edge(11, 25).
edge(67, 98).
edge(33, 118).
edge(24, 117).
edge(56, 128).
edge(49, 114).
edge(44, 178).
edge(89, 90).
edge(57, 97).
edge(95, 111).
edge(2, 119).
edge(61, 123).
edge(9, 107).
edge(112, 162).
edge(83, 153).
edge(54, 137).
edge(110, 138).
edge(58, 170).
edge(45, 67).
edge(67, 85).
edge(57, 178).
edge(120, 157).
edge(117, 143).
edge(43, 82).
edge(27, 53).
edge(31, 89).
edge(16, 59).
edge(101, 147).
edge(84, 135).
edge(77, 110).
edge(81, 176).
edge(128, 151).
edge(46, 78).
edge(8, 94).
edge(62, 115).
edge(138, 177).
edge(31, 130).
edge(139, 159).
edge(32, 79).
edge(40, 114).
edge(74, 160).
edge(66, 155).
edge(49, 129).
edge(30, 132).
edge(114, 163).
edge(78, 148).
edge(60, 97).
edge(32, 90).
edge(48, 76).
edge(128, 153).
edge(33, 102).
edge(50, 63).
edge(11, 65).
edge(6, 147).
edge(138, 147).
edge(1, 173).
edge(111, 147).
edge(66, 105).
edge(45, 68).
edge(39, 104).
edge(76, 91).
edge(106, 169).
edge(155, 174).
edge(43, 149).
edge(16, 159).
edge(37, 88).
edge(11, 122).
edge(44, 158).
edge(0, 37).
edge(56, 89).
edge(14, 101).
edge(85, 173).
edge(66, 145).
edge(148, 149).
edge(112, 173).
edge(27, 65).
edge(90, 136).
edge(11, 16).
edge(50, 153).
edge(21, 105).
edge(15, 102).
edge(67, 176).
edge(52, 103).
edge(60, 87).
edge(4, 22).
edge(52, 127).
edge(74, 146).
edge(138, 153).
edge(114, 172).
edge(57, 153).
edge(104, 166).
edge(40, 134).
edge(78, 142).
edge(15, 48).
edge(39, 63).
edge(99, 115).
edge(24, 143).
edge(49, 110).
edge(115, 171).
edge(10, 90).
edge(45, 121).
edge(78, 97).
edge(55, 144).
edge(11, 170).
edge(60, 154).
edge(118, 140).
edge(50, 116).
edge(19, 130).
edge(98, 140).
edge(104, 167).
edge(59, 138).
edge(45, 105).
edge(25, 126).
edge(21, 169).
edge(37, 86).
edge(126, 150).
edge(27, 108).
edge(109, 117).
edge(26, 130).
edge(43, 136).
edge(1, 42).
edge(104, 107).
edge(13, 154).
edge(63, 104).
edge(44, 130).
edge(100, 108).
edge(36, 66).
edge(13, 168).
edge(24, 26).
edge(34, 158).
edge(72, 151).
edge(13, 92).
edge(37, 159).
edge(19, 163).
edge(117, 155).
edge(12, 31).
edge(82, 118).
edge(8, 19).
edge(135, 158).
edge(100, 141).
edge(154, 165).
edge(75, 174).
edge(70, 99).
edge(122, 137).
edge(35, 172).
edge(40, 116).
edge(70, 135).
edge(21, 53).
edge(7, 8).
edge(111, 115).
edge(4, 76).
edge(16, 109).
edge(39, 139).
edge(17, 57).
edge(83, 103).
edge(101, 109).
edge(34, 163).
edge(62, 66).
edge(49, 148).
edge(24, 124).
edge(5, 110).
edge(22, 160).
edge(22, 169).
edge(90, 114).
edge(27, 128).
edge(1, 110).
edge(103, 121).
edge(7, 55).
edge(145, 174).
edge(86, 132).
edge(31, 146).
edge(27, 62).
edge(62, 149).
edge(67, 126).
edge(150, 178).
edge(30, 169).
edge(13, 118).
edge(89, 106).
edge(120, 166).
edge(49, 127).
edge(69, 106).
edge(157, 177).
edge(55, 127).
edge(133, 142).
edge(56, 107).
edge(18, 173).
edge(67, 131).
edge(63, 123).
edge(18, 93).
edge(68, 82).
edge(73, 131).
edge(28, 129).
edge(1, 132).
edge(31, 45).
edge(144, 176).
edge(2, 147).
edge(21, 135).
edge(5, 112).
edge(4, 132).
edge(145, 163).
edge(58, 138).
edge(8, 73).
edge(72, 116).
edge(58, 107).
edge(134, 169).
edge(23, 153).
edge(161, 163).
edge(60, 123).
edge(119, 141).
edge(15, 90).
edge(83, 120).
edge(57, 134).
edge(17, 35).
edge(96, 141).
edge(24, 159).
edge(151, 175).
edge(67, 70).
edge(51, 131).
edge(93, 110).
edge(44, 109).
edge(1, 167).
edge(68, 129).
edge(60, 167).
edge(17, 50).
edge(77, 149).
edge(119, 125).
edge(19, 81).
edge(28, 88).
edge(33, 74).
edge(133, 159).
edge(74, 167).
edge(36, 139).
edge(104, 144).
edge(123, 169).
edge(58, 128).
edge(46, 138).
edge(34, 142).
edge(3, 140).
edge(107, 147).
edge(6, 113).
edge(12, 132).
edge(28, 110).
edge(139, 142).
edge(98, 157).
edge(46, 120).
edge(64, 117).
edge(55, 122).
edge(41, 147).
edge(35, 103).
edge(37, 60).
edge(72, 155).
edge(20, 139).
edge(4, 43).
edge(16, 37).
edge(114, 171).
edge(24, 97).
edge(92, 146).
edge(33, 46).
edge(47, 58).
edge(7, 60).
edge(53, 114).
edge(66, 114).
edge(98, 165).
edge(17, 108).
edge(29, 164).
edge(128, 164).
edge(57, 107).
edge(50, 144).
edge(74, 150).
edge(97, 150).
edge(27, 59).
edge(56, 141).
edge(35, 166).
edge(7, 142).
edge(6, 11).
edge(17, 160).
edge(25, 101).
edge(53, 106).
edge(42, 90).
edge(77, 82).
edge(21, 121).
edge(108, 146).
edge(11, 85).
edge(97, 143).
edge(3, 16).
edge(128, 133).
edge(13, 160).
edge(34, 153).
edge(33, 169).
edge(42, 82).
edge(102, 124).
edge(73, 111).
edge(13, 49).
edge(99, 113).
edge(93, 166).
edge(162, 167).
edge(57, 101).
edge(73, 87).
edge(9, 20).
edge(6, 133).
edge(10, 109).
edge(82, 103).
edge(47, 102).
edge(40, 107).
edge(110, 143).
edge(26, 149).
edge(12, 68).
edge(67, 147).
edge(47, 84).
edge(14, 163).
edge(32, 48).
edge(144, 156).
edge(80, 84).
edge(103, 135).
edge(27, 148).
edge(58, 162).
edge(146, 168).
edge(7, 51).
edge(81, 134).
edge(147, 148).
edge(68, 94).
edge(23, 41).
edge(31, 81).
edge(78, 154).
edge(12, 159).
edge(36, 46).
edge(73, 174).
edge(37, 110).
edge(124, 161).
edge(18, 156).
edge(1, 47).
edge(13, 101).
edge(23, 128).
edge(20, 158).
edge(28, 146).
edge(165, 171).
edge(43, 163).
edge(16, 26).
edge(92, 110).
edge(14, 67).
edge(16, 20).
edge(33, 144).
edge(19, 153).
edge(50, 80).
edge(21, 88).
edge(8, 71).
edge(45, 59).
edge(3, 102).
edge(23, 148).
edge(104, 128).
edge(106, 112).
edge(40, 153).
edge(38, 105).
edge(2, 157).
edge(63, 148).
edge(79, 175).
edge(66, 176).
edge(23, 138).
edge(96, 109).
edge(85, 103).
edge(75, 159).
edge(10, 123).
edge(48, 121).
edge(1, 177).
edge(16, 93).
edge(129, 163).
edge(82, 165).
edge(105, 119).
edge(70, 155).
edge(5, 135).
edge(104, 121).
edge(61, 150).
edge(158, 173).
edge(164, 166).
edge(35, 49).
edge(9, 78).
edge(167, 169).
edge(33, 145).
edge(37, 145).
edge(7, 108).
edge(77, 175).
edge(30, 106).
edge(26, 117).
edge(28, 54).
edge(12, 64).
edge(65, 67).
edge(102, 108).
edge(8, 165).
edge(31, 122).
edge(35, 154).
edge(87, 105).
edge(99, 150).
edge(14, 98).
edge(96, 151).
edge(82, 163).
edge(59, 61).
edge(67, 169).
edge(18, 95).
edge(9, 145).
edge(118, 145).
edge(117, 171).
edge(142, 173).
edge(1, 145).
edge(34, 164).
edge(25, 166).
edge(6, 10).
edge(68, 142).
edge(79, 172).
edge(30, 121).
edge(119, 142).
edge(114, 167).
edge(77, 148).
edge(51, 133).
edge(110, 114).
edge(1, 95).
edge(51, 175).
edge(4, 80).
edge(65, 107).
edge(29, 101).
edge(94, 166).
edge(23, 54).
edge(47, 50).
edge(43, 59).
edge(96, 139).
edge(59, 176).
edge(89, 108).
edge(78, 113).
edge(8, 11).
edge(44, 132).
edge(21, 58).
edge(59, 68).
edge(65, 133).
edge(27, 100).
edge(54, 119).
edge(122, 145).
edge(92, 168).
edge(97, 165).
edge(76, 82).
edge(13, 134).
edge(16, 149).
edge(22, 162).
edge(54, 145).
edge(9, 12).
edge(61, 94).
edge(126, 132).
edge(37, 64).
edge(37, 115).
edge(46, 157).
edge(8, 133).
edge(45, 98).
edge(38, 155).
edge(117, 130).
edge(30, 108).
edge(80, 149).
edge(10, 68).
edge(20, 30).
edge(65, 141).
edge(29, 44).
edge(21, 66).
edge(15, 16).
edge(127, 139).
edge(108, 152).
edge(79, 118).
edge(14, 176).
edge(44, 106).
edge(19, 155).
edge(33, 135).
edge(48, 147).
edge(25, 144).
edge(17, 22).
edge(144, 158).
edge(43, 70).
edge(15, 103).
edge(130, 131).
edge(95, 164).
edge(7, 44).
edge(104, 154).
edge(25, 74).
edge(76, 107).
edge(5, 75).
edge(116, 125).
edge(126, 160).
edge(2, 134).
edge(37, 160).
edge(79, 166).
edge(124, 160).
edge(72, 145).
edge(15, 84).
edge(29, 178).
edge(34, 83).
edge(70, 133).
edge(30, 41).
edge(49, 83).
edge(31, 38).
edge(10, 102).
edge(28, 178).
edge(22, 175).
edge(47, 70).
edge(76, 108).
edge(3, 32).
edge(141, 169).
edge(14, 84).
edge(132, 149).
edge(43, 141).
edge(26, 84).
edge(48, 59).
edge(139, 144).
edge(8, 49).
edge(5, 91).
edge(135, 153).
edge(17, 87).
edge(111, 157).
edge(117, 169).
edge(88, 135).
edge(24, 51).
edge(95, 119).
edge(58, 77).
edge(29, 170).
edge(61, 79).
edge(16, 50).
edge(44, 154).
edge(44, 148).
edge(4, 5).
edge(131, 143).
edge(93, 152).
edge(12, 67).
edge(6, 137).
edge(3, 34).
edge(68, 134).
edge(10, 31).
edge(47, 103).
edge(10, 92).
edge(20, 69).
edge(20, 143).
edge(77, 111).
edge(22, 120).
edge(110, 147).
edge(69, 71).
edge(148, 166).
edge(29, 171).
edge(96, 113).
edge(17, 39).
edge(83, 115).
edge(23, 26).
edge(115, 127).
edge(31, 43).
edge(39, 119).
edge(112, 113).
edge(83, 170).
edge(139, 150).
edge(65, 174).
edge(40, 157).
edge(10, 148).
edge(27, 171).
edge(94, 147).
edge(77, 128).
edge(154, 178).
edge(102, 103).
edge(58, 118).
edge(81, 105).
edge(21, 79).
edge(81, 92).
edge(1, 19).
edge(164, 173).
edge(62, 168).
edge(3, 24).
edge(97, 132).
edge(132, 158).
edge(37, 45).
edge(40, 126).
edge(150, 156).
edge(7, 172).
edge(78, 131).
edge(58, 102).
edge(26, 153).
edge(51, 76).
edge(160, 178).
edge(84, 90).
edge(108, 136).
edge(30, 65).
edge(46, 57).
edge(14, 57).
edge(10, 13).
edge(1, 125).
edge(129, 164).
edge(93, 105).
edge(16, 66).
edge(17, 75).
edge(3, 36).
edge(39, 122).
edge(0, 98).
edge(42, 172).
edge(53, 71).
edge(1, 4).
edge(20, 100).
edge(15, 114).
edge(1, 48).
edge(45, 167).
edge(78, 118).
edge(45, 47).
edge(57, 114).
edge(117, 131).
edge(1, 138).
edge(38, 72).
edge(26, 76).
edge(148, 153).
edge(80, 89).
edge(108, 165).
edge(99, 108).
edge(22, 91).
edge(83, 100).
edge(25, 162).
edge(55, 128).
edge(29, 49).
edge(59, 171).
edge(134, 146).
edge(121, 170).
edge(39, 71).
edge(108, 163).
edge(62, 178).
edge(61, 145).
edge(42, 87).
edge(125, 127).
edge(123, 129).
edge(109, 124).
edge(76, 132).
edge(85, 171).
edge(64, 85).
edge(3, 97).
edge(20, 43).
edge(94, 158).
edge(85, 104).
edge(100, 117).
edge(2, 98).
edge(101, 165).
edge(67, 77).
edge(55, 75).
edge(154, 164).
edge(39, 141).
edge(8, 100).
edge(171, 172).
edge(53, 123).
edge(60, 114).
edge(41, 171).
edge(35, 146).
edge(76, 102).
edge(10, 166).
edge(156, 174).
edge(49, 54).
edge(2, 116).
edge(3, 166).
edge(63, 136).
edge(25, 151).
edge(151, 163).
edge(80, 172).
edge(53, 162).
edge(108, 164).
edge(52, 72).
edge(129, 156).
edge(51, 98).
edge(13, 170).
edge(27, 168).
edge(59, 167).
edge(47, 91).
edge(17, 49).
edge(88, 141).
edge(68, 104).
edge(13, 28).
edge(23, 99).
edge(0, 137).
edge(103, 151).
edge(19, 159).
edge(85, 92).
edge(134, 176).
edge(49, 151).
edge(2, 16).
edge(21, 109).
edge(50, 145).
edge(138, 157).
edge(107, 161).
edge(87, 132).
edge(172, 174).
edge(41, 91).
edge(113, 158).
edge(93, 150).
edge(56, 92).
edge(66, 73).
edge(69, 77).
edge(16, 62).
edge(17, 157).
edge(22, 145).
edge(22, 157).
edge(100, 145).
edge(40, 173).
edge(78, 149).
edge(113, 165).
edge(41, 175).
edge(69, 141).
edge(42, 47).
edge(2, 154).
edge(36, 167).
edge(90, 164).
edge(59, 82).
edge(71, 171).
edge(90, 107).
edge(39, 55).
edge(102, 134).
edge(15, 101).
edge(89, 120).
edge(86, 174).
edge(63, 87).
edge(72, 121).
edge(27, 169).
edge(34, 56).
edge(115, 170).
edge(27, 82).
edge(31, 64).
edge(53, 152).
edge(62, 147).
edge(10, 23).
edge(108, 166).
edge(71, 110).
edge(51, 124).
edge(44, 97).
edge(91, 97).
edge(3, 14).
edge(7, 54).
edge(9, 90).
edge(76, 88).
edge(25, 130).
edge(80, 175).
edge(24, 122).
edge(17, 42).
edge(29, 53).
edge(52, 102).
edge(23, 133).
edge(10, 33).
edge(112, 164).
edge(33, 121).
edge(48, 173).
edge(147, 167).
edge(60, 158).
edge(120, 143).
edge(7, 125).
edge(147, 161).
edge(10, 155).
edge(11, 86).
edge(101, 113).
edge(58, 145).
edge(16, 175).
edge(71, 172).
edge(57, 138).
edge(76, 109).
edge(2, 5).
edge(76, 175).
edge(11, 54).
edge(43, 153).
edge(34, 65).
edge(11, 134).
edge(72, 154).
edge(2, 39).
edge(53, 58).
edge(125, 150).
edge(51, 94).
edge(5, 33).
edge(121, 132).
edge(122, 157).
edge(13, 144).
edge(65, 158).
edge(22, 80).
edge(37, 105).
edge(8, 75).
edge(87, 160).
edge(2, 59).
edge(127, 160).
edge(24, 30).
edge(89, 164).
edge(57, 172).
edge(3, 170).
edge(108, 113).
edge(9, 77).
edge(30, 138).
edge(48, 82).
edge(132, 157).
edge(145, 160).
edge(101, 134).
edge(100, 149).
edge(4, 170).
edge(1, 148).
edge(163, 177).
edge(31, 61).
edge(81, 102).
edge(52, 77).
edge(30, 115).
edge(43, 119).
edge(123, 166).
edge(73, 141).
edge(84, 145).
edge(10, 40).
edge(7, 98).
edge(130, 166).
edge(14, 21).
edge(2, 163).
edge(58, 98).
edge(20, 115).
edge(85, 138).
edge(47, 124).
edge(77, 146).
edge(143, 151).
edge(22, 79).
edge(134, 153).
edge(14, 69).
edge(49, 76).
edge(40, 77).
edge(19, 170).
edge(67, 133).
edge(96, 115).
edge(70, 171).
edge(29, 43).
edge(59, 155).
edge(11, 147).
edge(16, 124).
edge(135, 161).
edge(114, 119).
edge(85, 133).
edge(129, 133).
edge(14, 22).
edge(65, 132).
edge(123, 133).
edge(38, 84).
edge(16, 85).
edge(3, 48).
edge(58, 90).
edge(22, 123).
edge(123, 167).
edge(60, 126).
edge(113, 132).
edge(84, 131).
edge(61, 66).
edge(55, 117).
edge(78, 110).
edge(42, 156).
edge(15, 65).
edge(117, 177).
edge(68, 124).
edge(19, 128).
edge(26, 66).
edge(7, 12).
edge(40, 65).
edge(137, 160).
edge(48, 64).
edge(119, 144).
edge(99, 126).
edge(43, 126).
edge(58, 91).
edge(4, 131).
edge(70, 173).
edge(54, 118).
edge(22, 58).
edge(73, 155).
edge(82, 162).
edge(103, 126).
edge(55, 150).
edge(18, 28).
edge(41, 173).
edge(43, 50).
edge(26, 45).
edge(10, 81).
edge(1, 76).
edge(162, 175).
edge(66, 115).
edge(155, 175).
edge(32, 164).
edge(89, 100).
edge(39, 152).
edge(40, 76).
edge(30, 77).
edge(27, 160).
edge(100, 146).
edge(94, 121).
edge(14, 97).
edge(9, 177).
edge(98, 113).
edge(19, 171).
edge(53, 61).
edge(10, 124).
edge(31, 139).
edge(22, 49).
edge(118, 130).
edge(24, 135).
edge(17, 147).
edge(90, 124).
edge(74, 108).
edge(54, 68).
edge(5, 9).
edge(14, 149).
edge(20, 62).
edge(29, 95).
edge(71, 117).
edge(109, 156).
edge(142, 159).
edge(46, 118).
edge(23, 72).
edge(78, 135).
edge(31, 35).
edge(147, 170).
edge(37, 48).
edge(3, 172).
edge(34, 114).
edge(52, 148).
edge(93, 121).
edge(24, 136).
edge(3, 106).
edge(104, 158).
edge(12, 96).
edge(25, 160).
edge(80, 159).
edge(51, 126).
edge(5, 78).
edge(49, 58).
edge(110, 130).
edge(0, 61).
edge(43, 155).
edge(24, 78).
edge(70, 97).
edge(29, 85).
edge(10, 141).
edge(23, 172).
edge(82, 100).
edge(105, 107).
edge(102, 155).
edge(17, 91).
edge(101, 151).
edge(46, 127).
edge(14, 16).
edge(75, 161).
edge(34, 104).
edge(104, 152).
edge(30, 46).
edge(5, 36).
edge(97, 173).
edge(132, 133).
edge(11, 29).
edge(101, 127).
edge(36, 124).
edge(59, 144).
edge(13, 85).
edge(118, 154).
edge(106, 108).
edge(116, 142).
edge(104, 134).
edge(3, 76).
edge(59, 109).
edge(107, 174).
edge(91, 111).
edge(11, 173).
edge(18, 19).
edge(67, 156).
edge(21, 126).
edge(77, 95).
edge(11, 144).
edge(8, 58).
edge(100, 169).
edge(45, 91).
edge(103, 178).
edge(44, 171).
edge(85, 127).
edge(18, 74).
edge(88, 128).
edge(57, 78).
edge(61, 81).
edge(1, 103).
edge(16, 73).
edge(17, 154).
edge(106, 166).
edge(131, 161).
edge(46, 124).
edge(44, 81).
edge(22, 155).
edge(39, 177).
edge(100, 119).
edge(133, 157).
edge(51, 157).
edge(17, 18).
edge(88, 163).
edge(21, 26).
edge(71, 95).
edge(124, 136).
edge(29, 127).
edge(6, 144).
edge(27, 89).
edge(96, 172).
edge(8, 127).
edge(48, 141).
edge(28, 122).
edge(10, 171).
edge(47, 72).
edge(94, 156).
edge(30, 111).
edge(40, 58).
edge(106, 174).
edge(73, 124).
edge(100, 154).
edge(9, 10).
edge(114, 160).
edge(20, 47).
edge(96, 123).
edge(47, 101).
edge(105, 130).
edge(18, 168).
edge(40, 148).
edge(38, 49).
edge(2, 24).
edge(21, 146).
edge(1, 84).
edge(45, 138).
edge(45, 119).
edge(71, 77).
edge(56, 93).
edge(34, 132).
edge(6, 149).
edge(54, 128).
edge(127, 131).
edge(4, 49).
edge(39, 142).
edge(85, 164).
edge(37, 134).
edge(38, 123).
edge(46, 135).
edge(65, 122).
edge(142, 153).
edge(6, 165).
edge(36, 39).
edge(85, 166).
edge(22, 143).
edge(47, 160).
edge(123, 137).
edge(13, 88).
edge(106, 176).
edge(134, 138).
edge(21, 38).
edge(46, 74).
edge(12, 138).
edge(23, 154).
edge(33, 158).
edge(82, 111).
edge(60, 144).
edge(42, 78).
edge(15, 42).
edge(75, 87).
edge(45, 137).
edge(31, 74).
edge(0, 82).
edge(138, 171).
edge(8, 137).
edge(46, 158).
edge(85, 137).
edge(132, 153).
edge(113, 131).
edge(39, 148).
edge(33, 101).
edge(106, 121).
edge(13, 104).
edge(98, 158).
edge(85, 155).
edge(10, 158).
edge(50, 85).
edge(61, 95).
edge(45, 163).
edge(137, 168).
edge(57, 106).
edge(123, 140).
edge(37, 107).
edge(10, 133).
edge(28, 144).
edge(84, 148).
edge(112, 124).
edge(11, 132).
edge(14, 18).
edge(65, 81).
edge(36, 37).
edge(46, 52).
edge(28, 123).
edge(9, 22).
edge(0, 151).
edge(36, 152).
edge(55, 125).
edge(22, 47).
edge(5, 129).
edge(7, 73).
edge(0, 80).
edge(94, 125).
edge(42, 93).
edge(30, 123).
edge(74, 156).
edge(103, 130).
edge(16, 168).
edge(52, 91).
edge(65, 149).
edge(12, 127).
edge(12, 173).
edge(149, 172).
edge(74, 177).
edge(156, 159).
edge(161, 164).
edge(27, 161).
edge(46, 176).
edge(89, 118).
edge(65, 161).
edge(97, 141).
edge(128, 139).
edge(70, 106).
edge(82, 96).
edge(68, 128).
edge(43, 175).
edge(73, 134).
edge(2, 169).
edge(4, 163).
edge(63, 99).
edge(7, 38).
edge(82, 155).
edge(36, 125).
edge(115, 178).
edge(9, 103).
edge(89, 111).
edge(31, 125).
edge(0, 77).
edge(90, 162).
edge(16, 103).
edge(24, 106).
edge(58, 158).
edge(90, 92).
edge(89, 155).
edge(130, 173).
edge(46, 156).
edge(41, 141).
edge(56, 173).
edge(33, 114).
edge(8, 129).
edge(54, 92).
edge(48, 144).
edge(83, 173).
edge(24, 38).
edge(106, 156).
edge(26, 56).
edge(21, 110).
edge(165, 176).
edge(22, 176).
edge(145, 155).
edge(49, 112).
edge(64, 103).
edge(30, 99).
edge(5, 157).
edge(110, 170).
edge(65, 90).
edge(16, 156).
edge(31, 97).
edge(19, 23).
edge(86, 116).
edge(18, 82).
edge(50, 163).
edge(165, 167).
edge(33, 156).
edge(62, 161).
edge(20, 105).
edge(10, 170).
edge(75, 93).
edge(61, 107).
edge(95, 146).
edge(51, 166).
edge(47, 67).
edge(71, 86).
edge(55, 103).
edge(16, 47).
edge(17, 138).
edge(25, 39).
edge(107, 133).
edge(7, 174).
edge(3, 114).
edge(89, 114).
edge(81, 96).
edge(26, 166).
edge(140, 147).
edge(74, 162).
edge(50, 58).
edge(10, 165).
edge(39, 80).
edge(127, 132).
edge(136, 154).
edge(84, 101).
edge(63, 68).
edge(67, 108).
edge(32, 132).
edge(140, 142).
edge(22, 45).
edge(47, 175).
edge(152, 157).
edge(136, 155).
edge(98, 176).
edge(100, 143).
edge(69, 175).
edge(65, 128).
edge(5, 132).
edge(30, 44).
edge(1, 9).
edge(137, 140).
edge(55, 172).
edge(104, 178).
edge(48, 73).
edge(10, 63).
edge(108, 170).
edge(94, 107).
edge(17, 34).
edge(59, 65).
edge(49, 158).
edge(29, 130).
edge(38, 169).
edge(46, 110).
edge(155, 161).
edge(58, 143).
edge(23, 46).
edge(21, 123).
edge(14, 144).
edge(166, 171).
edge(55, 174).
edge(22, 147).
edge(28, 43).
edge(113, 143).
edge(17, 40).
edge(34, 96).
edge(1, 128).
edge(91, 160).
edge(44, 72).
edge(160, 169).
edge(23, 98).
edge(118, 142).
edge(35, 94).
edge(129, 145).
edge(106, 132).
edge(64, 66).
edge(99, 168).
edge(82, 91).
edge(56, 98).
edge(116, 172).
edge(131, 170).
edge(49, 109).
edge(53, 168).
edge(18, 122).
edge(133, 170).
edge(44, 137).
edge(63, 105).
edge(1, 2).
edge(5, 103).
edge(1, 61).
edge(7, 39).
edge(115, 141).
edge(127, 135).
edge(104, 139).
edge(4, 52).
edge(16, 41).
edge(47, 98).
edge(92, 152).
edge(105, 177).
edge(93, 128).
edge(60, 152).
edge(65, 169).
edge(58, 167).
edge(5, 19).
edge(1, 17).
edge(35, 57).
edge(131, 154).
edge(27, 104).
edge(93, 168).
edge(104, 110).
edge(97, 167).
edge(36, 101).
edge(61, 63).
edge(97, 149).
edge(6, 125).
edge(55, 170).
edge(4, 16).
edge(70, 148).
edge(73, 163).
edge(41, 60).
edge(33, 134).
edge(60, 142).
edge(8, 21).
edge(108, 176).
edge(88, 106).
edge(93, 137).
edge(56, 164).
edge(18, 81).
edge(169, 172).
edge(51, 138).
edge(30, 154).
edge(56, 65).
edge(44, 104).
edge(107, 143).
edge(113, 163).
edge(5, 32).
edge(6, 35).
edge(73, 117).
edge(54, 124).
edge(167, 175).
edge(52, 101).
edge(89, 97).
edge(40, 90).
edge(15, 109).
edge(83, 118).
edge(36, 90).
edge(64, 170).
edge(48, 61).
edge(2, 88).
edge(24, 44).
edge(1, 37).
edge(2, 61).
edge(108, 173).
edge(4, 144).
edge(36, 42).
edge(80, 168).
edge(75, 157).
edge(69, 76).
edge(43, 62).
edge(21, 40).
edge(83, 96).
edge(55, 157).
edge(88, 142).
edge(107, 135).
edge(57, 81).
edge(138, 149).
edge(35, 129).
edge(48, 53).
edge(101, 125).
edge(47, 54).
edge(57, 155).
edge(72, 140).
edge(118, 178).
edge(82, 172).
edge(26, 49).
edge(30, 142).
edge(56, 147).
edge(57, 139).
edge(70, 129).
edge(145, 170).
edge(50, 95).
edge(91, 122).
edge(48, 124).
edge(105, 166).
edge(50, 101).
edge(121, 167).
edge(101, 144).
edge(52, 69).
edge(18, 142).
edge(39, 109).
edge(8, 41).
edge(88, 177).
edge(110, 152).
edge(17, 143).
edge(44, 87).
edge(129, 165).
edge(82, 95).
edge(133, 161).
edge(72, 170).
edge(65, 130).
edge(44, 113).
edge(5, 151).
edge(7, 26).
edge(28, 93).
edge(45, 132).
edge(94, 151).
edge(34, 105).
edge(111, 178).
edge(27, 129).
edge(55, 98).
edge(24, 100).
edge(20, 111).
edge(1, 80).
edge(52, 165).
edge(57, 66).
edge(3, 20).
edge(32, 57).
edge(18, 41).
edge(45, 150).
edge(18, 174).
edge(146, 173).
edge(103, 161).
edge(2, 132).
edge(132, 148).
edge(7, 69).
edge(59, 166).
edge(151, 167).
edge(93, 176).
edge(32, 135).
edge(41, 83).
edge(136, 162).
edge(38, 61).
edge(20, 153).
edge(43, 152).
edge(61, 67).
edge(56, 133).
edge(54, 85).
edge(120, 141).
edge(9, 98).
edge(2, 152).
edge(2, 67).
edge(30, 159).
edge(23, 142).
edge(117, 176).
edge(21, 56).
edge(65, 71).
edge(119, 140).
edge(35, 41).
edge(6, 23).
edge(30, 141).
edge(162, 177).
edge(63, 77).
edge(96, 104).
edge(13, 22).
edge(96, 116).
edge(54, 147).
edge(29, 46).
edge(13, 124).
edge(113, 116).
edge(137, 158).
edge(40, 67).
edge(31, 119).
edge(89, 152).
edge(41, 115).
edge(15, 115).
edge(34, 80).
edge(26, 124).
edge(21, 25).
edge(32, 45).
edge(4, 55).
edge(50, 175).
edge(27, 113).
edge(125, 170).
edge(4, 113).
edge(100, 133).
edge(6, 124).
edge(22, 60).
edge(95, 168).
edge(20, 104).
edge(35, 132).
edge(85, 151).
edge(83, 151).
edge(113, 140).
edge(157, 169).
edge(24, 157).
edge(38, 46).
edge(90, 116).
edge(24, 134).
edge(95, 96).
edge(119, 127).
edge(144, 152).
edge(34, 81).
edge(125, 163).
edge(2, 19).
edge(135, 137).
edge(167, 178).
edge(39, 107).
edge(50, 149).
edge(18, 154).
edge(67, 139).
edge(13, 145).
edge(13, 38).
edge(167, 172).
edge(84, 132).
edge(76, 156).
edge(78, 87).
edge(162, 169).
edge(33, 153).
edge(48, 130).
edge(117, 164).
edge(66, 161).
edge(15, 148).
edge(128, 161).
edge(89, 147).
edge(11, 48).
edge(0, 20).
edge(12, 113).
edge(2, 50).
edge(101, 143).
edge(31, 49).
edge(46, 99).
edge(66, 81).
edge(155, 158).
edge(12, 63).
edge(114, 132).
edge(120, 164).
edge(103, 115).
edge(54, 109).
edge(140, 162).
edge(126, 131).
edge(10, 159).
edge(24, 90).
edge(112, 147).
edge(33, 54).
edge(43, 110).
edge(125, 148).
edge(39, 149).
edge(11, 37).
edge(2, 107).
edge(1, 78).
edge(9, 134).
edge(111, 116).
edge(7, 169).
edge(70, 136).
edge(138, 150).
edge(51, 95).
edge(7, 117).
edge(28, 125).
edge(32, 33).
edge(114, 131).
edge(20, 32).
edge(87, 147).
edge(138, 144).
edge(78, 177).
edge(77, 168).
edge(6, 121).
edge(78, 168).
edge(44, 101).
edge(8, 76).
edge(28, 85).
edge(17, 71).
edge(52, 74).
edge(15, 105).
edge(72, 165).
edge(33, 52).
edge(36, 58).
edge(51, 64).
edge(72, 92).
edge(84, 157).
edge(20, 58).
edge(6, 130).
edge(53, 167).
edge(23, 60).
edge(105, 158).
edge(101, 158).
edge(72, 104).
edge(0, 32).
edge(165, 177).
edge(74, 98).
edge(71, 121).
edge(6, 114).
edge(6, 148).
edge(71, 163).
edge(85, 178).
edge(105, 152).
edge(66, 164).
edge(79, 81).
edge(36, 88).
edge(2, 168).
edge(42, 92).
edge(86, 164).
edge(114, 165).
edge(66, 171).
edge(77, 116).
edge(1, 157).
edge(69, 88).
edge(73, 98).
edge(106, 110).
edge(121, 171).
edge(76, 112).
edge(131, 153).
edge(126, 141).
edge(7, 89).
edge(1, 151).
edge(145, 169).
edge(17, 77).
edge(46, 85).
edge(158, 161).
edge(100, 136).
edge(20, 151).
edge(43, 144).
edge(123, 148).
edge(92, 103).
edge(9, 130).
edge(87, 107).
edge(109, 134).
edge(77, 120).
edge(56, 87).
edge(81, 114).
edge(76, 111).
edge(75, 105).
edge(42, 162).
edge(73, 91).
edge(6, 93).
edge(26, 159).
edge(45, 125).
edge(2, 166).
edge(128, 168).
edge(43, 112).
edge(6, 176).
edge(81, 178).
edge(128, 155).
edge(50, 134).
edge(121, 145).
edge(42, 160).
edge(104, 160).
edge(37, 68).
edge(83, 122).
edge(16, 31).
edge(70, 140).
edge(110, 118).
edge(164, 169).
edge(34, 129).
edge(93, 162).
edge(107, 170).
edge(14, 153).
edge(22, 161).
edge(0, 42).
edge(105, 139).
edge(46, 89).
edge(87, 138).
edge(36, 156).
edge(16, 160).
edge(17, 162).
edge(36, 164).
edge(79, 95).
edge(24, 32).
edge(64, 89).
edge(74, 141).
edge(10, 73).
edge(15, 111).
edge(73, 104).
edge(97, 178).
edge(129, 178).
edge(50, 161).
edge(114, 136).
edge(0, 17).
edge(110, 123).
edge(32, 96).
edge(79, 146).
edge(43, 160).
edge(41, 73).
edge(43, 80).
edge(32, 170).
edge(40, 75).
edge(49, 164).
edge(54, 160).
edge(47, 117).
edge(3, 80).
edge(26, 33).
edge(5, 116).
edge(13, 89).
edge(12, 121).
edge(66, 166).
edge(138, 151).
edge(33, 177).
edge(110, 132).
edge(107, 136).
edge(24, 46).
edge(115, 176).
edge(78, 157).
edge(6, 20).
edge(129, 142).
edge(121, 177).
edge(116, 151).
edge(135, 154).
edge(104, 108).
edge(78, 83).
edge(52, 84).
edge(66, 87).
edge(21, 44).
edge(123, 155).
edge(86, 152).
edge(79, 151).
edge(58, 130).
edge(23, 131).
edge(151, 162).
edge(38, 107).
edge(42, 173).
edge(129, 167).
edge(78, 109).
edge(155, 170).
edge(34, 146).
edge(90, 98).
edge(4, 29).
edge(155, 163).
edge(22, 83).
edge(93, 122).
edge(34, 92).
edge(61, 115).
edge(1, 89).
edge(144, 145).
edge(6, 14).
edge(48, 81).
edge(18, 125).
edge(58, 137).
edge(56, 81).
edge(3, 112).
edge(12, 129).
edge(51, 58).
edge(42, 167).
edge(144, 173).
edge(32, 168).
edge(27, 32).
edge(12, 47).
edge(142, 167).
edge(8, 163).
edge(61, 130).
edge(64, 93).
edge(30, 117).
edge(126, 144).
edge(8, 95).
edge(127, 144).
edge(113, 144).
edge(68, 154).
edge(66, 173).
edge(2, 151).
edge(42, 94).
edge(76, 133).
edge(18, 143).
edge(93, 107).
edge(70, 78).
edge(40, 132).
edge(68, 111).
edge(56, 84).
edge(78, 116).
edge(11, 111).
edge(64, 104).
edge(36, 128).
edge(83, 104).
edge(74, 136).
edge(141, 172).
edge(71, 82).
edge(8, 176).
edge(22, 94).
edge(4, 7).
edge(64, 77).
edge(68, 118).
edge(24, 82).
edge(35, 157).
edge(15, 166).
edge(67, 150).
edge(0, 22).
edge(33, 123).
edge(136, 140).
edge(9, 91).
edge(7, 77).
edge(39, 73).
edge(28, 138).
edge(78, 81).
edge(113, 137).
edge(31, 106).
edge(130, 149).
edge(97, 109).
edge(143, 161).
edge(9, 106).
edge(40, 162).
edge(146, 154).
edge(79, 115).
edge(86, 142).
edge(32, 107).
edge(132, 144).
edge(29, 54).
edge(139, 173).
edge(14, 42).
edge(54, 125).
edge(73, 173).
edge(12, 148).
edge(45, 156).
edge(50, 97).
edge(21, 166).
edge(18, 69).
edge(11, 19).
edge(36, 60).
edge(19, 54).
edge(23, 89).
edge(8, 43).
edge(33, 120).
edge(2, 136).
edge(156, 176).
edge(109, 164).
edge(100, 135).
edge(15, 171).
edge(51, 108).
edge(41, 82).
edge(4, 17).
edge(164, 175).
edge(74, 133).
edge(11, 159).
edge(52, 154).
edge(111, 172).
edge(18, 66).
edge(6, 32).
edge(120, 168).
edge(24, 74).
edge(35, 76).
edge(52, 97).
edge(107, 128).
edge(39, 94).
edge(0, 30).
edge(75, 103).
edge(74, 112).
edge(3, 154).
edge(52, 147).
edge(140, 160).
edge(10, 145).
edge(8, 86).
edge(10, 66).
edge(111, 125).
edge(30, 136).
edge(15, 172).
edge(111, 124).
edge(36, 71).
edge(32, 41).
edge(125, 176).
edge(120, 150).
edge(63, 72).
edge(63, 154).
edge(22, 114).
edge(98, 110).
edge(66, 79).
edge(22, 115).
edge(47, 89).
edge(12, 134).
edge(52, 126).
edge(158, 174).
edge(9, 157).
edge(26, 169).
edge(146, 172).
edge(122, 161).
edge(14, 80).
edge(129, 174).
edge(60, 122).
edge(49, 167).
edge(19, 35).
edge(29, 47).
edge(35, 83).
edge(34, 55).
edge(91, 173).
edge(25, 67).
edge(40, 121).
edge(121, 160).
edge(20, 56).
edge(83, 135).
edge(16, 92).
edge(107, 150).
edge(11, 77).
edge(52, 138).
edge(89, 144).
edge(25, 62).
edge(69, 177).
edge(89, 178).
edge(39, 120).
edge(69, 115).
edge(104, 148).
edge(76, 106).
edge(56, 90).
edge(55, 72).
edge(35, 121).
edge(20, 128).
edge(95, 171).
edge(83, 171).
edge(32, 82).
edge(28, 52).
edge(157, 164).
edge(59, 90).
edge(35, 123).
edge(70, 86).
edge(46, 141).
edge(59, 122).
edge(144, 178).
edge(32, 119).
edge(98, 154).
edge(49, 137).
edge(57, 145).
edge(3, 62).
edge(112, 132).
edge(47, 113).
edge(26, 163).
edge(38, 54).
edge(123, 156).
edge(14, 133).
edge(2, 103).
edge(99, 145).
edge(71, 106).
edge(8, 63).
edge(123, 165).
edge(59, 160).
edge(71, 126).
edge(35, 131).
edge(5, 140).
edge(31, 173).
edge(44, 168).
edge(60, 70).
edge(86, 94).
edge(4, 90).
edge(19, 76).
edge(1, 60).
edge(36, 112).
edge(16, 71).
edge(14, 28).
edge(71, 136).
edge(147, 176).
edge(37, 158).
edge(54, 67).
edge(18, 162).
edge(14, 36).
edge(35, 134).
edge(72, 131).
edge(47, 86).
edge(89, 95).
edge(27, 164).
edge(70, 73).
edge(59, 111).
edge(34, 38).
edge(26, 155).
edge(122, 150).
edge(75, 146).
edge(47, 128).
edge(76, 152).
edge(164, 165).
edge(10, 55).
edge(10, 128).
edge(49, 52).
edge(48, 100).
edge(131, 175).
edge(59, 88).
edge(57, 103).
edge(112, 170).
edge(23, 82).
edge(82, 127).
edge(93, 172).
edge(56, 177).
edge(109, 144).
edge(14, 49).
edge(134, 175).
edge(45, 115).
edge(32, 97).
edge(78, 178).
edge(25, 70).
edge(77, 79).
edge(60, 72).
edge(142, 169).
edge(68, 163).
edge(8, 38).
edge(36, 69).
edge(0, 74).
edge(96, 99).
edge(31, 141).
edge(81, 175).
edge(71, 166).
edge(16, 33).
edge(98, 109).
edge(71, 173).
edge(125, 152).
edge(90, 121).
edge(108, 178).
edge(83, 98).
edge(24, 79).
edge(56, 143).
edge(8, 154).
edge(6, 118).
edge(27, 56).
edge(51, 118).
edge(33, 150).
edge(43, 45).
edge(162, 172).
edge(3, 149).
edge(62, 171).
edge(100, 115).
edge(2, 23).
edge(139, 165).
edge(70, 126).
edge(56, 78).
edge(8, 135).
edge(96, 155).
edge(54, 59).
edge(10, 75).
edge(5, 125).
edge(41, 96).
edge(40, 155).
edge(38, 153).
edge(51, 72).
edge(55, 126).
edge(90, 169).
edge(7, 150).
edge(24, 34).
edge(168, 175).
edge(53, 100).
edge(74, 102).
edge(153, 157).
edge(83, 147).
edge(1, 159).
edge(49, 95).
edge(128, 173).
edge(44, 138).
edge(28, 157).
edge(38, 139).
edge(85, 136).
edge(51, 113).
edge(28, 115).
edge(12, 95).
edge(10, 122).
edge(27, 95).
edge(112, 156).
edge(57, 164).
edge(65, 72).
edge(84, 110).
edge(43, 101).
edge(24, 121).
edge(50, 93).
edge(64, 147).
edge(146, 151).
edge(154, 172).
edge(1, 147).
edge(46, 83).
edge(28, 64).
edge(49, 64).
edge(88, 93).
edge(40, 50).
edge(70, 156).
edge(18, 102).
edge(93, 99).
edge(21, 80).
edge(92, 101).
edge(91, 98).
edge(78, 112).
edge(116, 137).
edge(62, 110).
edge(9, 44).
edge(119, 178).
edge(32, 39).
edge(66, 162).
edge(35, 56).
edge(44, 133).
edge(63, 152).
edge(53, 124).
edge(3, 103).
edge(129, 155).
edge(5, 147).
edge(103, 174).
edge(3, 12).
edge(83, 121).
edge(132, 166).
edge(131, 149).
edge(123, 160).
edge(26, 138).
edge(41, 177).
edge(72, 123).
edge(14, 55).
edge(2, 62).
edge(75, 177).
edge(28, 53).
edge(81, 165).
edge(69, 152).
edge(145, 159).
edge(6, 79).
edge(71, 104).
edge(16, 164).
edge(24, 152).
edge(110, 124).
edge(59, 119).
edge(85, 95).
edge(40, 100).
edge(132, 155).
edge(99, 177).
edge(89, 140).
edge(94, 105).
edge(112, 145).
edge(17, 129).
edge(109, 132).
edge(94, 141).
edge(21, 24).
edge(26, 41).
edge(101, 120).
edge(22, 102).
edge(15, 163).
edge(80, 178).
edge(72, 146).
edge(2, 40).
edge(33, 87).
edge(57, 127).
edge(71, 139).
edge(56, 62).
edge(48, 102).
edge(52, 87).
edge(82, 124).
edge(27, 130).
edge(75, 109).
edge(115, 117).
edge(89, 171).
edge(97, 160).
edge(74, 132).
edge(110, 150).
edge(56, 126).
edge(82, 105).
edge(58, 79).
edge(52, 176).
edge(53, 118).
edge(80, 96).
edge(33, 49).
edge(76, 154).
edge(161, 174).
edge(25, 96).
edge(81, 106).
edge(115, 136).
edge(18, 114).
edge(2, 38).
edge(118, 173).
edge(42, 141).
edge(12, 30).
edge(27, 101).
edge(129, 168).
edge(10, 152).
edge(12, 35).
edge(4, 87).
edge(81, 143).
edge(75, 112).
edge(96, 170).
edge(143, 153).
edge(35, 139).
edge(50, 171).
edge(71, 144).
edge(57, 80).
edge(88, 116).
edge(12, 175).
edge(22, 163).
edge(25, 77).
edge(16, 161).
edge(117, 124).
edge(43, 161).
edge(96, 102).
edge(135, 150).
edge(45, 173).
edge(13, 20).
edge(145, 172).
edge(24, 54).
edge(57, 140).
edge(1, 29).
edge(13, 176).
edge(37, 80).
edge(56, 61).
edge(7, 136).
edge(58, 151).
edge(88, 127).
edge(118, 166).
edge(61, 68).
edge(74, 170).
edge(50, 143).
edge(44, 170).
edge(51, 130).
edge(94, 96).
edge(23, 28).
edge(140, 166).
edge(41, 125).
edge(87, 91).
edge(17, 132).
edge(39, 126).
edge(11, 145).
edge(0, 93).
edge(6, 19).
edge(33, 125).
edge(43, 98).
edge(2, 87).
edge(130, 144).
edge(67, 74).
edge(107, 153).
edge(12, 178).
edge(26, 94).
edge(24, 126).
edge(109, 146).
edge(54, 63).
edge(14, 73).
edge(20, 80).
edge(70, 137).
edge(14, 105).
edge(47, 121).
edge(15, 68).
edge(46, 47).
edge(105, 165).
edge(140, 156).
edge(85, 161).
edge(121, 148).
edge(27, 75).
edge(100, 178).
edge(74, 90).
edge(3, 4).
edge(161, 171).
edge(16, 137).
edge(117, 158).
edge(77, 144).
edge(33, 67).
edge(174, 178).
edge(15, 123).
edge(54, 106).
edge(36, 91).
edge(63, 81).
edge(20, 37).
edge(18, 166).
edge(131, 145).
edge(65, 83).
edge(3, 163).
edge(124, 150).
edge(114, 169).
edge(139, 167).
edge(12, 57).
edge(41, 143).
edge(18, 117).
edge(83, 178).
edge(19, 25).
edge(44, 105).
edge(139, 140).
edge(15, 62).
edge(145, 150).
edge(102, 125).
edge(18, 54).
edge(117, 178).
edge(56, 130).
edge(145, 175).
edge(13, 84).
edge(38, 55).
edge(101, 123).
edge(85, 163).
edge(42, 139).
edge(160, 175).
edge(8, 57).
edge(134, 172).
edge(37, 141).
edge(113, 117).
edge(10, 117).
edge(102, 157).
edge(101, 110).
edge(48, 159).
edge(40, 176).
edge(59, 161).
edge(133, 143).
edge(88, 136).
edge(0, 166).
edge(25, 69).
edge(68, 80).
edge(89, 126).
edge(55, 166).
edge(71, 94).
edge(94, 101).
edge(4, 152).
edge(77, 103).
edge(31, 104).
edge(18, 120).
edge(21, 60).
edge(9, 150).
edge(82, 139).
edge(56, 155).
edge(4, 128).
edge(37, 118).
edge(80, 131).
edge(2, 28).
edge(89, 151).
edge(29, 153).
edge(86, 146).
edge(139, 177).
edge(46, 82).
edge(47, 130).
edge(93, 119).
edge(139, 169).
edge(69, 128).
edge(49, 157).
edge(52, 90).
edge(71, 99).
edge(122, 153).
edge(2, 97).
edge(42, 97).
edge(18, 158).
edge(6, 99).
edge(42, 138).
edge(52, 125).
edge(45, 169).
edge(98, 163).
edge(12, 174).
edge(79, 142).
edge(67, 160).
edge(15, 49).
edge(91, 168).
edge(11, 100).
edge(87, 129).
edge(44, 161).
edge(11, 177).
edge(123, 158).
edge(15, 178).
edge(59, 120).
edge(50, 125).
edge(63, 165).
edge(1, 36).
edge(33, 139).
edge(62, 145).
edge(63, 100).
edge(10, 51).
edge(18, 32).
edge(150, 155).
edge(105, 143).
edge(5, 99).
edge(58, 110).
edge(18, 23).
edge(23, 120).
edge(13, 35).
edge(124, 173).
edge(75, 78).
edge(81, 144).
edge(28, 82).
edge(51, 66).
edge(21, 95).
edge(110, 161).
edge(75, 122).
edge(30, 128).
edge(2, 167).
edge(97, 123).
edge(53, 56).
edge(32, 175).
edge(115, 140).
edge(61, 82).
edge(51, 114).
edge(54, 72).
edge(25, 32).
edge(72, 82).
edge(86, 103).
edge(50, 156).
edge(48, 118).
edge(27, 73).
edge(19, 158).
edge(14, 117).
edge(3, 156).
edge(19, 32).
edge(114, 122).
edge(72, 117).
edge(111, 155).
edge(103, 173).
edge(141, 146).
edge(108, 159).
edge(4, 75).
edge(94, 159).
edge(34, 39).
edge(15, 36).
edge(23, 73).
edge(59, 73).
edge(0, 43).
edge(77, 106).
edge(99, 144).
edge(20, 137).
edge(1, 107).
edge(137, 157).
edge(73, 106).
edge(122, 132).
edge(143, 156).
edge(62, 175).
edge(6, 120).
edge(89, 96).
edge(84, 121).
edge(65, 126).
edge(47, 144).
edge(62, 113).
edge(7, 81).
edge(36, 67).
edge(44, 112).
edge(8, 166).
edge(60, 166).
edge(41, 137).
edge(137, 141).
edge(78, 153).
edge(16, 80).
edge(42, 67).
edge(67, 144).
edge(89, 130).
edge(46, 108).
edge(102, 132).
edge(54, 166).
edge(44, 119).
edge(48, 98).
edge(61, 86).
edge(41, 126).
edge(23, 47).
edge(68, 122).
edge(50, 122).
edge(165, 168).
edge(66, 140).
edge(1, 155).
edge(23, 104).
edge(72, 114).
edge(43, 91).
edge(114, 127).
edge(16, 146).
edge(30, 37).
edge(125, 166).
edge(36, 122).
edge(42, 89).
edge(21, 157).
edge(53, 149).
edge(120, 158).
edge(33, 165).
edge(107, 129).
edge(96, 106).
edge(79, 149).
edge(39, 61).
edge(164, 177).
edge(51, 135).
edge(143, 178).
edge(9, 86).
edge(60, 153).
edge(74, 151).
edge(84, 134).
edge(23, 30).
edge(113, 141).
edge(88, 137).
edge(29, 160).
edge(19, 60).
edge(53, 59).
edge(35, 165).
edge(50, 169).
edge(92, 157).
edge(118, 155).
edge(8, 151).
edge(4, 173).
edge(43, 89).
edge(134, 178).
edge(28, 105).
edge(43, 65).
edge(68, 76).
edge(3, 174).
edge(47, 139).
edge(74, 138).
edge(89, 158).
edge(43, 164).
edge(116, 177).
edge(61, 70).
edge(53, 129).
edge(107, 138).
edge(21, 48).
edge(28, 63).
edge(35, 85).
edge(23, 85).
edge(0, 13).
edge(42, 85).
edge(13, 153).
edge(77, 154).
edge(51, 107).
edge(120, 163).
edge(8, 44).
edge(10, 82).
edge(61, 177).
edge(14, 122).
edge(68, 167).
edge(133, 155).
edge(104, 115).
edge(7, 66).
edge(123, 136).
edge(68, 91).
edge(40, 56).
edge(106, 117).
edge(42, 112).
edge(116, 118).
edge(83, 131).
edge(21, 69).
edge(29, 38).
edge(104, 173).
edge(54, 70).
edge(1, 141).
edge(51, 65).
edge(29, 131).
edge(161, 176).
edge(147, 157).
edge(140, 154).
edge(76, 122).
edge(98, 118).
edge(98, 150).
edge(2, 9).
edge(39, 163).
edge(2, 71).
edge(57, 113).
edge(117, 138).
edge(32, 42).
edge(99, 139).
edge(99, 127).
edge(157, 175).
edge(67, 152).
edge(97, 154).
edge(17, 72).
edge(17, 171).
edge(59, 141).
edge(34, 159).
edge(33, 79).
edge(30, 90).
edge(48, 101).
edge(58, 161).
edge(10, 21).
edge(2, 161).
edge(96, 132).
edge(140, 170).
edge(106, 133).
edge(64, 112).
edge(131, 169).
edge(5, 6).
edge(92, 124).
edge(95, 99).
edge(117, 165).
edge(23, 83).
edge(154, 155).
edge(97, 164).
edge(99, 171).
edge(19, 97).
edge(121, 129).
edge(83, 106).
edge(15, 125).
edge(0, 57).
edge(122, 175).
edge(97, 140).
edge(138, 174).
edge(121, 126).
edge(139, 164).
edge(123, 142).
edge(3, 49).
edge(10, 80).
edge(71, 115).
edge(27, 41).
edge(97, 155).
edge(101, 135).
edge(29, 163).
edge(46, 48).
edge(102, 175).
edge(23, 122).
edge(50, 75).
edge(75, 165).
edge(18, 165).
edge(67, 155).
edge(117, 161).
edge(52, 157).
edge(85, 147).
edge(48, 94).
edge(20, 178).
edge(127, 166).
edge(95, 104).
edge(79, 116).
edge(141, 156).
edge(6, 150).
edge(93, 141).
edge(29, 79).
edge(102, 104).
edge(118, 146).
edge(40, 71).
edge(12, 106).
edge(77, 123).
edge(65, 88).
edge(74, 137).
edge(45, 172).
edge(35, 109).
edge(27, 122).
edge(50, 78).
edge(51, 83).
edge(144, 159).
edge(55, 158).
edge(112, 133).
edge(39, 53).
edge(82, 151).
edge(9, 120).
edge(24, 96).
edge(75, 118).
edge(93, 177).
edge(4, 120).
edge(112, 159).
edge(106, 148).
edge(1, 91).
edge(18, 160).
edge(13, 55).
edge(38, 40).
edge(30, 61).
edge(165, 169).
edge(172, 173).
edge(26, 36).
edge(2, 73).
edge(129, 138).
edge(88, 112).
edge(154, 175).
edge(27, 157).
edge(58, 147).
edge(49, 97).
edge(135, 148).
edge(56, 100).
edge(76, 178).
edge(48, 167).
edge(157, 160).
edge(12, 170).
edge(19, 75).
edge(3, 111).
edge(29, 57).
edge(68, 141).
edge(40, 108).
edge(65, 111).
edge(108, 154).
edge(37, 69).
edge(66, 92).
edge(28, 176).
edge(29, 64).
edge(77, 83).
edge(47, 143).
edge(33, 82).
edge(95, 109).
edge(123, 139).
edge(19, 50).
edge(89, 129).
edge(38, 79).
edge(3, 139).
edge(10, 157).
edge(127, 151).
edge(121, 174).
edge(5, 55).
edge(16, 132).
edge(122, 140).
edge(32, 75).
edge(76, 100).
edge(76, 130).
edge(6, 112).
edge(50, 158).
edge(77, 166).
edge(122, 127).
edge(87, 95).
edge(92, 174).
edge(34, 128).
edge(13, 39).
edge(46, 143).
edge(85, 123).
edge(31, 154).
edge(13, 66).
edge(89, 160).
edge(51, 148).
edge(94, 154).
edge(93, 147).
edge(40, 59).
edge(114, 166).
edge(38, 151).
edge(74, 110).
edge(16, 128).
edge(77, 150).
edge(10, 24).
edge(57, 90).
edge(18, 128).
edge(41, 160).
edge(124, 153).
edge(80, 105).
edge(53, 148).
edge(74, 171).
edge(35, 142).
edge(2, 143).
edge(76, 171).
edge(12, 49).
edge(103, 117).
edge(6, 154).
edge(4, 161).
edge(4, 72).
edge(47, 96).
edge(7, 33).
edge(33, 65).
edge(97, 168).
edge(61, 139).
edge(5, 167).
edge(98, 143).
edge(116, 123).
edge(115, 142).
edge(29, 162).
edge(10, 15).
edge(43, 170).
edge(5, 83).
edge(115, 177).
edge(77, 94).
edge(20, 120).
edge(170, 173).
edge(60, 175).
edge(23, 155).
edge(22, 101).
edge(7, 122).
edge(155, 156).
edge(134, 157).
edge(11, 175).
edge(100, 166).
edge(17, 168).
edge(30, 83).
edge(78, 145).
edge(107, 173).
edge(35, 158).
edge(83, 167).
edge(71, 155).
edge(10, 164).
edge(106, 146).
edge(66, 112).
edge(144, 157).
edge(47, 69).
edge(82, 94).
edge(34, 102).
edge(121, 142).
edge(22, 172).
edge(75, 137).
edge(109, 131).
edge(71, 100).
edge(146, 148).
edge(123, 144).
edge(7, 47).
edge(11, 109).
edge(38, 112).
edge(129, 143).
edge(25, 120).
edge(60, 73).
edge(99, 151).
edge(59, 63).
edge(19, 161).
edge(3, 130).
edge(60, 139).
edge(55, 151).
edge(41, 133).
edge(3, 57).
edge(23, 69).
edge(5, 111).
edge(15, 69).
edge(31, 75).
edge(89, 131).
edge(97, 148).
edge(63, 139).
edge(79, 167).
edge(64, 159).
edge(68, 148).
edge(30, 96).
edge(91, 165).
edge(8, 47).
edge(34, 79).
edge(125, 131).
edge(46, 111).
edge(107, 117).
edge(41, 120).
edge(57, 89).
edge(0, 111).
edge(150, 153).
edge(22, 113).
edge(71, 140).
edge(97, 126).
edge(146, 178).
edge(5, 148).
edge(16, 143).
edge(14, 75).
edge(117, 173).
edge(24, 107).
edge(38, 85).
edge(126, 153).
edge(28, 136).
edge(85, 157).
edge(43, 151).
edge(82, 126).
edge(86, 161).
edge(13, 90).
edge(35, 89).
edge(21, 67).
edge(38, 167).
edge(117, 133).
edge(76, 138).
edge(13, 141).
edge(45, 100).
edge(107, 146).
edge(97, 174).
edge(176, 178).
edge(8, 136).
edge(29, 176).
edge(75, 111).
edge(19, 47).
edge(73, 110).
edge(153, 177).
edge(41, 98).
edge(21, 139).
edge(78, 155).
edge(98, 174).
edge(162, 165).
edge(70, 125).
edge(136, 139).
edge(45, 96).
edge(88, 115).
edge(4, 51).
edge(52, 135).
edge(51, 104).
edge(19, 45).
edge(105, 163).
edge(55, 61).
edge(107, 115).
edge(159, 170).
edge(102, 137).
edge(97, 177).
edge(20, 68).
edge(108, 172).
edge(111, 144).
edge(17, 172).
edge(68, 117).
edge(6, 129).
edge(44, 129).
edge(48, 151).
edge(81, 132).
edge(39, 51).
edge(24, 109).
edge(147, 174).
edge(22, 99).
edge(10, 67).
edge(86, 115).
edge(2, 125).
edge(47, 176).
edge(89, 174).
edge(7, 35).
edge(18, 64).
edge(53, 103).
edge(82, 110).
edge(88, 124).
edge(69, 108).
edge(31, 170).
edge(8, 40).
edge(45, 62).
edge(8, 160).
edge(95, 100).
edge(75, 88).
edge(135, 165).
edge(64, 148).
edge(35, 59).
edge(24, 28).
edge(86, 127).
edge(33, 90).
edge(7, 27).
edge(154, 158).
edge(45, 124).
edge(26, 53).
edge(96, 101).
edge(17, 68).
edge(169, 178).
edge(120, 170).
edge(65, 114).
edge(73, 105).
edge(47, 169).
edge(1, 162).
edge(146, 156).
edge(103, 167).
edge(73, 168).
edge(39, 42).
edge(42, 161).
edge(42, 133).
edge(25, 105).
edge(50, 112).
edge(108, 129).
edge(141, 155).
edge(13, 121).
edge(13, 112).
edge(35, 50).
edge(116, 129).
edge(89, 170).
edge(2, 106).
edge(25, 153).
edge(13, 79).
edge(6, 71).
edge(23, 75).
edge(45, 177).
edge(106, 151).
edge(2, 70).
edge(77, 91).
edge(2, 112).
edge(3, 178).
edge(57, 76).
edge(63, 126).
edge(101, 126).
edge(31, 156).
edge(20, 76).
edge(20, 176).
edge(28, 168).
edge(5, 105).
edge(54, 71).
edge(134, 168).
edge(102, 173).
edge(4, 26).
edge(83, 159).
edge(87, 155).
edge(135, 162).
edge(48, 174).
edge(33, 149).
edge(40, 146).
edge(105, 144).
edge(57, 133).
edge(69, 168).
edge(4, 107).
edge(27, 162).
edge(26, 114).
edge(70, 162).
edge(3, 150).
edge(72, 132).
edge(87, 143).
edge(106, 162).
edge(71, 102).
edge(99, 178).
edge(63, 121).
edge(45, 142).
edge(87, 97).
edge(53, 110).
edge(41, 54).
edge(97, 162).
edge(19, 100).
edge(1, 88).
edge(3, 69).
edge(170, 174).
edge(75, 163).
edge(64, 141).
edge(9, 163).
edge(95, 102).
edge(114, 174).
edge(80, 134).
edge(20, 53).
edge(44, 45).
edge(17, 144).
edge(62, 118).
edge(5, 45).
edge(55, 135).
edge(44, 80).
edge(2, 17).
edge(33, 155).
edge(7, 153).
edge(3, 162).
edge(15, 53).
edge(97, 156).
edge(55, 100).
edge(28, 100).
edge(19, 72).
edge(12, 41).
edge(5, 165).
edge(57, 88).
edge(13, 93).
edge(34, 40).
edge(104, 172).
edge(44, 108).
edge(31, 167).
edge(7, 152).
edge(17, 170).
edge(147, 159).
edge(39, 59).
edge(32, 173).
edge(9, 171).
edge(134, 173).
edge(75, 106).
edge(97, 116).
edge(84, 168).
edge(71, 105).
edge(14, 70).
edge(125, 140).
edge(52, 137).
edge(80, 98).
edge(91, 143).
edge(64, 109).
edge(41, 101).
edge(45, 57).
edge(98, 147).
edge(86, 111).
edge(172, 175).
edge(76, 90).
edge(135, 176).
edge(4, 124).
edge(27, 111).
edge(95, 98).
edge(83, 87).
edge(66, 90).
edge(11, 143).
edge(149, 178).
edge(101, 166).
edge(75, 136).
edge(43, 99).
edge(155, 159).
edge(102, 141).
edge(101, 133).
edge(24, 120).
edge(81, 113).
edge(111, 145).
edge(46, 154).
edge(43, 109).
edge(54, 61).
edge(89, 168).
edge(130, 136).
edge(137, 148).
edge(19, 156).
edge(56, 137).
edge(22, 68).
edge(119, 170).
edge(35, 63).
edge(33, 97).
edge(84, 147).
edge(73, 108).
edge(56, 171).
edge(7, 106).
edge(150, 175).
edge(97, 133).
edge(62, 109).
edge(22, 24).
edge(114, 134).
edge(86, 95).
edge(40, 169).
edge(11, 167).
edge(3, 125).
edge(26, 154).
edge(163, 166).
edge(127, 147).
edge(153, 176).
edge(47, 53).
edge(0, 35).
edge(2, 78).
edge(22, 26).
edge(5, 158).
edge(81, 84).
edge(92, 123).
edge(92, 166).
edge(57, 126).
edge(41, 121).
edge(99, 129).
edge(32, 165).
edge(30, 105).
edge(144, 165).
edge(38, 144).
edge(52, 121).
edge(81, 164).
edge(55, 57).
edge(89, 119).
edge(3, 129).
edge(60, 151).
edge(148, 177).
edge(84, 177).
edge(19, 140).
edge(109, 149).
edge(123, 126).
edge(39, 160).
edge(85, 156).
edge(109, 142).
edge(133, 160).
edge(0, 90).
edge(28, 172).
edge(46, 86).
edge(39, 91).
edge(139, 175).
edge(18, 75).
edge(65, 75).
edge(24, 84).
edge(18, 38).
edge(106, 171).
edge(112, 171).
edge(129, 146).
edge(126, 171).
edge(46, 62).
edge(52, 166).
edge(141, 152).
edge(59, 76).
edge(17, 61).
edge(49, 116).
edge(51, 106).
edge(100, 129).
edge(0, 66).
edge(19, 168).
edge(153, 161).
edge(48, 112).
edge(85, 99).
edge(37, 136).
edge(42, 114).
edge(27, 178).
edge(44, 145).
edge(67, 149).
edge(22, 23).
edge(56, 103).
edge(84, 124).
edge(4, 159).
edge(42, 150).
edge(88, 150).
edge(62, 73).
edge(50, 113).
edge(55, 70).
edge(83, 129).
edge(28, 140).
edge(118, 165).
edge(26, 79).
edge(12, 114).
edge(96, 114).
edge(22, 51).
edge(73, 79).
edge(63, 146).
edge(99, 123).
edge(33, 104).
edge(34, 78).
edge(0, 78).
edge(107, 137).
edge(96, 98).
edge(32, 40).
edge(151, 172).
edge(99, 118).
edge(4, 50).
edge(56, 60).
edge(15, 155).
edge(60, 109).
edge(58, 165).
edge(19, 63).
edge(5, 166).
edge(30, 143).
edge(70, 163).
edge(81, 116).
edge(3, 98).
edge(28, 72).
edge(7, 144).
edge(72, 89).
edge(63, 170).
edge(18, 26).
edge(22, 119).
edge(46, 93).
edge(31, 105).
edge(127, 172).
edge(41, 87).
edge(2, 41).
edge(1, 152).
edge(141, 145).
edge(54, 55).
edge(26, 40).
edge(132, 151).
edge(114, 135).
edge(11, 83).
edge(91, 114).
edge(57, 82).
edge(118, 125).
edge(78, 141).
edge(43, 134).
edge(94, 135).
edge(133, 149).
edge(71, 92).
edge(84, 125).
edge(27, 93).
edge(124, 125).
edge(109, 162).
edge(146, 169).
edge(24, 27).
edge(28, 103).
edge(65, 129).
edge(165, 175).
edge(44, 165).
edge(56, 160).
edge(53, 83).
edge(136, 164).
edge(141, 175).
edge(77, 161).
edge(26, 122).
edge(11, 92).
edge(20, 96).
edge(3, 107).
edge(52, 62).
edge(89, 143).
edge(64, 158).
edge(96, 97).
edge(79, 90).
edge(38, 57).
edge(128, 154).
edge(85, 131).
edge(55, 73).
edge(5, 13).
edge(76, 164).
edge(121, 156).
edge(4, 116).
edge(16, 111).
edge(109, 169).
edge(0, 45).
edge(103, 155).
edge(8, 105).
edge(15, 132).
edge(20, 71).
edge(19, 112).
edge(62, 131).
edge(158, 165).
edge(92, 114).
edge(124, 152).
edge(26, 172).
edge(1, 40).
edge(13, 131).
edge(55, 84).
edge(48, 91).
edge(68, 85).
edge(54, 158).
edge(45, 148).
edge(8, 119).
edge(77, 142).
edge(122, 142).
edge(107, 114).
edge(114, 142).
edge(64, 143).
edge(6, 89).
edge(70, 98).
edge(1, 93).
edge(30, 89).
edge(68, 79).
edge(36, 147).
edge(36, 144).
edge(3, 60).
edge(13, 37).
edge(70, 112).
edge(19, 111).
edge(167, 168).
edge(25, 133).
edge(38, 65).
edge(47, 93).
edge(11, 148).
edge(6, 47).
edge(86, 148).
edge(102, 158).
edge(20, 146).
edge(16, 174).
edge(11, 120).
edge(138, 176).
edge(64, 94).
edge(47, 174).
edge(29, 167).
edge(18, 115).
edge(24, 156).
edge(35, 151).
edge(34, 53).
edge(121, 166).
edge(46, 125).
edge(122, 173).
edge(7, 141).
edge(76, 78).
edge(8, 60).
edge(84, 97).
edge(9, 112).
edge(75, 107).
edge(112, 117).
edge(132, 141).
edge(68, 102).
edge(81, 140).
edge(89, 103).
edge(121, 136).
edge(113, 168).
edge(80, 87).
edge(47, 153).
edge(46, 73).
edge(115, 173).
edge(109, 118).
edge(66, 74).
edge(41, 135).
edge(32, 113).
edge(61, 162).
edge(5, 156).
edge(105, 178).
edge(46, 103).
edge(104, 117).
edge(68, 126).
edge(26, 136).
edge(136, 145).
edge(21, 133).
edge(49, 119).
edge(95, 176).
edge(38, 111).
edge(71, 109).
edge(49, 159).
edge(3, 8).
edge(4, 166).
edge(29, 110).
edge(12, 108).
edge(166, 172).
edge(98, 177).
edge(1, 41).
edge(56, 127).
edge(79, 169).
edge(117, 135).
edge(44, 136).
edge(60, 65).
edge(110, 153).
edge(94, 143).
edge(26, 28).
edge(0, 91).
edge(21, 104).
edge(46, 131).
edge(109, 168).
edge(92, 161).
edge(73, 85).
edge(95, 144).
edge(68, 90).
edge(135, 164).
edge(75, 82).
edge(12, 111).
edge(21, 134).
edge(23, 127).
edge(67, 100).
edge(33, 129).
edge(101, 118).
edge(75, 80).
edge(102, 176).
edge(44, 175).
edge(103, 118).
edge(34, 95).
edge(62, 141).
edge(6, 106).
edge(94, 116).
edge(136, 148).
edge(24, 127).
edge(6, 85).
edge(9, 42).
edge(108, 124).
edge(2, 32).
edge(6, 68).
edge(25, 165).
edge(24, 145).
edge(37, 156).
edge(70, 142).
edge(100, 163).
edge(51, 128).
edge(73, 147).
edge(98, 102).
edge(53, 141).
edge(4, 109).
edge(69, 139).
edge(24, 162).
edge(23, 175).
edge(55, 163).
edge(13, 76).
edge(69, 116).
edge(90, 110).
edge(74, 140).
edge(38, 174).
edge(32, 36).
edge(43, 171).
edge(53, 143).
edge(60, 176).
edge(125, 142).
edge(62, 103).
edge(56, 120).
edge(9, 79).
edge(114, 159).
edge(15, 55).
edge(86, 144).
edge(0, 168).
edge(41, 158).
edge(91, 167).
edge(19, 86).
edge(31, 44).
edge(77, 176).
edge(17, 94).
edge(50, 94).
edge(21, 162).
edge(99, 109).
edge(45, 161).
edge(10, 11).
edge(33, 147).
edge(126, 172).
edge(126, 158).
edge(7, 145).
edge(163, 171).
edge(121, 131).
edge(31, 47).
edge(133, 177).
edge(53, 77).
edge(152, 168).
edge(46, 175).
edge(84, 86).
edge(94, 169).
edge(2, 27).
edge(19, 99).
edge(25, 172).
edge(60, 93).
edge(103, 149).
edge(56, 96).
edge(54, 127).
edge(77, 129).
edge(16, 88).
edge(63, 70).
edge(52, 118).
edge(131, 132).
edge(141, 176).
edge(62, 71).
edge(83, 97).
edge(117, 134).
edge(9, 41).
edge(53, 137).
edge(150, 161).
edge(53, 68).
edge(23, 116).
edge(63, 172).
edge(34, 170).
edge(75, 158).
edge(124, 144).
edge(107, 176).
edge(10, 25).
edge(82, 114).
edge(38, 154).
edge(31, 68).
edge(33, 89).
edge(23, 107).
edge(84, 115).
edge(11, 20).
edge(20, 34).
edge(78, 80).
edge(134, 174).
edge(0, 47).
edge(46, 119).
edge(11, 49).
edge(32, 100).
edge(135, 169).
edge(100, 132).
edge(61, 144).
edge(49, 175).
edge(42, 46).
edge(77, 177).
edge(63, 82).
edge(15, 173).
edge(46, 136).
edge(136, 177).
edge(135, 146).
edge(49, 72).
edge(120, 155).
edge(83, 143).
edge(40, 166).
edge(42, 144).
edge(19, 135).
edge(9, 108).
edge(17, 107).
edge(119, 156).
edge(17, 69).
edge(89, 104).
edge(65, 146).
edge(21, 167).
edge(9, 116).
edge(89, 115).
edge(14, 94).
edge(28, 89).
edge(93, 171).
edge(96, 145).
edge(58, 157).
edge(141, 161).
edge(6, 88).
edge(42, 101).
edge(133, 148).
edge(87, 100).
edge(6, 36).
edge(12, 13).
edge(1, 8).
edge(148, 152).
edge(36, 169).
edge(34, 110).
edge(116, 136).
edge(8, 139).
edge(1, 171).
edge(133, 173).
edge(8, 102).
edge(130, 159).
edge(7, 17).
edge(31, 110).
edge(104, 141).
edge(23, 112).
edge(52, 113).
edge(1, 24).
edge(77, 107).
edge(10, 169).
edge(62, 136).
edge(108, 147).
edge(113, 146).
edge(54, 80).
edge(46, 113).
edge(8, 42).
edge(99, 147).
edge(75, 164).
edge(35, 74).
edge(66, 78).
edge(27, 63).
edge(110, 146).
edge(64, 168).
edge(68, 110).
edge(130, 155).
edge(101, 121).
edge(31, 67).
edge(15, 176).
edge(50, 59).
edge(68, 137).
edge(60, 115).
edge(65, 87).
edge(77, 96).
edge(6, 146).
edge(139, 155).
edge(50, 92).
edge(88, 160).
edge(9, 29).
edge(0, 24).
edge(31, 72).
edge(94, 104).
edge(132, 139).
edge(58, 100).
edge(65, 131).
edge(75, 149).
edge(74, 169).
edge(19, 67).
edge(33, 99).
edge(8, 172).
edge(34, 82).
edge(68, 138).
edge(73, 90).
edge(35, 162).
edge(8, 82).
edge(127, 174).
edge(85, 91).
edge(28, 173).
edge(39, 62).
edge(39, 110).
edge(29, 96).
edge(118, 161).
edge(43, 64).
edge(33, 60).
edge(160, 163).
edge(41, 123).
edge(49, 73).
edge(69, 98).
edge(53, 121).
edge(6, 107).
edge(163, 168).
edge(12, 147).
edge(108, 121).
edge(106, 140).
edge(150, 173).
edge(115, 118).
edge(71, 116).
edge(79, 133).
edge(57, 125).
edge(99, 141).
edge(33, 58).
edge(14, 63).
edge(7, 127).
edge(6, 104).
edge(91, 117).
edge(77, 171).
edge(86, 107).
edge(143, 149).
edge(51, 62).
edge(92, 117).
edge(107, 156).
edge(20, 130).
edge(108, 143).
edge(82, 174).
edge(85, 109).
edge(42, 76).
edge(74, 111).
edge(39, 46).
edge(44, 114).
edge(25, 145).
edge(125, 157).
edge(147, 175).
edge(118, 149).
edge(64, 129).
edge(90, 177).
edge(80, 158).
edge(131, 156).
edge(20, 33).
edge(16, 19).
edge(136, 160).
edge(7, 23).
edge(50, 176).
edge(125, 141).
edge(1, 156).
edge(90, 140).
edge(38, 82).
edge(61, 128).
edge(13, 123).
edge(8, 128).
edge(35, 178).
edge(37, 83).
edge(53, 93).
edge(63, 141).
edge(36, 171).
edge(21, 155).
edge(40, 68).
edge(93, 173).
edge(95, 134).
edge(49, 59).
edge(64, 106).
edge(31, 175).
edge(72, 91).
edge(22, 153).
edge(48, 137).
edge(133, 150).
edge(31, 144).
edge(4, 41).
edge(63, 118).
edge(54, 173).
edge(30, 170).
edge(59, 157).
edge(48, 170).
edge(4, 139).
edge(131, 147).
edge(76, 135).
edge(8, 15).
edge(14, 157).
edge(61, 118).
edge(14, 27).
edge(28, 80).
edge(118, 160).
edge(57, 60).
edge(108, 109).
edge(90, 144).
edge(29, 56).
edge(155, 157).
edge(148, 178).
edge(69, 169).
edge(24, 147).
edge(38, 125).
edge(15, 136).
edge(96, 166).
edge(15, 145).
edge(42, 57).
edge(71, 98).
edge(79, 148).
edge(37, 100).
edge(48, 149).
edge(23, 53).
edge(94, 112).
edge(119, 160).
edge(33, 111).
edge(106, 158).
edge(125, 139).
edge(32, 157).
edge(10, 106).
edge(119, 150).
edge(16, 84).
edge(116, 132).
edge(22, 152).
edge(42, 61).
edge(51, 80).
edge(19, 147).
edge(23, 103).
edge(79, 145).
edge(70, 165).
edge(84, 149).
edge(95, 148).
edge(149, 173).
edge(70, 92).
edge(24, 112).
edge(141, 178).
edge(27, 131).
edge(111, 165).
edge(89, 145).
edge(110, 159).
edge(57, 132).
edge(49, 170).
edge(92, 104).
edge(128, 178).
edge(1, 82).
edge(153, 162).
edge(25, 98).
edge(37, 53).
edge(34, 100).
edge(30, 98).
edge(95, 169).
edge(12, 154).
edge(4, 177).
edge(164, 174).
edge(95, 106).
edge(2, 83).
edge(38, 118).
edge(11, 97).
edge(44, 71).
edge(101, 119).
edge(63, 135).
edge(48, 105).
edge(33, 75).
edge(123, 150).
edge(68, 99).
edge(26, 174).
edge(4, 34).
edge(69, 107).
edge(52, 86).
edge(66, 88).
edge(69, 73).
edge(29, 58).
edge(2, 124).
edge(112, 125).
edge(5, 23).
edge(66, 178).
edge(128, 167).
edge(119, 174).
edge(80, 162).
edge(48, 65).
edge(99, 100).
edge(59, 123).
edge(52, 170).
edge(81, 125).
edge(111, 141).
edge(67, 114).
edge(43, 78).
edge(90, 175).
edge(15, 106).
edge(65, 106).
edge(90, 178).
edge(55, 169).
edge(66, 129).
edge(26, 93).
edge(12, 83).
edge(58, 132).
edge(66, 158).
edge(12, 72).
edge(111, 150).
edge(108, 132).
edge(8, 168).
edge(164, 172).
edge(27, 80).
edge(28, 162).
edge(11, 73).
edge(88, 143).
edge(88, 164).
edge(39, 87).
edge(4, 148).
edge(1, 165).
edge(106, 161).
edge(36, 153).
edge(81, 172).
edge(104, 130).
edge(5, 118).
edge(119, 138).
edge(88, 105).
edge(0, 76).
edge(120, 129).
edge(39, 129).
edge(38, 58).
edge(45, 170).
edge(78, 104).
edge(23, 34).
edge(67, 79).
edge(31, 82).
edge(17, 112).
edge(53, 111).
edge(49, 118).
edge(28, 91).
edge(3, 47).
edge(52, 172).
edge(48, 138).
edge(14, 31).
edge(153, 163).
edge(116, 175).
edge(114, 150).
edge(51, 100).
edge(6, 66).
edge(91, 148).
edge(63, 147).
edge(51, 105).
edge(66, 142).
edge(72, 118).
edge(73, 169).
edge(0, 31).
edge(119, 136).
edge(79, 97).
edge(86, 155).
edge(35, 36).
edge(9, 72).
edge(42, 142).
edge(65, 170).
edge(13, 53).
edge(85, 146).
edge(95, 132).
edge(36, 97).
edge(22, 57).
edge(77, 141).
edge(112, 140).
edge(157, 178).
edge(93, 114).
edge(47, 141).
edge(54, 62).
edge(96, 117).
edge(35, 161).
edge(20, 90).
edge(72, 168).
edge(17, 66).
edge(25, 106).
edge(53, 98).
edge(83, 90).
edge(23, 163).
edge(5, 52).
edge(22, 98).
edge(111, 158).
edge(66, 67).
edge(38, 121).
edge(45, 82).
edge(11, 123).
edge(52, 111).
edge(19, 121).
edge(2, 126).
edge(68, 116).
edge(104, 164).
edge(105, 112).
edge(100, 110).
edge(111, 156).
edge(26, 175).
edge(145, 173).
edge(44, 61).
edge(90, 174).
edge(93, 142).
edge(58, 127).
edge(97, 108).
edge(91, 113).
edge(79, 171).
edge(53, 62).
edge(79, 158).
edge(22, 156).
edge(44, 96).
edge(40, 152).
edge(86, 130).
edge(60, 94).
edge(30, 84).
edge(3, 148).
edge(10, 46).
edge(38, 146).
edge(14, 30).
edge(114, 120).
edge(53, 90).
edge(31, 138).
edge(88, 92).
edge(113, 149).
edge(148, 172).
edge(30, 145).
edge(24, 39).
edge(90, 161).
edge(23, 173).
edge(30, 152).
edge(48, 164).
edge(70, 111).
edge(56, 118).
edge(2, 138).
edge(116, 158).
edge(40, 158).
edge(124, 127).
edge(107, 119).
edge(7, 159).
edge(75, 155).
edge(30, 104).
edge(128, 142).
edge(65, 155).
edge(48, 155).
edge(73, 145).
edge(73, 116).
edge(12, 104).
edge(90, 155).
edge(26, 87).
edge(45, 155).
edge(141, 167).
edge(1, 139).
edge(18, 48).
edge(11, 84).
edge(18, 90).
edge(3, 93).
edge(101, 174).
edge(1, 74).
edge(7, 103).
edge(19, 24).
edge(112, 131).
edge(2, 158).
edge(10, 41).
edge(45, 46).
edge(8, 108).
edge(114, 162).
edge(42, 115).
edge(55, 149).
edge(90, 111).
edge(37, 117).
edge(142, 150).
edge(42, 176).
edge(121, 172).
edge(40, 69).
edge(79, 137).
edge(61, 165).
edge(106, 114).
edge(19, 41).
edge(34, 87).
edge(39, 43).
edge(79, 100).
edge(17, 95).
edge(29, 52).
edge(65, 152).
edge(104, 124).
edge(132, 175).
edge(32, 53).
edge(76, 173).
edge(49, 107).
edge(113, 157).
edge(11, 72).
edge(130, 152).
edge(34, 127).
edge(34, 174).
edge(24, 42).
edge(71, 73).
edge(69, 165).
edge(153, 165).
edge(30, 71).
edge(101, 148).
edge(128, 147).
edge(83, 146).
edge(39, 97).
edge(0, 177).
edge(134, 156).
edge(6, 97).
edge(18, 112).
edge(47, 76).
edge(53, 161).
edge(9, 109).
edge(123, 159).
edge(36, 134).
edge(20, 112).
edge(105, 170).
edge(27, 39).
edge(125, 145).
edge(132, 168).
edge(106, 160).
edge(67, 84).
edge(43, 68).
edge(99, 124).
edge(29, 137).
edge(117, 151).
edge(59, 130).
edge(88, 101).
edge(24, 58).
edge(32, 163).
edge(7, 21).
edge(119, 134).
edge(77, 135).
edge(74, 173).
edge(36, 95).
edge(109, 112).
edge(115, 175).
edge(22, 148).
edge(22, 109).
edge(129, 140).
edge(81, 127).
edge(96, 154).
edge(26, 48).
edge(117, 167).
edge(8, 122).
edge(81, 119).
edge(94, 103).
edge(68, 133).
edge(18, 65).
edge(76, 165).
edge(62, 151).
edge(100, 128).
edge(79, 82).
edge(24, 81).
edge(75, 173).
edge(57, 121).
edge(119, 168).
edge(9, 119).
edge(76, 96).
edge(81, 124).
edge(27, 71).
edge(44, 125).
edge(54, 95).
edge(1, 176).
edge(106, 177).
edge(84, 162).
edge(20, 83).
edge(10, 172).
edge(66, 101).
edge(30, 34).
edge(64, 102).
edge(73, 122).
edge(28, 81).
edge(31, 171).
edge(15, 168).
edge(80, 85).
edge(81, 148).
edge(7, 28).
edge(49, 161).
edge(104, 165).
edge(2, 165).
edge(104, 120).
edge(26, 141).
edge(90, 100).
edge(12, 92).
edge(95, 121).
edge(4, 123).
edge(15, 67).
edge(49, 149).
edge(14, 128).
edge(61, 167).
edge(32, 43).
edge(79, 173).
edge(55, 156).
edge(78, 103).
edge(62, 101).
edge(73, 78).
edge(113, 128).
edge(40, 154).
edge(68, 70).
edge(43, 111).
edge(138, 141).
edge(46, 107).
edge(82, 125).
edge(79, 117).
edge(159, 166).
edge(46, 70).
edge(113, 148).
edge(91, 147).
edge(12, 76).
edge(90, 137).
edge(174, 177).
edge(25, 149).
edge(66, 113).
edge(38, 170).
edge(67, 162).
edge(14, 177).
edge(64, 161).
edge(101, 161).
edge(17, 19).
edge(18, 110).
edge(125, 178).
edge(14, 159).
edge(48, 161).
edge(54, 58).
edge(44, 51).
edge(4, 62).
edge(23, 139).
edge(63, 142).
edge(92, 100).
edge(26, 156).
edge(13, 54).
edge(0, 6).
edge(5, 50).
edge(110, 169).
edge(10, 22).
edge(5, 64).
edge(16, 70).
edge(27, 50).
edge(2, 150).
edge(7, 140).
edge(1, 166).
edge(22, 107).
edge(63, 131).
edge(167, 170).
edge(31, 57).
edge(84, 173).
edge(34, 76).
edge(81, 107).
edge(33, 132).
edge(63, 96).
edge(1, 149).
edge(2, 122).
edge(7, 19).
edge(111, 136).
edge(44, 135).
edge(83, 128).
edge(83, 144).
edge(106, 115).
edge(15, 134).
edge(115, 144).
edge(14, 102).
edge(51, 127).
edge(65, 79).
edge(94, 110).
edge(22, 174).
edge(24, 62).
edge(37, 176).
edge(2, 94).
edge(60, 83).
edge(77, 88).
edge(2, 20).
edge(81, 136).
edge(104, 169).
edge(35, 159).
edge(43, 77).
edge(75, 83).
edge(19, 125).
edge(72, 109).
edge(147, 165).
edge(84, 114).
edge(97, 128).
edge(72, 83).
edge(40, 41).
edge(27, 69).
edge(45, 141).
edge(2, 176).
edge(35, 39).
edge(92, 158).
edge(2, 74).
edge(106, 145).
edge(52, 96).
edge(122, 148).
edge(6, 87).
edge(0, 11).
edge(103, 159).
edge(117, 142).
edge(9, 16).
edge(37, 126).
edge(37, 169).
edge(108, 128).
edge(49, 134).
edge(11, 155).
edge(22, 95).
edge(120, 151).
edge(57, 99).
edge(70, 113).
edge(37, 120).
edge(113, 124).
edge(51, 149).
edge(18, 33).
edge(62, 121).
edge(42, 147).
edge(19, 31).
edge(108, 130).
edge(3, 64).
edge(37, 78).
edge(33, 77).
edge(111, 120).
edge(32, 146).
edge(39, 172).
edge(101, 164).
edge(71, 145).
edge(88, 159).
edge(8, 101).
edge(4, 25).
edge(33, 76).
edge(105, 122).
edge(54, 107).
edge(66, 167).
edge(90, 173).
edge(42, 64).
edge(78, 147).
edge(38, 110).
edge(29, 97).
edge(34, 147).
edge(72, 177).
edge(90, 150).
edge(65, 115).
edge(88, 119).
edge(69, 135).
edge(8, 24).
edge(52, 61).
edge(12, 90).
edge(71, 113).
edge(18, 116).
edge(51, 150).
edge(7, 59).
edge(26, 101).
edge(131, 155).
edge(3, 132).
edge(120, 159).
edge(75, 139).
edge(46, 79).
edge(1, 70).
edge(35, 60).
edge(62, 89).
edge(22, 69).
edge(93, 155).
edge(31, 157).
edge(124, 158).
edge(63, 177).
edge(11, 163).
edge(48, 139).
edge(85, 88).
edge(21, 132).
edge(62, 77).
edge(25, 82).
edge(53, 69).
edge(42, 111).
edge(102, 135).
edge(28, 36).
edge(86, 172).
edge(149, 157).
edge(83, 86).
edge(103, 133).
edge(34, 47).
edge(61, 124).
edge(41, 153).
edge(154, 168).
edge(28, 39).
edge(122, 176).
edge(78, 171).
edge(25, 26).
edge(13, 102).
edge(58, 146).
edge(61, 80).
edge(37, 130).
edge(161, 175).
edge(22, 72).
edge(95, 124).
edge(148, 170).
edge(56, 110).
edge(8, 67).
edge(30, 177).
edge(49, 93).
edge(130, 167).
edge(11, 70).
edge(110, 135).
edge(31, 55).
edge(47, 165).
edge(72, 128).
edge(90, 146).
edge(70, 87).
edge(83, 163).
edge(47, 177).
edge(131, 140).
edge(99, 146).
edge(78, 91).
edge(125, 159).
edge(86, 109).
edge(50, 99).
edge(115, 154).
edge(4, 167).
edge(104, 113).
edge(0, 94).
edge(40, 97).
edge(109, 150).
edge(119, 145).
edge(49, 57).
edge(61, 152).
edge(140, 151).
edge(38, 70).
edge(2, 52).
edge(101, 153).
edge(119, 149).
edge(17, 131).
edge(113, 173).
edge(44, 115).
edge(43, 143).
edge(38, 93).
edge(38, 103).
edge(158, 175).
edge(54, 157).
edge(15, 43).
edge(121, 163).
edge(30, 53).
edge(27, 110).
edge(64, 154).
edge(52, 116).
edge(67, 105).
edge(34, 165).
edge(93, 140).
edge(78, 136).
edge(30, 32).
edge(97, 113).
edge(49, 124).
edge(84, 127).
edge(138, 139).
edge(54, 123).
edge(114, 141).
edge(52, 112).
edge(91, 121).
edge(64, 171).
edge(7, 168).
edge(24, 153).
edge(6, 116).
edge(16, 135).
edge(46, 144).
edge(33, 112).
edge(9, 178).
edge(31, 103).
edge(55, 147).
edge(34, 112).
edge(15, 80).
edge(57, 68).
edge(64, 110).
edge(92, 160).
edge(106, 109).
edge(15, 45).
edge(149, 159).
edge(72, 90).
edge(39, 106).
edge(26, 63).
edge(42, 164).
edge(44, 84).
edge(125, 128).
edge(155, 166).
edge(51, 154).
edge(132, 170).
edge(42, 157).
edge(37, 146).
edge(135, 147).
edge(70, 76).
edge(7, 30).
edge(80, 119).
edge(23, 43).
edge(11, 30).
edge(45, 110).
edge(148, 174).
edge(8, 114).
edge(16, 79).
edge(5, 139).
edge(63, 85).
edge(75, 116).
edge(11, 15).
edge(29, 68).
edge(121, 169).
edge(35, 90).
edge(115, 162).
edge(44, 89).
edge(16, 21).
edge(9, 84).
edge(9, 127).
edge(135, 149).
edge(84, 141).
edge(50, 129).
edge(136, 153).
edge(11, 98).
edge(98, 133).
edge(58, 121).
edge(55, 105).
edge(58, 104).
edge(98, 122).
edge(10, 71).
edge(43, 159).
edge(3, 86).
edge(68, 75).
edge(60, 61).
edge(47, 99).
edge(71, 178).
edge(35, 116).
edge(13, 109).
edge(172, 177).
edge(22, 70).
edge(141, 177).
edge(38, 83).
edge(9, 39).
edge(76, 146).
edge(130, 174).
edge(5, 93).
edge(11, 117).
edge(10, 144).
edge(139, 151).
edge(68, 125).
edge(60, 159).
edge(67, 161).
edge(92, 130).
edge(122, 135).
edge(59, 137).
edge(86, 129).
edge(109, 125).
edge(59, 131).
edge(66, 76).
edge(19, 88).
edge(92, 105).
edge(52, 81).
edge(29, 80).
edge(10, 72).
edge(59, 177).
edge(54, 175).
edge(23, 178).
edge(59, 163).
edge(15, 99).
edge(47, 127).
edge(74, 123).
edge(60, 82).
edge(44, 91).
edge(1, 158).
edge(146, 163).
edge(66, 131).
edge(30, 157).
edge(0, 141).
edge(11, 58).
edge(25, 148).
edge(24, 104).
edge(76, 151).
edge(148, 157).
edge(17, 63).
edge(116, 143).
edge(163, 175).
edge(18, 85).
edge(15, 97).
edge(2, 159).
edge(27, 81).
edge(86, 122).
edge(72, 162).
edge(112, 135).
edge(1, 62).
edge(126, 128).
edge(20, 38).
edge(57, 96).
edge(58, 111).
edge(170, 177).
edge(47, 149).
edge(10, 91).
edge(16, 130).
edge(19, 123).
edge(111, 133).
edge(152, 165).
edge(34, 35).
edge(54, 176).
edge(13, 175).
edge(84, 153).
edge(22, 29).
edge(9, 93).
edge(168, 176).
edge(19, 122).
edge(14, 15).
edge(135, 160).
edge(31, 52).
edge(88, 176).
edge(151, 166).
edge(3, 105).
edge(41, 46).
edge(119, 175).
edge(54, 89).
edge(6, 152).
edge(95, 161).
edge(8, 12).
edge(29, 81).
edge(51, 85).
edge(37, 44).
edge(95, 174).
edge(71, 147).
edge(21, 46).
edge(11, 38).
edge(93, 118).
edge(47, 172).
edge(46, 139).
edge(45, 85).
edge(26, 80).
edge(73, 170).
edge(76, 131).
edge(148, 169).
edge(85, 139).
edge(84, 99).
edge(56, 66).
edge(20, 132).
edge(51, 139).
edge(65, 86).
edge(43, 96).
edge(5, 152).
edge(31, 109).
edge(120, 123).
edge(90, 134).
edge(69, 148).
edge(85, 129).
edge(70, 175).
edge(158, 171).
edge(51, 140).
edge(94, 149).
edge(68, 131).
edge(17, 92).
edge(59, 174).
edge(27, 166).
edge(40, 113).
edge(72, 173).
edge(21, 131).
edge(63, 74).
edge(36, 177).
edge(106, 155).
edge(70, 119).
edge(150, 177).
edge(30, 79).
edge(127, 163).
edge(25, 142).
edge(36, 158).
edge(21, 129).
edge(25, 131).
edge(158, 162).
edge(137, 167).
edge(29, 154).
edge(43, 125).
edge(24, 151).
edge(64, 99).
edge(24, 56).
edge(62, 100).
edge(15, 108).
edge(54, 86).
edge(54, 81).
edge(30, 38).
edge(46, 95).
edge(13, 167).
edge(114, 143).
edge(44, 146).
edge(143, 177).
edge(59, 164).
edge(37, 165).
edge(17, 100).
edge(104, 127).
edge(63, 89).
edge(95, 120).
edge(75, 127).
edge(17, 62).
edge(137, 163).
edge(57, 137).
edge(80, 109).
edge(95, 156).
edge(4, 65).
edge(56, 111).
edge(28, 90).
edge(54, 165).
edge(29, 145).
edge(26, 111).
edge(71, 134).
edge(11, 68).
edge(30, 176).
edge(21, 85).
edge(32, 73).
edge(52, 129).
edge(10, 29).
edge(90, 153).
edge(0, 12).
edge(153, 156).
edge(12, 156).
edge(20, 88).
edge(73, 81).
edge(41, 159).
edge(100, 164).
edge(35, 111).
edge(54, 149).
edge(14, 25).
edge(78, 102).
edge(4, 36).
edge(79, 140).
edge(129, 160).
edge(20, 122).
edge(48, 122).
edge(87, 177).
edge(47, 114).
edge(127, 164).
edge(55, 138).
edge(101, 178).
edge(73, 88).
edge(115, 138).
edge(45, 76).
edge(0, 147).
edge(64, 144).
edge(54, 172).
edge(79, 164).
edge(62, 170).
edge(61, 91).
edge(16, 165).
edge(26, 103).
edge(124, 141).
edge(100, 105).
edge(96, 143).
edge(61, 104).
edge(58, 109).
edge(92, 111).
edge(36, 87).
edge(52, 76).
edge(14, 96).
edge(47, 87).
edge(105, 110).
edge(52, 142).
edge(145, 157).
edge(91, 135).
edge(38, 116).
edge(77, 138).
edge(65, 70).
edge(105, 111).
edge(141, 142).
edge(48, 145).
edge(12, 79).
edge(7, 74).
edge(15, 104).
edge(145, 158).
edge(151, 159).
edge(87, 133).
edge(44, 99).
edge(10, 57).
edge(102, 145).
edge(106, 129).
edge(123, 178).
edge(9, 143).
edge(79, 135).
edge(102, 163).
edge(91, 178).
edge(22, 166).
edge(72, 115).
edge(32, 133).
edge(15, 146).
edge(3, 160).
edge(36, 73).
edge(98, 164).
edge(61, 163).
edge(83, 113).
edge(74, 145).
edge(74, 92).
edge(88, 175).
edge(70, 127).
edge(71, 148).
edge(19, 164).
edge(22, 108).
edge(30, 151).
edge(131, 141).
edge(51, 67).
edge(9, 113).
edge(5, 53).
edge(2, 18).
edge(93, 151).
edge(2, 172).
edge(151, 164).
edge(10, 74).
edge(51, 55).
edge(11, 149).
edge(150, 166).
edge(85, 165).
edge(39, 128).
edge(116, 135).
edge(21, 159).
edge(44, 157).
edge(0, 104).
edge(29, 114).
edge(3, 151).
edge(50, 133).
edge(43, 122).
edge(52, 108).
edge(102, 166).
edge(4, 28).
edge(88, 113).
edge(16, 48).
edge(14, 170).
edge(14, 65).
edge(24, 131).
edge(93, 117).
edge(43, 83).
edge(20, 175).
edge(94, 161).
edge(30, 88).
edge(11, 157).
edge(152, 154).
edge(59, 148).
edge(45, 75).
edge(107, 152).
edge(22, 132).
edge(24, 171).
edge(117, 153).
edge(65, 178).
edge(120, 121).
edge(5, 71).
edge(34, 130).
edge(5, 38).
edge(120, 132).
edge(81, 109).
edge(110, 141).
edge(86, 99).
edge(121, 143).
edge(106, 149).
edge(70, 116).
edge(50, 157).
edge(54, 94).
edge(43, 169).
edge(28, 119).
edge(32, 78).
edge(44, 162).
edge(21, 128).
edge(74, 159).
edge(11, 150).
edge(137, 154).
edge(97, 172).
edge(40, 160).
edge(2, 31).
edge(87, 156).
edge(45, 95).
edge(82, 121).
edge(75, 153).
edge(109, 176).
edge(106, 139).
edge(48, 69).
edge(53, 57).
edge(7, 138).
edge(89, 98).
edge(43, 63).
edge(16, 83).
edge(149, 164).
edge(88, 151).
edge(73, 132).
edge(74, 157).
edge(39, 64).
edge(160, 161).
edge(44, 107).
edge(58, 65).
edge(28, 44).
edge(31, 32).
edge(34, 42).
edge(89, 176).
edge(121, 164).
edge(79, 168).
edge(19, 146).
edge(106, 165).
edge(74, 93).
edge(60, 113).
edge(50, 88).
edge(44, 53).
edge(44, 66).
edge(84, 104).
edge(20, 121).
edge(56, 122).
edge(36, 82).
edge(156, 166).
edge(141, 164).
edge(82, 97).
edge(80, 147).
edge(77, 145).
edge(42, 159).
edge(36, 51).
edge(18, 106).
edge(73, 135).
edge(24, 89).
edge(9, 128).
edge(44, 150).
edge(133, 178).
edge(26, 52).
edge(15, 71).
edge(154, 163).
edge(11, 31).
edge(77, 122).
edge(95, 112).
edge(38, 59).
edge(29, 161).
edge(102, 139).
edge(89, 137).
edge(150, 171).
edge(18, 146).
edge(60, 163).
edge(48, 114).
edge(162, 166).
edge(49, 166).
edge(1, 114).
edge(99, 110).
edge(7, 121).
edge(8, 23).
edge(75, 97).
edge(36, 162).
edge(99, 164).
edge(169, 171).
edge(165, 173).
edge(72, 79).
edge(73, 97).
edge(66, 136).
edge(39, 45).
edge(35, 147).
edge(24, 67).
edge(61, 69).
edge(175, 178).
edge(90, 97).
edge(95, 116).
edge(84, 92).
edge(10, 49).
edge(132, 134).
edge(100, 176).
edge(11, 26).
edge(8, 147).
edge(42, 132).
edge(88, 169).
edge(93, 145).
edge(19, 106).
edge(19, 116).
edge(3, 72).
edge(119, 135).
edge(16, 173).
edge(7, 171).
edge(87, 173).
edge(66, 134).
edge(27, 103).
edge(97, 163).
edge(43, 51).
edge(78, 174).
edge(18, 151).
edge(1, 87).
edge(121, 165).
edge(95, 135).
edge(76, 150).
edge(12, 28).
edge(52, 150).
edge(30, 158).
edge(97, 138).
edge(51, 96).
edge(16, 167).
edge(32, 64).
edge(61, 108).
edge(84, 93).
edge(35, 98).
edge(3, 33).
edge(46, 128).
edge(128, 156).
edge(86, 147).
edge(27, 163).
edge(31, 169).
edge(13, 161).
edge(17, 128).
edge(132, 161).
edge(20, 40).
edge(1, 30).
edge(62, 99).
edge(69, 178).
edge(149, 167).
edge(37, 40).
edge(4, 95).
edge(57, 130).
edge(38, 133).
edge(7, 134).
edge(126, 152).
edge(57, 100).
edge(64, 133).
edge(132, 146).
edge(3, 85).
edge(38, 124).
edge(59, 85).
edge(86, 123).
edge(6, 80).
edge(142, 151).
edge(14, 151).
edge(60, 172).
edge(54, 151).
edge(138, 143).
edge(79, 156).
edge(112, 157).
edge(38, 114).
edge(85, 126).
edge(78, 126).
edge(43, 95).
edge(77, 92).
edge(19, 21).
edge(71, 84).
edge(121, 127).
edge(69, 162).
edge(61, 136).
edge(42, 68).
edge(76, 123).
edge(149, 176).
edge(13, 82).
edge(46, 170).
edge(38, 74).
edge(42, 107).
edge(108, 131).
edge(66, 160).
edge(67, 159).
edge(27, 60).
edge(15, 54).
edge(19, 177).
edge(76, 174).
edge(56, 159).
edge(106, 113).
edge(127, 157).
edge(39, 161).
edge(72, 108).
edge(79, 134).
edge(47, 159).
edge(125, 134).
edge(105, 115).
edge(118, 169).
edge(77, 136).
edge(25, 132).
edge(52, 136).
edge(83, 117).
edge(105, 108).
edge(32, 174).
edge(81, 177).
edge(38, 129).
edge(45, 164).
edge(30, 94).
edge(65, 76).
edge(32, 55).
edge(173, 174).
edge(109, 120).
edge(95, 158).
edge(118, 174).
edge(114, 124).
edge(58, 126).
edge(78, 166).
edge(1, 26).
edge(95, 151).
edge(5, 74).
edge(122, 169).
edge(79, 128).
edge(6, 30).
edge(76, 87).
edge(1, 75).
edge(75, 77).
edge(124, 156).
edge(18, 132).
edge(65, 68).
edge(0, 87).
edge(6, 91).
edge(46, 121).
edge(27, 102).
edge(55, 110).
edge(69, 87).
edge(91, 166).
edge(0, 99).
edge(18, 20).
edge(9, 49).
edge(39, 95).
edge(130, 156).
edge(140, 158).
edge(163, 165).
edge(25, 56).
edge(103, 105).
edge(55, 112).
edge(65, 167).
edge(26, 67).
edge(38, 80).
edge(53, 133).
edge(17, 74).
edge(42, 83).
edge(36, 41).
edge(33, 37).
edge(94, 126).
edge(33, 45).
edge(56, 165).
edge(31, 37).
edge(23, 33).
edge(12, 169).
edge(29, 93).
edge(73, 95).
edge(93, 156).
edge(143, 147).
edge(36, 146).
edge(18, 50).
edge(19, 20).
edge(40, 167).
edge(115, 135).
edge(50, 60).
edge(3, 44).
edge(58, 125).
edge(123, 177).
edge(14, 32).
edge(14, 76).
edge(124, 126).
edge(64, 87).
edge(60, 80).
edge(19, 22).
edge(56, 71).
edge(89, 124).
edge(58, 131).
edge(33, 83).
edge(93, 136).
edge(106, 142).
edge(62, 159).
edge(4, 119).
edge(41, 69).
edge(98, 149).
edge(0, 71).
edge(147, 178).
edge(41, 129).
edge(34, 103).
edge(8, 46).
edge(99, 130).
edge(147, 173).
edge(33, 161).
edge(59, 66).
edge(131, 139).
edge(53, 140).
edge(126, 145).
edge(42, 124).
edge(159, 172).
edge(82, 167).
edge(11, 131).
edge(26, 177).
edge(115, 151).
edge(118, 144).
edge(86, 173).
edge(42, 127).
edge(10, 142).
edge(156, 161).
edge(76, 128).
edge(64, 72).
edge(41, 144).
edge(140, 172).
edge(15, 66).
edge(36, 141).
edge(41, 139).
edge(64, 65).
edge(104, 123).
edge(33, 166).
edge(24, 75).
edge(46, 80).
edge(35, 145).
edge(50, 77).
edge(22, 159).
edge(10, 83).
edge(96, 124).
edge(10, 138).
edge(109, 126).
edge(79, 176).
edge(154, 176).
edge(16, 166).
edge(63, 145).
edge(116, 128).
edge(112, 130).
edge(33, 140).
edge(19, 55).
edge(5, 16).
edge(98, 101).
edge(83, 165).
edge(23, 57).
edge(52, 153).
edge(72, 171).
edge(73, 138).
edge(65, 171).
edge(81, 120).
edge(29, 62).
edge(49, 103).
edge(6, 162).
edge(18, 42).
edge(35, 113).
edge(75, 176).
edge(18, 131).
edge(40, 45).
edge(11, 45).
edge(68, 146).
edge(25, 156).
edge(121, 122).
edge(36, 77).
edge(9, 133).
edge(17, 97).
edge(8, 112).
edge(2, 42).
edge(123, 161).
edge(137, 161).
edge(7, 52).
edge(71, 143).
edge(113, 118).
edge(13, 129).
edge(2, 76).
edge(18, 121).
edge(8, 18).
edge(42, 65).
edge(20, 168).
edge(70, 72).
edge(125, 174).
edge(58, 115).
edge(83, 102).
edge(17, 26).
edge(56, 116).
edge(52, 104).
edge(98, 107).
edge(50, 159).
edge(84, 109).
edge(51, 178).
edge(34, 60).
edge(27, 138).
edge(88, 161).
edge(62, 176).
edge(55, 64).
edge(10, 12).
edge(40, 43).
edge(4, 79).
edge(89, 128).
edge(76, 141).
edge(55, 146).
edge(36, 155).
edge(8, 87).
edge(51, 129).
edge(94, 139).
edge(27, 28).
edge(31, 127).
edge(50, 173).
edge(11, 151).
edge(105, 106).
edge(11, 99).
edge(104, 153).
edge(58, 169).
edge(1, 126).
edge(41, 111).
edge(30, 72).
edge(44, 152).
edge(0, 92).
edge(108, 135).
edge(35, 125).
edge(30, 129).
edge(11, 153).
edge(113, 170).
edge(16, 127).
edge(10, 139).
edge(70, 107).
edge(11, 42).
edge(58, 81).
edge(7, 163).
edge(23, 24).
edge(83, 141).
edge(43, 73).
edge(73, 176).
edge(22, 55).
edge(55, 62).
edge(0, 59).
edge(81, 160).
edge(3, 177).
edge(3, 155).
edge(0, 73).
edge(146, 166).
edge(67, 130).
edge(50, 147).
edge(82, 93).
edge(95, 118).
edge(16, 49).
edge(26, 115).
edge(40, 42).
edge(49, 165).
edge(127, 150).
edge(127, 178).
edge(2, 34).
edge(57, 70).
edge(21, 92).
edge(5, 89).
edge(2, 36).
edge(26, 100).
edge(38, 150).
edge(31, 79).
edge(137, 142).
edge(35, 163).
edge(142, 145).
edge(17, 90).
edge(6, 98).
edge(14, 140).
edge(14, 56).
edge(95, 114).
edge(49, 154).
edge(26, 30).
edge(37, 157).
edge(46, 72).
edge(31, 92).
edge(61, 160).
edge(136, 151).
edge(93, 102).
edge(81, 118).
edge(0, 62).
edge(29, 105).
edge(37, 39).
edge(155, 173).
edge(79, 111).
edge(49, 98).
edge(90, 120).
edge(54, 110).
edge(21, 94).
edge(102, 172).
edge(96, 125).
edge(63, 102).
edge(28, 47).
edge(13, 163).
edge(122, 131).
edge(77, 170).
edge(71, 125).
edge(117, 154).
edge(56, 135).
edge(140, 176).
edge(56, 167).
edge(135, 157).
edge(4, 153).
edge(162, 171).
edge(92, 169).
edge(19, 52).
edge(100, 157).
edge(55, 63).
edge(51, 115).
edge(116, 148).
edge(17, 36).
edge(117, 172).
edge(25, 129).
edge(62, 74).
edge(19, 84).
edge(139, 174).
edge(103, 119).
edge(45, 129).
edge(34, 160).
edge(2, 25).
edge(34, 70).
edge(59, 96).
edge(98, 139).
edge(101, 115).
edge(112, 141).
edge(25, 66).
edge(23, 101).
edge(123, 153).
edge(7, 11).
edge(61, 114).
edge(61, 174).
edge(36, 166).
edge(16, 34).
edge(3, 131).
edge(7, 154).
edge(92, 171).
edge(80, 160).
edge(115, 149).
edge(12, 22).
edge(32, 84).
edge(41, 131).
edge(48, 168).
edge(25, 177).
edge(162, 164).
edge(7, 45).
edge(141, 144).
edge(33, 103).
edge(62, 160).
edge(23, 118).
edge(70, 149).
edge(41, 95).
edge(143, 157).
edge(35, 152).
edge(92, 118).
edge(3, 116).
edge(51, 73).
edge(77, 164).
edge(58, 154).
edge(123, 135).
edge(4, 40).
edge(93, 116).
edge(13, 56).
edge(14, 119).
edge(125, 126).
edge(124, 163).
edge(102, 106).
edge(11, 166).
edge(15, 24).
edge(49, 177).
edge(34, 69).
edge(82, 157).
edge(33, 138).
edge(23, 92).
edge(30, 55).
edge(31, 42).
edge(44, 127).
edge(58, 114).
edge(67, 121).
edge(123, 163).
edge(103, 165).
edge(107, 112).
edge(16, 163).
edge(5, 54).
edge(86, 171).
edge(78, 96).
edge(31, 69).
edge(4, 56).
edge(14, 162).
edge(36, 54).
edge(20, 41).
edge(112, 115).
edge(97, 152).
edge(80, 102).
edge(81, 141).
edge(5, 137).
edge(84, 116).
edge(145, 152).
edge(96, 110).
edge(17, 176).
edge(156, 170).
edge(37, 131).
edge(102, 151).
edge(46, 77).
edge(111, 122).
edge(8, 110).
edge(126, 163).
edge(38, 91).
edge(77, 155).
edge(3, 158).
edge(45, 93).
edge(53, 88).
edge(14, 61).
edge(1, 131).
edge(6, 142).
edge(85, 172).
edge(32, 77).
edge(3, 159).
edge(58, 171).
edge(0, 158).
edge(42, 49).
edge(89, 139).
edge(28, 55).
edge(21, 36).
edge(100, 138).
edge(106, 128).
edge(71, 96).
edge(80, 156).
edge(42, 70).
edge(132, 147).
edge(5, 178).
edge(69, 114).
edge(47, 94).
edge(41, 62).
edge(75, 148).
edge(91, 102).
edge(100, 147).
edge(92, 165).
edge(45, 56).
edge(169, 177).
edge(32, 124).
edge(2, 77).
edge(134, 162).
edge(48, 113).
edge(40, 106).
edge(56, 153).
edge(85, 153).
edge(53, 115).
edge(25, 81).
edge(50, 165).
edge(52, 68).
edge(101, 103).
edge(24, 123).
edge(66, 128).
edge(19, 160).
edge(57, 108).
edge(120, 138).
edge(9, 24).
edge(80, 116).
edge(38, 66).
edge(1, 164).
edge(69, 120).
edge(1, 153).
edge(100, 170).
edge(147, 152).
edge(88, 102).
edge(97, 161).
edge(0, 10).
edge(97, 99).
edge(14, 145).
edge(31, 78).
edge(10, 168).
edge(16, 44).
edge(73, 127).
edge(87, 146).
edge(158, 164).
edge(51, 123).
edge(31, 101).
edge(72, 86).
edge(78, 101).
edge(91, 123).
edge(119, 165).
edge(50, 70).
edge(95, 155).
edge(28, 71).
edge(25, 75).
edge(81, 85).
edge(36, 140).
edge(131, 150).
edge(91, 151).
edge(2, 144).
edge(130, 175).
edge(103, 106).
edge(120, 128).
edge(5, 96).
edge(38, 39).
edge(43, 156).
edge(40, 159).
edge(19, 56).
edge(98, 132).
edge(0, 125).
edge(44, 128).
edge(8, 173).
edge(41, 106).
edge(49, 111).
edge(107, 140).
edge(114, 146).
edge(21, 45).
edge(122, 136).
edge(27, 176).
edge(0, 170).
edge(45, 52).
edge(67, 80).
edge(82, 145).
edge(80, 122).
edge(33, 152).
edge(29, 107).
edge(28, 139).
edge(107, 144).
edge(12, 107).
edge(88, 145).
edge(66, 117).
edge(95, 167).
edge(149, 177).
edge(6, 131).
edge(34, 50).
edge(131, 134).
edge(33, 84).
edge(18, 73).
edge(51, 81).
edge(22, 46).
edge(5, 39).
edge(124, 159).
edge(130, 170).
edge(98, 112).
edge(35, 141).
edge(82, 133).
edge(42, 48).
edge(141, 150).
edge(36, 56).
edge(124, 178).
edge(43, 146).
edge(25, 114).
edge(2, 133).
edge(34, 118).
edge(19, 26).
edge(168, 170).
edge(53, 86).
edge(138, 175).
edge(92, 137).
edge(16, 142).
edge(48, 148).
edge(24, 95).
edge(6, 136).
edge(86, 140).
edge(23, 125).
edge(49, 141).
edge(68, 93).
edge(132, 167).
edge(66, 86).
edge(34, 84).
edge(131, 133).
edge(24, 166).
edge(59, 178).
edge(152, 174).
edge(4, 156).
edge(47, 164).
edge(70, 123).
edge(64, 121).
edge(64, 123).
edge(41, 156).
edge(61, 178).
edge(79, 107).
edge(139, 163).
edge(75, 113).
edge(87, 130).
edge(142, 171).
edge(32, 37).
edge(51, 82).
edge(31, 99).
edge(94, 167).
edge(18, 21).
edge(79, 160).
edge(36, 132).
edge(99, 142).
edge(127, 142).
edge(36, 136).
edge(109, 159).
edge(47, 120).
edge(11, 104).
edge(140, 149).
edge(42, 96).
edge(25, 51).
edge(33, 131).
edge(99, 119).
edge(104, 146).
edge(127, 145).
edge(94, 160).
edge(30, 174).
edge(76, 85).
edge(9, 59).
edge(51, 87).
edge(66, 83).
edge(59, 136).
edge(146, 158).
edge(2, 100).
edge(121, 130).
edge(42, 45).
edge(72, 136).
edge(76, 79).
edge(48, 68).
edge(111, 138).
edge(57, 141).
edge(28, 75).
edge(99, 133).
edge(9, 97).
edge(88, 133).
edge(144, 163).
edge(162, 176).
edge(137, 165).
edge(37, 161).
edge(92, 149).
edge(7, 50).
edge(92, 176).
edge(26, 113).
edge(136, 165).
edge(74, 79).
edge(56, 102).
edge(41, 116).
edge(100, 156).
edge(81, 137).
edge(159, 177).
edge(64, 120).
edge(51, 164).
edge(98, 117).
edge(69, 102).
edge(73, 142).
edge(39, 74).
edge(21, 137).
edge(83, 177).
edge(79, 84).
edge(21, 165).
edge(11, 63).
edge(34, 145).
edge(18, 100).
edge(8, 103).
edge(5, 113).
edge(51, 171).
edge(43, 53).
edge(78, 89).
edge(58, 155).
edge(43, 142).
edge(12, 77).
edge(90, 142).
edge(137, 178).
edge(144, 147).
edge(38, 52).
edge(24, 25).
edge(88, 125).
edge(77, 81).
edge(27, 64).
edge(67, 143).
edge(93, 98).
edge(120, 152).
edge(27, 150).
edge(122, 166).
edge(128, 149).
edge(85, 170).
edge(3, 157).
edge(23, 61).
edge(78, 152).
edge(32, 149).
edge(38, 64).
edge(40, 129).
edge(71, 141).
edge(69, 134).
edge(60, 66).
edge(13, 60).
edge(70, 96).
edge(22, 62).
edge(22, 75).
edge(117, 141).
edge(109, 127).
edge(68, 149).
edge(55, 101).
edge(41, 168).
edge(93, 159).
edge(78, 164).
edge(62, 143).
edge(44, 47).
edge(66, 96).
edge(19, 120).
edge(51, 63).
edge(5, 77).
edge(58, 123).
edge(86, 108).
edge(84, 159).
edge(109, 140).
edge(120, 147).
edge(55, 87).
edge(9, 142).
edge(36, 68).
edge(10, 16).
edge(40, 91).
edge(65, 69).
edge(32, 145).
edge(92, 120).
edge(110, 175).
edge(67, 140).
edge(3, 31).
edge(41, 117).
edge(33, 167).
edge(35, 104).
edge(112, 122).
edge(176, 177).
edge(82, 86).
edge(22, 100).
edge(73, 150).
edge(23, 141).
edge(61, 176).
edge(48, 152).
edge(17, 135).
edge(145, 168).
edge(80, 129).
edge(37, 59).
edge(163, 170).
edge(11, 137).
edge(73, 152).
edge(104, 151).
edge(38, 86).
edge(35, 86).
edge(15, 89).
edge(54, 113).
edge(18, 39).
edge(0, 33).
edge(115, 131).
edge(52, 55).
edge(73, 102).
edge(87, 89).
edge(2, 51).
edge(82, 113).
edge(31, 76).
edge(52, 75).
edge(129, 147).
edge(116, 140).
edge(96, 137).
edge(24, 87).
edge(1, 49).
edge(92, 162).
edge(87, 153).
edge(11, 79).
edge(6, 102).
edge(75, 100).
edge(4, 77).
edge(58, 124).
edge(44, 75).
edge(34, 157).
edge(104, 171).
edge(97, 170).
edge(24, 138).
edge(78, 115).
edge(103, 137).
edge(20, 22).
edge(13, 95).
edge(85, 86).
edge(17, 46).
edge(95, 173).
edge(48, 116).
edge(53, 91).
edge(47, 80).
edge(26, 161).
edge(86, 90).
edge(5, 133).
edge(6, 171).
edge(3, 58).
edge(64, 115).
edge(12, 42).
edge(10, 107).
edge(164, 170).
edge(100, 159).
edge(70, 150).
edge(132, 160).
edge(72, 110).
edge(77, 178).
weight(0, 23).
weight(1, 18).
weight(2, 5).
weight(3, 6).
weight(4, 13).
weight(5, 23).
weight(6, 21).
weight(7, 22).
weight(8, 11).
weight(9, 7).
weight(10, 1).
weight(11, 14).
weight(12, 16).
weight(13, 12).
weight(14, 13).
weight(15, 20).
weight(16, 11).
weight(17, 11).
weight(18, 19).
weight(19, 17).
weight(20, 18).
weight(21, 15).
weight(22, 9).
weight(23, 16).
weight(24, 20).
weight(25, 2).
weight(26, 6).
weight(27, 11).
weight(28, 5).
weight(29, 2).
weight(30, 4).
weight(31, 20).
weight(32, 6).
weight(33, 17).
weight(34, 9).
weight(35, 14).
weight(36, 21).
weight(37, 12).
weight(38, 8).
weight(39, 9).
weight(40, 7).
weight(41, 1).
weight(42, 20).
weight(43, 19).
weight(44, 11).
weight(45, 12).
weight(46, 14).
weight(47, 19).
weight(48, 15).
weight(49, 9).
weight(50, 1).
weight(51, 21).
weight(52, 16).
weight(53, 7).
weight(54, 11).
weight(55, 22).
weight(56, 17).
weight(57, 17).
weight(58, 14).
weight(59, 10).
weight(60, 12).
weight(61, 16).
weight(62, 16).
weight(63, 16).
weight(64, 4).
weight(65, 22).
weight(66, 6).
weight(67, 9).
weight(68, 24).
weight(69, 22).
weight(70, 17).
weight(71, 24).
weight(72, 20).
weight(73, 2).
weight(74, 4).
weight(75, 14).
weight(76, 16).
weight(77, 7).
weight(78, 12).
weight(79, 3).
weight(80, 5).
weight(81, 7).
weight(82, 16).
weight(83, 12).
weight(84, 12).
weight(85, 24).
weight(86, 10).
weight(87, 17).
weight(88, 3).
weight(89, 7).
weight(90, 17).
weight(91, 19).
weight(92, 7).
weight(93, 17).
weight(94, 21).
weight(95, 13).
weight(96, 17).
weight(97, 19).
weight(98, 13).
weight(99, 8).
weight(100, 1).
weight(101, 13).
weight(102, 10).
weight(103, 17).
weight(104, 21).
weight(105, 21).
weight(106, 15).
weight(107, 6).
weight(108, 24).
weight(109, 9).
weight(110, 22).
weight(111, 23).
weight(112, 1).
weight(113, 16).
weight(114, 8).
weight(115, 14).
weight(116, 21).
weight(117, 4).
weight(118, 12).
weight(119, 24).
weight(120, 18).
weight(121, 13).
weight(122, 11).
weight(123, 23).
weight(124, 17).
weight(125, 18).
weight(126, 19).
weight(127, 10).
weight(128, 2).
weight(129, 7).
weight(130, 1).
weight(131, 20).
weight(132, 6).
weight(133, 1).
weight(134, 7).
weight(135, 9).
weight(136, 6).
weight(137, 20).
weight(138, 21).
weight(139, 19).
weight(140, 4).
weight(141, 11).
weight(142, 15).
weight(143, 8).
weight(144, 10).
weight(145, 1).
weight(146, 4).
weight(147, 15).
weight(148, 11).
weight(149, 23).
weight(150, 4).
weight(151, 10).
weight(152, 23).
weight(153, 19).
weight(154, 3).
weight(155, 21).
weight(156, 13).
weight(157, 7).
weight(158, 19).
weight(159, 3).
weight(160, 24).
weight(161, 8).
weight(162, 20).
weight(163, 23).
weight(164, 19).
weight(165, 18).
weight(166, 20).
weight(167, 22).
weight(168, 16).
weight(169, 16).
weight(170, 21).
weight(171, 2).
weight(172, 10).
weight(173, 24).
weight(174, 7).
weight(175, 11).
weight(176, 2).
weight(177, 6).
weight(178, 3).

{in(V)} :- node(V).
:- in(U), in(V), U < V, not edge(U,V).
:~ not in(V), weight(V,W). [W@1,V]
