node(0..174).
edge(84, 94).
edge(156, 162).
edge(5, 90).
edge(91, 120).
edge(55, 69).
edge(62, 174).
edge(50, 173).
edge(105, 139).
edge(146, 154).
edge(18, 173).
edge(122, 141).
edge(113, 141).
edge(15, 155).
edge(1, 65).
edge(28, 89).
edge(8, 107).
edge(15, 98).
edge(21, 144).
edge(134, 159).
edge(47, 67).
edge(149, 161).
edge(76, 112).
edge(29, 166).
edge(67, 172).
edge(97, 121).
edge(69, 113).
edge(3, 67).
edge(123, 141).
edge(8, 39).
edge(22, 46).
edge(61, 80).
edge(0, 56).
edge(41, 162).
edge(114, 136).
edge(115, 154).
edge(86, 127).
edge(109, 132).
edge(28, 128).
edge(92, 156).
edge(43, 51).
edge(24, 98).
edge(8, 125).
edge(60, 74).
edge(104, 162).
edge(7, 31).
edge(20, 137).
edge(57, 98).
edge(142, 161).
edge(13, 70).
edge(67, 88).
edge(5, 21).
edge(92, 121).
edge(1, 137).
edge(38, 93).
edge(111, 132).
edge(39, 77).
edge(10, 83).
edge(119, 142).
edge(82, 96).
edge(159, 164).
edge(38, 84).
edge(1, 39).
edge(130, 152).
edge(22, 90).
edge(73, 121).
edge(37, 75).
edge(77, 158).
edge(34, 159).
edge(23, 132).
edge(48, 106).
edge(37, 138).
edge(61, 143).
edge(4, 38).
edge(55, 87).
edge(16, 102).
edge(11, 80).
edge(67, 113).
edge(1, 121).
edge(62, 172).
edge(36, 138).
edge(30, 36).
edge(33, 90).
edge(82, 163).
edge(106, 167).
edge(80, 85).
edge(53, 168).
edge(81, 136).
edge(159, 160).
edge(141, 161).
edge(62, 165).
edge(20, 47).
edge(126, 144).
edge(130, 135).
edge(5, 127).
edge(22, 106).
edge(3, 29).
edge(8, 102).
edge(60, 164).
edge(43, 58).
edge(14, 156).
edge(133, 157).
edge(74, 160).
edge(41, 167).
edge(143, 168).
edge(27, 108).
edge(56, 163).
edge(67, 108).
edge(41, 145).
edge(70, 126).
edge(68, 135).
edge(16, 132).
edge(77, 121).
edge(25, 77).
edge(85, 172).
edge(12, 156).
edge(45, 163).
edge(53, 66).
edge(73, 123).
edge(29, 107).
edge(118, 122).
edge(4, 43).
edge(33, 169).
edge(47, 111).
edge(22, 173).
edge(91, 146).
edge(7, 24).
edge(8, 98).
edge(83, 140).
edge(78, 97).
edge(44, 123).
edge(140, 163).
edge(105, 118).
edge(115, 133).
edge(10, 138).
edge(67, 81).
edge(51, 105).
edge(72, 164).
edge(19, 95).
edge(5, 45).
edge(133, 162).
edge(40, 123).
edge(63, 76).
edge(85, 89).
edge(28, 116).
edge(61, 139).
edge(41, 86).
edge(31, 138).
edge(87, 141).
edge(27, 39).
edge(38, 147).
edge(145, 157).
edge(44, 93).
edge(105, 149).
edge(63, 107).
edge(75, 93).
edge(43, 99).
edge(72, 124).
edge(9, 14).
edge(56, 64).
edge(97, 98).
edge(62, 96).
edge(81, 135).
edge(6, 74).
edge(23, 38).
edge(65, 86).
edge(4, 8).
edge(57, 94).
edge(85, 110).
edge(47, 56).
edge(73, 164).
edge(6, 20).
edge(9, 151).
edge(3, 77).
edge(34, 162).
edge(94, 117).
edge(97, 156).
edge(73, 132).
edge(129, 130).
edge(15, 30).
edge(46, 107).
edge(40, 65).
edge(64, 121).
edge(16, 140).
edge(118, 136).
edge(35, 58).
edge(56, 84).
edge(57, 156).
edge(76, 129).
edge(37, 132).
edge(115, 141).
edge(7, 136).
edge(80, 154).
edge(9, 128).
edge(99, 139).
edge(12, 140).
edge(135, 150).
edge(9, 137).
edge(110, 141).
edge(83, 103).
edge(51, 89).
edge(89, 170).
edge(125, 170).
edge(100, 169).
edge(50, 93).
edge(46, 55).
edge(18, 68).
edge(71, 91).
edge(82, 157).
edge(1, 45).
edge(5, 154).
edge(63, 136).
edge(68, 169).
edge(1, 32).
edge(30, 62).
edge(16, 97).
edge(27, 63).
edge(104, 157).
edge(78, 173).
edge(146, 149).
edge(4, 46).
edge(28, 173).
edge(77, 170).
edge(70, 161).
edge(39, 45).
edge(108, 173).
edge(5, 140).
edge(21, 117).
edge(88, 140).
edge(64, 92).
edge(51, 108).
edge(3, 51).
edge(77, 91).
edge(22, 55).
edge(76, 136).
edge(69, 115).
edge(98, 106).
edge(29, 125).
edge(95, 116).
edge(41, 122).
edge(103, 106).
edge(17, 64).
edge(32, 99).
edge(100, 137).
edge(48, 133).
edge(14, 130).
edge(53, 86).
edge(29, 97).
edge(33, 102).
edge(14, 82).
edge(34, 123).
edge(66, 159).
edge(43, 84).
edge(96, 118).
edge(43, 149).
edge(99, 143).
edge(121, 140).
edge(45, 155).
edge(133, 138).
edge(87, 100).
edge(19, 74).
edge(46, 49).
edge(44, 50).
edge(21, 50).
edge(50, 131).
edge(3, 57).
edge(9, 58).
edge(43, 127).
edge(97, 173).
edge(76, 110).
edge(50, 100).
edge(84, 119).
edge(60, 145).
edge(82, 131).
edge(17, 168).
edge(57, 118).
edge(125, 137).
edge(6, 91).
edge(23, 40).
edge(36, 169).
edge(72, 113).
edge(8, 137).
edge(76, 118).
edge(5, 108).
edge(58, 83).
edge(95, 143).
edge(17, 97).
edge(107, 119).
edge(145, 168).
edge(23, 149).
edge(91, 124).
edge(75, 102).
edge(99, 142).
edge(66, 80).
edge(6, 114).
edge(88, 123).
edge(97, 162).
edge(92, 134).
edge(19, 122).
edge(38, 96).
edge(128, 135).
edge(99, 173).
edge(23, 118).
edge(28, 108).
edge(29, 60).
edge(7, 83).
edge(87, 136).
edge(17, 128).
edge(1, 83).
edge(101, 135).
edge(38, 127).
edge(27, 95).
edge(60, 126).
edge(21, 134).
edge(80, 158).
edge(135, 172).
edge(52, 106).
edge(85, 128).
edge(106, 156).
edge(1, 155).
edge(27, 159).
edge(38, 133).
edge(12, 62).
edge(31, 108).
edge(81, 83).
edge(118, 157).
edge(36, 168).
edge(8, 103).
edge(116, 133).
edge(76, 144).
edge(4, 169).
edge(20, 99).
edge(80, 81).
edge(46, 74).
edge(59, 174).
edge(95, 168).
edge(29, 173).
edge(107, 170).
edge(30, 140).
edge(57, 63).
edge(84, 168).
edge(102, 146).
edge(29, 119).
edge(19, 106).
edge(61, 76).
edge(55, 140).
edge(20, 38).
edge(142, 165).
edge(48, 75).
edge(27, 83).
edge(86, 169).
edge(99, 168).
edge(76, 113).
edge(120, 158).
edge(16, 20).
edge(8, 91).
edge(59, 166).
edge(67, 143).
edge(82, 130).
edge(1, 8).
edge(67, 145).
edge(18, 149).
edge(36, 146).
edge(3, 60).
edge(65, 78).
edge(12, 131).
edge(60, 106).
edge(71, 72).
edge(30, 150).
edge(19, 61).
edge(40, 81).
edge(9, 104).
edge(68, 126).
edge(30, 118).
edge(59, 100).
edge(62, 104).
edge(84, 142).
edge(87, 151).
edge(23, 84).
edge(4, 150).
edge(8, 134).
edge(48, 122).
edge(45, 74).
edge(19, 138).
edge(73, 100).
edge(91, 102).
edge(11, 165).
edge(90, 162).
edge(56, 83).
edge(53, 98).
edge(52, 84).
edge(77, 146).
edge(27, 162).
edge(98, 146).
edge(98, 159).
edge(1, 170).
edge(24, 119).
edge(44, 142).
edge(33, 119).
edge(14, 145).
edge(4, 99).
edge(68, 115).
edge(43, 89).
edge(3, 168).
edge(63, 102).
edge(51, 69).
edge(44, 68).
edge(79, 95).
edge(28, 77).
edge(8, 70).
edge(12, 102).
edge(56, 63).
edge(64, 149).
edge(66, 131).
edge(26, 141).
edge(58, 110).
edge(133, 172).
edge(37, 167).
edge(102, 115).
edge(28, 83).
edge(95, 102).
edge(3, 174).
edge(24, 62).
edge(63, 116).
edge(126, 155).
edge(12, 97).
edge(164, 170).
edge(13, 158).
edge(56, 174).
edge(59, 113).
edge(78, 88).
edge(81, 119).
edge(76, 106).
edge(9, 110).
edge(96, 120).
edge(14, 168).
edge(28, 94).
edge(23, 46).
edge(81, 160).
edge(70, 164).
edge(129, 133).
edge(86, 151).
edge(41, 98).
edge(59, 162).
edge(12, 134).
edge(88, 157).
edge(135, 158).
edge(137, 172).
edge(58, 145).
edge(109, 168).
edge(24, 159).
edge(70, 171).
edge(69, 104).
edge(161, 168).
edge(112, 116).
edge(71, 131).
edge(13, 66).
edge(78, 131).
edge(74, 111).
edge(14, 142).
edge(22, 145).
edge(22, 68).
edge(159, 162).
edge(25, 153).
edge(70, 83).
edge(38, 57).
edge(137, 171).
edge(14, 107).
edge(6, 136).
edge(16, 75).
edge(3, 69).
edge(44, 65).
edge(5, 35).
edge(108, 135).
edge(25, 27).
edge(6, 94).
edge(47, 170).
edge(28, 41).
edge(125, 161).
edge(62, 154).
edge(38, 90).
edge(37, 142).
edge(13, 84).
edge(69, 112).
edge(127, 162).
edge(120, 149).
edge(66, 154).
edge(7, 11).
edge(53, 130).
edge(39, 99).
edge(27, 119).
edge(73, 99).
edge(32, 55).
edge(142, 150).
edge(61, 156).
edge(66, 91).
edge(0, 168).
edge(36, 160).
edge(122, 168).
edge(49, 98).
edge(57, 126).
edge(21, 105).
edge(7, 13).
edge(94, 160).
edge(95, 171).
edge(48, 124).
edge(76, 111).
edge(90, 100).
edge(77, 162).
edge(29, 113).
edge(15, 50).
edge(77, 171).
edge(75, 161).
edge(4, 151).
edge(47, 130).
edge(25, 80).
edge(112, 122).
edge(16, 66).
edge(3, 66).
edge(45, 50).
edge(53, 76).
edge(50, 52).
edge(6, 29).
edge(11, 131).
edge(55, 168).
edge(86, 147).
edge(60, 137).
edge(44, 95).
edge(57, 109).
edge(13, 24).
edge(53, 170).
edge(139, 169).
edge(39, 135).
edge(1, 56).
edge(6, 51).
edge(44, 55).
edge(72, 162).
edge(15, 60).
edge(0, 161).
edge(71, 138).
edge(121, 141).
edge(0, 122).
edge(107, 128).
edge(100, 157).
edge(4, 110).
edge(59, 78).
edge(78, 151).
edge(15, 153).
edge(26, 95).
edge(35, 91).
edge(101, 141).
edge(32, 153).
edge(136, 137).
edge(7, 52).
edge(101, 146).
edge(131, 153).
edge(33, 47).
edge(40, 46).
edge(113, 125).
edge(65, 106).
edge(124, 160).
edge(24, 27).
edge(9, 31).
edge(45, 164).
edge(19, 129).
edge(115, 165).
edge(27, 60).
edge(6, 41).
edge(58, 75).
edge(86, 135).
edge(46, 50).
edge(12, 84).
edge(23, 109).
edge(56, 156).
edge(104, 109).
edge(135, 164).
edge(38, 62).
edge(17, 169).
edge(14, 25).
edge(17, 75).
edge(109, 136).
edge(7, 28).
edge(79, 127).
edge(14, 48).
edge(110, 146).
edge(40, 79).
edge(132, 138).
edge(14, 64).
edge(109, 125).
edge(102, 105).
edge(20, 114).
edge(10, 48).
edge(43, 63).
edge(7, 146).
edge(136, 174).
edge(128, 148).
edge(60, 101).
edge(4, 130).
edge(34, 139).
edge(3, 61).
edge(11, 68).
edge(129, 166).
edge(19, 134).
edge(35, 166).
edge(29, 47).
edge(67, 158).
edge(44, 159).
edge(46, 124).
edge(32, 72).
edge(10, 105).
edge(146, 169).
edge(19, 28).
edge(76, 94).
edge(5, 56).
edge(42, 101).
edge(121, 152).
edge(36, 74).
edge(55, 137).
edge(52, 150).
edge(46, 136).
edge(42, 46).
edge(64, 138).
edge(44, 97).
edge(50, 163).
edge(152, 154).
edge(67, 122).
edge(136, 144).
edge(74, 81).
edge(26, 164).
edge(46, 73).
edge(162, 167).
edge(35, 132).
edge(89, 142).
edge(13, 64).
edge(44, 73).
edge(8, 65).
edge(90, 132).
edge(25, 173).
edge(28, 70).
edge(29, 114).
edge(83, 111).
edge(37, 153).
edge(81, 149).
edge(69, 139).
edge(26, 135).
edge(48, 92).
edge(16, 91).
edge(71, 156).
edge(127, 161).
edge(2, 11).
edge(9, 71).
edge(99, 172).
edge(16, 154).
edge(111, 153).
edge(81, 84).
edge(74, 169).
edge(18, 123).
edge(46, 112).
edge(94, 109).
edge(55, 166).
edge(12, 120).
edge(14, 59).
edge(123, 159).
edge(55, 135).
edge(80, 174).
edge(91, 101).
edge(82, 150).
edge(22, 137).
edge(101, 112).
edge(40, 111).
edge(147, 154).
edge(40, 93).
edge(3, 86).
edge(51, 132).
edge(127, 155).
edge(57, 62).
edge(88, 117).
edge(103, 163).
edge(95, 165).
edge(69, 88).
edge(47, 71).
edge(3, 34).
edge(52, 114).
edge(17, 22).
edge(105, 131).
edge(42, 56).
edge(144, 153).
edge(124, 143).
edge(6, 14).
edge(52, 88).
edge(158, 161).
edge(0, 31).
edge(25, 64).
edge(10, 93).
edge(26, 47).
edge(103, 125).
edge(105, 171).
edge(35, 109).
edge(92, 106).
edge(116, 135).
edge(69, 121).
edge(85, 88).
edge(114, 163).
edge(85, 154).
edge(97, 127).
edge(49, 166).
edge(72, 170).
edge(41, 80).
edge(137, 138).
edge(10, 174).
edge(78, 157).
edge(123, 137).
edge(30, 98).
edge(117, 157).
edge(60, 144).
edge(37, 113).
edge(27, 117).
edge(42, 162).
edge(29, 115).
edge(84, 148).
edge(14, 35).
edge(0, 145).
edge(27, 151).
edge(14, 58).
edge(3, 113).
edge(1, 158).
edge(63, 114).
edge(170, 171).
edge(66, 132).
edge(10, 27).
edge(40, 66).
edge(39, 92).
edge(49, 159).
edge(132, 136).
edge(106, 151).
edge(107, 151).
edge(83, 124).
edge(27, 137).
edge(49, 169).
edge(116, 159).
edge(29, 76).
edge(91, 107).
edge(79, 98).
edge(7, 70).
edge(53, 64).
edge(4, 98).
edge(31, 165).
edge(89, 127).
edge(76, 134).
edge(40, 126).
edge(46, 102).
edge(3, 39).
edge(47, 75).
edge(35, 136).
edge(8, 109).
edge(66, 101).
edge(100, 152).
edge(102, 144).
edge(112, 146).
edge(12, 99).
edge(61, 144).
edge(97, 106).
edge(122, 173).
edge(154, 174).
edge(42, 144).
edge(135, 156).
edge(104, 158).
edge(88, 154).
edge(58, 136).
edge(58, 62).
edge(35, 148).
edge(85, 95).
edge(18, 105).
edge(12, 44).
edge(83, 102).
edge(9, 106).
edge(79, 166).
edge(14, 129).
edge(83, 96).
edge(55, 83).
edge(14, 92).
edge(12, 89).
edge(102, 113).
edge(125, 136).
edge(70, 149).
edge(59, 140).
edge(53, 137).
edge(7, 44).
edge(26, 63).
edge(90, 122).
edge(36, 64).
edge(7, 152).
edge(152, 171).
edge(5, 36).
edge(80, 146).
edge(80, 104).
edge(138, 173).
edge(13, 93).
edge(32, 113).
edge(130, 165).
edge(28, 95).
edge(136, 157).
edge(12, 57).
edge(20, 55).
edge(96, 110).
edge(43, 100).
edge(76, 115).
edge(46, 66).
edge(79, 149).
edge(127, 172).
edge(0, 119).
edge(11, 127).
edge(36, 51).
edge(10, 19).
edge(130, 141).
edge(52, 76).
edge(89, 112).
edge(48, 163).
edge(103, 119).
edge(27, 51).
edge(9, 57).
edge(74, 102).
edge(23, 168).
edge(8, 93).
edge(31, 56).
edge(82, 101).
edge(110, 161).
edge(36, 65).
edge(14, 114).
edge(29, 162).
edge(72, 140).
edge(128, 133).
edge(22, 148).
edge(17, 153).
edge(124, 141).
edge(27, 38).
edge(16, 108).
edge(7, 123).
edge(136, 169).
edge(64, 83).
edge(81, 92).
edge(25, 162).
edge(86, 101).
edge(4, 27).
edge(43, 65).
edge(57, 82).
edge(28, 170).
edge(25, 101).
edge(129, 174).
edge(124, 159).
edge(30, 44).
edge(103, 138).
edge(100, 110).
edge(39, 130).
edge(61, 172).
edge(17, 94).
edge(87, 94).
edge(13, 132).
edge(57, 120).
edge(56, 107).
edge(123, 131).
edge(67, 169).
edge(52, 144).
edge(69, 95).
edge(22, 119).
edge(77, 110).
edge(55, 144).
edge(83, 160).
edge(78, 144).
edge(133, 146).
edge(17, 173).
edge(56, 129).
edge(145, 165).
edge(29, 163).
edge(89, 128).
edge(48, 103).
edge(3, 73).
edge(61, 153).
edge(11, 63).
edge(57, 59).
edge(146, 161).
edge(4, 26).
edge(41, 127).
edge(46, 99).
edge(44, 127).
edge(28, 42).
edge(12, 85).
edge(55, 163).
edge(84, 156).
edge(58, 115).
edge(96, 156).
edge(92, 96).
edge(15, 164).
edge(133, 160).
edge(97, 122).
edge(17, 55).
edge(45, 123).
edge(49, 123).
edge(100, 124).
edge(50, 60).
edge(122, 148).
edge(84, 95).
edge(35, 134).
edge(3, 172).
edge(71, 88).
edge(86, 173).
edge(125, 151).
edge(27, 126).
edge(54, 109).
edge(59, 147).
edge(26, 139).
edge(21, 28).
edge(115, 126).
edge(17, 108).
edge(21, 157).
edge(40, 173).
edge(50, 79).
edge(120, 165).
edge(74, 165).
edge(110, 121).
edge(114, 128).
edge(36, 79).
edge(46, 171).
edge(81, 168).
edge(0, 22).
edge(48, 166).
edge(34, 37).
edge(58, 122).
edge(20, 132).
edge(33, 101).
edge(12, 161).
edge(77, 166).
edge(61, 93).
edge(131, 152).
edge(4, 73).
edge(149, 168).
edge(32, 133).
edge(36, 135).
edge(17, 38).
edge(27, 114).
edge(56, 74).
edge(75, 118).
edge(62, 115).
edge(115, 166).
edge(67, 84).
edge(12, 66).
edge(38, 64).
edge(50, 89).
edge(20, 140).
edge(15, 97).
edge(4, 135).
edge(83, 85).
edge(15, 74).
edge(5, 78).
edge(8, 50).
edge(64, 166).
edge(16, 88).
edge(110, 142).
edge(14, 134).
edge(59, 142).
edge(135, 170).
edge(103, 162).
edge(100, 107).
edge(111, 138).
edge(7, 104).
edge(111, 157).
edge(49, 143).
edge(121, 157).
edge(19, 54).
edge(139, 152).
edge(45, 97).
edge(9, 96).
edge(82, 151).
edge(48, 65).
edge(139, 171).
edge(135, 153).
edge(100, 119).
edge(14, 164).
edge(148, 167).
edge(42, 82).
edge(70, 158).
edge(2, 134).
edge(54, 108).
edge(16, 51).
edge(7, 32).
edge(14, 50).
edge(129, 157).
edge(109, 139).
edge(91, 144).
edge(78, 93).
edge(66, 151).
edge(10, 57).
edge(57, 61).
edge(15, 105).
edge(35, 133).
edge(14, 136).
edge(46, 162).
edge(39, 98).
edge(82, 168).
edge(11, 20).
edge(50, 84).
edge(143, 159).
edge(62, 91).
edge(24, 136).
edge(66, 170).
edge(90, 156).
edge(87, 155).
edge(31, 169).
edge(22, 102).
edge(3, 55).
edge(82, 87).
edge(78, 101).
edge(63, 98).
edge(37, 43).
edge(39, 168).
edge(79, 128).
edge(23, 36).
edge(21, 31).
edge(126, 146).
edge(6, 75).
edge(21, 140).
edge(26, 145).
edge(15, 79).
edge(25, 124).
edge(52, 128).
edge(131, 145).
edge(148, 166).
edge(40, 120).
edge(104, 117).
edge(6, 67).
edge(11, 16).
edge(132, 152).
edge(88, 135).
edge(157, 160).
edge(147, 156).
edge(76, 126).
edge(29, 32).
edge(12, 106).
edge(19, 114).
edge(54, 78).
edge(22, 69).
edge(62, 123).
edge(24, 121).
edge(2, 170).
edge(91, 164).
edge(60, 98).
edge(8, 155).
edge(2, 103).
edge(100, 126).
edge(7, 73).
edge(37, 46).
edge(52, 72).
edge(65, 144).
edge(94, 148).
edge(58, 167).
edge(20, 120).
edge(123, 156).
edge(15, 93).
edge(112, 160).
edge(99, 160).
edge(49, 130).
edge(60, 160).
edge(110, 155).
edge(41, 173).
edge(51, 106).
edge(94, 127).
edge(30, 117).
edge(118, 120).
edge(31, 107).
edge(96, 114).
edge(37, 72).
edge(64, 125).
edge(18, 36).
edge(17, 36).
edge(136, 156).
edge(79, 147).
edge(114, 142).
edge(67, 139).
edge(32, 152).
edge(69, 106).
edge(128, 164).
edge(90, 150).
edge(26, 83).
edge(44, 164).
edge(142, 148).
edge(138, 168).
edge(36, 162).
edge(46, 80).
edge(0, 86).
edge(160, 168).
edge(91, 118).
edge(9, 20).
edge(73, 171).
edge(117, 152).
edge(106, 111).
edge(63, 100).
edge(168, 174).
edge(48, 79).
edge(67, 118).
edge(67, 111).
edge(157, 169).
edge(78, 146).
edge(167, 168).
edge(92, 130).
edge(74, 85).
edge(65, 73).
edge(68, 131).
edge(16, 76).
edge(78, 113).
edge(125, 157).
edge(138, 150).
edge(85, 162).
edge(24, 153).
edge(1, 31).
edge(55, 108).
edge(7, 74).
edge(24, 82).
edge(88, 171).
edge(11, 141).
edge(96, 146).
edge(29, 68).
edge(2, 160).
edge(129, 147).
edge(75, 146).
edge(62, 171).
edge(30, 80).
edge(71, 148).
edge(119, 158).
edge(8, 146).
edge(106, 149).
edge(119, 164).
edge(106, 168).
edge(13, 123).
edge(0, 141).
edge(99, 161).
edge(71, 75).
edge(64, 124).
edge(5, 7).
edge(41, 141).
edge(112, 157).
edge(151, 159).
edge(139, 172).
edge(74, 154).
edge(72, 155).
edge(141, 157).
edge(100, 116).
edge(92, 114).
edge(3, 105).
edge(49, 120).
edge(6, 85).
edge(25, 135).
edge(7, 33).
edge(113, 126).
edge(28, 58).
edge(10, 97).
edge(75, 171).
edge(148, 150).
edge(74, 129).
edge(74, 87).
edge(72, 173).
edge(3, 4).
edge(21, 124).
edge(153, 168).
edge(38, 52).
edge(33, 86).
edge(58, 123).
edge(8, 28).
edge(96, 140).
edge(94, 143).
edge(84, 162).
edge(9, 153).
edge(88, 168).
edge(150, 161).
edge(85, 157).
edge(3, 38).
edge(142, 159).
edge(29, 102).
edge(0, 152).
edge(25, 145).
edge(23, 153).
edge(127, 145).
edge(42, 141).
edge(19, 41).
edge(42, 45).
edge(54, 168).
edge(92, 103).
edge(82, 84).
edge(123, 130).
edge(60, 77).
edge(2, 43).
edge(9, 16).
edge(23, 126).
edge(100, 160).
edge(84, 109).
edge(97, 137).
edge(110, 173).
edge(10, 85).
edge(40, 86).
edge(84, 150).
edge(122, 166).
edge(4, 114).
edge(12, 93).
edge(9, 116).
edge(67, 171).
edge(107, 158).
edge(30, 31).
edge(104, 124).
edge(56, 168).
edge(52, 115).
edge(64, 160).
edge(46, 117).
edge(29, 33).
edge(4, 12).
edge(160, 163).
edge(18, 96).
edge(141, 168).
edge(39, 74).
edge(41, 148).
edge(21, 62).
edge(55, 164).
edge(27, 42).
edge(10, 163).
edge(64, 151).
edge(16, 84).
edge(132, 133).
edge(109, 113).
edge(154, 172).
edge(55, 97).
edge(24, 135).
edge(11, 43).
edge(109, 157).
edge(86, 91).
edge(55, 58).
edge(163, 164).
edge(51, 160).
edge(29, 142).
edge(113, 134).
edge(63, 143).
edge(26, 130).
edge(13, 148).
edge(103, 167).
edge(8, 18).
edge(61, 88).
edge(53, 73).
edge(34, 59).
edge(15, 95).
edge(56, 61).
edge(0, 80).
edge(21, 150).
edge(59, 139).
edge(38, 76).
edge(106, 143).
edge(24, 144).
edge(5, 77).
edge(17, 45).
edge(136, 143).
edge(2, 14).
edge(111, 131).
edge(84, 169).
edge(77, 89).
edge(6, 110).
edge(43, 144).
edge(50, 117).
edge(3, 149).
edge(51, 102).
edge(71, 162).
edge(9, 122).
edge(144, 162).
edge(80, 153).
edge(51, 57).
edge(127, 146).
edge(44, 102).
edge(50, 67).
edge(40, 141).
edge(92, 168).
edge(81, 140).
edge(41, 48).
edge(108, 117).
edge(53, 116).
edge(2, 47).
edge(160, 169).
edge(0, 169).
edge(50, 159).
edge(57, 163).
edge(63, 142).
edge(10, 104).
edge(64, 128).
edge(100, 167).
edge(94, 121).
edge(79, 115).
edge(31, 94).
edge(57, 64).
edge(14, 147).
edge(104, 161).
edge(105, 119).
edge(130, 149).
edge(41, 150).
edge(7, 84).
edge(53, 93).
edge(18, 125).
edge(101, 151).
edge(34, 36).
edge(74, 139).
edge(21, 98).
edge(37, 78).
edge(17, 46).
edge(61, 162).
edge(68, 159).
edge(25, 30).
edge(109, 147).
edge(12, 160).
edge(12, 59).
edge(47, 126).
edge(67, 141).
edge(89, 156).
edge(47, 150).
edge(19, 137).
edge(7, 142).
edge(17, 105).
edge(22, 131).
edge(132, 139).
edge(112, 123).
edge(72, 135).
edge(9, 81).
edge(31, 84).
edge(13, 106).
edge(64, 154).
edge(109, 115).
edge(7, 81).
edge(76, 130).
edge(25, 102).
edge(7, 59).
edge(138, 163).
edge(116, 162).
edge(21, 41).
edge(28, 166).
edge(96, 108).
edge(103, 149).
edge(39, 73).
edge(26, 138).
edge(66, 126).
edge(46, 123).
edge(123, 150).
edge(157, 173).
edge(49, 174).
edge(42, 112).
edge(128, 172).
edge(71, 144).
edge(67, 167).
edge(30, 159).
edge(14, 30).
edge(94, 97).
edge(51, 78).
edge(62, 69).
edge(113, 170).
edge(29, 103).
edge(40, 102).
edge(22, 67).
edge(41, 114).
edge(95, 156).
edge(78, 153).
edge(60, 167).
edge(3, 108).
edge(130, 138).
edge(1, 141).
edge(71, 141).
edge(37, 152).
edge(24, 141).
edge(99, 106).
edge(16, 147).
edge(123, 166).
edge(36, 164).
edge(102, 104).
edge(76, 142).
edge(142, 167).
edge(38, 60).
edge(50, 51).
edge(82, 134).
edge(68, 154).
edge(2, 15).
edge(36, 86).
edge(37, 68).
edge(116, 117).
edge(29, 147).
edge(3, 148).
edge(49, 134).
edge(0, 36).
edge(36, 122).
edge(54, 91).
edge(29, 90).
edge(63, 92).
edge(115, 153).
edge(19, 90).
edge(79, 91).
edge(87, 110).
edge(21, 142).
edge(28, 61).
edge(41, 169).
edge(21, 147).
edge(47, 146).
edge(6, 30).
edge(15, 174).
edge(16, 18).
edge(18, 88).
edge(47, 141).
edge(12, 50).
edge(102, 138).
edge(38, 85).
edge(6, 164).
edge(158, 162).
edge(44, 157).
edge(87, 154).
edge(78, 105).
edge(74, 113).
edge(42, 106).
edge(43, 61).
edge(121, 143).
edge(4, 158).
edge(30, 82).
edge(120, 143).
edge(54, 70).
edge(2, 68).
edge(13, 173).
edge(82, 143).
edge(82, 125).
edge(92, 93).
edge(69, 162).
edge(30, 138).
edge(57, 106).
edge(31, 126).
edge(19, 88).
edge(11, 47).
edge(21, 35).
edge(6, 140).
edge(89, 104).
edge(5, 9).
edge(1, 28).
edge(1, 154).
edge(41, 56).
edge(56, 169).
edge(107, 126).
edge(77, 135).
edge(14, 15).
edge(22, 97).
edge(4, 83).
edge(58, 143).
edge(85, 169).
edge(35, 138).
edge(3, 156).
edge(110, 171).
edge(10, 87).
edge(39, 123).
edge(147, 153).
edge(6, 167).
edge(9, 120).
edge(13, 114).
edge(86, 110).
edge(29, 87).
edge(83, 150).
edge(59, 161).
edge(129, 137).
edge(52, 73).
edge(20, 153).
edge(29, 37).
edge(10, 137).
edge(63, 168).
edge(4, 168).
edge(48, 53).
edge(8, 60).
edge(62, 73).
edge(9, 69).
edge(74, 149).
edge(83, 107).
edge(74, 112).
edge(27, 41).
edge(0, 136).
edge(13, 58).
edge(13, 174).
edge(10, 103).
edge(33, 113).
edge(25, 118).
edge(66, 86).
edge(60, 115).
edge(4, 25).
edge(37, 80).
edge(77, 104).
edge(68, 77).
edge(12, 18).
edge(92, 125).
edge(69, 98).
edge(2, 71).
edge(35, 81).
edge(124, 138).
edge(50, 157).
edge(25, 151).
edge(47, 69).
edge(60, 141).
edge(43, 119).
edge(1, 131).
edge(14, 104).
edge(111, 169).
edge(32, 80).
edge(6, 66).
edge(85, 130).
edge(34, 63).
edge(52, 130).
edge(53, 156).
edge(28, 167).
edge(115, 139).
edge(158, 159).
edge(21, 129).
edge(18, 163).
edge(10, 118).
edge(58, 156).
edge(5, 11).
edge(28, 164).
edge(106, 141).
edge(104, 156).
edge(73, 168).
edge(14, 121).
edge(88, 103).
edge(77, 134).
edge(34, 154).
edge(62, 81).
edge(7, 38).
edge(32, 45).
edge(139, 143).
edge(30, 137).
edge(11, 98).
edge(15, 99).
edge(163, 174).
edge(58, 165).
edge(99, 123).
edge(15, 48).
edge(1, 16).
edge(98, 161).
edge(89, 172).
edge(31, 37).
edge(32, 165).
edge(21, 83).
edge(40, 77).
edge(102, 120).
edge(9, 68).
edge(75, 117).
edge(64, 165).
edge(110, 166).
edge(13, 127).
edge(4, 140).
edge(79, 142).
edge(144, 170).
edge(114, 169).
edge(110, 122).
edge(2, 104).
edge(18, 148).
edge(3, 14).
edge(66, 76).
edge(42, 51).
edge(3, 52).
edge(33, 123).
edge(3, 68).
edge(0, 74).
edge(52, 60).
edge(48, 147).
edge(66, 110).
edge(109, 173).
edge(85, 166).
edge(2, 169).
edge(57, 137).
edge(23, 150).
edge(108, 126).
edge(133, 150).
edge(87, 140).
edge(123, 147).
edge(124, 130).
edge(33, 53).
edge(61, 96).
edge(126, 170).
edge(18, 116).
edge(72, 119).
edge(59, 125).
edge(140, 146).
edge(104, 142).
edge(8, 46).
edge(92, 128).
edge(17, 111).
edge(78, 156).
edge(8, 57).
edge(13, 101).
edge(0, 149).
edge(27, 49).
edge(133, 155).
edge(64, 147).
edge(12, 52).
edge(1, 52).
edge(46, 93).
edge(41, 42).
edge(24, 132).
edge(5, 166).
edge(61, 123).
edge(26, 116).
edge(144, 155).
edge(91, 174).
edge(87, 123).
edge(17, 167).
edge(25, 48).
edge(103, 151).
edge(100, 147).
edge(37, 108).
edge(7, 46).
edge(2, 27).
edge(42, 47).
edge(25, 41).
edge(39, 117).
edge(37, 54).
edge(91, 156).
edge(38, 160).
edge(22, 73).
edge(41, 58).
edge(41, 66).
edge(24, 116).
edge(12, 112).
edge(87, 90).
edge(60, 161).
edge(81, 169).
edge(37, 67).
edge(6, 143).
edge(3, 143).
edge(67, 161).
edge(80, 120).
edge(51, 111).
edge(30, 109).
edge(22, 117).
edge(72, 122).
edge(33, 49).
edge(51, 122).
edge(8, 117).
edge(76, 116).
edge(102, 172).
edge(91, 141).
edge(20, 94).
edge(109, 151).
edge(52, 161).
edge(42, 67).
edge(26, 59).
edge(129, 164).
edge(54, 73).
edge(3, 70).
edge(45, 49).
edge(32, 123).
edge(9, 11).
edge(77, 143).
edge(67, 159).
edge(45, 87).
edge(71, 171).
edge(7, 171).
edge(57, 158).
edge(81, 141).
edge(2, 31).
edge(79, 156).
edge(57, 122).
edge(123, 172).
edge(84, 136).
edge(52, 149).
edge(37, 61).
edge(84, 110).
edge(70, 157).
edge(62, 87).
edge(22, 160).
edge(18, 49).
edge(51, 112).
edge(55, 114).
edge(45, 46).
edge(78, 79).
edge(12, 137).
edge(46, 169).
edge(94, 111).
edge(134, 153).
edge(53, 87).
edge(71, 136).
edge(8, 152).
edge(40, 165).
edge(46, 149).
edge(38, 168).
edge(31, 64).
edge(47, 100).
edge(106, 135).
edge(121, 172).
edge(59, 72).
edge(129, 162).
edge(79, 96).
edge(82, 124).
edge(85, 151).
edge(8, 115).
edge(11, 124).
edge(98, 167).
edge(68, 125).
edge(88, 118).
edge(37, 134).
edge(104, 127).
edge(80, 103).
edge(74, 91).
edge(156, 161).
edge(32, 98).
edge(128, 158).
edge(152, 172).
edge(87, 145).
edge(98, 140).
edge(104, 165).
edge(32, 117).
edge(81, 143).
edge(46, 174).
edge(105, 168).
edge(118, 145).
edge(99, 119).
edge(4, 90).
edge(116, 151).
edge(129, 160).
edge(58, 125).
edge(43, 69).
edge(16, 113).
edge(117, 119).
edge(71, 128).
edge(91, 109).
edge(22, 79).
edge(54, 144).
edge(111, 151).
edge(16, 126).
edge(119, 161).
edge(22, 40).
edge(64, 157).
edge(25, 155).
edge(4, 132).
edge(107, 117).
edge(91, 157).
edge(25, 86).
edge(95, 125).
edge(113, 127).
edge(20, 25).
edge(161, 162).
edge(4, 61).
edge(8, 67).
edge(24, 50).
edge(30, 43).
edge(11, 70).
edge(56, 59).
edge(23, 67).
edge(17, 19).
edge(111, 122).
edge(121, 137).
edge(12, 33).
edge(55, 154).
edge(115, 171).
edge(122, 145).
edge(33, 51).
edge(76, 121).
edge(133, 158).
edge(15, 17).
edge(147, 165).
edge(28, 71).
edge(11, 96).
edge(45, 95).
edge(44, 60).
edge(71, 117).
edge(131, 171).
edge(79, 89).
edge(63, 155).
edge(34, 121).
edge(97, 135).
edge(101, 145).
edge(13, 78).
edge(103, 148).
edge(126, 156).
edge(13, 16).
edge(90, 92).
edge(53, 140).
edge(1, 33).
edge(48, 167).
edge(73, 172).
edge(14, 33).
edge(97, 120).
edge(50, 54).
edge(93, 166).
edge(17, 164).
edge(1, 146).
edge(98, 108).
edge(83, 133).
edge(96, 155).
edge(54, 162).
edge(32, 86).
edge(118, 126).
edge(10, 117).
edge(136, 153).
edge(41, 102).
edge(11, 30).
edge(89, 141).
edge(26, 104).
edge(48, 51).
edge(32, 141).
edge(27, 59).
edge(108, 156).
edge(85, 143).
edge(48, 134).
edge(91, 138).
edge(20, 107).
edge(46, 153).
edge(7, 43).
edge(1, 96).
edge(65, 146).
edge(33, 122).
edge(138, 157).
edge(63, 160).
edge(128, 140).
edge(43, 107).
edge(21, 169).
edge(69, 147).
edge(26, 72).
edge(22, 157).
edge(65, 107).
edge(36, 153).
edge(91, 166).
edge(118, 138).
edge(90, 153).
edge(77, 161).
edge(148, 164).
edge(67, 83).
edge(52, 87).
edge(1, 123).
edge(0, 6).
edge(114, 133).
edge(41, 89).
edge(28, 73).
edge(43, 113).
edge(27, 152).
edge(16, 67).
edge(75, 147).
edge(74, 159).
edge(54, 95).
edge(42, 150).
edge(28, 63).
edge(60, 102).
edge(125, 133).
edge(17, 102).
edge(1, 27).
edge(75, 136).
edge(9, 103).
edge(66, 164).
edge(59, 103).
edge(105, 161).
edge(5, 60).
edge(56, 95).
edge(3, 71).
edge(47, 70).
edge(44, 148).
edge(6, 165).
edge(117, 164).
edge(33, 88).
edge(0, 155).
edge(52, 90).
edge(36, 67).
edge(4, 79).
edge(15, 73).
edge(8, 153).
edge(22, 77).
edge(33, 128).
edge(72, 91).
edge(24, 53).
edge(80, 155).
edge(129, 149).
edge(95, 117).
edge(49, 109).
edge(111, 154).
edge(35, 168).
edge(104, 136).
edge(38, 143).
edge(34, 172).
edge(83, 157).
edge(28, 132).
edge(40, 105).
edge(92, 162).
edge(135, 141).
edge(81, 82).
edge(66, 139).
edge(146, 165).
edge(90, 125).
edge(50, 143).
edge(72, 93).
edge(58, 164).
edge(129, 154).
edge(71, 96).
edge(17, 37).
edge(28, 86).
edge(124, 151).
edge(120, 153).
edge(121, 169).
edge(31, 129).
edge(31, 122).
edge(128, 139).
edge(102, 158).
edge(4, 154).
edge(48, 137).
edge(25, 169).
edge(107, 141).
edge(79, 90).
edge(38, 171).
edge(93, 120).
edge(45, 105).
edge(14, 159).
edge(42, 125).
edge(94, 124).
edge(11, 89).
edge(10, 108).
edge(59, 136).
edge(12, 41).
edge(38, 97).
edge(0, 151).
edge(107, 127).
edge(105, 172).
edge(79, 112).
edge(97, 99).
edge(47, 128).
edge(106, 173).
edge(12, 107).
edge(27, 104).
edge(20, 158).
edge(35, 36).
edge(23, 54).
edge(116, 167).
edge(104, 151).
edge(94, 95).
edge(156, 164).
edge(77, 102).
edge(78, 140).
edge(33, 56).
edge(0, 7).
edge(20, 152).
edge(78, 87).
edge(81, 89).
edge(31, 34).
edge(21, 78).
edge(3, 26).
edge(76, 154).
edge(101, 161).
edge(44, 146).
edge(100, 109).
edge(58, 66).
edge(82, 100).
edge(16, 123).
edge(98, 135).
edge(36, 70).
edge(71, 113).
edge(158, 167).
edge(5, 37).
edge(84, 144).
edge(112, 168).
edge(10, 62).
edge(65, 69).
edge(72, 152).
edge(127, 143).
edge(61, 78).
edge(27, 62).
edge(11, 75).
edge(100, 143).
edge(11, 14).
edge(1, 10).
edge(130, 144).
edge(75, 113).
edge(32, 168).
edge(13, 90).
edge(98, 151).
edge(17, 35).
edge(3, 165).
edge(21, 69).
edge(2, 108).
edge(58, 63).
edge(85, 145).
edge(80, 165).
edge(50, 158).
edge(40, 172).
edge(85, 101).
edge(96, 142).
edge(97, 107).
edge(42, 126).
edge(97, 114).
edge(64, 159).
edge(18, 146).
edge(75, 124).
edge(33, 135).
edge(53, 146).
edge(30, 105).
edge(44, 69).
edge(17, 58).
edge(27, 145).
edge(119, 136).
edge(94, 159).
edge(14, 127).
edge(14, 76).
edge(18, 22).
edge(53, 97).
edge(14, 157).
edge(39, 96).
edge(131, 136).
edge(15, 75).
edge(46, 79).
edge(66, 138).
edge(84, 89).
edge(62, 168).
edge(54, 117).
edge(4, 107).
edge(70, 135).
edge(141, 165).
edge(67, 152).
edge(124, 147).
edge(73, 80).
edge(89, 103).
edge(0, 87).
edge(10, 119).
edge(109, 112).
edge(152, 155).
edge(44, 54).
edge(91, 172).
edge(124, 158).
edge(121, 158).
edge(31, 121).
edge(87, 146).
edge(46, 165).
edge(55, 64).
edge(16, 151).
edge(58, 170).
edge(172, 173).
edge(23, 171).
edge(100, 123).
edge(68, 113).
edge(98, 147).
edge(22, 100).
edge(70, 172).
edge(19, 163).
edge(56, 158).
edge(65, 82).
edge(56, 159).
edge(85, 135).
edge(30, 168).
edge(57, 65).
edge(32, 144).
edge(83, 166).
edge(11, 111).
edge(104, 163).
edge(26, 53).
edge(108, 161).
edge(122, 138).
edge(2, 49).
edge(131, 173).
edge(13, 146).
edge(128, 155).
edge(46, 173).
edge(25, 122).
edge(13, 140).
edge(80, 105).
edge(65, 119).
edge(34, 97).
edge(77, 156).
edge(118, 119).
edge(67, 129).
edge(41, 50).
edge(8, 24).
edge(67, 92).
edge(9, 139).
edge(61, 120).
edge(121, 139).
edge(54, 82).
edge(65, 66).
edge(71, 152).
edge(15, 167).
edge(143, 153).
edge(52, 124).
edge(28, 38).
edge(107, 153).
edge(15, 25).
edge(40, 48).
edge(9, 162).
edge(43, 92).
edge(11, 115).
edge(106, 142).
edge(135, 157).
edge(85, 159).
edge(46, 97).
edge(31, 42).
edge(43, 156).
edge(34, 89).
edge(38, 111).
edge(81, 154).
edge(97, 169).
edge(62, 111).
edge(94, 164).
edge(34, 42).
edge(16, 53).
edge(65, 150).
edge(40, 160).
edge(47, 85).
edge(141, 156).
edge(28, 140).
edge(18, 85).
edge(77, 118).
edge(28, 134).
edge(135, 163).
edge(59, 75).
edge(127, 170).
edge(3, 122).
edge(57, 130).
edge(85, 144).
edge(90, 95).
edge(43, 109).
edge(11, 116).
edge(108, 157).
edge(106, 127).
edge(35, 159).
edge(53, 162).
edge(11, 159).
edge(33, 35).
edge(46, 92).
edge(78, 174).
edge(18, 39).
edge(18, 162).
edge(55, 99).
edge(22, 136).
edge(64, 155).
edge(71, 125).
edge(66, 105).
edge(123, 167).
edge(61, 128).
edge(18, 69).
edge(25, 127).
edge(136, 163).
edge(37, 38).
edge(27, 154).
edge(21, 107).
edge(114, 139).
edge(3, 17).
edge(12, 116).
edge(13, 50).
edge(104, 106).
edge(16, 127).
edge(77, 80).
edge(79, 153).
edge(67, 115).
edge(129, 169).
edge(4, 95).
edge(5, 49).
edge(72, 78).
edge(33, 62).
edge(47, 82).
edge(13, 111).
edge(39, 153).
edge(99, 116).
edge(106, 108).
edge(13, 60).
edge(119, 121).
edge(66, 108).
edge(3, 160).
edge(23, 167).
edge(26, 87).
edge(5, 98).
edge(53, 159).
edge(70, 119).
edge(1, 91).
edge(63, 120).
edge(122, 159).
edge(71, 167).
edge(7, 96).
edge(60, 105).
edge(44, 125).
edge(23, 155).
edge(44, 90).
edge(64, 101).
edge(88, 102).
edge(40, 95).
edge(0, 14).
edge(34, 140).
edge(11, 76).
edge(43, 160).
edge(29, 77).
edge(44, 101).
edge(18, 112).
edge(63, 79).
edge(38, 124).
edge(104, 160).
edge(41, 62).
edge(22, 124).
edge(3, 76).
edge(99, 110).
edge(92, 119).
edge(22, 62).
edge(69, 101).
edge(120, 146).
edge(132, 142).
edge(5, 64).
edge(86, 156).
edge(19, 51).
edge(11, 126).
edge(123, 142).
edge(13, 116).
edge(53, 69).
edge(40, 104).
edge(52, 62).
edge(74, 173).
edge(46, 67).
edge(10, 147).
edge(152, 168).
edge(45, 109).
edge(26, 28).
edge(23, 44).
edge(4, 171).
edge(130, 155).
edge(109, 144).
edge(34, 76).
edge(30, 55).
edge(97, 140).
edge(76, 93).
edge(33, 117).
edge(145, 155).
edge(25, 159).
edge(166, 172).
edge(2, 57).
edge(23, 47).
edge(2, 125).
edge(14, 115).
edge(130, 151).
edge(27, 101).
edge(88, 142).
edge(62, 74).
edge(10, 168).
edge(86, 168).
edge(59, 132).
edge(11, 67).
edge(8, 150).
edge(64, 148).
edge(2, 62).
edge(86, 126).
edge(45, 148).
edge(78, 145).
edge(2, 12).
edge(56, 65).
edge(77, 107).
edge(61, 126).
edge(88, 143).
edge(22, 110).
edge(20, 42).
edge(26, 56).
edge(120, 139).
edge(2, 143).
edge(144, 163).
edge(27, 85).
edge(9, 134).
edge(5, 142).
edge(35, 164).
edge(53, 135).
edge(87, 157).
edge(78, 165).
edge(24, 54).
edge(55, 84).
edge(55, 91).
edge(47, 153).
edge(96, 121).
edge(99, 117).
edge(9, 70).
edge(9, 32).
edge(54, 106).
edge(15, 143).
edge(131, 150).
edge(5, 29).
edge(9, 159).
edge(89, 108).
edge(32, 174).
edge(23, 57).
edge(42, 71).
edge(85, 147).
edge(44, 114).
edge(42, 142).
edge(108, 137).
edge(18, 128).
edge(120, 161).
edge(13, 129).
edge(125, 160).
edge(38, 118).
edge(30, 130).
edge(56, 155).
edge(21, 51).
edge(73, 116).
edge(18, 107).
edge(42, 69).
edge(46, 77).
edge(110, 172).
edge(62, 163).
edge(11, 62).
edge(24, 32).
edge(58, 71).
edge(0, 81).
edge(26, 159).
edge(111, 141).
edge(20, 133).
edge(124, 155).
edge(82, 162).
edge(50, 63).
edge(113, 153).
edge(57, 103).
edge(21, 109).
edge(96, 166).
edge(68, 163).
edge(132, 145).
edge(78, 104).
edge(17, 95).
edge(55, 92).
edge(126, 165).
edge(1, 13).
edge(106, 121).
edge(22, 33).
edge(30, 153).
edge(13, 57).
edge(16, 170).
edge(97, 151).
edge(73, 155).
edge(54, 102).
edge(96, 128).
edge(91, 127).
edge(40, 119).
edge(154, 167).
edge(52, 132).
edge(113, 144).
edge(16, 130).
edge(31, 68).
edge(35, 55).
edge(126, 160).
edge(34, 45).
edge(13, 25).
edge(5, 50).
edge(8, 72).
edge(119, 148).
edge(5, 13).
edge(31, 163).
edge(145, 150).
edge(72, 125).
edge(45, 132).
edge(13, 99).
edge(52, 135).
edge(59, 126).
edge(114, 150).
edge(7, 76).
edge(118, 166).
edge(52, 99).
edge(24, 77).
edge(100, 136).
edge(100, 135).
edge(5, 106).
edge(41, 100).
edge(90, 109).
edge(34, 58).
edge(61, 69).
edge(33, 36).
edge(43, 124).
edge(22, 142).
edge(61, 161).
edge(52, 79).
edge(27, 64).
edge(6, 159).
edge(1, 48).
edge(64, 173).
edge(76, 104).
edge(41, 154).
edge(49, 137).
edge(36, 125).
edge(4, 53).
edge(65, 109).
edge(102, 164).
edge(123, 135).
edge(16, 73).
edge(50, 104).
edge(20, 24).
edge(77, 123).
edge(42, 166).
edge(18, 38).
edge(44, 135).
edge(127, 164).
edge(95, 108).
edge(58, 98).
edge(115, 145).
edge(1, 167).
edge(90, 169).
edge(14, 131).
edge(56, 92).
edge(31, 38).
edge(48, 89).
edge(1, 169).
edge(77, 126).
edge(71, 174).
edge(100, 106).
edge(84, 141).
edge(28, 50).
edge(47, 159).
edge(12, 150).
edge(0, 28).
edge(19, 47).
edge(36, 161).
edge(120, 141).
edge(9, 105).
edge(108, 149).
edge(24, 125).
edge(4, 159).
edge(54, 133).
edge(0, 42).
edge(86, 154).
edge(33, 151).
edge(19, 96).
edge(118, 147).
edge(117, 127).
edge(7, 148).
edge(98, 148).
edge(123, 171).
edge(86, 155).
edge(28, 103).
edge(7, 51).
edge(76, 138).
edge(65, 142).
edge(3, 119).
edge(105, 108).
edge(86, 167).
edge(88, 127).
edge(7, 48).
edge(116, 168).
edge(132, 149).
edge(26, 143).
edge(32, 125).
edge(85, 171).
edge(88, 116).
edge(71, 114).
edge(76, 172).
edge(87, 149).
edge(30, 87).
edge(65, 100).
edge(43, 114).
edge(4, 59).
edge(19, 171).
edge(49, 66).
edge(48, 64).
edge(8, 143).
edge(1, 127).
edge(89, 137).
edge(58, 93).
edge(4, 147).
edge(138, 156).
edge(43, 97).
edge(90, 137).
edge(65, 151).
edge(74, 147).
edge(57, 58).
edge(18, 172).
edge(130, 157).
edge(131, 158).
edge(63, 162).
edge(59, 149).
edge(11, 54).
edge(99, 156).
edge(56, 143).
edge(2, 154).
edge(122, 147).
edge(19, 52).
edge(126, 168).
edge(56, 132).
edge(108, 169).
edge(99, 149).
edge(77, 141).
edge(55, 141).
edge(55, 150).
edge(7, 150).
edge(39, 142).
edge(8, 87).
edge(2, 155).
edge(108, 158).
edge(34, 122).
edge(71, 164).
edge(53, 125).
edge(24, 71).
edge(39, 79).
edge(13, 56).
edge(57, 104).
edge(77, 160).
edge(33, 139).
edge(3, 19).
edge(97, 115).
edge(87, 166).
edge(14, 146).
edge(51, 104).
edge(137, 140).
edge(52, 173).
edge(64, 103).
edge(27, 160).
edge(67, 136).
edge(125, 128).
edge(106, 126).
edge(98, 109).
edge(111, 164).
edge(22, 83).
edge(83, 139).
edge(125, 147).
edge(12, 47).
edge(52, 159).
edge(84, 101).
edge(39, 43).
edge(38, 104).
edge(10, 40).
edge(55, 126).
edge(20, 30).
edge(37, 74).
edge(66, 81).
edge(62, 89).
edge(57, 71).
edge(121, 135).
edge(75, 80).
edge(20, 50).
edge(107, 115).
edge(42, 171).
edge(61, 165).
edge(8, 84).
edge(75, 148).
edge(79, 109).
edge(82, 106).
edge(49, 103).
edge(94, 107).
edge(150, 169).
edge(130, 148).
edge(45, 65).
edge(54, 127).
edge(31, 54).
edge(70, 101).
edge(117, 130).
edge(52, 155).
edge(27, 153).
edge(49, 165).
edge(135, 140).
edge(45, 139).
edge(2, 123).
edge(49, 70).
edge(44, 129).
edge(0, 96).
edge(50, 172).
edge(34, 103).
edge(33, 134).
edge(84, 127).
edge(2, 26).
edge(77, 96).
edge(82, 165).
edge(71, 129).
edge(26, 163).
edge(14, 81).
edge(111, 167).
edge(33, 37).
edge(41, 73).
edge(66, 146).
edge(82, 142).
edge(92, 173).
edge(66, 92).
edge(80, 110).
edge(44, 172).
edge(126, 152).
edge(42, 157).
edge(17, 96).
edge(41, 84).
edge(49, 138).
edge(52, 107).
edge(13, 94).
edge(41, 163).
edge(123, 168).
edge(96, 141).
edge(6, 128).
edge(75, 151).
edge(43, 55).
edge(37, 166).
edge(93, 155).
edge(8, 32).
edge(77, 122).
edge(76, 174).
edge(75, 92).
edge(38, 134).
edge(30, 161).
edge(77, 88).
edge(49, 157).
edge(142, 153).
edge(48, 174).
edge(25, 142).
edge(109, 158).
edge(9, 15).
edge(103, 126).
edge(20, 167).
edge(76, 132).
edge(35, 87).
edge(30, 144).
edge(130, 142).
edge(25, 126).
edge(21, 115).
edge(50, 151).
edge(134, 171).
edge(57, 112).
edge(48, 153).
edge(60, 130).
edge(21, 171).
edge(37, 163).
edge(6, 24).
edge(62, 145).
edge(127, 138).
edge(10, 107).
edge(19, 49).
edge(103, 159).
edge(41, 61).
edge(27, 157).
edge(82, 127).
edge(89, 148).
edge(102, 140).
edge(12, 146).
edge(55, 124).
edge(28, 102).
edge(61, 110).
edge(5, 133).
edge(18, 78).
edge(23, 28).
edge(106, 112).
edge(19, 116).
edge(109, 153).
edge(140, 159).
edge(46, 141).
edge(24, 83).
edge(74, 89).
edge(9, 75).
edge(63, 70).
edge(148, 154).
edge(9, 54).
edge(31, 135).
edge(80, 99).
edge(31, 49).
edge(42, 59).
edge(40, 121).
edge(13, 69).
edge(46, 96).
edge(19, 36).
edge(29, 141).
edge(70, 102).
edge(29, 64).
edge(54, 66).
edge(5, 95).
edge(44, 80).
edge(83, 128).
edge(4, 55).
edge(75, 127).
edge(78, 149).
edge(86, 104).
edge(42, 136).
edge(5, 80).
edge(52, 59).
edge(144, 157).
edge(46, 159).
edge(151, 164).
edge(40, 89).
edge(18, 133).
edge(40, 145).
edge(149, 169).
edge(53, 75).
edge(46, 58).
edge(36, 58).
edge(18, 47).
edge(151, 156).
edge(33, 64).
edge(45, 83).
edge(27, 133).
edge(10, 171).
edge(53, 72).
edge(58, 159).
edge(47, 98).
edge(97, 172).
edge(71, 77).
edge(49, 122).
edge(37, 158).
edge(24, 86).
edge(15, 136).
edge(59, 152).
edge(41, 74).
edge(64, 79).
edge(74, 162).
edge(18, 161).
edge(11, 167).
edge(2, 51).
edge(50, 120).
edge(65, 94).
edge(64, 117).
edge(59, 138).
edge(30, 54).
edge(121, 161).
edge(32, 102).
edge(97, 108).
edge(51, 100).
edge(122, 155).
edge(66, 69).
edge(1, 9).
edge(32, 69).
edge(29, 96).
edge(23, 30).
edge(100, 133).
edge(50, 160).
edge(60, 110).
edge(54, 111).
edge(90, 151).
edge(79, 80).
edge(31, 174).
edge(34, 93).
edge(19, 113).
edge(74, 82).
edge(57, 97).
edge(165, 170).
edge(44, 156).
edge(3, 106).
edge(26, 127).
edge(75, 103).
edge(28, 65).
edge(102, 150).
edge(69, 76).
edge(21, 47).
edge(11, 105).
edge(23, 162).
edge(54, 79).
edge(72, 84).
edge(9, 172).
edge(126, 171).
edge(130, 167).
edge(115, 123).
edge(95, 128).
edge(91, 92).
edge(43, 87).
edge(27, 111).
edge(50, 70).
edge(114, 168).
edge(0, 116).
edge(153, 170).
edge(92, 108).
edge(64, 66).
edge(37, 87).
edge(117, 134).
edge(21, 149).
edge(99, 141).
edge(13, 28).
edge(96, 125).
edge(92, 161).
edge(11, 65).
edge(57, 147).
edge(16, 145).
edge(4, 34).
edge(80, 124).
edge(86, 89).
edge(118, 128).
edge(75, 82).
edge(47, 101).
edge(5, 115).
edge(26, 121).
edge(11, 130).
edge(25, 38).
edge(63, 169).
edge(26, 136).
edge(49, 68).
edge(40, 75).
edge(100, 150).
edge(7, 158).
edge(0, 127).
edge(23, 51).
edge(136, 148).
edge(23, 142).
edge(18, 119).
edge(127, 166).
edge(80, 102).
edge(36, 165).
edge(35, 63).
edge(61, 141).
edge(6, 28).
edge(17, 91).
edge(62, 147).
edge(76, 145).
edge(21, 159).
edge(26, 160).
edge(30, 103).
edge(77, 111).
edge(142, 156).
edge(139, 161).
edge(80, 145).
edge(136, 139).
edge(13, 155).
edge(30, 72).
edge(3, 53).
edge(96, 100).
edge(73, 149).
edge(69, 130).
edge(83, 159).
edge(82, 102).
edge(28, 121).
edge(29, 40).
edge(25, 168).
edge(44, 52).
edge(99, 174).
edge(67, 124).
edge(24, 95).
edge(45, 55).
edge(37, 140).
edge(72, 129).
edge(36, 174).
edge(60, 113).
edge(108, 164).
edge(54, 164).
edge(47, 157).
edge(113, 143).
edge(77, 79).
edge(33, 60).
edge(22, 128).
edge(9, 60).
edge(27, 127).
edge(70, 118).
edge(42, 84).
edge(3, 125).
edge(98, 126).
edge(40, 61).
edge(106, 134).
edge(15, 64).
edge(84, 137).
edge(27, 132).
edge(97, 165).
edge(120, 131).
edge(16, 166).
edge(139, 173).
edge(9, 91).
edge(3, 10).
edge(49, 140).
edge(8, 64).
edge(1, 93).
edge(15, 92).
edge(25, 66).
edge(10, 31).
edge(151, 166).
edge(72, 146).
edge(65, 80).
edge(58, 88).
edge(100, 131).
edge(59, 160).
edge(37, 172).
edge(3, 59).
edge(129, 132).
edge(105, 150).
edge(3, 145).
edge(86, 100).
edge(75, 126).
edge(49, 170).
edge(40, 57).
edge(66, 90).
edge(83, 100).
edge(36, 105).
edge(1, 107).
edge(50, 119).
edge(139, 156).
edge(88, 152).
edge(56, 135).
edge(12, 68).
edge(72, 100).
edge(89, 113).
edge(48, 69).
edge(14, 96).
edge(88, 169).
edge(0, 8).
edge(57, 99).
edge(133, 145).
edge(53, 145).
edge(9, 24).
edge(1, 68).
edge(4, 89).
edge(48, 130).
edge(17, 56).
edge(19, 27).
edge(101, 114).
edge(116, 174).
edge(57, 74).
edge(21, 37).
edge(5, 150).
edge(36, 50).
edge(122, 130).
edge(37, 123).
edge(120, 168).
edge(33, 145).
edge(31, 136).
edge(7, 145).
edge(101, 172).
edge(139, 166).
edge(51, 70).
edge(131, 165).
edge(77, 165).
edge(52, 69).
edge(30, 53).
edge(163, 167).
edge(30, 163).
edge(43, 145).
edge(105, 169).
edge(121, 136).
edge(18, 21).
edge(52, 70).
edge(32, 114).
edge(68, 162).
edge(34, 144).
edge(102, 163).
edge(29, 83).
edge(10, 23).
edge(10, 88).
edge(61, 133).
edge(70, 139).
edge(32, 139).
edge(74, 152).
edge(1, 44).
edge(79, 133).
edge(8, 92).
edge(120, 124).
edge(36, 145).
edge(74, 130).
edge(21, 24).
edge(11, 92).
edge(153, 159).
edge(74, 115).
edge(25, 54).
edge(120, 129).
edge(39, 120).
edge(97, 143).
edge(0, 15).
edge(134, 144).
edge(54, 99).
edge(17, 80).
edge(114, 156).
edge(15, 76).
edge(66, 137).
edge(52, 56).
edge(108, 133).
edge(69, 158).
edge(0, 117).
edge(123, 133).
edge(149, 173).
edge(146, 152).
edge(41, 158).
edge(21, 126).
edge(18, 20).
edge(92, 158).
edge(153, 162).
edge(62, 131).
edge(27, 56).
edge(31, 140).
edge(51, 171).
edge(21, 160).
edge(48, 140).
edge(69, 87).
edge(12, 174).
edge(50, 136).
edge(55, 159).
edge(38, 67).
edge(145, 163).
edge(39, 158).
edge(18, 30).
edge(11, 123).
edge(29, 94).
edge(60, 99).
edge(131, 155).
edge(63, 75).
edge(60, 75).
edge(29, 31).
edge(90, 96).
edge(29, 81).
edge(33, 100).
edge(77, 145).
edge(60, 131).
edge(51, 93).
edge(50, 61).
edge(29, 52).
edge(57, 100).
edge(58, 105).
edge(96, 173).
edge(57, 60).
edge(8, 165).
edge(44, 141).
edge(2, 13).
edge(4, 87).
edge(50, 65).
edge(125, 145).
edge(81, 152).
edge(8, 59).
edge(142, 160).
edge(77, 106).
edge(86, 96).
edge(2, 167).
edge(60, 114).
edge(2, 50).
edge(146, 170).
edge(13, 121).
edge(32, 54).
edge(4, 161).
edge(22, 91).
edge(51, 66).
edge(36, 117).
edge(16, 103).
edge(68, 89).
edge(67, 114).
edge(87, 102).
edge(22, 101).
edge(115, 125).
edge(1, 66).
edge(101, 125).
edge(96, 111).
edge(73, 127).
edge(11, 26).
edge(74, 75).
edge(11, 128).
edge(65, 143).
edge(28, 126).
edge(19, 112).
edge(20, 97).
edge(10, 133).
edge(20, 95).
edge(150, 168).
edge(117, 122).
edge(48, 157).
edge(12, 56).
edge(71, 119).
edge(1, 12).
edge(99, 147).
edge(16, 112).
edge(54, 98).
edge(135, 169).
edge(29, 104).
edge(15, 109).
edge(116, 161).
edge(79, 167).
edge(44, 166).
edge(26, 156).
edge(125, 152).
edge(106, 148).
edge(50, 130).
edge(11, 142).
edge(13, 89).
edge(3, 151).
edge(135, 173).
edge(63, 73).
edge(38, 129).
edge(28, 105).
edge(49, 56).
edge(132, 168).
edge(167, 171).
edge(151, 162).
edge(91, 167).
edge(62, 93).
edge(12, 67).
edge(72, 89).
edge(23, 106).
edge(95, 153).
edge(84, 140).
edge(36, 167).
edge(58, 100).
edge(147, 172).
edge(81, 86).
edge(26, 115).
edge(127, 128).
edge(10, 98).
edge(42, 153).
edge(13, 39).
edge(65, 141).
edge(19, 148).
edge(47, 52).
edge(89, 98).
edge(41, 47).
edge(68, 164).
edge(44, 168).
edge(50, 135).
edge(67, 148).
edge(90, 157).
edge(36, 144).
edge(15, 22).
edge(20, 121).
edge(129, 142).
edge(122, 124).
edge(46, 94).
edge(108, 127).
edge(41, 88).
edge(24, 94).
edge(38, 81).
edge(27, 121).
edge(96, 123).
edge(103, 108).
edge(83, 156).
edge(1, 49).
edge(102, 149).
edge(8, 162).
edge(34, 120).
edge(93, 153).
edge(52, 134).
edge(8, 34).
edge(36, 84).
edge(19, 58).
edge(88, 114).
edge(77, 133).
edge(56, 134).
edge(35, 59).
edge(133, 156).
edge(74, 88).
edge(17, 134).
edge(32, 43).
edge(54, 61).
edge(157, 167).
edge(98, 130).
edge(14, 97).
edge(29, 91).
edge(14, 84).
edge(88, 173).
edge(74, 119).
edge(26, 123).
edge(82, 167).
edge(2, 54).
edge(27, 36).
edge(58, 150).
edge(75, 140).
edge(47, 121).
edge(142, 144).
edge(51, 113).
edge(25, 172).
edge(62, 105).
edge(70, 145).
edge(55, 167).
edge(17, 124).
edge(22, 42).
edge(112, 156).
edge(2, 42).
edge(7, 162).
edge(131, 142).
edge(62, 149).
edge(70, 92).
edge(105, 152).
edge(79, 159).
edge(14, 151).
edge(64, 133).
edge(18, 115).
edge(108, 110).
edge(105, 143).
edge(12, 69).
edge(104, 105).
edge(16, 34).
edge(108, 125).
edge(74, 170).
edge(18, 25).
edge(13, 128).
edge(41, 54).
edge(1, 134).
edge(20, 85).
edge(144, 145).
edge(23, 139).
edge(77, 82).
edge(1, 112).
edge(54, 115).
edge(111, 112).
edge(2, 147).
edge(84, 149).
edge(147, 149).
edge(47, 124).
edge(149, 162).
edge(14, 112).
edge(37, 71).
edge(8, 128).
edge(77, 105).
edge(124, 133).
edge(146, 164).
edge(41, 103).
edge(59, 102).
edge(11, 97).
edge(44, 103).
edge(127, 140).
edge(71, 116).
edge(10, 135).
edge(33, 148).
edge(128, 168).
edge(33, 82).
edge(97, 136).
edge(18, 138).
edge(49, 65).
edge(63, 171).
edge(70, 94).
edge(30, 42).
edge(115, 129).
edge(27, 129).
edge(146, 159).
edge(21, 119).
edge(6, 153).
edge(89, 136).
edge(55, 116).
edge(109, 121).
edge(20, 146).
edge(79, 88).
edge(1, 63).
edge(9, 125).
edge(13, 34).
edge(83, 167).
edge(39, 143).
edge(89, 130).
edge(86, 118).
edge(125, 163).
edge(33, 74).
edge(91, 150).
edge(69, 133).
edge(10, 82).
edge(14, 101).
edge(17, 154).
edge(45, 142).
edge(20, 81).
edge(56, 144).
edge(88, 141).
edge(64, 65).
edge(51, 65).
edge(92, 113).
edge(87, 144).
edge(96, 102).
edge(43, 77).
edge(50, 91).
edge(12, 135).
edge(9, 138).
edge(26, 74).
edge(30, 122).
edge(8, 15).
edge(0, 69).
edge(77, 116).
edge(67, 89).
edge(20, 130).
edge(79, 82).
edge(75, 100).
edge(53, 88).
edge(20, 36).
edge(73, 173).
edge(68, 160).
edge(57, 131).
edge(5, 55).
edge(38, 106).
edge(91, 158).
edge(92, 171).
edge(101, 121).
edge(122, 151).
edge(46, 128).
edge(119, 169).
edge(16, 150).
edge(30, 85).
edge(1, 14).
edge(52, 170).
edge(37, 56).
edge(49, 67).
edge(41, 95).
edge(95, 122).
edge(24, 76).
edge(112, 152).
edge(140, 158).
edge(60, 79).
edge(17, 174).
edge(99, 118).
edge(12, 64).
edge(9, 21).
edge(20, 93).
edge(76, 125).
edge(70, 147).
edge(14, 125).
edge(164, 174).
edge(60, 86).
edge(80, 167).
edge(15, 122).
edge(7, 122).
edge(13, 46).
edge(13, 43).
edge(127, 169).
edge(90, 114).
edge(99, 170).
edge(24, 48).
edge(77, 81).
edge(38, 149).
edge(90, 159).
edge(15, 130).
edge(31, 127).
edge(101, 137).
edge(34, 48).
edge(8, 63).
edge(73, 85).
edge(28, 147).
edge(105, 162).
edge(42, 160).
edge(96, 105).
edge(56, 113).
edge(109, 148).
edge(6, 17).
edge(79, 106).
edge(27, 125).
edge(43, 48).
edge(68, 148).
edge(13, 147).
edge(22, 163).
edge(86, 116).
edge(99, 140).
edge(125, 139).
edge(43, 116).
edge(147, 167).
edge(144, 173).
edge(16, 106).
edge(72, 116).
edge(105, 170).
edge(11, 113).
edge(50, 106).
edge(20, 143).
edge(26, 42).
edge(45, 156).
edge(88, 149).
edge(18, 24).
edge(55, 104).
edge(92, 148).
edge(150, 165).
edge(67, 116).
edge(100, 103).
edge(92, 94).
edge(133, 134).
edge(75, 123).
edge(90, 104).
edge(1, 18).
edge(76, 128).
edge(47, 53).
edge(70, 128).
edge(16, 24).
edge(12, 173).
edge(95, 111).
edge(60, 117).
edge(126, 147).
edge(10, 139).
edge(25, 72).
edge(35, 161).
edge(31, 160).
edge(36, 132).
edge(103, 114).
edge(144, 160).
edge(109, 146).
edge(24, 93).
edge(133, 141).
edge(137, 168).
edge(57, 142).
edge(109, 114).
edge(42, 134).
edge(46, 81).
edge(118, 140).
edge(15, 85).
edge(103, 111).
edge(102, 109).
edge(65, 159).
edge(68, 118).
edge(15, 68).
edge(30, 141).
edge(130, 132).
edge(6, 158).
edge(138, 143).
edge(43, 93).
edge(152, 161).
edge(10, 156).
edge(49, 74).
edge(45, 54).
edge(142, 170).
edge(165, 169).
edge(49, 153).
edge(34, 94).
edge(42, 129).
edge(33, 137).
edge(117, 165).
edge(48, 142).
edge(43, 45).
edge(41, 107).
edge(93, 111).
edge(66, 74).
edge(39, 131).
edge(96, 130).
edge(13, 36).
edge(26, 94).
edge(37, 53).
edge(5, 126).
edge(35, 108).
edge(35, 110).
edge(37, 150).
edge(19, 92).
edge(11, 162).
edge(73, 94).
edge(70, 103).
edge(65, 96).
edge(37, 143).
edge(137, 145).
edge(24, 143).
edge(49, 151).
edge(13, 162).
edge(45, 130).
edge(56, 93).
edge(12, 126).
edge(21, 74).
edge(11, 152).
edge(41, 112).
edge(20, 21).
edge(42, 174).
edge(0, 128).
edge(102, 171).
edge(34, 100).
edge(21, 63).
edge(68, 167).
edge(112, 173).
edge(43, 101).
edge(28, 30).
edge(8, 31).
edge(72, 114).
edge(38, 156).
edge(116, 138).
edge(50, 146).
edge(15, 23).
edge(10, 165).
edge(95, 139).
edge(104, 141).
edge(98, 154).
edge(36, 96).
edge(15, 67).
edge(69, 120).
edge(88, 125).
edge(98, 139).
edge(40, 130).
edge(1, 22).
edge(47, 148).
edge(10, 173).
edge(69, 110).
edge(72, 149).
edge(79, 132).
edge(66, 124).
edge(91, 149).
edge(135, 147).
edge(17, 133).
edge(10, 142).
edge(86, 93).
edge(3, 13).
edge(46, 145).
edge(119, 172).
edge(27, 57).
edge(68, 157).
edge(17, 67).
edge(12, 37).
edge(93, 125).
edge(45, 52).
edge(95, 158).
edge(59, 99).
edge(24, 52).
edge(92, 102).
edge(93, 168).
edge(10, 24).
edge(66, 73).
edge(53, 141).
edge(117, 172).
edge(12, 24).
edge(8, 17).
edge(87, 108).
edge(54, 137).
edge(38, 48).
edge(0, 158).
edge(14, 55).
edge(75, 162).
edge(70, 148).
edge(8, 149).
edge(41, 87).
edge(146, 150).
edge(92, 153).
edge(86, 145).
edge(19, 102).
edge(44, 62).
edge(32, 119).
edge(30, 116).
edge(58, 142).
edge(47, 152).
edge(69, 159).
edge(33, 79).
edge(77, 95).
edge(7, 125).
edge(17, 170).
edge(7, 130).
edge(56, 146).
edge(111, 127).
edge(40, 149).
edge(2, 138).
edge(79, 125).
edge(39, 91).
edge(18, 28).
edge(92, 118).
edge(96, 144).
edge(23, 108).
edge(0, 39).
edge(16, 85).
edge(3, 81).
edge(55, 85).
edge(114, 117).
edge(49, 79).
edge(137, 163).
edge(59, 153).
edge(118, 125).
edge(61, 137).
edge(1, 156).
edge(31, 67).
edge(9, 37).
edge(149, 174).
edge(78, 103).
edge(42, 132).
edge(53, 150).
edge(23, 86).
edge(18, 84).
edge(49, 63).
edge(130, 137).
edge(130, 161).
edge(105, 120).
edge(96, 151).
edge(80, 148).
edge(78, 82).
edge(15, 133).
edge(4, 41).
edge(55, 174).
edge(79, 162).
edge(80, 122).
edge(77, 108).
edge(73, 145).
edge(116, 172).
edge(61, 65).
edge(46, 108).
edge(49, 82).
edge(91, 162).
edge(27, 92).
edge(49, 94).
edge(57, 117).
edge(111, 121).
edge(4, 7).
edge(21, 172).
edge(92, 95).
edge(163, 169).
edge(38, 138).
edge(110, 149).
edge(12, 72).
edge(120, 152).
edge(1, 172).
edge(18, 48).
edge(6, 142).
edge(109, 160).
edge(91, 151).
edge(64, 118).
edge(38, 39).
edge(71, 105).
edge(4, 103).
edge(86, 150).
edge(60, 119).
edge(14, 69).
edge(110, 129).
edge(44, 96).
edge(4, 125).
edge(54, 128).
edge(71, 83).
edge(32, 161).
edge(33, 161).
edge(115, 119).
edge(13, 124).
edge(103, 107).
edge(79, 139).
edge(64, 153).
edge(21, 80).
edge(17, 76).
edge(22, 49).
edge(76, 103).
edge(89, 132).
edge(106, 146).
edge(119, 163).
edge(47, 81).
edge(84, 152).
edge(160, 161).
edge(14, 73).
edge(32, 63).
edge(19, 147).
edge(80, 88).
edge(61, 147).
edge(4, 121).
edge(56, 71).
edge(30, 37).
edge(107, 159).
edge(42, 97).
edge(83, 125).
edge(54, 166).
edge(16, 87).
edge(169, 173).
edge(13, 117).
edge(102, 117).
edge(18, 110).
edge(21, 55).
edge(35, 126).
edge(20, 104).
edge(84, 86).
edge(68, 166).
edge(37, 48).
edge(28, 172).
edge(98, 143).
edge(22, 34).
edge(101, 168).
edge(83, 165).
edge(61, 71).
edge(57, 75).
edge(114, 124).
edge(58, 103).
edge(20, 51).
edge(38, 144).
edge(2, 128).
edge(124, 161).
edge(44, 117).
edge(62, 134).
edge(18, 108).
edge(68, 145).
edge(152, 167).
edge(37, 104).
edge(41, 71).
edge(85, 125).
edge(19, 120).
edge(62, 117).
edge(16, 71).
edge(71, 101).
edge(93, 143).
edge(67, 149).
edge(21, 91).
edge(63, 81).
edge(90, 106).
edge(49, 72).
edge(40, 152).
edge(49, 114).
edge(145, 147).
edge(16, 121).
edge(104, 115).
edge(59, 156).
edge(51, 148).
edge(30, 160).
edge(34, 170).
edge(27, 116).
edge(26, 86).
edge(38, 161).
edge(32, 76).
edge(9, 121).
edge(148, 163).
edge(23, 133).
edge(129, 163).
edge(24, 81).
edge(6, 58).
edge(63, 158).
edge(103, 157).
edge(18, 121).
edge(20, 170).
edge(8, 166).
edge(19, 59).
edge(51, 107).
edge(81, 171).
edge(84, 160).
edge(38, 165).
edge(93, 102).
edge(94, 102).
edge(48, 52).
edge(27, 58).
edge(100, 144).
edge(136, 150).
edge(26, 174).
edge(7, 93).
edge(111, 144).
edge(53, 127).
edge(119, 156).
edge(6, 104).
edge(2, 75).
edge(10, 132).
edge(48, 54).
edge(51, 77).
edge(97, 111).
edge(76, 167).
edge(42, 147).
edge(43, 76).
edge(9, 88).
edge(15, 112).
edge(1, 148).
edge(16, 160).
edge(22, 165).
edge(50, 58).
edge(30, 84).
edge(113, 173).
edge(137, 174).
edge(33, 34).
edge(99, 109).
edge(141, 151).
edge(38, 66).
edge(32, 149).
edge(130, 140).
edge(140, 142).
edge(3, 8).
edge(31, 57).
edge(3, 141).
edge(68, 136).
edge(145, 162).
edge(84, 132).
edge(39, 133).
edge(67, 75).
edge(33, 95).
edge(123, 126).
edge(32, 108).
edge(62, 90).
edge(16, 45).
edge(8, 142).
edge(35, 154).
edge(49, 124).
edge(101, 110).
edge(23, 143).
edge(140, 169).
edge(59, 119).
edge(88, 145).
edge(69, 145).
edge(65, 134).
edge(16, 58).
edge(12, 132).
edge(80, 116).
edge(32, 111).
edge(8, 78).
edge(104, 135).
edge(3, 161).
edge(11, 25).
edge(6, 56).
edge(14, 140).
edge(138, 174).
edge(85, 98).
edge(23, 137).
edge(42, 114).
edge(57, 105).
edge(69, 77).
edge(54, 88).
edge(48, 132).
edge(131, 147).
edge(68, 102).
edge(22, 95).
edge(36, 43).
edge(36, 129).
edge(97, 116).
edge(100, 145).
edge(23, 77).
edge(106, 164).
edge(171, 174).
edge(45, 114).
edge(24, 61).
edge(32, 118).
edge(140, 172).
edge(27, 73).
edge(48, 151).
edge(64, 90).
edge(24, 109).
edge(5, 30).
edge(103, 104).
edge(20, 155).
edge(93, 158).
edge(57, 81).
edge(107, 145).
edge(126, 133).
edge(29, 74).
edge(112, 161).
edge(40, 56).
edge(55, 82).
edge(71, 94).
edge(12, 48).
edge(0, 111).
edge(69, 126).
edge(71, 92).
edge(57, 173).
edge(145, 152).
edge(9, 100).
edge(78, 94).
edge(31, 153).
edge(114, 167).
edge(131, 137).
edge(56, 85).
edge(6, 171).
edge(27, 170).
edge(53, 112).
edge(90, 120).
edge(44, 63).
edge(25, 67).
edge(39, 82).
edge(36, 73).
edge(58, 90).
edge(76, 119).
edge(21, 130).
edge(42, 96).
edge(117, 151).
edge(35, 172).
edge(161, 170).
edge(131, 167).
edge(6, 103).
edge(134, 169).
edge(117, 158).
edge(128, 132).
edge(53, 82).
edge(32, 166).
edge(113, 172).
edge(126, 134).
edge(57, 160).
edge(11, 71).
edge(73, 110).
edge(37, 120).
edge(106, 158).
edge(107, 148).
edge(14, 148).
edge(85, 131).
edge(14, 91).
edge(40, 84).
edge(2, 144).
edge(30, 136).
edge(66, 130).
edge(48, 154).
edge(7, 166).
edge(4, 69).
edge(3, 140).
edge(52, 82).
edge(41, 142).
edge(84, 126).
edge(103, 142).
edge(65, 140).
edge(95, 154).
edge(3, 115).
edge(4, 101).
edge(16, 164).
edge(101, 122).
edge(9, 52).
edge(2, 28).
edge(134, 148).
edge(55, 72).
edge(14, 49).
edge(90, 130).
edge(77, 83).
edge(6, 44).
edge(43, 158).
edge(5, 121).
edge(120, 170).
edge(75, 132).
edge(53, 57).
edge(75, 154).
edge(56, 101).
edge(56, 120).
edge(79, 107).
edge(27, 31).
edge(18, 65).
edge(80, 173).
edge(37, 55).
edge(32, 122).
edge(47, 172).
edge(22, 144).
edge(100, 154).
edge(6, 168).
edge(10, 63).
edge(122, 152).
edge(10, 14).
edge(37, 111).
edge(30, 67).
edge(102, 161).
edge(62, 71).
edge(8, 68).
edge(3, 114).
edge(20, 129).
edge(74, 118).
edge(11, 18).
edge(24, 29).
edge(74, 78).
edge(124, 146).
edge(103, 127).
edge(74, 161).
edge(61, 86).
edge(30, 34).
edge(42, 98).
edge(25, 147).
edge(111, 113).
edge(77, 150).
edge(35, 127).
edge(15, 61).
edge(51, 172).
edge(13, 31).
edge(103, 133).
edge(45, 94).
edge(28, 36).
edge(37, 79).
edge(29, 169).
edge(54, 58).
edge(5, 130).
edge(33, 125).
edge(119, 157).
edge(127, 156).
edge(52, 118).
edge(12, 147).
edge(26, 66).
edge(64, 96).
edge(66, 87).
edge(63, 134).
edge(24, 164).
edge(139, 151).
edge(35, 163).
edge(15, 108).
edge(7, 89).
edge(23, 157).
edge(36, 159).
edge(8, 118).
edge(31, 155).
edge(41, 125).
edge(18, 152).
edge(53, 78).
edge(34, 64).
edge(20, 109).
edge(31, 74).
edge(43, 134).
edge(12, 158).
edge(113, 114).
edge(87, 162).
edge(43, 130).
edge(23, 85).
edge(45, 82).
edge(26, 147).
edge(50, 90).
edge(116, 171).
edge(9, 22).
edge(68, 116).
edge(18, 90).
edge(2, 153).
edge(76, 78).
edge(80, 83).
edge(50, 105).
edge(19, 168).
edge(125, 171).
edge(59, 84).
edge(135, 151).
edge(155, 171).
edge(75, 120).
edge(61, 148).
edge(26, 38).
edge(18, 63).
edge(35, 66).
edge(3, 107).
edge(91, 117).
edge(26, 67).
edge(126, 159).
edge(56, 77).
edge(21, 23).
edge(115, 168).
edge(81, 163).
edge(41, 139).
edge(86, 165).
edge(28, 156).
edge(103, 155).
edge(34, 111).
edge(40, 161).
edge(0, 2).
edge(74, 108).
edge(81, 170).
edge(46, 156).
edge(63, 159).
edge(25, 99).
edge(93, 144).
edge(4, 92).
edge(52, 58).
edge(27, 167).
edge(25, 141).
edge(97, 150).
edge(23, 31).
edge(30, 172).
edge(85, 124).
edge(18, 156).
edge(13, 137).
edge(18, 114).
edge(62, 75).
edge(15, 138).
edge(1, 60).
edge(2, 120).
edge(45, 133).
edge(45, 85).
edge(13, 142).
edge(68, 98).
edge(102, 124).
edge(35, 68).
edge(8, 161).
edge(125, 131).
edge(23, 89).
edge(102, 148).
edge(99, 103).
edge(19, 108).
edge(40, 69).
edge(91, 106).
edge(61, 85).
edge(114, 147).
edge(61, 109).
edge(65, 156).
edge(24, 150).
edge(3, 112).
edge(34, 156).
edge(53, 68).
edge(10, 45).
edge(36, 156).
edge(12, 115).
edge(39, 76).
edge(8, 167).
edge(70, 163).
edge(22, 61).
edge(15, 84).
edge(8, 86).
edge(23, 164).
edge(102, 173).
edge(54, 92).
edge(76, 102).
edge(22, 103).
edge(5, 65).
edge(71, 168).
edge(95, 138).
edge(53, 173).
edge(33, 84).
edge(76, 149).
edge(125, 165).
edge(153, 164).
edge(44, 115).
edge(154, 171).
edge(53, 80).
edge(43, 166).
edge(47, 114).
edge(33, 108).
edge(60, 133).
edge(21, 163).
edge(42, 90).
edge(25, 32).
edge(42, 85).
edge(4, 162).
edge(59, 77).
edge(23, 61).
edge(17, 59).
edge(115, 147).
edge(129, 136).
edge(93, 162).
edge(24, 40).
edge(16, 56).
edge(78, 108).
edge(44, 163).
edge(26, 29).
edge(15, 119).
edge(45, 96).
edge(137, 143).
edge(59, 120).
edge(78, 117).
edge(52, 81).
edge(122, 174).
edge(61, 73).
edge(55, 75).
edge(28, 129).
edge(59, 104).
edge(21, 141).
edge(98, 155).
edge(50, 53).
edge(31, 130).
edge(79, 101).
edge(48, 161).
edge(98, 110).
edge(55, 173).
edge(73, 84).
edge(51, 137).
edge(37, 136).
edge(58, 107).
edge(130, 166).
edge(39, 125).
edge(52, 167).
edge(52, 147).
edge(126, 167).
edge(52, 71).
edge(10, 71).
edge(1, 6).
edge(34, 82).
edge(5, 171).
edge(38, 91).
edge(110, 151).
edge(84, 116).
edge(30, 148).
edge(40, 103).
edge(51, 147).
edge(51, 88).
edge(73, 165).
edge(76, 109).
edge(30, 58).
edge(84, 172).
edge(21, 101).
edge(91, 165).
edge(74, 76).
edge(78, 81).
edge(15, 57).
edge(35, 82).
edge(44, 120).
edge(143, 149).
edge(20, 52).
edge(70, 120).
edge(44, 56).
edge(41, 108).
edge(48, 95).
edge(141, 146).
edge(37, 70).
edge(30, 71).
edge(77, 137).
edge(29, 98).
edge(45, 69).
edge(47, 102).
edge(13, 51).
edge(19, 160).
edge(77, 98).
edge(127, 158).
edge(3, 103).
edge(104, 108).
edge(51, 56).
edge(56, 104).
edge(75, 137).
edge(37, 148).
edge(4, 71).
edge(59, 145).
edge(2, 142).
edge(3, 54).
edge(26, 152).
edge(47, 63).
edge(12, 83).
edge(45, 75).
edge(44, 82).
edge(6, 16).
edge(79, 151).
edge(39, 119).
edge(53, 110).
edge(108, 146).
edge(103, 139).
edge(59, 68).
edge(2, 63).
edge(65, 121).
edge(2, 89).
edge(3, 91).
edge(3, 102).
edge(118, 142).
edge(64, 105).
edge(24, 128).
edge(77, 157).
edge(43, 105).
edge(25, 33).
edge(59, 154).
edge(25, 116).
edge(12, 70).
edge(109, 120).
edge(103, 147).
edge(21, 165).
edge(17, 171).
edge(65, 74).
edge(59, 64).
edge(68, 92).
edge(26, 165).
edge(76, 170).
edge(113, 174).
edge(40, 110).
edge(35, 135).
edge(159, 170).
edge(27, 122).
edge(7, 119).
edge(25, 103).
edge(104, 133).
edge(82, 133).
edge(17, 43).
edge(61, 84).
edge(50, 102).
edge(23, 145).
edge(28, 152).
edge(43, 148).
edge(111, 129).
edge(60, 150).
edge(19, 173).
edge(23, 112).
edge(45, 112).
edge(14, 57).
edge(40, 94).
edge(74, 97).
edge(75, 165).
edge(14, 133).
edge(169, 172).
edge(94, 137).
edge(82, 159).
edge(36, 103).
edge(17, 151).
edge(14, 153).
edge(87, 147).
edge(63, 123).
edge(78, 120).
edge(3, 5).
edge(113, 148).
edge(60, 157).
edge(139, 144).
edge(87, 107).
edge(4, 52).
edge(77, 153).
edge(165, 174).
edge(15, 150).
edge(111, 128).
edge(35, 137).
edge(3, 89).
edge(65, 101).
edge(91, 110).
edge(20, 83).
edge(30, 102).
edge(120, 122).
edge(120, 174).
edge(0, 98).
edge(78, 98).
edge(48, 119).
edge(96, 103).
edge(1, 20).
edge(59, 143).
edge(16, 89).
edge(19, 169).
edge(14, 144).
edge(121, 162).
edge(48, 138).
edge(28, 153).
edge(0, 11).
edge(17, 113).
edge(18, 127).
edge(37, 160).
edge(22, 64).
edge(28, 104).
edge(130, 174).
edge(156, 174).
edge(17, 32).
edge(72, 105).
edge(57, 121).
edge(18, 37).
edge(93, 114).
edge(87, 116).
edge(75, 155).
edge(79, 121).
edge(38, 163).
edge(110, 148).
edge(82, 132).
edge(26, 110).
edge(70, 71).
edge(12, 54).
edge(69, 172).
edge(134, 167).
edge(75, 84).
edge(36, 158).
edge(89, 174).
edge(21, 122).
edge(19, 107).
edge(75, 111).
edge(156, 170).
edge(10, 78).
edge(155, 162).
edge(123, 162).
edge(102, 154).
edge(52, 120).
edge(3, 88).
edge(64, 152).
edge(133, 136).
edge(44, 61).
edge(22, 37).
edge(20, 111).
edge(156, 173).
edge(117, 144).
edge(63, 86).
edge(42, 138).
edge(101, 174).
edge(146, 167).
edge(149, 151).
edge(11, 57).
edge(45, 78).
edge(34, 147).
edge(117, 142).
edge(2, 126).
edge(21, 106).
edge(6, 71).
edge(110, 135).
edge(16, 135).
edge(143, 147).
edge(17, 89).
edge(1, 173).
edge(115, 136).
edge(24, 49).
edge(69, 144).
edge(28, 139).
edge(48, 109).
edge(41, 77).
edge(73, 134).
edge(69, 154).
edge(115, 143).
edge(19, 70).
edge(129, 165).
edge(27, 146).
edge(99, 155).
edge(85, 129).
edge(33, 142).
edge(13, 53).
edge(28, 127).
edge(31, 32).
edge(53, 59).
edge(31, 161).
edge(0, 157).
edge(9, 26).
edge(36, 128).
edge(10, 65).
edge(128, 149).
edge(130, 143).
edge(30, 94).
edge(91, 103).
edge(22, 30).
edge(19, 121).
edge(119, 154).
edge(8, 88).
edge(137, 152).
edge(129, 145).
edge(41, 92).
edge(18, 135).
edge(8, 106).
edge(102, 141).
edge(23, 174).
edge(11, 140).
edge(8, 132).
edge(41, 46).
edge(0, 115).
edge(54, 59).
edge(53, 117).
edge(67, 166).
edge(11, 109).
edge(20, 75).
edge(13, 37).
edge(82, 104).
edge(58, 70).
edge(7, 12).
edge(10, 17).
edge(67, 117).
edge(44, 92).
edge(30, 123).
edge(39, 113).
edge(34, 125).
edge(88, 161).
edge(58, 135).
edge(10, 90).
edge(71, 155).
edge(68, 147).
edge(98, 138).
edge(0, 68).
edge(9, 123).
edge(114, 152).
edge(58, 116).
edge(77, 132).
edge(12, 122).
edge(13, 62).
edge(2, 122).
edge(43, 98).
edge(25, 125).
edge(26, 142).
edge(59, 79).
edge(0, 140).
edge(47, 50).
edge(73, 88).
edge(5, 153).
edge(54, 119).
edge(25, 85).
edge(50, 57).
edge(23, 127).
edge(68, 121).
edge(11, 79).
edge(18, 67).
edge(26, 173).
edge(58, 144).
edge(72, 157).
edge(11, 132).
edge(2, 156).
edge(18, 102).
edge(27, 171).
edge(101, 171).
edge(54, 120).
edge(105, 128).
edge(55, 86).
edge(64, 116).
edge(149, 156).
edge(19, 37).
edge(7, 138).
edge(119, 153).
edge(41, 82).
edge(103, 150).
edge(38, 125).
edge(52, 105).
edge(89, 131).
edge(44, 170).
edge(83, 141).
edge(52, 157).
edge(140, 167).
edge(16, 98).
edge(39, 161).
edge(120, 134).
edge(55, 70).
edge(77, 152).
edge(69, 107).
edge(11, 173).
edge(47, 125).
edge(144, 164).
edge(166, 168).
edge(30, 112).
edge(0, 12).
edge(141, 143).
edge(89, 93).
edge(26, 120).
edge(32, 130).
edge(96, 117).
edge(81, 158).
edge(114, 143).
edge(65, 123).
edge(115, 162).
edge(8, 38).
edge(12, 74).
edge(161, 167).
edge(61, 81).
edge(10, 127).
edge(73, 115).
edge(63, 85).
edge(33, 70).
edge(33, 159).
edge(46, 163).
edge(20, 174).
edge(98, 122).
edge(140, 173).
edge(5, 144).
edge(1, 135).
edge(0, 23).
edge(23, 159).
edge(81, 137).
edge(32, 132).
edge(12, 141).
edge(61, 173).
edge(127, 147).
edge(40, 131).
edge(77, 154).
edge(70, 173).
edge(81, 117).
edge(18, 91).
edge(86, 103).
edge(15, 156).
edge(38, 99).
edge(33, 87).
edge(90, 126).
edge(55, 56).
edge(22, 166).
edge(45, 92).
edge(5, 33).
edge(160, 165).
edge(55, 93).
edge(31, 115).
edge(14, 66).
edge(27, 74).
edge(17, 54).
edge(27, 76).
edge(90, 135).
edge(36, 101).
edge(49, 136).
edge(94, 119).
edge(6, 166).
edge(42, 127).
edge(97, 161).
edge(85, 133).
edge(13, 157).
edge(83, 92).
edge(92, 110).
edge(35, 171).
edge(0, 104).
edge(2, 90).
edge(1, 34).
edge(71, 98).
edge(109, 123).
edge(24, 101).
edge(107, 169).
edge(28, 160).
edge(6, 119).
edge(97, 104).
edge(26, 114).
edge(88, 111).
edge(65, 90).
edge(120, 140).
edge(140, 170).
edge(99, 144).
edge(99, 121).
edge(1, 151).
edge(4, 28).
edge(68, 95).
edge(38, 87).
edge(98, 118).
edge(112, 170).
edge(133, 161).
edge(3, 72).
edge(37, 52).
edge(12, 139).
edge(4, 124).
edge(88, 139).
edge(121, 142).
edge(23, 121).
edge(70, 154).
edge(100, 141).
edge(8, 113).
edge(45, 113).
edge(29, 54).
edge(53, 124).
edge(24, 173).
edge(60, 162).
edge(31, 95).
edge(76, 81).
edge(43, 71).
edge(53, 161).
edge(37, 157).
edge(44, 128).
edge(76, 85).
edge(64, 110).
edge(3, 134).
edge(61, 79).
edge(8, 25).
edge(12, 71).
edge(58, 118).
edge(148, 153).
edge(69, 173).
edge(20, 22).
edge(86, 123).
edge(6, 127).
edge(0, 53).
edge(0, 33).
edge(1, 144).
edge(4, 146).
edge(10, 144).
edge(35, 146).
edge(79, 113).
edge(97, 170).
edge(131, 146).
edge(15, 157).
edge(93, 167).
edge(42, 131).
edge(24, 60).
edge(42, 128).
edge(144, 156).
edge(46, 166).
edge(60, 71).
edge(111, 172).
edge(49, 128).
edge(2, 20).
edge(119, 120).
edge(4, 160).
edge(7, 53).
edge(40, 115).
edge(94, 108).
edge(130, 159).
edge(34, 126).
edge(14, 88).
edge(67, 70).
edge(81, 145).
edge(59, 89).
edge(2, 133).
edge(17, 65).
edge(147, 162).
edge(33, 76).
edge(101, 167).
edge(75, 107).
edge(127, 171).
edge(54, 64).
edge(34, 127).
edge(95, 100).
edge(32, 46).
edge(24, 33).
edge(23, 107).
edge(117, 171).
edge(21, 120).
edge(56, 128).
edge(32, 40).
edge(86, 163).
edge(5, 86).
edge(158, 173).
edge(117, 136).
edge(44, 88).
edge(34, 157).
edge(137, 142).
edge(32, 142).
edge(124, 150).
edge(52, 54).
edge(90, 117).
edge(126, 145).
edge(12, 75).
edge(19, 42).
edge(55, 129).
edge(133, 148).
edge(16, 17).
edge(40, 71).
edge(81, 114).
edge(87, 143).
edge(96, 104).
edge(29, 109).
edge(107, 133).
edge(37, 98).
edge(31, 62).
edge(19, 57).
edge(126, 129).
edge(63, 128).
edge(41, 128).
edge(68, 149).
edge(53, 153).
edge(41, 136).
edge(32, 85).
edge(7, 131).
edge(85, 111).
edge(115, 161).
edge(104, 121).
edge(26, 39).
edge(21, 29).
edge(43, 74).
edge(45, 127).
edge(62, 106).
edge(87, 131).
edge(156, 168).
edge(43, 164).
edge(68, 132).
edge(67, 97).
edge(12, 63).
edge(75, 145).
edge(1, 125).
edge(111, 134).
edge(37, 169).
edge(149, 160).
edge(118, 173).
edge(22, 155).
edge(43, 136).
edge(37, 141).
edge(16, 110).
edge(72, 88).
edge(13, 19).
edge(34, 77).
edge(121, 129).
edge(129, 172).
edge(12, 138).
edge(86, 114).
edge(14, 26).
edge(19, 62).
edge(112, 166).
edge(92, 174).
edge(119, 147).
edge(30, 107).
edge(9, 108).
edge(127, 149).
edge(149, 159).
edge(6, 144).
edge(37, 69).
edge(166, 169).
edge(106, 140).
edge(155, 167).
edge(42, 70).
edge(44, 138).
edge(8, 13).
edge(24, 38).
edge(116, 155).
edge(121, 155).
edge(16, 155).
edge(32, 124).
edge(107, 118).
edge(152, 157).
edge(9, 170).
edge(35, 113).
edge(96, 165).
edge(140, 157).
edge(53, 58).
edge(2, 59).
edge(145, 173).
edge(55, 132).
edge(69, 97).
edge(66, 140).
edge(83, 169).
edge(31, 60).
edge(31, 152).
edge(59, 141).
edge(57, 164).
edge(21, 48).
edge(16, 31).
edge(101, 164).
edge(7, 50).
edge(70, 140).
edge(75, 96).
edge(44, 91).
edge(112, 121).
edge(8, 94).
edge(109, 110).
edge(79, 144).
edge(15, 42).
edge(2, 102).
edge(82, 169).
edge(51, 79).
edge(48, 121).
edge(38, 132).
edge(136, 171).
edge(102, 128).
edge(7, 9).
edge(108, 131).
edge(21, 39).
edge(11, 51).
edge(59, 91).
edge(20, 67).
edge(28, 33).
edge(115, 150).
edge(17, 60).
edge(47, 171).
edge(43, 75).
edge(143, 173).
edge(32, 81).
edge(33, 55).
edge(124, 139).
edge(67, 156).
edge(89, 144).
edge(50, 125).
edge(117, 125).
edge(50, 134).
edge(29, 70).
edge(95, 161).
edge(46, 70).
edge(63, 103).
edge(53, 174).
edge(9, 40).
edge(114, 161).
edge(121, 165).
edge(49, 162).
edge(17, 50).
edge(40, 72).
edge(12, 22).
edge(114, 131).
edge(82, 85).
edge(56, 141).
edge(87, 88).
edge(79, 118).
edge(8, 164).
edge(92, 111).
edge(157, 158).
edge(47, 122).
edge(112, 134).
edge(87, 169).
edge(54, 151).
edge(30, 47).
edge(23, 117).
edge(2, 168).
edge(5, 54).
edge(115, 138).
edge(2, 22).
edge(80, 142).
edge(52, 166).
edge(95, 133).
edge(63, 138).
edge(23, 111).
edge(59, 73).
edge(66, 112).
edge(79, 122).
edge(84, 92).
edge(99, 148).
edge(82, 146).
edge(51, 86).
edge(36, 95).
edge(130, 164).
edge(27, 70).
edge(83, 168).
edge(72, 83).
edge(46, 60).
edge(29, 73).
edge(10, 30).
edge(147, 148).
edge(0, 44).
edge(99, 107).
edge(13, 22).
edge(11, 174).
edge(64, 94).
edge(72, 138).
edge(67, 170).
edge(17, 119).
edge(128, 146).
edge(63, 172).
edge(20, 160).
edge(18, 130).
edge(25, 104).
edge(13, 75).
edge(3, 142).
edge(54, 131).
edge(94, 132).
edge(102, 107).
edge(13, 72).
edge(48, 91).
edge(40, 148).
edge(38, 109).
edge(86, 140).
edge(13, 17).
edge(91, 116).
edge(19, 72).
edge(97, 130).
edge(97, 133).
edge(7, 16).
edge(79, 92).
edge(48, 162).
edge(110, 170).
edge(48, 149).
edge(31, 168).
edge(83, 138).
edge(30, 99).
edge(44, 67).
edge(38, 54).
edge(7, 154).
edge(29, 46).
edge(79, 135).
edge(51, 164).
edge(48, 135).
edge(75, 85).
edge(103, 129).
edge(105, 146).
edge(77, 131).
edge(106, 125).
edge(46, 135).
edge(48, 99).
edge(5, 96).
edge(48, 67).
edge(38, 166).
edge(15, 26).
edge(6, 15).
edge(98, 114).
edge(8, 9).
edge(44, 124).
edge(111, 147).
edge(39, 58).
edge(97, 163).
edge(26, 70).
edge(11, 81).
edge(13, 171).
edge(18, 174).
edge(28, 101).
edge(30, 142).
edge(55, 103).
edge(151, 153).
edge(21, 94).
edge(147, 170).
edge(95, 104).
edge(41, 130).
edge(20, 105).
edge(108, 162).
edge(12, 51).
edge(31, 76).
edge(8, 163).
edge(158, 163).
edge(24, 39).
edge(4, 86).
edge(13, 61).
edge(13, 156).
edge(23, 125).
edge(10, 172).
edge(69, 150).
edge(91, 132).
edge(61, 74).
edge(58, 94).
edge(76, 148).
edge(95, 146).
edge(31, 148).
edge(113, 119).
edge(83, 148).
edge(28, 109).
edge(55, 145).
edge(48, 146).
edge(116, 147).
edge(2, 10).
edge(130, 146).
edge(110, 164).
edge(91, 119).
edge(56, 99).
edge(61, 146).
edge(13, 108).
edge(26, 151).
edge(0, 34).
edge(101, 149).
edge(5, 117).
edge(84, 138).
edge(5, 125).
edge(26, 171).
edge(33, 173).
edge(83, 161).
edge(0, 170).
edge(3, 139).
edge(65, 67).
edge(10, 166).
edge(101, 173).
edge(112, 131).
edge(22, 150).
edge(77, 129).
edge(17, 140).
edge(54, 77).
edge(73, 75).
edge(43, 82).
edge(99, 120).
edge(62, 141).
edge(9, 131).
edge(30, 111).
edge(154, 158).
edge(44, 171).
edge(1, 162).
edge(54, 138).
edge(29, 170).
edge(77, 138).
edge(30, 169).
edge(82, 174).
edge(30, 132).
edge(26, 103).
edge(162, 173).
edge(14, 150).
edge(79, 138).
edge(5, 67).
edge(88, 100).
edge(30, 120).
edge(62, 77).
edge(111, 135).
edge(24, 30).
edge(68, 168).
edge(132, 169).
edge(74, 164).
edge(45, 166).
edge(128, 170).
edge(48, 125).
edge(163, 173).
edge(134, 146).
edge(18, 101).
edge(50, 167).
edge(21, 121).
edge(66, 84).
edge(31, 114).
edge(9, 46).
edge(64, 123).
edge(97, 110).
edge(51, 126).
edge(85, 93).
edge(10, 32).
edge(94, 125).
edge(5, 156).
edge(24, 44).
edge(120, 151).
edge(76, 101).
edge(85, 140).
edge(62, 161).
edge(60, 143).
edge(76, 89).
edge(68, 72).
edge(4, 75).
edge(41, 111).
edge(70, 109).
edge(7, 82).
edge(60, 155).
edge(124, 152).
edge(94, 153).
edge(4, 164).
edge(22, 115).
edge(29, 136).
edge(17, 100).
edge(62, 126).
edge(23, 32).
edge(62, 167).
edge(7, 164).
edge(58, 119).
edge(124, 144).
edge(0, 50).
edge(29, 146).
edge(130, 145).
edge(119, 149).
edge(29, 157).
edge(72, 90).
edge(62, 140).
edge(116, 164).
edge(25, 73).
edge(121, 171).
edge(111, 119).
edge(31, 77).
edge(35, 101).
edge(94, 162).
edge(77, 87).
edge(69, 93).
edge(0, 125).
edge(83, 104).
edge(42, 167).
edge(159, 172).
edge(29, 55).
edge(47, 105).
edge(85, 165).
edge(72, 101).
edge(17, 28).
edge(74, 155).
edge(9, 82).
edge(6, 53).
edge(41, 137).
edge(56, 82).
edge(40, 85).
edge(5, 149).
edge(19, 105).
edge(58, 97).
edge(50, 73).
edge(12, 25).
edge(112, 145).
edge(32, 92).
edge(29, 151).
edge(93, 119).
edge(47, 76).
edge(105, 111).
edge(56, 94).
edge(38, 130).
edge(23, 74).
edge(140, 160).
edge(82, 136).
edge(82, 121).
edge(77, 127).
edge(1, 161).
edge(110, 154).
edge(68, 80).
edge(40, 163).
edge(92, 104).
edge(76, 143).
edge(16, 79).
edge(19, 78).
edge(42, 48).
edge(103, 144).
edge(25, 98).
edge(133, 154).
edge(90, 149).
edge(3, 110).
edge(10, 74).
edge(135, 165).
edge(70, 137).
edge(65, 163).
edge(100, 163).
edge(12, 153).
edge(87, 173).
edge(14, 62).
edge(55, 133).
edge(133, 168).
edge(29, 127).
edge(24, 106).
edge(46, 138).
edge(7, 102).
edge(148, 152).
edge(35, 149).
edge(116, 149).
edge(91, 168).
edge(47, 103).
edge(52, 78).
edge(57, 72).
edge(28, 158).
edge(1, 100).
edge(69, 141).
edge(90, 155).
edge(14, 60).
edge(16, 133).
edge(90, 172).
edge(107, 171).
edge(85, 173).
edge(142, 151).
edge(11, 38).
edge(118, 163).
edge(16, 47).
edge(81, 127).
edge(101, 142).
edge(26, 157).
edge(77, 169).
edge(2, 163).
edge(128, 173).
edge(36, 127).
edge(58, 77).
edge(7, 156).
edge(5, 75).
edge(74, 142).
edge(75, 139).
edge(27, 52).
edge(7, 169).
edge(23, 91).
edge(15, 101).
edge(31, 106).
edge(24, 137).
edge(35, 130).
edge(36, 54).
edge(90, 102).
edge(115, 120).
edge(58, 74).
edge(62, 142).
edge(29, 148).
edge(31, 63).
edge(16, 48).
edge(1, 25).
edge(1, 5).
edge(16, 107).
edge(6, 23).
edge(98, 160).
edge(70, 130).
edge(35, 52).
edge(30, 131).
edge(39, 148).
edge(15, 142).
edge(60, 166).
edge(109, 171).
edge(105, 129).
edge(134, 174).
edge(35, 114).
edge(18, 120).
edge(58, 60).
edge(53, 157).
edge(39, 67).
edge(53, 108).
edge(28, 54).
edge(31, 99).
edge(30, 38).
edge(41, 101).
edge(73, 104).
edge(48, 112).
edge(52, 80).
edge(81, 104).
edge(15, 162).
edge(89, 100).
edge(57, 77).
edge(102, 127).
edge(39, 64).
edge(108, 111).
edge(58, 85).
edge(90, 146).
edge(13, 81).
edge(2, 119).
edge(44, 162).
edge(122, 154).
edge(65, 84).
edge(64, 91).
edge(98, 165).
edge(138, 142).
edge(57, 119).
edge(95, 96).
edge(105, 138).
edge(0, 165).
edge(36, 61).
edge(8, 116).
edge(61, 95).
edge(87, 156).
edge(133, 163).
edge(99, 131).
edge(107, 136).
edge(25, 100).
edge(110, 167).
edge(85, 123).
edge(132, 147).
edge(23, 27).
edge(34, 110).
edge(33, 157).
edge(161, 174).
edge(78, 138).
edge(81, 116).
edge(0, 67).
edge(86, 146).
edge(58, 95).
edge(102, 122).
edge(23, 26).
edge(12, 111).
edge(134, 135).
edge(97, 102).
edge(54, 169).
edge(76, 108).
edge(14, 78).
edge(48, 141).
edge(43, 161).
edge(21, 162).
edge(79, 117).
edge(64, 97).
edge(72, 128).
edge(53, 99).
edge(46, 82).
edge(27, 32).
edge(37, 124).
edge(52, 55).
edge(84, 90).
edge(79, 160).
edge(15, 77).
edge(11, 33).
edge(135, 166).
edge(10, 89).
edge(6, 99).
edge(73, 124).
edge(79, 161).
edge(84, 164).
edge(72, 74).
edge(42, 72).
edge(21, 118).
edge(22, 59).
edge(138, 167).
edge(92, 159).
edge(13, 161).
edge(66, 98).
edge(64, 164).
edge(60, 118).
edge(98, 101).
edge(131, 169).
edge(114, 123).
edge(36, 62).
edge(122, 170).
edge(12, 36).
edge(19, 172).
edge(87, 121).
edge(153, 160).
edge(132, 162).
edge(125, 169).
edge(16, 144).
edge(33, 172).
edge(14, 163).
edge(69, 114).
edge(88, 95).
edge(44, 160).
edge(118, 153).
edge(82, 135).
edge(151, 171).
edge(118, 170).
edge(7, 49).
edge(9, 39).
edge(26, 77).
edge(57, 124).
edge(84, 128).
edge(9, 86).
edge(16, 128).
edge(33, 92).
edge(88, 153).
edge(58, 140).
edge(57, 172).
edge(3, 171).
edge(14, 31).
edge(108, 154).
edge(115, 144).
edge(36, 39).
edge(66, 104).
edge(30, 49).
edge(151, 172).
edge(2, 35).
edge(117, 132).
edge(110, 174).
edge(98, 137).
edge(58, 113).
edge(115, 146).
edge(86, 133).
edge(30, 158).
edge(120, 164).
edge(122, 153).
edge(48, 86).
edge(99, 164).
edge(41, 105).
edge(110, 126).
edge(15, 102).
edge(126, 141).
edge(65, 108).
edge(42, 173).
edge(46, 118).
edge(84, 163).
edge(74, 168).
edge(21, 22).
edge(119, 173).
edge(135, 143).
edge(108, 141).
edge(19, 98).
edge(90, 160).
edge(77, 119).
edge(114, 119).
edge(85, 109).
edge(41, 68).
edge(22, 118).
edge(52, 171).
edge(24, 160).
edge(101, 148).
edge(33, 154).
edge(50, 122).
edge(106, 114).
edge(81, 109).
edge(31, 144).
edge(7, 99).
edge(12, 88).
edge(93, 142).
edge(72, 143).
edge(55, 115).
edge(52, 139).
edge(104, 152).
edge(63, 69).
edge(36, 107).
edge(108, 152).
edge(32, 38).
edge(26, 32).
edge(134, 166).
edge(4, 37).
edge(3, 109).
edge(56, 68).
edge(52, 152).
edge(74, 106).
edge(34, 60).
edge(20, 138).
edge(6, 46).
edge(8, 119).
edge(36, 87).
edge(58, 166).
edge(58, 78).
edge(66, 148).
edge(40, 143).
edge(144, 147).
edge(48, 107).
edge(82, 154).
edge(23, 48).
edge(153, 173).
edge(61, 135).
edge(32, 105).
edge(123, 149).
edge(22, 168).
edge(24, 104).
edge(89, 114).
edge(83, 112).
edge(51, 156).
edge(2, 135).
edge(19, 97).
edge(15, 16).
edge(79, 120).
edge(29, 61).
edge(54, 65).
edge(12, 43).
edge(82, 105).
edge(76, 122).
edge(151, 157).
edge(29, 95).
edge(30, 88).
edge(64, 71).
edge(33, 165).
edge(87, 163).
edge(18, 75).
edge(115, 137).
edge(55, 165).
edge(34, 43).
edge(73, 108).
edge(96, 171).
edge(0, 113).
edge(95, 160).
edge(95, 129).
edge(3, 90).
edge(29, 131).
edge(27, 33).
edge(4, 118).
edge(21, 102).
edge(31, 89).
edge(21, 60).
edge(48, 88).
edge(85, 106).
edge(31, 171).
edge(131, 163).
edge(56, 60).
edge(7, 36).
edge(114, 172).
edge(38, 145).
edge(69, 89).
edge(74, 171).
edge(17, 129).
edge(53, 172).
edge(13, 82).
edge(31, 128).
edge(42, 120).
edge(3, 118).
edge(148, 162).
edge(37, 159).
edge(87, 150).
edge(74, 125).
edge(68, 150).
edge(48, 97).
edge(124, 125).
edge(46, 154).
edge(39, 65).
edge(89, 110).
edge(105, 106).
edge(10, 13).
edge(28, 60).
edge(25, 112).
edge(35, 85).
edge(26, 128).
edge(132, 143).
edge(0, 102).
edge(65, 162).
edge(11, 158).
edge(92, 100).
edge(105, 127).
edge(86, 166).
edge(24, 146).
edge(57, 159).
edge(29, 155).
edge(79, 140).
edge(94, 174).
edge(138, 152).
edge(36, 121).
edge(70, 160).
edge(19, 53).
edge(10, 143).
edge(104, 164).
edge(19, 23).
edge(134, 172).
edge(136, 149).
edge(55, 162).
edge(17, 117).
edge(3, 44).
edge(7, 20).
edge(116, 166).
edge(98, 105).
edge(0, 32).
edge(6, 25).
edge(16, 69).
edge(20, 101).
edge(2, 16).
edge(32, 170).
edge(72, 108).
edge(5, 113).
edge(81, 108).
edge(37, 137).
edge(14, 44).
edge(95, 101).
edge(119, 171).
edge(132, 134).
edge(4, 62).
edge(102, 112).
edge(28, 75).
edge(61, 124).
edge(127, 151).
edge(93, 124).
edge(46, 148).
edge(42, 163).
edge(54, 105).
edge(76, 151).
edge(10, 43).
edge(3, 93).
edge(56, 70).
edge(158, 169).
edge(66, 85).
edge(111, 150).
edge(155, 157).
edge(62, 99).
edge(105, 132).
edge(58, 132).
edge(98, 171).
edge(80, 132).
edge(28, 97).
edge(20, 157).
edge(1, 40).
edge(38, 110).
edge(92, 143).
edge(92, 105).
edge(30, 170).
edge(53, 107).
edge(7, 117).
edge(58, 127).
edge(16, 149).
edge(92, 146).
edge(90, 93).
edge(31, 125).
edge(117, 129).
edge(36, 131).
edge(119, 150).
edge(83, 119).
edge(55, 171).
edge(73, 130).
edge(80, 94).
edge(41, 159).
edge(27, 100).
edge(37, 117).
edge(23, 96).
edge(68, 71).
edge(52, 119).
edge(130, 134).
edge(48, 126).
edge(56, 73).
edge(78, 172).
edge(80, 130).
edge(141, 154).
edge(9, 167).
edge(24, 102).
edge(36, 91).
edge(88, 126).
edge(88, 113).
edge(5, 157).
edge(29, 84).
edge(118, 159).
edge(117, 155).
edge(132, 173).
edge(52, 168).
edge(10, 145).
edge(66, 174).
edge(9, 67).
edge(9, 93).
edge(93, 138).
edge(51, 143).
edge(110, 162).
edge(37, 89).
edge(105, 122).
edge(46, 57).
edge(54, 101).
edge(37, 93).
edge(88, 165).
edge(103, 124).
edge(6, 155).
edge(17, 88).
edge(160, 171).
edge(85, 96).
edge(49, 167).
edge(53, 96).
edge(87, 127).
edge(32, 61).
edge(17, 72).
edge(0, 101).
edge(5, 83).
edge(32, 109).
edge(30, 65).
edge(38, 105).
edge(128, 141).
edge(76, 171).
edge(89, 125).
edge(134, 145).
edge(27, 90).
edge(45, 140).
edge(53, 70).
edge(113, 150).
edge(3, 128).
edge(25, 71).
edge(20, 124).
edge(120, 144).
edge(104, 112).
edge(71, 135).
edge(30, 145).
edge(9, 144).
edge(132, 158).
edge(45, 90).
edge(41, 53).
edge(26, 65).
edge(30, 125).
edge(30, 128).
edge(20, 116).
edge(66, 152).
edge(17, 145).
edge(67, 96).
edge(84, 167).
edge(141, 159).
edge(9, 156).
edge(14, 23).
edge(60, 87).
edge(73, 140).
edge(46, 59).
edge(35, 73).
edge(79, 105).
edge(60, 153).
edge(19, 119).
edge(153, 174).
edge(34, 113).
edge(24, 85).
edge(94, 156).
edge(140, 151).
edge(16, 29).
edge(57, 148).
edge(41, 172).
edge(39, 149).
edge(25, 89).
edge(42, 99).
edge(25, 43).
edge(3, 147).
edge(53, 167).
edge(47, 57).
edge(163, 172).
edge(10, 169).
edge(72, 139).
edge(43, 96).
edge(1, 59).
edge(47, 151).
edge(51, 114).
edge(108, 118).
edge(65, 77).
edge(16, 165).
edge(35, 77).
edge(4, 108).
edge(80, 93).
edge(116, 127).
edge(63, 108).
edge(19, 24).
edge(6, 135).
edge(60, 135).
edge(14, 141).
edge(54, 173).
edge(4, 5).
edge(7, 61).
edge(35, 173).
edge(94, 135).
edge(0, 166).
edge(70, 144).
edge(65, 75).
edge(137, 165).
edge(35, 121).
edge(81, 126).
edge(67, 102).
edge(75, 104).
edge(61, 154).
edge(5, 97).
edge(129, 131).
edge(108, 144).
edge(41, 94).
edge(141, 169).
edge(9, 30).
edge(76, 166).
edge(48, 102).
edge(18, 58).
edge(120, 135).
edge(30, 40).
edge(137, 173).
edge(6, 65).
edge(14, 37).
edge(40, 128).
edge(12, 101).
edge(124, 169).
edge(8, 147).
edge(150, 163).
edge(70, 125).
edge(105, 140).
edge(68, 87).
edge(61, 149).
edge(72, 107).
edge(51, 62).
edge(71, 146).
edge(53, 169).
edge(80, 147).
edge(51, 173).
edge(13, 102).
edge(96, 153).
edge(40, 55).
edge(129, 135).
edge(88, 96).
edge(29, 86).
edge(27, 96).
edge(103, 137).
edge(43, 157).
edge(158, 166).
edge(25, 117).
edge(42, 146).
edge(30, 45).
edge(23, 163).
edge(15, 104).
edge(22, 35).
edge(109, 169).
edge(26, 109).
edge(68, 170).
edge(49, 83).
edge(33, 59).
edge(6, 12).
edge(113, 164).
edge(15, 91).
edge(63, 67).
edge(64, 172).
edge(24, 84).
edge(31, 103).
edge(124, 134).
edge(125, 129).
edge(17, 99).
edge(55, 101).
edge(21, 64).
edge(4, 115).
edge(4, 35).
edge(34, 74).
edge(61, 125).
edge(62, 100).
edge(96, 109).
edge(78, 158).
edge(67, 85).
edge(5, 160).
edge(36, 126).
edge(103, 121).
edge(69, 128).
edge(92, 155).
edge(1, 38).
edge(51, 95).
edge(25, 28).
edge(33, 127).
edge(32, 148).
edge(41, 90).
edge(76, 105).
edge(2, 136).
edge(112, 164).
edge(143, 169).
edge(1, 171).
edge(1, 147).
edge(68, 151).
edge(62, 79).
edge(73, 105).
edge(52, 169).
edge(27, 136).
edge(116, 125).
edge(0, 3).
edge(44, 167).
edge(84, 106).
edge(87, 101).
edge(21, 30).
edge(80, 115).
edge(33, 152).
edge(44, 72).
edge(17, 85).
edge(58, 139).
edge(40, 134).
edge(1, 129).
edge(148, 159).
edge(52, 137).
edge(79, 137).
edge(21, 43).
edge(103, 166).
edge(65, 155).
edge(57, 134).
edge(130, 172).
edge(26, 149).
edge(20, 127).
edge(114, 137).
edge(141, 142).
edge(21, 168).
edge(8, 54).
edge(89, 134).
edge(109, 145).
edge(5, 28).
edge(70, 107).
edge(55, 78).
edge(87, 92).
edge(18, 55).
edge(7, 173).
edge(30, 46).
edge(31, 164).
edge(91, 133).
edge(37, 128).
edge(15, 127).
edge(93, 116).
edge(51, 81).
edge(9, 117).
edge(150, 158).
edge(43, 135).
edge(59, 111).
edge(155, 163).
edge(53, 171).
edge(53, 122).
edge(50, 138).
edge(18, 151).
edge(90, 121).
edge(108, 148).
edge(5, 145).
edge(47, 90).
edge(60, 120).
edge(4, 134).
edge(131, 151).
edge(10, 111).
edge(53, 148).
edge(15, 38).
edge(23, 34).
edge(3, 137).
edge(62, 173).
edge(33, 38).
edge(30, 110).
edge(113, 163).
edge(72, 141).
edge(36, 42).
edge(19, 140).
edge(138, 151).
edge(4, 42).
edge(136, 160).
edge(61, 99).
edge(7, 101).
edge(128, 137).
edge(132, 174).
edge(146, 160).
edge(124, 136).
edge(75, 89).
edge(100, 117).
edge(22, 31).
edge(43, 143).
edge(152, 163).
edge(61, 108).
edge(93, 104).
edge(71, 161).
edge(29, 38).
edge(87, 91).
edge(35, 129).
edge(39, 103).
edge(126, 153).
edge(4, 57).
edge(11, 72).
edge(43, 165).
edge(69, 170).
edge(46, 130).
edge(32, 116).
edge(24, 78).
edge(108, 115).
edge(9, 48).
edge(76, 124).
edge(66, 169).
edge(17, 83).
edge(156, 169).
edge(41, 147).
edge(145, 166).
edge(21, 136).
edge(93, 170).
edge(41, 143).
edge(34, 163).
edge(72, 166).
edge(56, 119).
edge(17, 152).
edge(2, 146).
edge(117, 162).
edge(87, 158).
edge(164, 167).
edge(60, 121).
edge(16, 119).
edge(64, 72).
edge(48, 62).
edge(33, 112).
edge(15, 51).
edge(70, 133).
edge(4, 54).
edge(55, 134).
edge(31, 117).
edge(56, 152).
edge(94, 167).
edge(10, 151).
edge(24, 73).
edge(114, 148).
edge(51, 64).
edge(1, 95).
edge(15, 28).
edge(50, 88).
edge(89, 149).
edge(88, 98).
edge(30, 104).
edge(43, 95).
edge(11, 154).
edge(85, 120).
edge(13, 83).
edge(31, 58).
edge(10, 67).
edge(75, 79).
edge(93, 103).
edge(84, 158).
edge(54, 60).
edge(50, 95).
edge(9, 94).
edge(42, 113).
edge(20, 23).
edge(25, 174).
edge(31, 116).
edge(24, 58).
edge(75, 116).
edge(104, 120).
edge(109, 156).
edge(24, 67).
edge(3, 104).
edge(37, 127).
edge(55, 157).
edge(44, 105).
edge(25, 52).
edge(53, 144).
edge(52, 163).
edge(20, 166).
edge(139, 141).
edge(24, 37).
edge(17, 68).
edge(69, 71).
edge(59, 106).
edge(14, 105).
edge(1, 106).
edge(5, 57).
edge(101, 133).
edge(16, 86).
edge(54, 163).
edge(110, 111).
edge(56, 118).
edge(129, 150).
edge(4, 100).
edge(13, 45).
edge(73, 174).
edge(86, 117).
edge(71, 89).
edge(57, 141).
edge(22, 154).
edge(71, 163).
edge(45, 79).
edge(74, 83).
edge(3, 97).
edge(45, 93).
edge(14, 27).
edge(61, 136).
edge(8, 62).
edge(56, 173).
edge(74, 133).
edge(2, 124).
edge(54, 150).
edge(62, 78).
edge(73, 169).
edge(23, 120).
edge(59, 108).
edge(2, 97).
edge(35, 60).
edge(35, 50).
edge(78, 123).
edge(36, 85).
edge(33, 50).
edge(63, 94).
edge(17, 48).
edge(153, 154).
edge(113, 156).
edge(115, 157).
edge(64, 93).
edge(21, 52).
edge(56, 62).
edge(17, 52).
edge(59, 87).
edge(10, 113).
edge(39, 63).
edge(78, 152).
edge(122, 150).
edge(19, 67).
edge(86, 107).
edge(0, 159).
edge(5, 102).
edge(8, 101).
edge(1, 109).
edge(22, 104).
edge(66, 161).
edge(63, 101).
edge(25, 111).
edge(91, 135).
edge(0, 48).
edge(90, 99).
edge(122, 169).
edge(51, 120).
edge(56, 151).
edge(72, 153).
edge(20, 44).
edge(118, 146).
edge(72, 151).
edge(3, 20).
edge(47, 95).
edge(55, 146).
edge(76, 155).
edge(36, 157).
edge(23, 24).
edge(65, 153).
edge(32, 59).
edge(4, 145).
edge(22, 122).
edge(135, 162).
edge(46, 56).
edge(105, 116).
edge(50, 141).
edge(58, 86).
edge(16, 26).
edge(15, 144).
edge(0, 154).
edge(118, 156).
edge(43, 138).
edge(76, 86).
edge(9, 150).
edge(89, 164).
edge(14, 174).
edge(38, 71).
edge(4, 174).
edge(72, 111).
edge(127, 173).
edge(97, 174).
edge(41, 44).
edge(5, 172).
edge(163, 166).
edge(74, 107).
edge(14, 52).
edge(54, 121).
edge(72, 165).
edge(16, 92).
edge(7, 75).
edge(26, 31).
edge(112, 139).
edge(109, 135).
edge(9, 112).
edge(37, 51).
edge(27, 135).
edge(122, 128).
edge(92, 135).
edge(25, 35).
edge(24, 107).
edge(38, 142).
edge(64, 158).
edge(93, 164).
edge(129, 140).
edge(86, 157).
edge(64, 143).
edge(4, 24).
edge(56, 86).
edge(95, 147).
edge(35, 140).
edge(40, 42).
edge(48, 94).
edge(1, 81).
edge(54, 132).
edge(89, 167).
edge(6, 148).
edge(16, 82).
edge(65, 102).
edge(5, 26).
edge(40, 138).
edge(0, 17).
edge(128, 153).
edge(83, 147).
edge(39, 80).
edge(2, 94).
edge(157, 166).
edge(118, 164).
edge(30, 113).
edge(138, 166).
edge(75, 98).
edge(51, 119).
edge(111, 136).
edge(29, 63).
edge(112, 142).
edge(118, 150).
edge(124, 127).
edge(24, 72).
edge(32, 107).
edge(8, 40).
edge(11, 129).
edge(16, 33).
edge(94, 154).
edge(49, 73).
edge(48, 85).
edge(47, 73).
edge(16, 136).
edge(35, 145).
edge(4, 128).
edge(0, 134).
edge(3, 11).
edge(44, 145).
edge(27, 105).
edge(0, 78).
edge(18, 103).
edge(70, 121).
edge(39, 61).
edge(28, 62).
edge(19, 117).
edge(4, 23).
edge(28, 125).
edge(155, 164).
edge(41, 45).
edge(19, 76).
edge(132, 170).
edge(16, 146).
edge(132, 159).
edge(27, 112).
edge(17, 157).
edge(6, 42).
edge(10, 152).
edge(94, 99).
edge(29, 160).
edge(126, 169).
edge(99, 130).
edge(20, 135).
edge(40, 142).
edge(38, 101).
edge(110, 143).
edge(20, 165).
edge(45, 138).
edge(119, 125).
edge(28, 85).
edge(2, 174).
edge(83, 116).
edge(2, 77).
edge(78, 128).
edge(62, 153).
edge(134, 136).
edge(59, 171).
edge(102, 156).
edge(3, 16).
edge(20, 118).
edge(85, 167).
edge(12, 58).
edge(117, 169).
edge(84, 97).
edge(95, 167).
edge(132, 148).
edge(121, 160).
edge(88, 121).
edge(92, 145).
edge(135, 161).
edge(3, 23).
edge(124, 140).
edge(8, 122).
edge(31, 123).
edge(60, 139).
edge(71, 109).
edge(68, 101).
edge(72, 109).
edge(4, 74).
edge(67, 95).
edge(27, 50).
edge(81, 172).
edge(9, 146).
edge(93, 173).
edge(105, 153).
edge(41, 146).
edge(59, 118).
edge(64, 167).
edge(17, 132).
edge(24, 152).
edge(84, 99).
edge(25, 58).
edge(150, 157).
edge(45, 108).
edge(5, 82).
edge(68, 69).
edge(66, 162).
edge(158, 174).
edge(22, 93).
edge(35, 124).
edge(19, 174).
edge(14, 109).
edge(49, 172).
edge(86, 90).
edge(7, 141).
edge(10, 123).
edge(9, 164).
edge(39, 155).
edge(45, 117).
edge(13, 153).
edge(126, 143).
edge(52, 158).
edge(127, 165).
edge(66, 133).
edge(7, 106).
edge(86, 136).
edge(7, 103).
edge(26, 44).
edge(76, 157).
edge(47, 58).
edge(39, 110).
edge(29, 164).
edge(101, 143).
edge(34, 171).
edge(93, 172).
edge(84, 161).
edge(40, 107).
edge(15, 20).
edge(33, 155).
edge(54, 154).
edge(35, 102).
edge(63, 141).
edge(29, 143).
edge(61, 132).
edge(23, 170).
edge(44, 136).
edge(78, 171).
edge(140, 161).
edge(18, 113).
edge(22, 129).
edge(48, 136).
edge(5, 162).
edge(31, 75).
edge(81, 155).
edge(29, 49).
edge(100, 166).
edge(91, 148).
edge(42, 65).
edge(20, 35).
edge(16, 49).
edge(38, 154).
edge(31, 151).
edge(5, 62).
edge(69, 70).
edge(16, 172).
edge(70, 153).
edge(26, 154).
edge(38, 170).
edge(82, 161).
edge(51, 67).
edge(66, 116).
edge(14, 71).
edge(38, 42).
edge(25, 53).
edge(14, 173).
edge(0, 20).
edge(10, 121).
edge(6, 60).
edge(51, 101).
edge(65, 103).
edge(74, 151).
edge(16, 168).
edge(24, 108).
edge(24, 161).
edge(112, 128).
edge(113, 122).
edge(9, 109).
edge(103, 113).
edge(2, 40).
edge(16, 74).
edge(85, 103).
edge(104, 123).
edge(75, 143).
edge(84, 134).
edge(102, 143).
edge(76, 147).
edge(40, 167).
edge(84, 114).
edge(24, 36).
edge(46, 84).
edge(85, 149).
edge(27, 93).
edge(53, 158).
edge(81, 173).
edge(71, 153).
edge(36, 130).
edge(18, 159).
edge(76, 165).
edge(1, 78).
edge(39, 89).
edge(101, 166).
edge(41, 151).
edge(71, 86).
edge(23, 114).
edge(62, 103).
edge(129, 138).
edge(47, 51).
edge(39, 146).
edge(14, 169).
edge(86, 111).
edge(94, 96).
edge(62, 97).
edge(22, 45).
edge(122, 136).
edge(23, 169).
edge(73, 162).
edge(60, 111).
edge(117, 135).
edge(39, 152).
edge(43, 85).
edge(37, 107).
edge(0, 109).
edge(57, 136).
edge(84, 103).
edge(11, 40).
edge(18, 118).
edge(104, 154).
edge(17, 112).
edge(79, 97).
edge(25, 123).
edge(65, 139).
edge(79, 102).
edge(59, 107).
edge(11, 41).
edge(65, 149).
edge(67, 121).
edge(0, 55).
edge(10, 141).
edge(22, 140).
edge(69, 135).
edge(21, 99).
edge(3, 101).
edge(8, 95).
edge(51, 151).
edge(2, 157).
edge(33, 121).
edge(86, 113).
edge(117, 146).
edge(47, 99).
edge(85, 113).
edge(118, 161).
edge(36, 150).
edge(39, 49).
edge(25, 40).
edge(23, 122).
edge(112, 124).
edge(21, 156).
edge(16, 39).
edge(68, 146).
edge(54, 104).
edge(0, 37).
edge(41, 60).
edge(65, 93).
edge(108, 159).
edge(62, 170).
edge(142, 158).
edge(70, 115).
edge(19, 101).
edge(9, 84).
edge(14, 124).
edge(30, 114).
edge(25, 165).
edge(61, 157).
edge(125, 144).
edge(58, 84).
edge(69, 94).
edge(22, 43).
edge(28, 124).
edge(36, 136).
edge(55, 119).
edge(77, 84).
edge(24, 65).
edge(15, 94).
edge(2, 78).
edge(37, 115).
edge(74, 140).
edge(5, 92).
edge(43, 147).
edge(126, 151).
edge(35, 119).
edge(2, 84).
edge(98, 162).
edge(68, 76).
edge(1, 114).
edge(102, 145).
edge(64, 89).
edge(18, 144).
edge(139, 163).
edge(12, 172).
edge(61, 89).
edge(20, 117).
edge(95, 163).
edge(49, 113).
edge(21, 58).
edge(37, 109).
edge(148, 165).
edge(12, 79).
edge(15, 37).
edge(33, 131).
edge(125, 130).
edge(6, 59).
edge(134, 165).
edge(60, 138).
edge(146, 162).
edge(39, 94).
edge(23, 71).
edge(60, 76).
edge(133, 137).
edge(72, 86).
edge(51, 87).
edge(34, 53).
edge(21, 114).
edge(14, 77).
edge(2, 151).
edge(108, 129).
edge(108, 136).
edge(31, 70).
edge(49, 116).
edge(0, 75).
edge(78, 159).
edge(109, 111).
edge(17, 81).
edge(46, 167).
edge(49, 111).
edge(36, 92).
edge(65, 129).
edge(22, 162).
edge(10, 102).
edge(86, 144).
edge(74, 114).
edge(79, 124).
edge(134, 163).
edge(25, 78).
edge(31, 98).
edge(125, 168).
edge(55, 62).
edge(43, 140).
edge(11, 37).
edge(79, 83).
edge(15, 29).
edge(0, 46).
edge(85, 134).
edge(11, 93).
edge(123, 144).
edge(13, 85).
edge(133, 153).
edge(53, 105).
edge(67, 137).
edge(8, 131).
edge(148, 156).
edge(95, 149).
edge(46, 147).
edge(60, 97).
edge(26, 50).
edge(60, 170).
edge(46, 116).
edge(147, 169).
edge(100, 138).
edge(41, 118).
edge(51, 163).
edge(53, 151).
edge(44, 154).
edge(0, 63).
edge(73, 137).
edge(51, 134).
edge(71, 115).
edge(134, 138).
edge(116, 169).
edge(71, 122).
edge(53, 115).
edge(54, 76).
edge(95, 157).
edge(96, 113).
edge(29, 100).
edge(16, 122).
edge(92, 147).
edge(35, 47).
edge(81, 110).
edge(22, 126).
edge(117, 147).
edge(66, 111).
edge(59, 158).
edge(50, 86).
edge(70, 95).
edge(143, 144).
edge(108, 163).
edge(94, 170).
edge(73, 113).
edge(120, 130).
edge(34, 114).
edge(113, 130).
edge(104, 172).
edge(45, 80).
edge(26, 170).
edge(5, 18).
edge(31, 154).
edge(22, 174).
edge(44, 51).
edge(57, 171).
edge(113, 139).
edge(83, 101).
edge(31, 146).
edge(2, 60).
edge(51, 68).
edge(162, 169).
edge(6, 107).
edge(2, 114).
edge(41, 170).
edge(99, 158).
edge(123, 169).
edge(55, 96).
edge(22, 130).
edge(38, 89).
edge(6, 157).
edge(23, 60).
edge(59, 93).
edge(118, 121).
edge(25, 171).
edge(54, 81).
edge(22, 125).
edge(112, 167).
edge(114, 146).
edge(88, 174).
edge(122, 172).
edge(109, 142).
edge(113, 129).
edge(49, 147).
edge(24, 51).
edge(135, 149).
edge(111, 115).
edge(16, 94).
edge(42, 60).
edge(81, 174).
edge(154, 163).
edge(3, 170).
edge(92, 117).
edge(38, 45).
edge(141, 150).
edge(125, 135).
edge(123, 127).
edge(49, 96).
edge(81, 111).
edge(134, 160).
edge(60, 129).
edge(1, 42).
edge(155, 172).
edge(37, 145).
edge(11, 171).
edge(7, 161).
edge(12, 87).
edge(72, 102).
edge(57, 85).
edge(3, 136).
edge(74, 100).
edge(115, 155).
edge(146, 168).
edge(45, 66).
edge(109, 165).
edge(155, 156).
edge(9, 62).
edge(104, 145).
edge(84, 153).
edge(11, 35).
edge(10, 99).
edge(35, 44).
edge(6, 129).
edge(102, 169).
edge(94, 158).
edge(108, 119).
edge(19, 118).
edge(26, 60).
edge(4, 109).
edge(47, 147).
edge(77, 144).
edge(62, 143).
edge(6, 86).
edge(2, 93).
edge(5, 24).
edge(79, 134).
edge(0, 93).
edge(107, 113).
edge(8, 121).
edge(17, 42).
edge(69, 123).
edge(6, 22).
edge(91, 134).
edge(60, 147).
edge(87, 161).
edge(141, 155).
edge(27, 71).
edge(105, 137).
edge(60, 96).
edge(24, 145).
edge(2, 132).
edge(145, 156).
edge(60, 67).
edge(158, 164).
edge(26, 125).
edge(48, 173).
edge(31, 65).
edge(73, 89).
edge(25, 157).
edge(92, 167).
edge(32, 67).
edge(152, 169).
edge(82, 103).
edge(84, 87).
edge(7, 157).
edge(6, 162).
edge(62, 139).
edge(96, 115).
edge(9, 130).
edge(55, 147).
edge(76, 162).
edge(101, 119).
edge(54, 68).
edge(149, 150).
edge(85, 90).
edge(28, 43).
edge(145, 148).
edge(10, 66).
edge(40, 162).
edge(104, 149).
edge(56, 89).
edge(47, 129).
edge(17, 103).
edge(55, 94).
edge(4, 6).
edge(14, 74).
edge(51, 73).
edge(14, 120).
edge(20, 128).
edge(5, 89).
edge(55, 139).
edge(7, 60).
edge(0, 124).
edge(71, 127).
edge(35, 142).
edge(50, 114).
edge(75, 167).
edge(42, 139).
edge(102, 152).
edge(94, 115).
edge(15, 31).
edge(103, 122).
edge(35, 39).
edge(71, 112).
edge(115, 151).
edge(35, 83).
edge(16, 138).
edge(159, 174).
edge(60, 112).
edge(19, 50).
edge(95, 159).
edge(113, 161).
edge(44, 149).
edge(65, 172).
edge(108, 171).
edge(18, 70).
edge(32, 97).
edge(13, 30).
edge(6, 9).
edge(75, 88).
edge(31, 83).
edge(27, 115).
edge(44, 158).
edge(75, 105).
edge(45, 67).
edge(2, 137).
edge(54, 100).
edge(76, 135).
edge(61, 83).
edge(0, 77).
edge(57, 146).
edge(80, 97).
edge(34, 56).
edge(2, 110).
edge(15, 107).
edge(124, 163).
edge(66, 78).
edge(91, 123).
edge(82, 156).
edge(19, 130).
edge(45, 47).
edge(6, 80).
edge(143, 150).
edge(107, 163).
edge(60, 128).
edge(39, 126).
edge(15, 72).
edge(42, 73).
edge(38, 162).
edge(89, 146).
edge(28, 143).
edge(29, 56).
edge(81, 103).
edge(74, 105).
edge(21, 153).
edge(120, 171).
edge(26, 92).
edge(66, 143).
edge(101, 102).
edge(40, 129).
edge(40, 159).
edge(64, 122).
edge(13, 110).
edge(22, 111).
edge(40, 63).
edge(24, 169).
edge(36, 77).
edge(7, 108).
edge(46, 105).
edge(54, 74).
edge(11, 133).
edge(51, 144).
edge(83, 86).
edge(78, 161).
edge(33, 72).
edge(13, 125).
edge(40, 49).
edge(61, 138).
edge(80, 127).
edge(26, 105).
edge(85, 158).
edge(45, 59).
edge(11, 84).
edge(41, 144).
edge(86, 124).
edge(18, 129).
edge(10, 70).
edge(5, 99).
edge(73, 152).
edge(78, 122).
edge(39, 115).
edge(42, 107).
edge(137, 153).
edge(54, 67).
edge(96, 160).
edge(35, 37).
edge(16, 77).
edge(3, 158).
edge(45, 48).
edge(12, 27).
edge(4, 131).
edge(79, 111).
edge(40, 53).
edge(49, 132).
edge(68, 93).
edge(89, 120).
edge(110, 131).
edge(67, 80).
edge(71, 82).
edge(44, 152).
edge(133, 142).
edge(21, 127).
edge(55, 71).
edge(18, 50).
edge(55, 169).
edge(36, 97).
edge(109, 128).
edge(156, 165).
edge(35, 53).
edge(69, 116).
edge(40, 127).
edge(20, 76).
edge(38, 173).
edge(162, 172).
edge(124, 167).
edge(61, 122).
edge(80, 157).
edge(12, 98).
edge(11, 125).
edge(19, 167).
edge(8, 80).
edge(125, 172).
edge(57, 93).
edge(45, 63).
edge(19, 93).
edge(100, 112).
edge(12, 163).
edge(6, 61).
edge(34, 109).
edge(12, 145).
edge(91, 105).
edge(109, 159).
edge(74, 135).
edge(51, 82).
edge(55, 105).
edge(129, 168).
edge(110, 145).
edge(47, 136).
edge(81, 142).
edge(61, 116).
edge(70, 99).
edge(50, 62).
edge(46, 164).
edge(64, 86).
edge(92, 151).
edge(18, 154).
edge(5, 22).
edge(83, 162).
edge(82, 108).
edge(40, 62).
edge(2, 130).
edge(14, 103).
edge(4, 156).
edge(65, 147).
edge(42, 149).
edge(22, 71).
edge(3, 24).
edge(32, 162).
edge(0, 47).
edge(53, 139).
edge(83, 149).
edge(120, 128).
edge(59, 63).
edge(60, 103).
edge(71, 154).
edge(107, 173).
edge(24, 174).
edge(107, 164).
edge(42, 161).
edge(64, 98).
edge(24, 45).
edge(68, 127).
edge(0, 29).
edge(47, 139).
edge(90, 129).
edge(63, 90).
edge(143, 156).
edge(1, 73).
edge(30, 151).
edge(46, 146).
edge(75, 134).
edge(9, 53).
edge(5, 31).
edge(1, 97).
edge(119, 122).
edge(7, 80).
edge(72, 104).
edge(55, 106).
edge(106, 159).
edge(154, 155).
edge(37, 155).
edge(17, 101).
edge(36, 108).
edge(51, 85).
edge(62, 148).
edge(39, 107).
edge(36, 41).
edge(36, 119).
edge(155, 173).
edge(79, 148).
edge(62, 156).
edge(66, 107).
edge(84, 165).
edge(91, 129).
edge(29, 35).
edge(56, 133).
edge(55, 57).
edge(82, 83).
edge(1, 76).
edge(50, 156).
edge(103, 165).
edge(21, 90).
edge(94, 106).
edge(42, 121).
edge(43, 131).
edge(40, 109).
edge(28, 122).
edge(32, 103).
edge(74, 143).
edge(20, 131).
edge(92, 112).
edge(145, 153).
edge(62, 128).
edge(76, 156).
edge(63, 126).
edge(19, 44).
edge(37, 91).
edge(79, 93).
edge(57, 155).
edge(41, 132).
edge(54, 96).
edge(110, 140).
edge(53, 65).
edge(19, 123).
edge(30, 79).
edge(14, 90).
edge(36, 102).
edge(11, 61).
edge(34, 46).
edge(117, 121).
edge(38, 169).
edge(119, 124).
edge(12, 170).
edge(146, 174).
edge(59, 164).
edge(82, 128).
edge(65, 120).
edge(9, 163).
edge(38, 153).
edge(92, 140).
edge(122, 143).
edge(96, 162).
edge(12, 121).
edge(14, 20).
edge(129, 134).
edge(7, 56).
edge(6, 38).
edge(101, 147).
edge(111, 124).
edge(78, 142).
edge(1, 138).
edge(95, 99).
edge(40, 51).
edge(100, 113).
edge(12, 151).
edge(35, 57).
edge(52, 127).
edge(12, 123).
edge(128, 130).
edge(56, 122).
edge(161, 171).
edge(8, 58).
edge(103, 136).
edge(0, 114).
edge(62, 160).
edge(73, 129).
edge(52, 108).
edge(10, 140).
edge(47, 64).
edge(56, 137).
edge(46, 115).
edge(18, 157).
edge(20, 82).
edge(69, 152).
edge(72, 95).
edge(48, 76).
edge(13, 165).
edge(65, 98).
edge(101, 118).
edge(66, 123).
edge(68, 90).
edge(149, 152).
edge(22, 151).
edge(116, 156).
edge(133, 169).
edge(16, 30).
edge(64, 75).
edge(3, 120).
edge(48, 77).
edge(54, 84).
edge(49, 160).
edge(15, 65).
edge(19, 111).
edge(2, 24).
edge(132, 140).
edge(14, 38).
edge(46, 100).
edge(50, 147).
edge(1, 140).
edge(42, 80).
edge(109, 137).
edge(58, 128).
edge(11, 23).
edge(135, 136).
edge(77, 147).
edge(11, 15).
edge(100, 122).
edge(123, 153).
edge(8, 169).
edge(30, 93).
edge(40, 169).
edge(91, 108).
edge(22, 54).
edge(13, 152).
edge(6, 18).
edge(32, 78).
edge(18, 23).
edge(71, 78).
edge(57, 96).
edge(32, 83).
edge(49, 131).
edge(113, 142).
edge(78, 121).
edge(22, 159).
edge(34, 167).
edge(94, 100).
edge(21, 137).
edge(98, 125).
edge(29, 152).
edge(23, 41).
edge(104, 134).
edge(104, 168).
edge(11, 114).
edge(134, 140).
edge(98, 172).
edge(3, 28).
edge(146, 158).
edge(81, 100).
edge(81, 121).
edge(30, 77).
edge(147, 174).
edge(33, 75).
edge(139, 147).
edge(22, 66).
edge(50, 75).
edge(14, 158).
edge(85, 148).
edge(70, 79).
edge(68, 91).
edge(90, 142).
edge(50, 71).
edge(1, 98).
edge(111, 165).
edge(30, 78).
edge(32, 42).
edge(11, 163).
edge(15, 33).
edge(43, 72).
edge(60, 169).
edge(13, 168).
edge(3, 63).
edge(64, 82).
edge(131, 166).
edge(62, 102).
edge(19, 26).
edge(29, 65).
edge(86, 128).
edge(26, 51).
edge(39, 145).
edge(16, 36).
edge(49, 87).
edge(74, 98).
edge(66, 145).
edge(110, 132).
edge(10, 170).
edge(105, 167).
edge(9, 73).
edge(42, 68).
edge(76, 77).
edge(18, 95).
edge(111, 152).
edge(70, 82).
edge(80, 133).
edge(88, 110).
edge(22, 107).
edge(33, 136).
edge(33, 83).
edge(58, 117).
edge(129, 161).
edge(157, 164).
edge(51, 169).
edge(31, 162).
edge(106, 162).
edge(6, 111).
edge(168, 171).
edge(146, 153).
edge(53, 71).
edge(55, 160).
edge(63, 166).
edge(100, 171).
edge(71, 81).
edge(20, 28).
edge(162, 165).
edge(20, 163).
edge(80, 126).
edge(28, 113).
edge(11, 143).
edge(31, 86).
edge(42, 168).
edge(2, 76).
edge(129, 153).
edge(75, 166).
edge(133, 159).
edge(54, 158).
edge(44, 110).
edge(11, 13).
edge(45, 103).
edge(25, 75).
edge(154, 165).
edge(27, 144).
edge(12, 26).
edge(132, 167).
edge(13, 151).
edge(32, 167).
edge(4, 148).
edge(25, 59).
edge(95, 134).
edge(14, 29).
edge(20, 65).
edge(82, 114).
edge(42, 104).
edge(54, 148).
edge(150, 172).
edge(30, 81).
edge(128, 143).
edge(102, 134).
edge(142, 172).
edge(56, 80).
edge(6, 69).
edge(37, 114).
edge(56, 100).
edge(58, 65).
edge(72, 75).
edge(81, 164).
edge(104, 122).
edge(117, 124).
edge(5, 51).
edge(111, 155).
edge(35, 84).
edge(38, 55).
edge(110, 119).
edge(15, 87).
edge(34, 164).
edge(41, 43).
edge(51, 140).
edge(28, 59).
edge(73, 131).
edge(38, 167).
edge(74, 132).
edge(54, 153).
edge(154, 157).
edge(114, 171).
edge(81, 166).
edge(164, 172).
edge(92, 123).
edge(98, 132).
edge(12, 152).
edge(64, 73).
edge(38, 47).
edge(34, 128).
edge(105, 159).
edge(27, 35).
edge(11, 99).
edge(25, 76).
edge(44, 84).
edge(49, 139).
edge(54, 160).
edge(34, 54).
edge(109, 127).
edge(7, 26).
edge(78, 169).
edge(32, 137).
edge(36, 80).
edge(32, 140).
edge(91, 126).
edge(74, 172).
edge(147, 158).
edge(38, 159).
edge(33, 89).
edge(140, 155).
edge(138, 141).
edge(113, 166).
edge(116, 119).
edge(89, 145).
edge(83, 121).
edge(23, 156).
edge(48, 172).
edge(20, 54).
edge(31, 172).
edge(14, 51).
edge(38, 102).
edge(134, 170).
edge(71, 110).
edge(87, 172).
edge(24, 122).
edge(6, 26).
edge(96, 107).
edge(21, 88).
edge(155, 169).
edge(13, 32).
edge(67, 162).
edge(50, 94).
edge(24, 117).
edge(168, 170).
edge(52, 93).
edge(19, 166).
edge(8, 127).
edge(35, 105).
edge(51, 130).
edge(69, 157).
edge(6, 151).
edge(87, 133).
edge(33, 143).
edge(165, 173).
edge(95, 155).
edge(102, 135).
edge(13, 15).
edge(102, 166).
edge(85, 122).
edge(39, 136).
edge(126, 154).
edge(10, 35).
edge(84, 135).
edge(4, 113).
edge(37, 90).
edge(47, 118).
edge(92, 98).
edge(68, 144).
edge(95, 105).
edge(16, 109).
edge(41, 78).
edge(118, 151).
edge(14, 161).
edge(5, 15).
edge(45, 143).
edge(55, 68).
edge(112, 114).
edge(81, 99).
edge(70, 116).
edge(89, 138).
edge(22, 170).
edge(46, 119).
edge(24, 59).
edge(28, 141).
edge(25, 63).
edge(6, 11).
edge(1, 89).
edge(28, 53).
edge(117, 148).
edge(78, 130).
edge(110, 137).
edge(77, 128).
edge(49, 91).
edge(105, 165).
edge(45, 137).
edge(116, 144).
edge(18, 46).
edge(39, 124).
edge(54, 172).
edge(37, 110).
edge(26, 96).
edge(124, 166).
edge(158, 172).
edge(0, 144).
edge(28, 34).
edge(73, 96).
edge(113, 116).
edge(20, 147).
edge(11, 134).
edge(61, 92).
edge(5, 136).
edge(6, 112).
edge(52, 61).
edge(113, 165).
edge(66, 172).
edge(61, 158).
edge(9, 13).
edge(51, 116).
edge(89, 97).
edge(145, 159).
edge(59, 67).
edge(17, 73).
edge(44, 161).
edge(87, 112).
edge(50, 92).
edge(34, 73).
edge(11, 24).
edge(30, 41).
edge(98, 129).
edge(14, 54).
edge(70, 167).
edge(86, 119).
edge(10, 46).
edge(8, 27).
edge(80, 87).
edge(0, 110).
edge(45, 165).
edge(84, 93).
edge(114, 135).
edge(94, 110).
edge(67, 160).
edge(46, 47).
edge(51, 154).
edge(25, 113).
edge(28, 136).
edge(37, 97).
edge(98, 100).
edge(13, 126).
edge(0, 52).
edge(113, 167).
edge(70, 111).
edge(108, 122).
edge(10, 56).
edge(140, 171).
edge(46, 160).
edge(12, 28).
edge(25, 90).
edge(11, 106).
edge(5, 43).
edge(15, 145).
edge(76, 158).
edge(28, 99).
edge(152, 164).
edge(17, 148).
edge(133, 164).
edge(71, 76).
edge(67, 144).
edge(55, 151).
edge(80, 159).
edge(142, 168).
edge(108, 132).
edge(59, 109).
edge(63, 95).
edge(89, 153).
edge(58, 155).
edge(83, 106).
edge(82, 93).
edge(33, 149).
edge(41, 115).
edge(1, 70).
edge(89, 165).
edge(87, 135).
edge(51, 94).
edge(40, 166).
edge(60, 81).
edge(117, 160).
edge(73, 151).
edge(77, 139).
edge(125, 134).
edge(21, 25).
edge(77, 109).
edge(112, 154).
edge(144, 166).
edge(87, 134).
edge(23, 97).
edge(50, 153).
edge(99, 126).
edge(110, 156).
edge(33, 133).
edge(30, 119).
edge(57, 102).
edge(160, 173).
edge(109, 117).
edge(20, 27).
edge(134, 161).
edge(114, 118).
edge(28, 91).
edge(23, 100).
edge(39, 118).
edge(13, 27).
edge(11, 82).
edge(33, 85).
edge(2, 148).
edge(54, 152).
edge(28, 69).
edge(114, 134).
edge(15, 71).
edge(21, 152).
edge(50, 64).
edge(85, 87).
edge(44, 130).
edge(32, 48).
edge(116, 152).
edge(49, 100).
edge(40, 58).
edge(7, 109).
edge(21, 131).
edge(89, 105).
edge(37, 164).
edge(7, 143).
edge(9, 143).
edge(53, 106).
edge(126, 135).
edge(57, 79).
edge(81, 132).
edge(17, 142).
edge(2, 21).
edge(31, 93).
edge(43, 79).
edge(30, 66).
edge(89, 152).
edge(7, 165).
edge(53, 85).
edge(0, 162).
edge(44, 83).
edge(82, 164).
edge(85, 127).
edge(65, 114).
edge(63, 140).
edge(47, 54).
edge(7, 39).
edge(2, 38).
edge(59, 74).
edge(40, 140).
edge(83, 98).
edge(141, 147).
edge(78, 96).
edge(19, 142).
edge(114, 144).
edge(48, 93).
edge(25, 131).
edge(65, 127).
edge(34, 101).
edge(47, 138).
edge(70, 72).
edge(64, 137).
edge(68, 108).
edge(162, 171).
edge(8, 145).
edge(14, 118).
edge(11, 45).
edge(63, 139).
edge(49, 88).
edge(126, 131).
edge(121, 173).
edge(111, 173).
edge(68, 173).
edge(97, 148).
edge(33, 115).
edge(94, 168).
edge(33, 144).
edge(71, 151).
edge(1, 120).
edge(43, 159).
edge(49, 125).
edge(16, 105).
edge(26, 73).
edge(38, 131).
edge(82, 141).
edge(1, 90).
edge(12, 34).
edge(64, 106).
edge(140, 147).
edge(20, 62).
edge(5, 48).
edge(67, 151).
edge(13, 112).
edge(73, 147).
edge(62, 127).
edge(66, 115).
edge(47, 72).
edge(78, 112).
edge(27, 168).
edge(34, 150).
edge(23, 131).
edge(73, 161).
edge(1, 47).
edge(25, 129).
edge(17, 40).
edge(4, 20).
edge(78, 164).
edge(3, 27).
edge(20, 80).
edge(7, 110).
edge(5, 20).
edge(10, 129).
edge(26, 89).
edge(15, 147).
edge(70, 141).
edge(33, 40).
edge(57, 140).
edge(115, 148).
edge(110, 144).
edge(144, 168).
edge(48, 81).
edge(50, 174).
edge(82, 123).
edge(89, 163).
edge(100, 155).
edge(66, 113).
edge(135, 160).
edge(79, 108).
edge(68, 122).
edge(19, 83).
edge(61, 100).
edge(52, 101).
edge(11, 55).
edge(49, 58).
edge(136, 151).
edge(74, 131).
edge(29, 124).
edge(85, 139).
edge(56, 127).
edge(111, 126).
edge(44, 109).
edge(111, 114).
edge(125, 127).
edge(17, 21).
edge(56, 88).
edge(2, 109).
edge(126, 128).
edge(34, 138).
edge(20, 168).
edge(7, 78).
edge(17, 147).
edge(68, 99).
edge(4, 129).
edge(21, 116).
edge(47, 131).
edge(18, 81).
edge(103, 132).
edge(41, 63).
edge(48, 73).
edge(42, 165).
edge(5, 66).
edge(14, 152).
edge(55, 102).
edge(121, 167).
edge(42, 76).
edge(0, 133).
edge(55, 111).
edge(75, 83).
edge(103, 131).
edge(127, 133).
edge(67, 173).
edge(10, 162).
edge(64, 84).
edge(28, 144).
edge(87, 139).
edge(33, 69).
edge(98, 113).
edge(73, 91).
edge(35, 122).
edge(3, 138).
edge(137, 156).
edge(17, 146).
edge(57, 125).
edge(10, 34).
edge(25, 45).
edge(45, 115).
edge(75, 115).
edge(62, 146).
edge(75, 174).
edge(43, 121).
edge(64, 130).
edge(11, 66).
edge(48, 90).
edge(34, 87).
edge(45, 56).
edge(71, 90).
edge(62, 64).
edge(45, 88).
edge(125, 148).
edge(63, 77).
edge(87, 118).
edge(41, 161).
edge(20, 68).
edge(107, 142).
edge(38, 117).
edge(2, 158).
edge(74, 127).
edge(23, 135).
edge(88, 133).
edge(67, 110).
edge(40, 156).
edge(106, 174).
edge(86, 164).
edge(119, 123).
edge(14, 61).
edge(127, 131).
edge(127, 153).
edge(1, 113).
edge(5, 168).
edge(3, 41).
edge(87, 124).
edge(23, 130).
edge(1, 17).
edge(59, 173).
edge(84, 122).
edge(62, 144).
edge(83, 88).
edge(37, 76).
edge(160, 174).
edge(23, 144).
edge(58, 152).
edge(5, 134).
edge(41, 149).
edge(3, 162).
edge(87, 128).
edge(63, 121).
edge(20, 63).
edge(123, 128).
edge(81, 98).
edge(81, 123).
edge(25, 136).
edge(125, 166).
edge(30, 124).
edge(148, 171).
edge(34, 119).
edge(7, 66).
edge(62, 135).
edge(17, 114).
edge(46, 106).
edge(29, 174).
edge(33, 52).
edge(27, 30).
edge(39, 167).
edge(10, 77).
edge(24, 151).
edge(96, 116).
edge(102, 131).
edge(7, 114).
edge(107, 168).
edge(5, 42).
edge(20, 78).
edge(56, 126).
edge(54, 112).
edge(14, 22).
edge(117, 139).
edge(2, 165).
edge(11, 160).
edge(7, 132).
edge(65, 126).
edge(99, 166).
edge(68, 137).
edge(93, 110).
edge(120, 127).
edge(0, 156).
edge(48, 105).
edge(92, 136).
edge(117, 163).
edge(66, 125).
edge(29, 43).
edge(60, 123).
edge(58, 108).
edge(10, 59).
edge(75, 142).
edge(130, 169).
edge(34, 67).
edge(51, 138).
edge(15, 169).
edge(107, 108).
edge(39, 162).
edge(69, 73).
edge(6, 96).
edge(130, 153).
edge(115, 134).
edge(4, 44).
edge(74, 93).
edge(95, 107).
edge(126, 172).
edge(126, 136).
edge(50, 59).
edge(86, 148).
edge(30, 73).
edge(90, 152).
edge(36, 151).
edge(44, 116).
edge(97, 109).
edge(20, 64).
edge(106, 155).
edge(26, 49).
edge(47, 55).
edge(92, 172).
edge(162, 174).
edge(88, 159).
edge(75, 128).
edge(21, 59).
edge(26, 43).
edge(96, 168).
edge(64, 140).
edge(6, 31).
edge(60, 173).
edge(43, 142).
edge(116, 145).
edge(153, 155).
edge(1, 116).
edge(140, 144).
edge(61, 140).
edge(32, 82).
edge(39, 52).
edge(32, 70).
edge(57, 88).
edge(17, 23).
edge(26, 48).
edge(22, 26).
edge(66, 141).
edge(46, 48).
edge(148, 173).
edge(86, 97).
edge(94, 169).
edge(16, 142).
edge(30, 86).
edge(138, 154).
edge(130, 160).
edge(28, 154).
edge(69, 169).
edge(55, 148).
edge(95, 142).
edge(124, 149).
edge(17, 127).
edge(2, 3).
edge(72, 163).
edge(31, 105).
edge(100, 142).
edge(12, 130).
edge(98, 150).
edge(119, 168).
edge(84, 117).
edge(115, 173).
edge(16, 111).
edge(16, 129).
edge(108, 150).
edge(4, 165).
edge(68, 111).
edge(5, 155).
edge(95, 97).
edge(64, 144).
edge(32, 138).
edge(72, 133).
edge(59, 83).
edge(50, 128).
edge(45, 167).
edge(70, 81).
edge(3, 49).
edge(7, 153).
edge(20, 123).
edge(21, 135).
edge(22, 167).
edge(18, 72).
edge(70, 78).
edge(83, 136).
edge(93, 113).
edge(90, 107).
edge(31, 88).
edge(70, 105).
edge(5, 25).
edge(123, 152).
edge(121, 168).
edge(78, 119).
edge(29, 92).
edge(23, 29).
edge(39, 147).
edge(50, 111).
edge(89, 139).
edge(156, 167).
edge(63, 132).
edge(103, 161).
edge(82, 118).
edge(56, 124).
edge(100, 149).
edge(85, 163).
edge(44, 131).
edge(1, 101).
edge(88, 97).
edge(80, 111).
edge(7, 68).
edge(117, 137).
edge(47, 162).
edge(21, 111).
edge(54, 113).
edge(52, 64).
edge(5, 91).
edge(66, 95).
edge(54, 170).
edge(87, 97).
edge(35, 80).
edge(51, 131).
edge(140, 174).
edge(43, 162).
edge(22, 51).
edge(49, 171).
edge(53, 155).
edge(13, 130).
edge(8, 82).
edge(78, 167).
edge(44, 106).
edge(36, 166).
edge(48, 101).
edge(5, 110).
edge(57, 132).
edge(47, 113).
edge(108, 124).
edge(9, 95).
edge(47, 144).
edge(13, 131).
edge(63, 161).
edge(9, 99).
edge(54, 123).
edge(41, 120).
edge(90, 118).
edge(32, 50).
edge(6, 34).
edge(91, 121).
edge(3, 95).
edge(20, 136).
edge(8, 159).
edge(39, 127).
edge(35, 69).
edge(26, 108).
edge(50, 78).
edge(27, 37).
edge(120, 145).
edge(60, 73).
edge(121, 151).
edge(121, 128).
edge(18, 143).
edge(24, 69).
edge(60, 159).
edge(100, 140).
edge(53, 92).
edge(27, 134).
edge(31, 157).
edge(54, 167).
edge(51, 103).
edge(114, 120).
edge(57, 73).
edge(28, 81).
edge(35, 170).
edge(14, 85).
edge(38, 122).
edge(61, 66).
edge(22, 44).
edge(17, 163).
edge(15, 24).
edge(13, 76).
edge(100, 151).
edge(3, 150).
edge(113, 171).
edge(142, 155).
edge(26, 37).
edge(21, 79).
edge(114, 132).
edge(18, 141).
edge(19, 150).
edge(13, 122).
edge(41, 119).
edge(118, 139).
edge(109, 130).
edge(78, 100).
edge(13, 21).
edge(31, 156).
edge(145, 164).
edge(26, 150).
edge(7, 124).
edge(126, 174).
edge(37, 59).
edge(57, 153).
edge(47, 97).
edge(3, 152).
edge(11, 78).
edge(16, 174).
edge(138, 148).
edge(64, 85).
edge(24, 105).
edge(93, 100).
edge(59, 127).
edge(4, 126).
edge(29, 126).
edge(75, 77).
edge(114, 173).
edge(57, 139).
edge(21, 73).
edge(8, 126).
edge(85, 92).
edge(2, 44).
edge(70, 77).
edge(29, 45).
edge(23, 101).
edge(9, 55).
edge(30, 97).
edge(8, 41).
edge(63, 109).
edge(114, 138).
edge(104, 159).
edge(50, 148).
edge(112, 172).
edge(144, 151).
edge(10, 26).
edge(20, 142).
edge(37, 40).
edge(19, 152).
edge(46, 134).
edge(49, 61).
edge(33, 163).
edge(104, 173).
edge(31, 47).
edge(13, 88).
edge(112, 117).
edge(45, 152).
edge(0, 103).
edge(137, 148).
edge(18, 56).
edge(37, 81).
edge(34, 152).
edge(13, 144).
edge(49, 84).
edge(4, 31).
edge(24, 148).
edge(24, 118).
edge(63, 124).
edge(39, 71).
edge(136, 154).
edge(11, 36).
edge(115, 132).
edge(141, 152).
edge(72, 82).
edge(79, 123).
edge(28, 100).
edge(34, 47).
edge(99, 165).
edge(3, 124).
edge(51, 80).
edge(65, 136).
edge(29, 158).
edge(115, 156).
edge(17, 138).
edge(52, 153).
edge(87, 160).
edge(39, 48).
edge(99, 157).
edge(27, 139).
edge(4, 157).
edge(126, 127).
edge(70, 123).
edge(32, 128).
edge(78, 170).
edge(47, 80).
edge(38, 40).
edge(41, 155).
edge(67, 150).
edge(23, 116).
edge(59, 90).
edge(96, 139).
edge(1, 3).
edge(91, 140).
edge(118, 133).
edge(50, 109).
edge(42, 55).
edge(127, 154).
edge(17, 79).
edge(144, 172).
edge(63, 173).
edge(4, 144).
edge(70, 159).
edge(42, 105).
edge(35, 74).
edge(88, 93).
edge(10, 161).
edge(77, 94).
edge(136, 166).
edge(17, 116).
edge(0, 62).
edge(82, 90).
edge(19, 80).
edge(4, 14).
edge(1, 51).
edge(16, 162).
edge(4, 48).
edge(71, 120).
edge(75, 94).
edge(42, 77).
edge(16, 171).
edge(89, 143).
edge(88, 163).
edge(82, 139).
edge(75, 156).
edge(20, 141).
edge(77, 159).
edge(152, 159).
edge(63, 156).
edge(26, 62).
edge(18, 131).
edge(61, 166).
edge(70, 117).
edge(23, 160).
edge(122, 146).
edge(158, 170).
edge(114, 126).
edge(25, 158).
edge(38, 58).
edge(3, 40).
edge(64, 126).
edge(39, 72).
edge(47, 140).
edge(11, 117).
edge(5, 111).
edge(27, 89).
edge(16, 100).
edge(59, 130).
edge(25, 138).
edge(12, 154).
edge(96, 133).
edge(53, 119).
edge(65, 128).
edge(60, 93).
edge(75, 150).
edge(69, 153).
edge(73, 74).
edge(0, 60).
edge(136, 145).
edge(143, 170).
edge(104, 150).
edge(97, 153).
edge(5, 8).
edge(65, 124).
edge(124, 162).
edge(43, 137).
edge(88, 104).
edge(134, 154).
edge(47, 149).
edge(112, 127).
edge(86, 121).
edge(109, 170).
edge(7, 155).
edge(57, 66).
edge(123, 163).
edge(45, 145).
edge(39, 140).
edge(60, 116).
edge(90, 123).
edge(1, 50).
edge(82, 144).
edge(18, 99).
edge(121, 149).
edge(61, 119).
edge(67, 103).
edge(135, 154).
edge(55, 107).
edge(82, 170).
edge(40, 136).
edge(74, 117).
edge(15, 120).
edge(142, 147).
edge(78, 90).
edge(12, 149).
edge(103, 170).
edge(5, 116).
edge(26, 137).
edge(39, 114).
edge(4, 167).
edge(31, 170).
edge(33, 160).
edge(51, 118).
edge(84, 112).
edge(79, 155).
edge(29, 134).
edge(52, 142).
edge(46, 131).
edge(157, 170).
edge(64, 168).
edge(43, 122).
edge(113, 158).
edge(76, 117).
edge(31, 124).
edge(69, 127).
edge(46, 103).
edge(16, 161).
edge(82, 129).
edge(76, 82).
edge(11, 91).
edge(108, 121).
edge(68, 103).
edge(56, 96).
edge(57, 107).
edge(69, 79).
edge(28, 106).
edge(80, 149).
edge(63, 68).
edge(105, 158).
edge(69, 149).
edge(7, 45).
edge(31, 40).
edge(3, 56).
edge(26, 148).
edge(19, 149).
edge(29, 39).
edge(112, 147).
edge(33, 118).
edge(31, 51).
edge(28, 40).
edge(53, 123).
edge(116, 121).
edge(20, 108).
edge(38, 50).
edge(5, 112).
edge(104, 140).
edge(59, 115).
edge(33, 162).
edge(5, 169).
edge(4, 133).
edge(16, 63).
edge(58, 87).
edge(72, 168).
edge(16, 157).
edge(136, 162).
edge(27, 172).
edge(30, 129).
edge(28, 49).
edge(39, 151).
edge(71, 160).
edge(65, 164).
edge(19, 86).
edge(18, 61).
edge(98, 123).
edge(19, 63).
edge(37, 162).
edge(78, 95).
edge(99, 151).
edge(83, 143).
edge(46, 68).
edge(62, 132).
edge(4, 105).
edge(70, 168).
edge(20, 48).
edge(16, 43).
edge(1, 29).
edge(14, 87).
edge(61, 106).
edge(26, 131).
edge(25, 31).
edge(99, 152).
edge(3, 166).
edge(108, 128).
edge(13, 49).
edge(22, 114).
edge(54, 155).
edge(8, 160).
edge(43, 129).
edge(3, 12).
edge(73, 126).
edge(110, 150).
edge(154, 161).
edge(64, 114).
edge(91, 98).
edge(42, 61).
edge(4, 91).
edge(5, 141).
edge(20, 126).
edge(114, 174).
edge(61, 63).
edge(67, 119).
edge(22, 138).
edge(97, 118).
edge(2, 4).
edge(46, 157).
edge(64, 76).
edge(0, 92).
edge(4, 155).
edge(11, 107).
edge(34, 169).
edge(58, 120).
edge(3, 47).
edge(17, 109).
edge(18, 71).
edge(60, 90).
edge(10, 36).
edge(135, 145).
edge(17, 41).
edge(1, 157).
edge(109, 129).
edge(94, 155).
edge(70, 110).
edge(58, 82).
edge(99, 134).
edge(0, 172).
edge(137, 139).
edge(68, 117).
edge(79, 126).
edge(21, 61).
edge(40, 68).
edge(75, 129).
edge(106, 122).
edge(8, 114).
edge(18, 104).
edge(101, 117).
edge(34, 105).
edge(8, 26).
edge(22, 86).
edge(12, 119).
edge(41, 106).
edge(102, 159).
edge(105, 113).
edge(15, 137).
edge(75, 169).
edge(93, 145).
edge(61, 169).
edge(112, 133).
edge(90, 116).
edge(106, 153).
edge(60, 174).
edge(118, 124).
edge(2, 129).
edge(49, 163).
edge(1, 30).
edge(87, 164).
edge(19, 139).
edge(70, 73).
edge(1, 35).
edge(40, 112).
edge(129, 152).
edge(96, 127).
edge(124, 156).
edge(82, 95).
edge(3, 144).
edge(56, 66).
edge(103, 174).
edge(23, 70).
edge(82, 148).
edge(42, 152).
edge(26, 172).
edge(80, 134).
edge(61, 98).
edge(54, 124).
edge(47, 160).
edge(22, 139).
edge(76, 98).
edge(15, 63).
edge(90, 131).
edge(92, 141).
edge(49, 146).
edge(18, 40).
edge(24, 89).
edge(2, 39).
edge(10, 51).
edge(13, 167).
edge(113, 146).
edge(7, 172).
edge(29, 89).
edge(156, 171).
edge(27, 110).
edge(53, 91).
edge(82, 145).
edge(34, 107).
edge(79, 164).
edge(119, 152).
edge(78, 134).
edge(26, 30).
edge(134, 152).
edge(56, 79).
edge(4, 70).
edge(18, 42).
edge(119, 134).
edge(6, 117).
edge(43, 68).
edge(16, 78).
edge(85, 146).
edge(33, 42).
edge(7, 134).
edge(66, 149).
edge(2, 8).
edge(85, 155).
edge(144, 148).
edge(42, 133).
edge(29, 150).
edge(131, 168).
edge(92, 132).
edge(85, 100).
edge(20, 43).
edge(25, 87).
edge(28, 45).
edge(58, 106).
edge(43, 167).
edge(70, 76).
edge(29, 105).
edge(77, 86).
edge(3, 6).
edge(47, 137).
edge(76, 131).
edge(19, 79).
edge(50, 68).
edge(104, 143).
edge(0, 35).
edge(126, 137).
edge(73, 157).
edge(142, 173).
edge(94, 101).
edge(45, 68).
edge(20, 39).
edge(38, 77).
edge(28, 74).
edge(72, 123).
edge(9, 171).
edge(40, 97).
edge(1, 61).
edge(71, 142).
edge(16, 137).
edge(93, 149).
edge(14, 123).
edge(55, 136).
edge(72, 94).
edge(38, 108).
edge(77, 155).
edge(78, 154).
edge(93, 139).
edge(92, 109).
edge(103, 117).
edge(6, 138).
edge(70, 127).
edge(47, 106).
edge(9, 165).
edge(56, 115).
edge(32, 120).
edge(25, 130).
edge(2, 6).
edge(19, 135).
edge(12, 96).
edge(25, 146).
edge(21, 67).
edge(32, 44).
edge(135, 171).
edge(17, 141).
edge(80, 92).
edge(75, 153).
edge(17, 172).
edge(31, 120).
edge(11, 31).
edge(32, 39).
edge(47, 104).
edge(111, 159).
edge(50, 126).
edge(85, 168).
edge(65, 137).
edge(23, 55).
edge(100, 164).
edge(97, 167).
edge(40, 78).
edge(73, 142).
edge(15, 86).
edge(81, 87).
edge(68, 104).
edge(10, 128).
edge(60, 89).
edge(9, 51).
edge(93, 140).
edge(99, 112).
edge(76, 97).
edge(33, 109).
edge(62, 138).
edge(14, 56).
edge(75, 95).
edge(100, 159).
edge(7, 54).
edge(138, 146).
edge(8, 20).
edge(53, 62).
edge(112, 144).
edge(60, 132).
edge(6, 49).
edge(67, 109).
edge(31, 131).
edge(67, 98).
edge(1, 165).
edge(58, 73).
edge(101, 153).
edge(40, 146).
edge(25, 62).
edge(45, 125).
edge(22, 146).
edge(50, 144).
edge(67, 174).
edge(102, 151).
edge(12, 77).
edge(0, 18).
edge(51, 135).
edge(58, 96).
edge(62, 151).
edge(117, 141).
edge(79, 154).
edge(9, 102).
edge(38, 65).
edge(143, 166).
edge(39, 78).
edge(45, 107).
edge(3, 64).
edge(0, 79).
edge(28, 98).
edge(12, 81).
edge(68, 75).
edge(77, 113).
edge(80, 82).
edge(56, 160).
edge(23, 88).
edge(67, 72).
edge(52, 103).
edge(34, 71).
edge(32, 89).
edge(96, 131).
edge(57, 86).
edge(7, 95).
edge(135, 146).
edge(82, 110).
edge(53, 154).
edge(56, 57).
edge(84, 170).
edge(75, 106).
edge(50, 108).
edge(141, 173).
edge(45, 160).
edge(73, 109).
edge(107, 120).
edge(170, 174).
edge(3, 111).
edge(93, 157).
edge(57, 162).
edge(33, 111).
edge(47, 169).
edge(12, 108).
edge(102, 132).
edge(138, 158).
edge(9, 28).
edge(106, 131).
edge(74, 141).
edge(101, 108).
edge(111, 158).
edge(63, 149).
edge(65, 161).
edge(77, 149).
edge(115, 135).
edge(81, 151).
edge(113, 151).
edge(16, 120).
edge(11, 146).
edge(52, 100).
edge(106, 161).
edge(63, 163).
edge(62, 137).
edge(45, 144).
edge(31, 87).
edge(30, 174).
edge(95, 123).
edge(132, 157).
edge(128, 154).
edge(80, 123).
edge(13, 150).
edge(107, 125).
edge(5, 123).
edge(132, 144).
edge(45, 162).
edge(28, 151).
edge(99, 100).
edge(0, 132).
edge(26, 166).
edge(14, 119).
edge(28, 133).
edge(17, 47).
edge(88, 122).
edge(34, 50).
edge(48, 117).
edge(21, 170).
edge(57, 123).
edge(87, 93).
edge(33, 65).
edge(41, 70).
edge(163, 171).
edge(155, 174).
edge(131, 164).
edge(59, 167).
edge(76, 100).
edge(37, 135).
edge(121, 153).
edge(143, 151).
edge(142, 152).
edge(30, 155).
edge(40, 54).
edge(61, 97).
edge(18, 145).
edge(154, 164).
edge(39, 62).
edge(109, 133).
edge(0, 1).
edge(42, 117).
edge(47, 142).
edge(123, 124).
edge(57, 84).
edge(10, 106).
edge(58, 104).
edge(86, 106).
edge(8, 170).
edge(8, 172).
edge(127, 163).
edge(14, 165).
edge(49, 95).
edge(20, 139).
edge(100, 104).
edge(6, 88).
edge(100, 114).
edge(13, 91).
edge(152, 174).
edge(23, 39).
edge(108, 112).
edge(55, 79).
edge(118, 144).
edge(32, 62).
edge(3, 131).
edge(4, 36).
edge(83, 153).
edge(37, 100).
edge(67, 130).
edge(33, 98).
edge(90, 140).
edge(9, 160).
edge(102, 118).
edge(13, 139).
edge(63, 137).
edge(27, 94).
edge(21, 125).
edge(104, 128).
edge(104, 111).
edge(95, 141).
edge(56, 110).
edge(43, 70).
edge(46, 104).
edge(62, 169).
edge(114, 116).
edge(7, 25).
edge(81, 90).
edge(79, 85).
edge(39, 46).
edge(81, 167).
edge(67, 87).
edge(94, 146).
edge(117, 156).
edge(20, 161).
edge(25, 105).
edge(22, 56).
edge(87, 120).
edge(35, 64).
edge(25, 56).
edge(16, 38).
edge(0, 30).
edge(136, 138).
edge(142, 154).
edge(35, 92).
edge(133, 171).
edge(18, 98).
edge(84, 105).
edge(87, 113).
edge(24, 126).
edge(100, 162).
edge(55, 127).
edge(28, 161).
edge(12, 91).
edge(47, 84).
edge(35, 56).
edge(8, 42).
edge(112, 115).
edge(135, 137).
edge(121, 166).
edge(25, 154).
edge(71, 111).
edge(112, 162).
edge(12, 92).
edge(113, 115).
edge(83, 89).
edge(156, 157).
edge(30, 50).
edge(66, 171).
edge(6, 73).
edge(18, 147).
edge(141, 160).
edge(68, 97).
edge(118, 172).
edge(27, 148).
edge(30, 89).
edge(31, 137).
edge(51, 158).
edge(47, 78).
edge(28, 123).
edge(48, 145).
edge(119, 133).
edge(38, 80).
edge(135, 139).
edge(110, 138).
edge(10, 126).
edge(8, 56).
edge(66, 129).
edge(73, 106).
edge(20, 145).
edge(65, 113).
edge(15, 113).
edge(45, 157).
edge(101, 159).
edge(115, 170).
edge(89, 91).
edge(36, 57).
edge(31, 111).
edge(36, 171).
edge(89, 123).
edge(78, 110).
edge(144, 174).
edge(38, 79).
edge(63, 112).
edge(115, 163).
edge(29, 106).
edge(99, 102).
edge(3, 25).
edge(127, 159).
edge(125, 159).
edge(62, 129).
edge(32, 155).
edge(118, 141).
edge(102, 165).
edge(38, 70).
edge(13, 104).
edge(126, 173).
edge(109, 161).
edge(59, 151).
edge(49, 50).
edge(72, 148).
edge(48, 66).
edge(86, 88).
edge(55, 142).
edge(98, 170).
edge(2, 74).
edge(61, 174).
edge(89, 115).
edge(87, 103).
edge(105, 173).
edge(43, 50).
edge(45, 136).
edge(27, 130).
edge(101, 162).
edge(123, 154).
edge(101, 152).
edge(114, 127).
edge(99, 104).
edge(51, 153).
edge(18, 117).
edge(102, 168).
edge(25, 144).
edge(120, 126).
edge(126, 164).
edge(19, 161).
edge(46, 89).
edge(99, 122).
edge(126, 158).
edge(108, 143).
edge(23, 138).
edge(10, 53).
edge(74, 99).
edge(53, 67).
edge(38, 172).
edge(40, 90).
edge(7, 58).
edge(1, 142).
edge(0, 66).
edge(0, 97).
edge(72, 167).
edge(51, 123).
edge(41, 174).
edge(61, 131).
edge(79, 131).
edge(56, 102).
edge(73, 86).
edge(53, 129).
edge(117, 166).
edge(15, 83).
edge(105, 130).
edge(9, 61).
edge(47, 116).
edge(6, 133).
edge(89, 118).
edge(121, 159).
edge(32, 36).
edge(63, 80).
edge(23, 58).
edge(19, 141).
edge(81, 95).
edge(90, 112).
edge(74, 90).
edge(14, 19).
edge(15, 158).
edge(81, 159).
edge(76, 169).
edge(47, 112).
edge(63, 146).
edge(77, 112).
edge(17, 93).
edge(58, 160).
edge(51, 152).
edge(49, 76).
edge(17, 104).
edge(83, 113).
edge(50, 121).
edge(48, 49).
edge(26, 35).
edge(66, 127).
edge(50, 85).
edge(70, 86).
edge(53, 55).
edge(8, 16).
edge(80, 164).
edge(123, 157).
edge(6, 47).
edge(78, 115).
edge(136, 146).
edge(89, 162).
edge(92, 131).
edge(60, 85).
edge(110, 133).
edge(13, 164).
edge(161, 164).
edge(1, 152).
edge(97, 166).
edge(10, 148).
edge(52, 75).
edge(33, 71).
edge(97, 128).
edge(80, 163).
edge(128, 151).
edge(75, 125).
edge(49, 110).
edge(5, 34).
edge(21, 128).
edge(93, 123).
edge(7, 21).
edge(0, 174).
edge(122, 160).
edge(34, 145).
edge(84, 107).
edge(24, 110).
edge(0, 137).
edge(48, 70).
edge(123, 145).
edge(69, 85).
edge(45, 86).
edge(11, 108).
edge(8, 139).
edge(118, 127).
edge(81, 105).
edge(72, 127).
edge(99, 133).
edge(73, 167).
edge(112, 132).
edge(110, 158).
edge(3, 78).
edge(17, 66).
edge(1, 58).
edge(49, 150).
edge(68, 129).
edge(15, 124).
edge(14, 89).
edge(91, 152).
edge(31, 112).
edge(11, 138).
edge(5, 139).
edge(9, 87).
edge(44, 155).
edge(57, 89).
edge(34, 40).
edge(43, 88).
edge(39, 50).
edge(41, 123).
edge(104, 169).
edge(32, 91).
edge(22, 88).
edge(40, 171).
edge(16, 117).
edge(61, 112).
edge(35, 118).
edge(2, 34).
edge(42, 110).
edge(110, 130).
edge(105, 164).
edge(50, 145).
edge(145, 174).
edge(120, 173).
edge(29, 79).
edge(61, 102).
edge(115, 142).
edge(77, 99).
edge(122, 162).
edge(36, 173).
edge(32, 49).
edge(6, 87).
edge(51, 92).
edge(115, 117).
edge(33, 120).
edge(46, 143).
edge(23, 154).
edge(113, 169).
edge(34, 66).
edge(6, 122).
edge(72, 136).
edge(26, 167).
edge(104, 107).
edge(97, 125).
edge(45, 168).
edge(11, 42).
edge(136, 159).
edge(20, 33).
edge(36, 116).
edge(17, 29).
edge(92, 101).
edge(22, 164).
edge(39, 116).
edge(15, 128).
edge(27, 61).
edge(11, 137).
edge(103, 154).
edge(53, 100).
edge(70, 114).
edge(81, 131).
edge(1, 128).
edge(25, 46).
edge(12, 40).
edge(5, 135).
edge(54, 129).
edge(6, 102).
edge(1, 133).
edge(0, 105).
edge(21, 46).
edge(41, 113).
edge(141, 144).
edge(17, 139).
edge(60, 148).
edge(41, 85).
edge(99, 145).
edge(57, 143).
edge(2, 18).
edge(38, 98).
edge(43, 44).
edge(10, 61).
edge(95, 137).
edge(121, 123).
edge(11, 94).
edge(98, 168).
edge(86, 109).
edge(65, 85).
edge(25, 156).
edge(35, 88).
edge(34, 102).
edge(112, 137).
edge(89, 107).
edge(125, 156).
edge(9, 10).
edge(33, 132).
edge(37, 101).
edge(89, 147).
edge(122, 161).
edge(25, 143).
edge(103, 158).
edge(113, 138).
edge(83, 97).
edge(17, 137).
edge(52, 156).
edge(96, 167).
edge(51, 142).
edge(16, 32).
edge(157, 159).
edge(28, 130).
edge(139, 150).
edge(98, 153).
edge(3, 65).
edge(12, 110).
edge(31, 39).
edge(119, 167).
edge(55, 170).
edge(93, 132).
edge(77, 164).
edge(94, 138).
edge(133, 147).
edge(113, 168).
edge(25, 114).
edge(99, 101).
edge(70, 166).
edge(19, 126).
edge(58, 76).
edge(44, 126).
edge(92, 149).
edge(59, 148).
edge(24, 41).
edge(88, 164).
edge(83, 134).
edge(42, 145).
edge(21, 38).
edge(56, 139).
edge(3, 84).
edge(35, 94).
edge(112, 171).
edge(78, 135).
edge(128, 150).
edge(36, 110).
edge(41, 157).
edge(71, 126).
edge(94, 144).
edge(65, 167).
edge(59, 62).
edge(23, 99).
edge(100, 139).
edge(157, 163).
edge(11, 49).
edge(75, 144).
edge(122, 163).
edge(89, 119).
edge(24, 120).
edge(116, 130).
edge(51, 136).
edge(130, 163).
edge(6, 126).
edge(27, 47).
edge(8, 10).
edge(78, 83).
edge(13, 35).
edge(25, 149).
edge(36, 55).
edge(52, 77).
edge(12, 100).
edge(23, 76).
edge(16, 101).
edge(80, 108).
edge(50, 169).
edge(83, 172).
edge(43, 102).
edge(18, 59).
edge(34, 98).
edge(101, 109).
edge(37, 88).
edge(16, 61).
edge(59, 94).
edge(94, 161).
edge(34, 146).
edge(8, 12).
edge(64, 104).
edge(17, 30).
edge(28, 32).
edge(116, 129).
edge(1, 136).
edge(147, 160).
edge(61, 64).
edge(20, 32).
edge(10, 136).
edge(101, 170).
edge(89, 124).
edge(24, 127).
edge(8, 37).
edge(8, 74).
edge(44, 85).
edge(67, 74).
edge(97, 134).
edge(32, 112).
edge(151, 168).
edge(110, 128).
edge(82, 153).
edge(143, 158).
edge(43, 86).
edge(39, 132).
edge(74, 137).
edge(80, 129).
edge(89, 129).
edge(39, 100).
edge(7, 140).
edge(83, 87).
edge(1, 149).
edge(14, 135).
edge(21, 44).
edge(0, 59).
edge(51, 117).
edge(46, 69).
edge(90, 98).
edge(51, 166).
edge(62, 65).
edge(32, 129).
edge(6, 48).
edge(14, 79).
edge(48, 169).
edge(61, 90).
edge(25, 60).
edge(41, 69).
edge(41, 138).
edge(26, 81).
edge(86, 108).
edge(68, 86).
edge(53, 89).
edge(65, 79).
edge(0, 108).
edge(17, 106).
edge(60, 72).
edge(112, 153).
edge(19, 104).
edge(79, 119).
edge(25, 26).
edge(34, 142).
edge(55, 112).
edge(17, 18).
edge(40, 150).
edge(87, 168).
edge(66, 102).
edge(15, 59).
edge(18, 132).
edge(44, 144).
edge(33, 41).
edge(5, 76).
edge(27, 75).
edge(147, 150).
edge(45, 81).
edge(101, 104).
edge(20, 171).
edge(166, 171).
edge(34, 108).
edge(38, 95).
edge(9, 119).
edge(116, 122).
edge(34, 57).
edge(44, 74).
edge(80, 166).
edge(46, 76).
edge(0, 76).
edge(31, 85).
edge(43, 94).
edge(59, 69).
edge(6, 101).
edge(116, 139).
edge(5, 114).
edge(9, 25).
edge(52, 94).
edge(62, 118).
edge(70, 156).
edge(128, 160).
edge(20, 148).
edge(45, 72).
edge(20, 40).
edge(159, 167).
edge(2, 32).
edge(29, 159).
edge(19, 46).
edge(6, 54).
edge(53, 149).
edge(19, 162).
edge(16, 173).
edge(68, 74).
edge(40, 118).
edge(4, 65).
edge(29, 112).
edge(59, 97).
edge(34, 148).
edge(65, 132).
edge(9, 157).
edge(6, 40).
edge(110, 118).
edge(47, 89).
edge(130, 168).
edge(99, 169).
edge(33, 146).
edge(34, 141).
edge(38, 51).
edge(45, 106).
edge(19, 40).
edge(23, 33).
edge(44, 45).
edge(93, 152).
edge(76, 137).
edge(21, 72).
edge(30, 61).
edge(36, 172).
edge(125, 167).
edge(101, 128).
edge(25, 163).
edge(66, 166).
edge(62, 72).
edge(63, 117).
edge(78, 102).
edge(102, 110).
edge(29, 172).
edge(16, 62).
edge(61, 82).
edge(37, 112).
edge(117, 168).
edge(102, 157).
edge(32, 157).
edge(1, 115).
edge(53, 104).
edge(59, 128).
edge(91, 160).
edge(0, 16).
edge(8, 71).
edge(70, 80).
edge(23, 165).
edge(148, 172).
edge(31, 78).
edge(21, 138).
edge(14, 18).
edge(8, 141).
edge(34, 49).
edge(16, 153).
edge(39, 90).
edge(19, 91).
edge(33, 156).
edge(154, 156).
edge(119, 166).
edge(71, 106).
edge(0, 13).
edge(69, 131).
edge(12, 124).
edge(0, 21).
edge(60, 83).
edge(31, 33).
edge(26, 106).
edge(34, 86).
edge(113, 118).
edge(66, 168).
edge(46, 63).
edge(56, 165).
edge(75, 90).
edge(105, 115).
edge(65, 171).
edge(114, 151).
edge(107, 166).
edge(39, 129).
edge(49, 92).
edge(13, 41).
edge(94, 163).
edge(28, 114).
edge(41, 156).
edge(73, 117).
edge(28, 48).
edge(15, 121).
edge(14, 46).
edge(5, 124).
edge(5, 152).
edge(69, 109).
edge(75, 141).
edge(112, 149).
edge(143, 154).
edge(125, 149).
edge(16, 139).
edge(15, 41).
edge(92, 157).
edge(34, 173).
edge(2, 82).
edge(90, 164).
edge(63, 83).
edge(84, 154).
edge(15, 129).
edge(145, 154).
edge(96, 159).
edge(62, 76).
edge(69, 168).
edge(28, 35).
edge(61, 94).
edge(148, 160).
edge(68, 105).
edge(153, 157).
edge(45, 174).
edge(94, 104).
edge(47, 62).
edge(26, 133).
edge(24, 35).
edge(133, 151).
edge(135, 168).
edge(6, 139).
edge(5, 88).
edge(91, 147).
edge(10, 116).
edge(85, 99).
edge(116, 154).
edge(124, 126).
edge(16, 148).
edge(41, 160).
edge(38, 78).
edge(94, 126).
edge(34, 51).
edge(74, 86).
edge(50, 137).
edge(157, 171).
edge(102, 116).
edge(5, 87).
edge(31, 113).
edge(15, 152).
edge(17, 31).
edge(51, 53).
edge(44, 47).
edge(59, 96).
edge(40, 87).
edge(47, 77).
edge(80, 114).
edge(50, 99).
edge(28, 64).
edge(135, 148).
edge(40, 45).
edge(37, 126).
edge(15, 118).
edge(153, 166).
edge(30, 52).
edge(24, 113).
edge(113, 133).
edge(10, 134).
edge(12, 103).
edge(63, 96).
edge(110, 136).
edge(54, 85).
edge(90, 174).
edge(24, 88).
edge(17, 166).
edge(14, 47).
edge(43, 173).
edge(14, 34).
edge(83, 154).
edge(94, 171).
edge(32, 106).
edge(8, 45).
edge(21, 104).
edge(85, 118).
edge(88, 148).
edge(22, 120).
edge(131, 154).
edge(59, 117).
edge(95, 124).
edge(66, 79).
edge(121, 154).
edge(45, 76).
edge(90, 136).
edge(24, 75).
edge(14, 75).
edge(22, 141).
edge(101, 131).
edge(54, 145).
edge(36, 133).
edge(8, 35).
edge(69, 91).
edge(64, 113).
edge(26, 140).
edge(166, 167).
edge(127, 135).
edge(11, 52).
edge(94, 114).
edge(72, 110).
edge(30, 60).
edge(122, 171).
edge(51, 58).
edge(76, 99).
edge(50, 170).
edge(68, 82).
edge(37, 173).
edge(26, 64).
edge(9, 47).
edge(10, 149).
edge(17, 34).
edge(75, 164).
edge(50, 76).
edge(70, 90).
edge(126, 161).
edge(99, 113).
edge(49, 135).
edge(28, 93).
edge(154, 173).
edge(54, 146).
edge(53, 81).
edge(1, 111).
edge(55, 149).
edge(76, 159).
edge(35, 48).
edge(19, 45).
edge(81, 85).
edge(79, 143).
edge(45, 171).
edge(0, 123).
edge(32, 79).
edge(32, 100).
edge(32, 37).
edge(16, 70).
edge(71, 169).
edge(124, 173).
edge(20, 115).
edge(57, 83).
edge(54, 135).
edge(29, 41).
edge(97, 100).
edge(58, 68).
edge(14, 137).
edge(98, 112).
edge(57, 87).
edge(25, 36).
edge(81, 150).
edge(7, 65).
edge(78, 150).
edge(143, 162).
edge(121, 126).
edge(159, 166).
edge(33, 44).
edge(91, 115).
edge(47, 132).
edge(52, 53).
edge(119, 170).
edge(109, 166).
edge(20, 98).
edge(101, 130).
edge(49, 62).
edge(68, 83).
edge(133, 166).
edge(88, 147).
edge(12, 17).
edge(50, 72).
edge(27, 173).
edge(155, 160).
edge(25, 44).
edge(42, 88).
edge(18, 150).
edge(5, 146).
edge(133, 143).
edge(67, 128).
edge(46, 86).
edge(35, 150).
edge(6, 33).
edge(17, 107).
edge(15, 21).
edge(88, 167).
edge(53, 60).
edge(27, 123).
edge(55, 65).
edge(109, 124).
edge(23, 110).
edge(51, 76).
edge(63, 152).
edge(100, 173).
edge(131, 133).
edge(59, 88).
edge(15, 168).
edge(24, 92).
edge(83, 144).
edge(83, 108).
edge(2, 33).
edge(42, 43).
edge(56, 75).
edge(67, 138).
edge(45, 169).
edge(0, 43).
edge(85, 91).
edge(4, 21).
edge(28, 112).
edge(38, 155).
edge(34, 44).
edge(52, 65).
edge(72, 80).
edge(5, 174).
edge(55, 61).
edge(34, 153).
edge(143, 161).
edge(97, 131).
edge(39, 66).
edge(2, 91).
edge(76, 114).
edge(59, 155).
edge(44, 165).
edge(14, 172).
edge(86, 112).
edge(10, 155).
edge(41, 65).
edge(62, 107).
edge(106, 116).
edge(20, 154).
edge(23, 56).
edge(54, 71).
edge(34, 134).
edge(23, 73).
edge(32, 110).
edge(154, 160).
edge(15, 111).
edge(21, 70).
edge(36, 113).
edge(18, 124).
edge(22, 127).
edge(7, 88).
edge(95, 98).
edge(63, 111).
edge(83, 110).
edge(66, 70).
edge(2, 46).
edge(7, 17).
edge(51, 98).
edge(119, 144).
edge(17, 122).
edge(63, 72).
edge(63, 135).
edge(0, 130).
edge(9, 141).
edge(34, 136).
edge(40, 124).
edge(54, 97).
edge(114, 154).
edge(22, 113).
edge(67, 168).
edge(115, 131).
edge(21, 26).
edge(102, 123).
edge(80, 156).
edge(48, 58).
edge(31, 48).
edge(17, 118).
edge(7, 127).
edge(1, 87).
edge(69, 137).
edge(57, 116).
edge(4, 94).
edge(5, 69).
edge(55, 98).
edge(15, 148).
edge(66, 96).
edge(12, 80).
edge(92, 116).
edge(141, 162).
edge(83, 114).
edge(134, 168).
edge(28, 56).
edge(8, 11).
edge(111, 148).
edge(38, 136).
edge(128, 171).
edge(8, 174).
edge(41, 57).
edge(95, 162).
edge(52, 96).
edge(7, 15).
edge(7, 111).
edge(32, 53).
edge(86, 129).
edge(46, 113).
edge(107, 132).
edge(35, 100).
edge(106, 170).
edge(2, 161).
edge(48, 55).
edge(46, 109).
edge(21, 53).
edge(90, 144).
edge(118, 143).
edge(121, 170).
edge(16, 158).
edge(29, 44).
edge(115, 169).
edge(102, 160).
edge(24, 154).
edge(23, 146).
edge(78, 114).
edge(77, 114).
edge(52, 138).
edge(17, 24).
edge(66, 157).
edge(113, 135).
edge(97, 157).
edge(29, 139).
edge(9, 18).
edge(147, 171).
edge(160, 166).
edge(21, 112).
edge(46, 132).
edge(22, 158).
edge(16, 22).
edge(84, 159).
edge(0, 143).
edge(61, 152).
edge(57, 145).
edge(12, 86).
edge(14, 21).
edge(11, 156).
edge(49, 78).
edge(40, 153).
edge(3, 146).
edge(68, 85).
edge(22, 132).
edge(82, 140).
edge(42, 49).
edge(112, 125).
edge(15, 54).
edge(23, 25).
edge(79, 129).
edge(117, 174).
edge(61, 70).
edge(104, 110).
edge(60, 91).
edge(51, 75).
edge(61, 75).
edge(10, 146).
edge(139, 168).
edge(114, 165).
edge(22, 98).
edge(117, 118).
edge(97, 154).
edge(56, 91).
edge(108, 167).
edge(18, 74).
edge(90, 139).
edge(94, 149).
edge(86, 134).
edge(123, 136).
edge(17, 155).
edge(104, 155).
edge(73, 78).
edge(0, 82).
edge(5, 143).
edge(4, 80).
edge(81, 128).
edge(39, 57).
edge(81, 118).
edge(70, 93).
edge(67, 125).
edge(45, 121).
edge(131, 149).
edge(25, 109).
edge(93, 115).
edge(86, 105).
edge(8, 171).
edge(35, 141).
edge(108, 145).
edge(36, 120).
edge(39, 141).
edge(134, 151).
edge(26, 132).
edge(15, 36).
edge(69, 142).
edge(57, 144).
edge(109, 155).
edge(26, 134).
edge(130, 170).
edge(58, 72).
edge(100, 111).
edge(30, 133).
edge(12, 167).
edge(48, 113).
edge(8, 77).
edge(56, 112).
edge(18, 66).
edge(92, 115).
edge(83, 130).
edge(108, 174).
edge(142, 146).
edge(19, 159).
edge(100, 172).
edge(31, 166).
edge(32, 127).
edge(59, 114).
edge(59, 112).
edge(150, 155).
edge(36, 82).
edge(134, 162).
edge(55, 88).
edge(14, 138).
edge(0, 153).
edge(22, 24).
edge(71, 108).
edge(82, 120).
edge(59, 170).
edge(39, 84).
edge(46, 114).
edge(32, 51).
edge(131, 132).
edge(0, 164).
edge(122, 142).
edge(90, 111).
edge(85, 153).
edge(11, 74).
edge(7, 79).
edge(45, 116).
edge(4, 127).
edge(8, 69).
edge(127, 150).
edge(10, 95).
edge(18, 169).
edge(1, 174).
edge(13, 48).
edge(52, 141).
edge(20, 92).
edge(51, 165).
edge(28, 145).
edge(162, 164).
edge(46, 129).
edge(114, 159).
edge(11, 56).
edge(29, 111).
edge(37, 73).
edge(14, 154).
edge(15, 140).
edge(28, 168).
edge(138, 165).
edge(1, 153).
edge(81, 94).
edge(106, 115).
edge(9, 148).
edge(57, 152).
edge(58, 162).
edge(127, 132).
edge(36, 76).
edge(72, 142).
edge(140, 168).
edge(9, 90).
edge(76, 146).
edge(103, 141).
edge(79, 94).
edge(57, 95).
edge(15, 172).
edge(96, 137).
edge(116, 141).
edge(6, 83).
edge(149, 163).
edge(153, 172).
edge(24, 42).
edge(17, 27).
edge(15, 165).
edge(107, 147).
edge(95, 114).
edge(61, 91).
edge(58, 173).
edge(14, 113).
edge(151, 160).
edge(93, 159).
edge(10, 114).
edge(6, 10).
edge(45, 151).
edge(66, 142).
edge(35, 90).
edge(29, 66).
edge(24, 43).
edge(89, 133).
edge(3, 62).
edge(12, 78).
edge(88, 132).
edge(83, 93).
edge(97, 159).
edge(91, 159).
edge(5, 118).
edge(21, 100).
edge(12, 143).
edge(51, 97).
edge(18, 44).
edge(147, 157).
edge(96, 149).
edge(4, 68).
edge(30, 32).
edge(5, 6).
edge(40, 88).
edge(113, 117).
edge(80, 101).
edge(46, 87).
edge(20, 57).
edge(105, 110).
edge(69, 83).
edge(71, 165).
edge(0, 89).
edge(103, 109).
edge(49, 71).
edge(3, 15).
edge(38, 86).
edge(95, 106).
edge(34, 85).
edge(38, 53).
edge(97, 138).
weight(0, 1).
weight(1, 10).
weight(2, 15).
weight(3, 4).
weight(4, 18).
weight(5, 21).
weight(6, 6).
weight(7, 23).
weight(8, 11).
weight(9, 17).
weight(10, 17).
weight(11, 22).
weight(12, 10).
weight(13, 4).
weight(14, 2).
weight(15, 19).
weight(16, 15).
weight(17, 22).
weight(18, 21).
weight(19, 19).
weight(20, 23).
weight(21, 16).
weight(22, 15).
weight(23, 21).
weight(24, 13).
weight(25, 15).
weight(26, 4).
weight(27, 1).
weight(28, 1).
weight(29, 21).
weight(30, 15).
weight(31, 22).
weight(32, 19).
weight(33, 17).
weight(34, 7).
weight(35, 21).
weight(36, 15).
weight(37, 14).
weight(38, 2).
weight(39, 23).
weight(40, 4).
weight(41, 3).
weight(42, 18).
weight(43, 12).
weight(44, 10).
weight(45, 14).
weight(46, 23).
weight(47, 16).
weight(48, 16).
weight(49, 9).
weight(50, 18).
weight(51, 2).
weight(52, 11).
weight(53, 1).
weight(54, 1).
weight(55, 1).
weight(56, 24).
weight(57, 18).
weight(58, 9).
weight(59, 16).
weight(60, 23).
weight(61, 13).
weight(62, 15).
weight(63, 16).
weight(64, 18).
weight(65, 24).
weight(66, 23).
weight(67, 16).
weight(68, 9).
weight(69, 9).
weight(70, 21).
weight(71, 6).
weight(72, 17).
weight(73, 23).
weight(74, 10).
weight(75, 23).
weight(76, 21).
weight(77, 16).
weight(78, 21).
weight(79, 12).
weight(80, 18).
weight(81, 22).
weight(82, 10).
weight(83, 21).
weight(84, 22).
weight(85, 22).
weight(86, 18).
weight(87, 2).
weight(88, 21).
weight(89, 12).
weight(90, 8).
weight(91, 3).
weight(92, 9).
weight(93, 21).
weight(94, 3).
weight(95, 15).
weight(96, 11).
weight(97, 23).
weight(98, 18).
weight(99, 21).
weight(100, 15).
weight(101, 18).
weight(102, 14).
weight(103, 15).
weight(104, 3).
weight(105, 19).
weight(106, 14).
weight(107, 6).
weight(108, 24).
weight(109, 3).
weight(110, 7).
weight(111, 17).
weight(112, 20).
weight(113, 1).
weight(114, 16).
weight(115, 17).
weight(116, 7).
weight(117, 5).
weight(118, 19).
weight(119, 11).
weight(120, 24).
weight(121, 12).
weight(122, 10).
weight(123, 23).
weight(124, 7).
weight(125, 21).
weight(126, 23).
weight(127, 12).
weight(128, 22).
weight(129, 13).
weight(130, 15).
weight(131, 7).
weight(132, 11).
weight(133, 13).
weight(134, 10).
weight(135, 4).
weight(136, 9).
weight(137, 8).
weight(138, 9).
weight(139, 16).
weight(140, 12).
weight(141, 11).
weight(142, 8).
weight(143, 7).
weight(144, 10).
weight(145, 3).
weight(146, 20).
weight(147, 14).
weight(148, 21).
weight(149, 21).
weight(150, 21).
weight(151, 9).
weight(152, 9).
weight(153, 18).
weight(154, 4).
weight(155, 20).
weight(156, 15).
weight(157, 14).
weight(158, 16).
weight(159, 10).
weight(160, 3).
weight(161, 3).
weight(162, 12).
weight(163, 5).
weight(164, 20).
weight(165, 21).
weight(166, 6).
weight(167, 15).
weight(168, 6).
weight(169, 23).
weight(170, 2).
weight(171, 1).
weight(172, 23).
weight(173, 18).
weight(174, 1).

{in(V)} :- node(V).
:- in(U), in(V), U < V, not edge(U,V).
:~ not in(V), weight(V,W). [W@1,V]
