node(0..178).
edge(41, 43).
edge(21, 56).
edge(6, 168).
edge(51, 116).
edge(78, 176).
edge(130, 135).
edge(95, 178).
edge(20, 34).
edge(15, 131).
edge(79, 141).
edge(78, 167).
edge(146, 159).
edge(50, 130).
edge(13, 61).
edge(13, 76).
edge(0, 116).
edge(52, 83).
edge(129, 166).
edge(96, 152).
edge(113, 163).
edge(81, 105).
edge(35, 60).
edge(59, 86).
edge(27, 54).
edge(136, 153).
edge(135, 155).
edge(89, 130).
edge(139, 171).
edge(22, 47).
edge(138, 174).
edge(156, 170).
edge(2, 13).
edge(12, 178).
edge(68, 130).
edge(124, 134).
edge(64, 111).
edge(113, 174).
edge(143, 149).
edge(22, 158).
edge(37, 155).
edge(62, 101).
edge(27, 44).
edge(142, 170).
edge(92, 149).
edge(81, 146).
edge(164, 168).
edge(1, 169).
edge(48, 145).
edge(89, 139).
edge(17, 64).
edge(5, 122).
edge(102, 176).
edge(113, 118).
edge(32, 114).
edge(92, 118).
edge(20, 156).
edge(106, 156).
edge(47, 80).
edge(109, 137).
edge(96, 177).
edge(47, 108).
edge(45, 117).
edge(96, 119).
edge(75, 84).
edge(26, 115).
edge(42, 166).
edge(36, 168).
edge(106, 115).
edge(27, 46).
edge(1, 105).
edge(100, 113).
edge(85, 172).
edge(87, 172).
edge(52, 129).
edge(8, 79).
edge(103, 139).
edge(14, 177).
edge(82, 86).
edge(83, 146).
edge(112, 129).
edge(6, 125).
edge(105, 142).
edge(75, 80).
edge(15, 84).
edge(12, 105).
edge(38, 45).
edge(155, 173).
edge(37, 171).
edge(25, 68).
edge(15, 132).
edge(0, 22).
edge(8, 173).
edge(45, 67).
edge(142, 143).
edge(68, 137).
edge(48, 59).
edge(103, 156).
edge(33, 41).
edge(33, 74).
edge(76, 109).
edge(44, 136).
edge(60, 160).
edge(113, 168).
edge(53, 114).
edge(41, 140).
edge(128, 141).
edge(33, 116).
edge(15, 149).
edge(51, 59).
edge(68, 105).
edge(10, 49).
edge(106, 128).
edge(8, 84).
edge(111, 113).
edge(22, 64).
edge(50, 114).
edge(43, 104).
edge(4, 116).
edge(44, 171).
edge(44, 111).
edge(55, 144).
edge(16, 60).
edge(22, 142).
edge(122, 139).
edge(119, 148).
edge(11, 43).
edge(139, 145).
edge(4, 100).
edge(19, 73).
edge(23, 178).
edge(65, 166).
edge(87, 162).
edge(4, 9).
edge(73, 94).
edge(47, 139).
edge(130, 172).
edge(135, 166).
edge(44, 129).
edge(127, 178).
edge(49, 155).
edge(37, 38).
edge(12, 41).
edge(102, 110).
edge(106, 157).
edge(72, 86).
edge(22, 167).
edge(138, 152).
edge(4, 44).
edge(39, 53).
edge(96, 157).
edge(106, 154).
edge(116, 147).
edge(17, 100).
edge(31, 138).
edge(46, 164).
edge(120, 128).
edge(49, 147).
edge(77, 109).
edge(52, 128).
edge(94, 162).
edge(29, 139).
edge(43, 52).
edge(55, 82).
edge(27, 100).
edge(38, 89).
edge(43, 169).
edge(53, 161).
edge(96, 154).
edge(15, 79).
edge(117, 118).
edge(67, 125).
edge(6, 111).
edge(41, 94).
edge(10, 86).
edge(91, 119).
edge(123, 149).
edge(21, 67).
edge(59, 95).
edge(41, 176).
edge(111, 164).
edge(31, 60).
edge(2, 10).
edge(40, 146).
edge(50, 52).
edge(1, 89).
edge(80, 117).
edge(1, 36).
edge(108, 118).
edge(91, 154).
edge(82, 129).
edge(44, 94).
edge(69, 95).
edge(3, 110).
edge(12, 113).
edge(103, 105).
edge(13, 96).
edge(165, 178).
edge(56, 175).
edge(74, 79).
edge(41, 113).
edge(67, 155).
edge(106, 132).
edge(68, 82).
edge(24, 136).
edge(131, 146).
edge(38, 137).
edge(54, 94).
edge(77, 171).
edge(42, 72).
edge(74, 105).
edge(79, 159).
edge(13, 55).
edge(4, 177).
edge(74, 132).
edge(85, 142).
edge(6, 144).
edge(2, 42).
edge(55, 67).
edge(33, 77).
edge(4, 131).
edge(73, 160).
edge(48, 80).
edge(51, 54).
edge(29, 61).
edge(77, 84).
edge(21, 171).
edge(125, 157).
edge(40, 112).
edge(158, 174).
edge(79, 126).
edge(71, 89).
edge(72, 107).
edge(80, 118).
edge(50, 165).
edge(9, 170).
edge(42, 144).
edge(88, 93).
edge(55, 154).
edge(9, 141).
edge(27, 146).
edge(86, 109).
edge(60, 142).
edge(93, 141).
edge(88, 136).
edge(95, 96).
edge(28, 110).
edge(36, 137).
edge(37, 75).
edge(62, 119).
edge(24, 137).
edge(15, 161).
edge(10, 80).
edge(65, 93).
edge(63, 152).
edge(103, 177).
edge(26, 87).
edge(149, 158).
edge(38, 152).
edge(55, 119).
edge(14, 156).
edge(35, 120).
edge(36, 66).
edge(27, 28).
edge(7, 106).
edge(15, 159).
edge(0, 164).
edge(72, 103).
edge(4, 108).
edge(37, 107).
edge(118, 133).
edge(117, 147).
edge(2, 148).
edge(20, 60).
edge(112, 171).
edge(4, 82).
edge(70, 139).
edge(81, 119).
edge(111, 125).
edge(46, 87).
edge(3, 64).
edge(45, 144).
edge(67, 74).
edge(107, 165).
edge(130, 147).
edge(81, 125).
edge(92, 120).
edge(58, 156).
edge(83, 155).
edge(74, 147).
edge(137, 151).
edge(58, 74).
edge(48, 144).
edge(129, 154).
edge(7, 25).
edge(1, 19).
edge(62, 74).
edge(144, 150).
edge(78, 89).
edge(19, 118).
edge(48, 131).
edge(40, 84).
edge(10, 59).
edge(4, 93).
edge(46, 157).
edge(97, 105).
edge(9, 139).
edge(85, 102).
edge(96, 139).
edge(24, 82).
edge(4, 127).
edge(18, 122).
edge(0, 63).
edge(62, 124).
edge(0, 130).
edge(10, 116).
edge(89, 150).
edge(73, 146).
edge(20, 110).
edge(24, 121).
edge(6, 133).
edge(74, 85).
edge(0, 3).
edge(77, 130).
edge(86, 125).
edge(97, 144).
edge(80, 119).
edge(50, 151).
edge(25, 100).
edge(37, 140).
edge(61, 72).
edge(82, 178).
edge(90, 91).
edge(16, 146).
edge(158, 164).
edge(81, 138).
edge(79, 103).
edge(79, 123).
edge(71, 110).
edge(27, 77).
edge(146, 147).
edge(77, 136).
edge(96, 148).
edge(6, 26).
edge(95, 109).
edge(0, 100).
edge(5, 86).
edge(75, 113).
edge(42, 173).
edge(25, 63).
edge(28, 72).
edge(12, 23).
edge(107, 123).
edge(109, 149).
edge(35, 96).
edge(126, 150).
edge(24, 112).
edge(9, 76).
edge(87, 158).
edge(55, 116).
edge(102, 132).
edge(101, 104).
edge(90, 148).
edge(102, 178).
edge(22, 175).
edge(21, 113).
edge(56, 141).
edge(6, 143).
edge(52, 101).
edge(93, 116).
edge(72, 89).
edge(80, 107).
edge(154, 167).
edge(125, 132).
edge(109, 178).
edge(89, 161).
edge(11, 95).
edge(38, 97).
edge(36, 86).
edge(58, 116).
edge(32, 82).
edge(113, 158).
edge(90, 174).
edge(23, 109).
edge(60, 91).
edge(125, 154).
edge(80, 145).
edge(77, 160).
edge(62, 166).
edge(71, 123).
edge(67, 100).
edge(120, 144).
edge(10, 73).
edge(26, 132).
edge(136, 149).
edge(38, 105).
edge(49, 133).
edge(40, 94).
edge(44, 143).
edge(26, 122).
edge(90, 170).
edge(10, 84).
edge(46, 86).
edge(4, 94).
edge(93, 158).
edge(54, 139).
edge(48, 76).
edge(97, 98).
edge(131, 133).
edge(63, 134).
edge(44, 141).
edge(21, 127).
edge(14, 69).
edge(20, 160).
edge(52, 167).
edge(70, 123).
edge(3, 161).
edge(128, 132).
edge(67, 131).
edge(93, 174).
edge(57, 73).
edge(65, 81).
edge(67, 97).
edge(5, 11).
edge(35, 110).
edge(111, 167).
edge(49, 110).
edge(24, 161).
edge(124, 147).
edge(108, 177).
edge(138, 173).
edge(40, 68).
edge(1, 83).
edge(116, 136).
edge(27, 108).
edge(108, 151).
edge(84, 117).
edge(56, 104).
edge(7, 152).
edge(46, 67).
edge(38, 141).
edge(80, 95).
edge(141, 178).
edge(45, 142).
edge(162, 169).
edge(29, 68).
edge(6, 29).
edge(83, 122).
edge(99, 164).
edge(6, 20).
edge(7, 69).
edge(73, 106).
edge(44, 159).
edge(1, 6).
edge(28, 69).
edge(14, 124).
edge(8, 45).
edge(4, 96).
edge(139, 169).
edge(8, 146).
edge(119, 127).
edge(61, 104).
edge(60, 157).
edge(138, 145).
edge(55, 113).
edge(18, 114).
edge(71, 96).
edge(5, 35).
edge(54, 142).
edge(92, 106).
edge(155, 164).
edge(159, 174).
edge(124, 150).
edge(45, 147).
edge(2, 8).
edge(38, 83).
edge(61, 121).
edge(43, 51).
edge(21, 53).
edge(71, 115).
edge(85, 156).
edge(62, 137).
edge(32, 144).
edge(19, 86).
edge(17, 156).
edge(132, 161).
edge(117, 130).
edge(38, 142).
edge(125, 149).
edge(111, 139).
edge(25, 99).
edge(82, 107).
edge(95, 105).
edge(3, 103).
edge(83, 93).
edge(13, 121).
edge(122, 153).
edge(72, 85).
edge(28, 67).
edge(90, 144).
edge(73, 156).
edge(99, 145).
edge(1, 30).
edge(114, 147).
edge(9, 92).
edge(70, 121).
edge(48, 158).
edge(14, 89).
edge(63, 113).
edge(33, 96).
edge(27, 105).
edge(70, 136).
edge(72, 130).
edge(110, 112).
edge(50, 136).
edge(84, 131).
edge(30, 40).
edge(39, 77).
edge(107, 128).
edge(106, 178).
edge(86, 147).
edge(124, 142).
edge(66, 144).
edge(50, 79).
edge(50, 158).
edge(65, 68).
edge(2, 163).
edge(30, 113).
edge(107, 169).
edge(49, 55).
edge(11, 174).
edge(23, 72).
edge(22, 91).
edge(99, 147).
edge(18, 65).
edge(6, 176).
edge(95, 118).
edge(30, 65).
edge(14, 106).
edge(141, 155).
edge(144, 166).
edge(122, 150).
edge(20, 75).
edge(12, 74).
edge(32, 74).
edge(8, 52).
edge(50, 83).
edge(113, 129).
edge(122, 135).
edge(28, 129).
edge(98, 110).
edge(109, 170).
edge(72, 136).
edge(4, 59).
edge(123, 131).
edge(57, 59).
edge(7, 29).
edge(19, 39).
edge(140, 160).
edge(104, 150).
edge(76, 157).
edge(7, 102).
edge(18, 27).
edge(136, 166).
edge(51, 95).
edge(68, 173).
edge(30, 159).
edge(19, 127).
edge(113, 154).
edge(27, 58).
edge(55, 58).
edge(65, 150).
edge(83, 137).
edge(42, 112).
edge(97, 112).
edge(40, 106).
edge(57, 108).
edge(31, 170).
edge(74, 174).
edge(61, 171).
edge(71, 102).
edge(32, 37).
edge(116, 168).
edge(15, 36).
edge(92, 124).
edge(59, 159).
edge(7, 36).
edge(81, 110).
edge(84, 107).
edge(15, 21).
edge(18, 127).
edge(126, 143).
edge(6, 80).
edge(41, 73).
edge(1, 160).
edge(61, 89).
edge(72, 121).
edge(35, 159).
edge(50, 154).
edge(49, 111).
edge(77, 137).
edge(120, 153).
edge(66, 133).
edge(14, 73).
edge(59, 156).
edge(24, 27).
edge(42, 51).
edge(110, 137).
edge(105, 157).
edge(65, 144).
edge(124, 133).
edge(117, 170).
edge(101, 110).
edge(92, 172).
edge(8, 106).
edge(3, 80).
edge(31, 46).
edge(106, 170).
edge(57, 177).
edge(26, 45).
edge(56, 154).
edge(35, 74).
edge(30, 131).
edge(131, 137).
edge(68, 92).
edge(38, 147).
edge(26, 128).
edge(0, 88).
edge(77, 125).
edge(13, 105).
edge(3, 151).
edge(119, 169).
edge(69, 92).
edge(80, 171).
edge(6, 66).
edge(58, 123).
edge(79, 135).
edge(5, 51).
edge(108, 117).
edge(108, 131).
edge(79, 134).
edge(44, 157).
edge(64, 105).
edge(105, 167).
edge(101, 107).
edge(81, 87).
edge(12, 166).
edge(101, 150).
edge(107, 149).
edge(55, 104).
edge(24, 154).
edge(104, 116).
edge(36, 149).
edge(70, 138).
edge(9, 101).
edge(6, 13).
edge(53, 95).
edge(30, 51).
edge(146, 164).
edge(68, 104).
edge(13, 54).
edge(126, 127).
edge(48, 105).
edge(159, 165).
edge(11, 125).
edge(22, 50).
edge(40, 169).
edge(137, 167).
edge(77, 100).
edge(82, 161).
edge(3, 45).
edge(12, 151).
edge(38, 121).
edge(115, 178).
edge(138, 144).
edge(29, 86).
edge(8, 155).
edge(42, 102).
edge(95, 154).
edge(127, 136).
edge(22, 162).
edge(23, 122).
edge(76, 123).
edge(116, 161).
edge(83, 172).
edge(20, 145).
edge(116, 131).
edge(62, 148).
edge(35, 104).
edge(73, 164).
edge(25, 30).
edge(58, 111).
edge(2, 87).
edge(36, 87).
edge(66, 88).
edge(22, 52).
edge(8, 98).
edge(64, 161).
edge(88, 90).
edge(17, 40).
edge(100, 159).
edge(61, 127).
edge(119, 153).
edge(23, 101).
edge(20, 140).
edge(67, 69).
edge(64, 173).
edge(107, 118).
edge(51, 88).
edge(0, 138).
edge(29, 87).
edge(1, 2).
edge(45, 53).
edge(75, 78).
edge(69, 80).
edge(116, 120).
edge(28, 80).
edge(149, 160).
edge(18, 52).
edge(64, 164).
edge(12, 24).
edge(17, 145).
edge(9, 73).
edge(64, 101).
edge(59, 91).
edge(10, 155).
edge(17, 78).
edge(53, 79).
edge(121, 156).
edge(40, 109).
edge(125, 158).
edge(54, 71).
edge(31, 98).
edge(69, 140).
edge(127, 139).
edge(64, 175).
edge(99, 146).
edge(51, 153).
edge(54, 56).
edge(72, 134).
edge(106, 112).
edge(60, 80).
edge(60, 169).
edge(50, 56).
edge(9, 86).
edge(86, 131).
edge(79, 132).
edge(97, 147).
edge(107, 110).
edge(30, 151).
edge(21, 75).
edge(21, 72).
edge(121, 139).
edge(125, 146).
edge(43, 130).
edge(18, 133).
edge(10, 93).
edge(94, 150).
edge(39, 131).
edge(58, 113).
edge(45, 125).
edge(39, 150).
edge(118, 176).
edge(53, 68).
edge(49, 116).
edge(120, 125).
edge(21, 161).
edge(97, 120).
edge(120, 159).
edge(15, 56).
edge(18, 44).
edge(73, 74).
edge(29, 96).
edge(95, 139).
edge(14, 149).
edge(8, 81).
edge(61, 175).
edge(19, 54).
edge(16, 59).
edge(92, 111).
edge(97, 138).
edge(43, 172).
edge(152, 158).
edge(117, 148).
edge(81, 175).
edge(57, 154).
edge(44, 125).
edge(163, 173).
edge(147, 178).
edge(134, 171).
edge(111, 160).
edge(17, 58).
edge(70, 102).
edge(154, 162).
edge(27, 94).
edge(43, 98).
edge(78, 138).
edge(9, 38).
edge(150, 158).
edge(168, 170).
edge(68, 75).
edge(114, 176).
edge(1, 40).
edge(156, 161).
edge(2, 138).
edge(67, 152).
edge(90, 111).
edge(81, 124).
edge(35, 50).
edge(50, 60).
edge(46, 136).
edge(88, 94).
edge(135, 175).
edge(27, 47).
edge(55, 91).
edge(60, 148).
edge(3, 12).
edge(41, 153).
edge(95, 104).
edge(87, 107).
edge(9, 45).
edge(14, 168).
edge(148, 178).
edge(67, 93).
edge(22, 28).
edge(32, 55).
edge(10, 175).
edge(112, 134).
edge(15, 153).
edge(64, 172).
edge(8, 50).
edge(1, 126).
edge(54, 144).
edge(86, 126).
edge(112, 130).
edge(52, 53).
edge(125, 166).
edge(22, 143).
edge(24, 100).
edge(5, 131).
edge(90, 163).
edge(24, 153).
edge(23, 128).
edge(33, 70).
edge(6, 73).
edge(52, 144).
edge(35, 168).
edge(31, 149).
edge(31, 40).
edge(92, 93).
edge(34, 82).
edge(55, 165).
edge(27, 37).
edge(3, 77).
edge(26, 42).
edge(11, 29).
edge(77, 83).
edge(77, 166).
edge(152, 172).
edge(28, 114).
edge(58, 157).
edge(23, 95).
edge(9, 88).
edge(32, 96).
edge(133, 153).
edge(49, 68).
edge(113, 120).
edge(52, 173).
edge(75, 93).
edge(43, 50).
edge(123, 136).
edge(25, 143).
edge(56, 143).
edge(32, 103).
edge(91, 159).
edge(42, 149).
edge(82, 97).
edge(25, 135).
edge(81, 122).
edge(2, 175).
edge(66, 82).
edge(61, 148).
edge(88, 107).
edge(119, 173).
edge(40, 118).
edge(59, 128).
edge(98, 161).
edge(86, 144).
edge(118, 172).
edge(19, 175).
edge(118, 142).
edge(78, 171).
edge(84, 175).
edge(21, 165).
edge(70, 159).
edge(33, 54).
edge(135, 147).
edge(58, 126).
edge(16, 98).
edge(124, 138).
edge(26, 72).
edge(31, 129).
edge(41, 56).
edge(89, 159).
edge(57, 123).
edge(50, 146).
edge(54, 102).
edge(71, 93).
edge(61, 64).
edge(25, 165).
edge(34, 98).
edge(11, 118).
edge(92, 167).
edge(15, 83).
edge(127, 137).
edge(18, 141).
edge(32, 110).
edge(4, 142).
edge(10, 124).
edge(88, 148).
edge(83, 147).
edge(120, 169).
edge(13, 118).
edge(3, 22).
edge(116, 138).
edge(173, 178).
edge(1, 154).
edge(48, 148).
edge(70, 178).
edge(2, 152).
edge(93, 134).
edge(39, 119).
edge(39, 115).
edge(96, 121).
edge(22, 121).
edge(59, 124).
edge(27, 138).
edge(123, 162).
edge(35, 70).
edge(86, 133).
edge(86, 130).
edge(21, 78).
edge(101, 118).
edge(88, 175).
edge(23, 61).
edge(137, 139).
edge(64, 95).
edge(4, 161).
edge(56, 83).
edge(53, 89).
edge(45, 130).
edge(53, 151).
edge(17, 140).
edge(14, 59).
edge(51, 61).
edge(29, 38).
edge(75, 159).
edge(78, 93).
edge(40, 137).
edge(40, 93).
edge(40, 92).
edge(95, 126).
edge(131, 135).
edge(16, 78).
edge(109, 147).
edge(161, 162).
edge(78, 127).
edge(35, 89).
edge(96, 109).
edge(18, 35).
edge(19, 99).
edge(24, 49).
edge(111, 121).
edge(39, 145).
edge(1, 139).
edge(128, 130).
edge(53, 80).
edge(124, 172).
edge(120, 141).
edge(63, 109).
edge(8, 61).
edge(65, 143).
edge(1, 175).
edge(84, 168).
edge(64, 102).
edge(12, 51).
edge(115, 139).
edge(20, 27).
edge(116, 157).
edge(41, 154).
edge(126, 140).
edge(21, 89).
edge(86, 139).
edge(49, 87).
edge(44, 71).
edge(2, 144).
edge(13, 64).
edge(103, 166).
edge(39, 124).
edge(57, 118).
edge(87, 136).
edge(150, 171).
edge(110, 122).
edge(44, 175).
edge(7, 163).
edge(25, 139).
edge(82, 171).
edge(73, 157).
edge(13, 25).
edge(42, 45).
edge(37, 59).
edge(25, 40).
edge(65, 156).
edge(30, 114).
edge(72, 164).
edge(18, 33).
edge(128, 169).
edge(69, 166).
edge(55, 117).
edge(35, 165).
edge(2, 25).
edge(113, 155).
edge(8, 164).
edge(69, 143).
edge(70, 124).
edge(38, 163).
edge(110, 140).
edge(8, 92).
edge(5, 100).
edge(33, 145).
edge(126, 154).
edge(136, 147).
edge(21, 126).
edge(25, 33).
edge(13, 68).
edge(20, 151).
edge(139, 141).
edge(144, 175).
edge(70, 106).
edge(11, 54).
edge(72, 96).
edge(17, 139).
edge(95, 108).
edge(10, 128).
edge(142, 144).
edge(89, 160).
edge(84, 146).
edge(58, 175).
edge(103, 109).
edge(13, 90).
edge(53, 128).
edge(15, 35).
edge(64, 82).
edge(83, 112).
edge(153, 158).
edge(101, 141).
edge(96, 145).
edge(43, 110).
edge(86, 170).
edge(19, 63).
edge(16, 27).
edge(15, 28).
edge(105, 154).
edge(8, 46).
edge(74, 166).
edge(106, 161).
edge(73, 154).
edge(28, 164).
edge(99, 129).
edge(112, 133).
edge(20, 59).
edge(19, 96).
edge(1, 4).
edge(101, 143).
edge(65, 142).
edge(21, 105).
edge(122, 163).
edge(1, 68).
edge(16, 119).
edge(20, 170).
edge(93, 139).
edge(136, 177).
edge(8, 142).
edge(36, 125).
edge(32, 147).
edge(12, 79).
edge(24, 127).
edge(9, 15).
edge(90, 115).
edge(4, 47).
edge(56, 177).
edge(68, 128).
edge(45, 93).
edge(105, 148).
edge(62, 115).
edge(21, 174).
edge(93, 125).
edge(26, 167).
edge(17, 37).
edge(104, 107).
edge(72, 133).
edge(15, 148).
edge(15, 17).
edge(143, 165).
edge(45, 54).
edge(60, 77).
edge(27, 175).
edge(70, 160).
edge(140, 171).
edge(34, 137).
edge(22, 84).
edge(28, 165).
edge(71, 129).
edge(36, 164).
edge(39, 166).
edge(82, 173).
edge(0, 73).
edge(141, 157).
edge(57, 132).
edge(44, 123).
edge(153, 170).
edge(27, 152).
edge(145, 174).
edge(75, 87).
edge(9, 18).
edge(88, 105).
edge(130, 150).
edge(88, 157).
edge(96, 107).
edge(23, 141).
edge(61, 105).
edge(28, 104).
edge(12, 26).
edge(10, 166).
edge(90, 119).
edge(58, 90).
edge(69, 173).
edge(1, 9).
edge(2, 124).
edge(85, 132).
edge(0, 117).
edge(111, 145).
edge(50, 93).
edge(47, 117).
edge(34, 72).
edge(127, 151).
edge(86, 99).
edge(29, 155).
edge(102, 145).
edge(6, 12).
edge(74, 133).
edge(41, 171).
edge(135, 149).
edge(3, 32).
edge(66, 141).
edge(15, 168).
edge(81, 129).
edge(85, 158).
edge(6, 108).
edge(4, 154).
edge(1, 152).
edge(106, 153).
edge(73, 104).
edge(37, 118).
edge(95, 135).
edge(32, 104).
edge(35, 54).
edge(38, 170).
edge(63, 178).
edge(1, 168).
edge(9, 12).
edge(41, 158).
edge(23, 134).
edge(68, 177).
edge(5, 171).
edge(138, 149).
edge(33, 146).
edge(70, 112).
edge(19, 53).
edge(53, 158).
edge(15, 40).
edge(2, 71).
edge(34, 147).
edge(138, 167).
edge(117, 166).
edge(98, 146).
edge(34, 56).
edge(81, 150).
edge(0, 68).
edge(2, 167).
edge(37, 91).
edge(3, 155).
edge(1, 115).
edge(18, 50).
edge(107, 142).
edge(60, 126).
edge(56, 147).
edge(71, 162).
edge(3, 128).
edge(8, 86).
edge(124, 176).
edge(6, 79).
edge(112, 148).
edge(20, 92).
edge(126, 144).
edge(71, 167).
edge(48, 100).
edge(45, 60).
edge(0, 134).
edge(69, 134).
edge(31, 81).
edge(34, 57).
edge(53, 96).
edge(87, 106).
edge(104, 168).
edge(10, 13).
edge(104, 131).
edge(15, 127).
edge(37, 72).
edge(55, 128).
edge(11, 101).
edge(46, 153).
edge(95, 106).
edge(53, 65).
edge(132, 157).
edge(22, 155).
edge(110, 134).
edge(41, 50).
edge(94, 129).
edge(14, 109).
edge(75, 112).
edge(33, 158).
edge(55, 59).
edge(38, 88).
edge(64, 117).
edge(22, 57).
edge(20, 31).
edge(44, 96).
edge(79, 115).
edge(61, 74).
edge(13, 174).
edge(45, 87).
edge(24, 88).
edge(134, 175).
edge(5, 38).
edge(38, 56).
edge(0, 64).
edge(62, 152).
edge(39, 64).
edge(16, 178).
edge(50, 66).
edge(80, 150).
edge(37, 94).
edge(60, 102).
edge(17, 112).
edge(74, 88).
edge(95, 149).
edge(27, 178).
edge(25, 32).
edge(127, 129).
edge(106, 144).
edge(30, 138).
edge(26, 37).
edge(120, 157).
edge(27, 41).
edge(2, 23).
edge(4, 99).
edge(77, 141).
edge(8, 134).
edge(50, 51).
edge(41, 138).
edge(95, 175).
edge(1, 12).
edge(106, 168).
edge(95, 174).
edge(34, 117).
edge(13, 84).
edge(126, 171).
edge(48, 116).
edge(25, 108).
edge(83, 121).
edge(132, 158).
edge(79, 127).
edge(27, 51).
edge(57, 112).
edge(110, 115).
edge(53, 136).
edge(68, 123).
edge(39, 65).
edge(2, 61).
edge(14, 100).
edge(96, 178).
edge(36, 110).
edge(25, 121).
edge(2, 6).
edge(52, 55).
edge(110, 143).
edge(110, 170).
edge(7, 165).
edge(11, 88).
edge(105, 116).
edge(45, 133).
edge(14, 76).
edge(91, 110).
edge(26, 131).
edge(75, 109).
edge(124, 152).
edge(33, 149).
edge(123, 166).
edge(60, 172).
edge(165, 169).
edge(24, 148).
edge(38, 177).
edge(35, 56).
edge(28, 121).
edge(15, 135).
edge(7, 70).
edge(26, 106).
edge(29, 32).
edge(22, 29).
edge(143, 163).
edge(76, 135).
edge(151, 175).
edge(89, 158).
edge(136, 172).
edge(36, 59).
edge(2, 73).
edge(5, 60).
edge(59, 171).
edge(9, 44).
edge(16, 102).
edge(16, 84).
edge(38, 95).
edge(71, 87).
edge(117, 176).
edge(133, 146).
edge(12, 131).
edge(63, 67).
edge(91, 111).
edge(63, 169).
edge(50, 73).
edge(87, 166).
edge(17, 51).
edge(90, 176).
edge(28, 75).
edge(100, 148).
edge(46, 48).
edge(168, 173).
edge(145, 173).
edge(20, 134).
edge(101, 155).
edge(43, 47).
edge(118, 119).
edge(71, 99).
edge(8, 44).
edge(94, 127).
edge(3, 51).
edge(50, 153).
edge(106, 171).
edge(69, 105).
edge(32, 154).
edge(54, 146).
edge(9, 52).
edge(17, 118).
edge(72, 90).
edge(94, 161).
edge(72, 120).
edge(19, 120).
edge(35, 125).
edge(29, 152).
edge(55, 66).
edge(90, 133).
edge(57, 61).
edge(117, 158).
edge(51, 107).
edge(34, 86).
edge(11, 128).
edge(122, 123).
edge(31, 172).
edge(10, 165).
edge(22, 152).
edge(15, 125).
edge(41, 95).
edge(69, 132).
edge(80, 161).
edge(2, 57).
edge(155, 175).
edge(4, 153).
edge(24, 138).
edge(46, 72).
edge(30, 70).
edge(33, 129).
edge(82, 142).
edge(80, 114).
edge(18, 106).
edge(10, 74).
edge(85, 92).
edge(141, 175).
edge(153, 166).
edge(34, 102).
edge(51, 169).
edge(12, 69).
edge(66, 118).
edge(92, 154).
edge(23, 80).
edge(142, 173).
edge(103, 125).
edge(65, 128).
edge(84, 147).
edge(92, 105).
edge(96, 130).
edge(82, 140).
edge(47, 66).
edge(21, 42).
edge(4, 145).
edge(15, 120).
edge(21, 160).
edge(49, 169).
edge(25, 114).
edge(82, 106).
edge(10, 56).
edge(10, 43).
edge(106, 116).
edge(117, 173).
edge(73, 101).
edge(128, 162).
edge(0, 46).
edge(15, 141).
edge(94, 126).
edge(121, 122).
edge(40, 79).
edge(30, 165).
edge(57, 111).
edge(100, 157).
edge(81, 155).
edge(139, 155).
edge(24, 57).
edge(30, 133).
edge(14, 98).
edge(141, 142).
edge(10, 24).
edge(58, 132).
edge(32, 77).
edge(92, 152).
edge(58, 92).
edge(17, 106).
edge(9, 140).
edge(49, 89).
edge(37, 158).
edge(97, 173).
edge(133, 164).
edge(54, 166).
edge(9, 33).
edge(117, 167).
edge(49, 159).
edge(90, 164).
edge(5, 71).
edge(21, 52).
edge(46, 110).
edge(39, 59).
edge(15, 41).
edge(130, 132).
edge(3, 87).
edge(67, 138).
edge(97, 146).
edge(6, 156).
edge(65, 74).
edge(17, 39).
edge(57, 81).
edge(30, 156).
edge(60, 120).
edge(19, 97).
edge(73, 98).
edge(72, 115).
edge(87, 105).
edge(95, 164).
edge(5, 39).
edge(15, 146).
edge(24, 175).
edge(7, 119).
edge(43, 70).
edge(5, 163).
edge(47, 159).
edge(62, 136).
edge(27, 116).
edge(99, 101).
edge(34, 115).
edge(57, 100).
edge(133, 134).
edge(49, 119).
edge(94, 178).
edge(21, 77).
edge(24, 145).
edge(117, 121).
edge(110, 158).
edge(100, 168).
edge(94, 177).
edge(63, 94).
edge(43, 49).
edge(25, 88).
edge(35, 118).
edge(72, 88).
edge(168, 175).
edge(38, 150).
edge(55, 102).
edge(51, 141).
edge(123, 164).
edge(24, 79).
edge(7, 116).
edge(77, 144).
edge(2, 125).
edge(154, 160).
edge(36, 146).
edge(14, 135).
edge(24, 93).
edge(153, 157).
edge(75, 77).
edge(107, 121).
edge(61, 147).
edge(47, 140).
edge(0, 43).
edge(98, 151).
edge(66, 104).
edge(24, 144).
edge(71, 150).
edge(14, 140).
edge(37, 102).
edge(37, 95).
edge(13, 172).
edge(81, 172).
edge(58, 159).
edge(32, 58).
edge(7, 99).
edge(29, 174).
edge(125, 140).
edge(41, 168).
edge(107, 175).
edge(13, 176).
edge(58, 149).
edge(80, 115).
edge(84, 139).
edge(105, 127).
edge(33, 94).
edge(57, 84).
edge(90, 124).
edge(104, 174).
edge(39, 134).
edge(5, 162).
edge(55, 93).
edge(93, 129).
edge(67, 76).
edge(146, 169).
edge(47, 77).
edge(55, 164).
edge(27, 32).
edge(57, 90).
edge(34, 140).
edge(151, 169).
edge(52, 92).
edge(6, 16).
edge(159, 176).
edge(12, 171).
edge(135, 172).
edge(73, 105).
edge(27, 145).
edge(53, 140).
edge(63, 137).
edge(58, 108).
edge(81, 83).
edge(24, 152).
edge(145, 157).
edge(101, 165).
edge(50, 128).
edge(102, 134).
edge(67, 162).
edge(47, 60).
edge(65, 141).
edge(26, 140).
edge(3, 8).
edge(34, 139).
edge(17, 117).
edge(100, 110).
edge(53, 61).
edge(94, 98).
edge(146, 177).
edge(95, 160).
edge(4, 121).
edge(23, 96).
edge(38, 167).
edge(69, 77).
edge(8, 161).
edge(44, 52).
edge(4, 106).
edge(41, 125).
edge(95, 112).
edge(66, 89).
edge(64, 115).
edge(3, 168).
edge(122, 165).
edge(4, 26).
edge(39, 178).
edge(73, 171).
edge(14, 23).
edge(101, 137).
edge(69, 72).
edge(0, 150).
edge(64, 86).
edge(12, 148).
edge(161, 170).
edge(75, 94).
edge(85, 175).
edge(130, 144).
edge(0, 133).
edge(131, 141).
edge(114, 119).
edge(22, 66).
edge(162, 174).
edge(19, 52).
edge(4, 102).
edge(137, 145).
edge(62, 91).
edge(23, 143).
edge(35, 64).
edge(117, 142).
edge(53, 162).
edge(4, 88).
edge(105, 130).
edge(17, 104).
edge(41, 170).
edge(89, 115).
edge(71, 143).
edge(50, 103).
edge(41, 87).
edge(54, 147).
edge(73, 133).
edge(72, 117).
edge(23, 129).
edge(68, 161).
edge(29, 134).
edge(96, 117).
edge(4, 119).
edge(20, 177).
edge(45, 153).
edge(62, 172).
edge(158, 170).
edge(4, 124).
edge(48, 163).
edge(38, 72).
edge(10, 76).
edge(34, 155).
edge(1, 26).
edge(34, 146).
edge(79, 101).
edge(141, 170).
edge(98, 154).
edge(3, 31).
edge(9, 129).
edge(7, 76).
edge(65, 78).
edge(5, 178).
edge(18, 143).
edge(55, 103).
edge(74, 120).
edge(92, 160).
edge(84, 110).
edge(74, 176).
edge(58, 134).
edge(83, 84).
edge(25, 76).
edge(136, 138).
edge(37, 100).
edge(85, 169).
edge(91, 165).
edge(87, 153).
edge(15, 86).
edge(28, 156).
edge(28, 142).
edge(71, 141).
edge(62, 130).
edge(121, 129).
edge(47, 167).
edge(79, 109).
edge(53, 102).
edge(11, 17).
edge(77, 90).
edge(86, 90).
edge(59, 67).
edge(42, 167).
edge(93, 137).
edge(61, 88).
edge(79, 156).
edge(131, 178).
edge(86, 154).
edge(128, 134).
edge(0, 159).
edge(115, 124).
edge(25, 31).
edge(72, 169).
edge(139, 140).
edge(86, 150).
edge(71, 116).
edge(19, 90).
edge(14, 87).
edge(21, 46).
edge(58, 101).
edge(8, 175).
edge(137, 147).
edge(26, 56).
edge(154, 174).
edge(30, 88).
edge(44, 148).
edge(108, 167).
edge(29, 173).
edge(82, 109).
edge(10, 96).
edge(7, 72).
edge(26, 70).
edge(31, 165).
edge(10, 131).
edge(119, 143).
edge(14, 151).
edge(28, 89).
edge(1, 41).
edge(39, 171).
edge(129, 168).
edge(26, 102).
edge(22, 148).
edge(64, 71).
edge(130, 136).
edge(4, 146).
edge(43, 81).
edge(0, 28).
edge(70, 86).
edge(21, 45).
edge(44, 50).
edge(8, 104).
edge(65, 178).
edge(57, 83).
edge(41, 104).
edge(17, 91).
edge(74, 168).
edge(68, 145).
edge(99, 175).
edge(19, 75).
edge(98, 166).
edge(17, 120).
edge(63, 125).
edge(18, 81).
edge(23, 131).
edge(8, 47).
edge(116, 124).
edge(32, 76).
edge(53, 133).
edge(23, 163).
edge(116, 151).
edge(38, 139).
edge(53, 106).
edge(36, 131).
edge(80, 133).
edge(48, 132).
edge(60, 90).
edge(125, 148).
edge(46, 76).
edge(2, 115).
edge(10, 32).
edge(15, 114).
edge(10, 168).
edge(23, 152).
edge(57, 86).
edge(55, 147).
edge(33, 36).
edge(1, 33).
edge(36, 64).
edge(9, 138).
edge(126, 148).
edge(87, 174).
edge(5, 121).
edge(63, 150).
edge(8, 94).
edge(76, 83).
edge(19, 45).
edge(48, 157).
edge(75, 118).
edge(131, 134).
edge(62, 158).
edge(38, 78).
edge(170, 175).
edge(61, 128).
edge(49, 56).
edge(10, 85).
edge(124, 162).
edge(81, 102).
edge(47, 131).
edge(45, 141).
edge(12, 134).
edge(50, 87).
edge(39, 161).
edge(5, 172).
edge(18, 135).
edge(36, 134).
edge(85, 94).
edge(68, 142).
edge(64, 73).
edge(96, 140).
edge(12, 108).
edge(50, 155).
edge(57, 88).
edge(54, 81).
edge(37, 146).
edge(113, 145).
edge(94, 103).
edge(74, 103).
edge(120, 174).
edge(81, 136).
edge(80, 173).
edge(55, 142).
edge(3, 42).
edge(83, 109).
edge(7, 12).
edge(19, 103).
edge(10, 136).
edge(103, 162).
edge(11, 142).
edge(2, 158).
edge(14, 53).
edge(8, 163).
edge(30, 90).
edge(62, 106).
edge(74, 160).
edge(106, 136).
edge(121, 132).
edge(130, 133).
edge(64, 163).
edge(128, 155).
edge(86, 168).
edge(12, 52).
edge(8, 63).
edge(33, 173).
edge(62, 121).
edge(138, 155).
edge(59, 63).
edge(52, 64).
edge(41, 133).
edge(52, 82).
edge(33, 79).
edge(110, 153).
edge(67, 110).
edge(69, 107).
edge(30, 85).
edge(37, 131).
edge(57, 101).
edge(61, 87).
edge(31, 41).
edge(0, 81).
edge(77, 154).
edge(14, 25).
edge(47, 128).
edge(47, 68).
edge(75, 138).
edge(76, 101).
edge(46, 85).
edge(20, 57).
edge(6, 50).
edge(102, 115).
edge(59, 134).
edge(5, 49).
edge(25, 36).
edge(48, 90).
edge(94, 154).
edge(1, 128).
edge(110, 149).
edge(68, 125).
edge(62, 125).
edge(37, 137).
edge(23, 107).
edge(29, 33).
edge(121, 137).
edge(83, 118).
edge(67, 154).
edge(47, 116).
edge(23, 74).
edge(86, 94).
edge(2, 94).
edge(62, 123).
edge(2, 18).
edge(120, 158).
edge(21, 114).
edge(5, 28).
edge(23, 40).
edge(88, 139).
edge(44, 97).
edge(51, 72).
edge(44, 168).
edge(108, 178).
edge(119, 171).
edge(25, 115).
edge(34, 40).
edge(41, 76).
edge(138, 170).
edge(75, 135).
edge(61, 73).
edge(19, 173).
edge(39, 149).
edge(43, 176).
edge(18, 172).
edge(17, 34).
edge(92, 110).
edge(85, 110).
edge(42, 116).
edge(29, 116).
edge(0, 153).
edge(33, 131).
edge(157, 168).
edge(49, 101).
edge(8, 57).
edge(73, 143).
edge(2, 56).
edge(71, 127).
edge(63, 159).
edge(158, 177).
edge(118, 160).
edge(76, 107).
edge(22, 149).
edge(0, 83).
edge(40, 147).
edge(67, 128).
edge(21, 43).
edge(43, 66).
edge(84, 103).
edge(43, 127).
edge(62, 80).
edge(28, 50).
edge(11, 156).
edge(32, 151).
edge(3, 17).
edge(28, 146).
edge(50, 134).
edge(42, 89).
edge(88, 114).
edge(4, 71).
edge(4, 156).
edge(59, 131).
edge(47, 162).
edge(47, 107).
edge(53, 124).
edge(22, 103).
edge(39, 135).
edge(121, 126).
edge(59, 164).
edge(33, 78).
edge(6, 63).
edge(70, 147).
edge(14, 96).
edge(25, 176).
edge(53, 64).
edge(80, 130).
edge(73, 170).
edge(113, 153).
edge(111, 168).
edge(8, 19).
edge(15, 145).
edge(25, 128).
edge(79, 100).
edge(35, 105).
edge(51, 102).
edge(40, 163).
edge(36, 151).
edge(26, 111).
edge(60, 68).
edge(4, 62).
edge(55, 96).
edge(53, 81).
edge(100, 130).
edge(105, 117).
edge(23, 121).
edge(65, 84).
edge(59, 173).
edge(2, 123).
edge(58, 91).
edge(2, 105).
edge(9, 70).
edge(58, 130).
edge(65, 113).
edge(68, 141).
edge(47, 88).
edge(75, 157).
edge(80, 85).
edge(65, 95).
edge(64, 112).
edge(32, 46).
edge(98, 168).
edge(74, 81).
edge(149, 151).
edge(41, 165).
edge(117, 137).
edge(91, 112).
edge(106, 111).
edge(12, 123).
edge(131, 173).
edge(27, 85).
edge(93, 130).
edge(30, 79).
edge(136, 142).
edge(67, 136).
edge(24, 26).
edge(32, 47).
edge(171, 172).
edge(43, 73).
edge(101, 135).
edge(68, 102).
edge(34, 132).
edge(56, 150).
edge(139, 148).
edge(43, 121).
edge(27, 31).
edge(57, 75).
edge(44, 45).
edge(104, 127).
edge(40, 42).
edge(85, 155).
edge(67, 176).
edge(41, 156).
edge(95, 97).
edge(25, 101).
edge(62, 66).
edge(31, 155).
edge(98, 131).
edge(62, 141).
edge(42, 85).
edge(44, 86).
edge(28, 107).
edge(78, 153).
edge(38, 120).
edge(112, 159).
edge(108, 132).
edge(65, 170).
edge(49, 114).
edge(61, 172).
edge(128, 150).
edge(107, 108).
edge(92, 95).
edge(6, 97).
edge(13, 159).
edge(79, 82).
edge(27, 163).
edge(64, 133).
edge(81, 135).
edge(6, 167).
edge(31, 54).
edge(16, 30).
edge(112, 132).
edge(157, 159).
edge(84, 149).
edge(169, 172).
edge(49, 167).
edge(57, 79).
edge(42, 146).
edge(130, 165).
edge(75, 120).
edge(100, 156).
edge(4, 158).
edge(36, 122).
edge(27, 73).
edge(65, 76).
edge(90, 138).
edge(74, 83).
edge(122, 149).
edge(72, 144).
edge(164, 169).
edge(18, 41).
edge(14, 35).
edge(38, 140).
edge(20, 47).
edge(28, 132).
edge(6, 74).
edge(109, 125).
edge(111, 161).
edge(31, 44).
edge(129, 133).
edge(11, 166).
edge(80, 172).
edge(9, 113).
edge(37, 90).
edge(50, 167).
edge(120, 152).
edge(23, 125).
edge(6, 88).
edge(117, 134).
edge(33, 177).
edge(20, 152).
edge(97, 126).
edge(117, 174).
edge(64, 109).
edge(28, 76).
edge(0, 52).
edge(86, 174).
edge(149, 172).
edge(56, 102).
edge(31, 58).
edge(53, 100).
edge(118, 162).
edge(81, 148).
edge(38, 70).
edge(26, 82).
edge(49, 76).
edge(81, 85).
edge(3, 55).
edge(102, 131).
edge(79, 90).
edge(46, 138).
edge(62, 169).
edge(114, 161).
edge(60, 78).
edge(47, 158).
edge(36, 165).
edge(84, 170).
edge(65, 77).
edge(55, 157).
edge(91, 160).
edge(80, 135).
edge(105, 124).
edge(45, 100).
edge(27, 48).
edge(39, 87).
edge(39, 120).
edge(32, 70).
edge(1, 35).
edge(12, 176).
edge(164, 178).
edge(87, 91).
edge(30, 163).
edge(33, 134).
edge(70, 95).
edge(126, 165).
edge(98, 152).
edge(42, 130).
edge(65, 158).
edge(31, 69).
edge(34, 153).
edge(33, 110).
edge(13, 20).
edge(88, 129).
edge(1, 159).
edge(61, 159).
edge(52, 79).
edge(10, 121).
edge(6, 32).
edge(80, 101).
edge(95, 163).
edge(151, 176).
edge(14, 112).
edge(32, 164).
edge(60, 100).
edge(95, 127).
edge(34, 45).
edge(130, 173).
edge(9, 177).
edge(87, 156).
edge(5, 98).
edge(110, 167).
edge(100, 112).
edge(11, 67).
edge(32, 166).
edge(38, 41).
edge(31, 105).
edge(60, 119).
edge(1, 51).
edge(77, 95).
edge(4, 87).
edge(15, 164).
edge(114, 160).
edge(12, 138).
edge(54, 163).
edge(15, 99).
edge(77, 105).
edge(93, 160).
edge(37, 62).
edge(11, 13).
edge(50, 100).
edge(2, 55).
edge(82, 113).
edge(69, 117).
edge(7, 87).
edge(110, 166).
edge(99, 154).
edge(23, 78).
edge(50, 99).
edge(58, 119).
edge(143, 170).
edge(52, 125).
edge(99, 172).
edge(37, 84).
edge(59, 175).
edge(42, 142).
edge(20, 90).
edge(13, 65).
edge(40, 99).
edge(25, 173).
edge(2, 164).
edge(126, 161).
edge(154, 177).
edge(117, 177).
edge(57, 113).
edge(84, 138).
edge(102, 166).
edge(103, 121).
edge(22, 113).
edge(107, 160).
edge(39, 168).
edge(1, 53).
edge(4, 126).
edge(32, 130).
edge(71, 76).
edge(133, 178).
edge(54, 112).
edge(68, 132).
edge(24, 64).
edge(125, 130).
edge(25, 94).
edge(44, 161).
edge(12, 63).
edge(102, 161).
edge(10, 41).
edge(39, 70).
edge(64, 100).
edge(4, 147).
edge(0, 50).
edge(12, 14).
edge(61, 90).
edge(6, 169).
edge(19, 102).
edge(28, 151).
edge(59, 102).
edge(51, 74).
edge(136, 150).
edge(18, 112).
edge(17, 18).
edge(63, 143).
edge(124, 170).
edge(29, 94).
edge(29, 37).
edge(101, 163).
edge(76, 176).
edge(1, 153).
edge(36, 88).
edge(115, 127).
edge(13, 137).
edge(96, 112).
edge(93, 101).
edge(5, 155).
edge(9, 49).
edge(0, 177).
edge(7, 140).
edge(0, 151).
edge(35, 149).
edge(55, 123).
edge(2, 140).
edge(143, 169).
edge(57, 140).
edge(29, 117).
edge(26, 74).
edge(24, 56).
edge(121, 158).
edge(140, 173).
edge(127, 149).
edge(18, 48).
edge(28, 95).
edge(118, 156).
edge(100, 105).
edge(36, 133).
edge(8, 51).
edge(62, 170).
edge(40, 121).
edge(105, 165).
edge(52, 145).
edge(36, 147).
edge(1, 77).
edge(42, 105).
edge(33, 160).
edge(19, 135).
edge(53, 82).
edge(90, 150).
edge(38, 65).
edge(74, 144).
edge(128, 142).
edge(125, 173).
edge(123, 153).
edge(108, 109).
edge(166, 168).
edge(45, 61).
edge(56, 123).
edge(16, 66).
edge(13, 62).
edge(97, 130).
edge(83, 101).
edge(12, 162).
edge(82, 151).
edge(123, 144).
edge(47, 76).
edge(98, 171).
edge(11, 42).
edge(149, 178).
edge(3, 117).
edge(108, 138).
edge(74, 116).
edge(125, 165).
edge(91, 167).
edge(51, 65).
edge(97, 121).
edge(2, 17).
edge(122, 129).
edge(71, 135).
edge(31, 100).
edge(11, 152).
edge(114, 174).
edge(24, 128).
edge(125, 129).
edge(60, 171).
edge(31, 160).
edge(75, 163).
edge(62, 163).
edge(29, 125).
edge(35, 75).
edge(45, 78).
edge(33, 112).
edge(37, 162).
edge(35, 79).
edge(29, 108).
edge(5, 139).
edge(2, 153).
edge(24, 163).
edge(43, 64).
edge(152, 178).
edge(74, 156).
edge(77, 117).
edge(21, 176).
edge(17, 126).
edge(18, 105).
edge(5, 128).
edge(9, 79).
edge(2, 38).
edge(22, 96).
edge(28, 106).
edge(78, 137).
edge(119, 139).
edge(73, 169).
edge(34, 87).
edge(42, 75).
edge(18, 165).
edge(107, 115).
edge(54, 120).
edge(149, 162).
edge(1, 52).
edge(32, 91).
edge(19, 106).
edge(26, 77).
edge(41, 93).
edge(48, 161).
edge(86, 95).
edge(15, 74).
edge(16, 17).
edge(141, 147).
edge(23, 92).
edge(4, 143).
edge(66, 83).
edge(14, 83).
edge(85, 125).
edge(118, 149).
edge(92, 147).
edge(36, 75).
edge(72, 106).
edge(90, 93).
edge(30, 139).
edge(5, 52).
edge(0, 44).
edge(18, 87).
edge(32, 145).
edge(19, 72).
edge(37, 81).
edge(98, 138).
edge(47, 151).
edge(16, 107).
edge(18, 137).
edge(25, 107).
edge(69, 94).
edge(17, 174).
edge(13, 136).
edge(134, 177).
edge(69, 86).
edge(73, 178).
edge(108, 150).
edge(63, 165).
edge(29, 48).
edge(27, 39).
edge(106, 135).
edge(67, 159).
edge(105, 158).
edge(67, 124).
edge(139, 143).
edge(112, 121).
edge(82, 103).
edge(19, 161).
edge(30, 47).
edge(108, 166).
edge(33, 64).
edge(10, 18).
edge(19, 101).
edge(26, 31).
edge(141, 171).
edge(72, 108).
edge(99, 117).
edge(7, 156).
edge(93, 112).
edge(22, 146).
edge(138, 154).
edge(48, 130).
edge(158, 165).
edge(20, 50).
edge(63, 99).
edge(8, 32).
edge(34, 99).
edge(66, 116).
edge(59, 84).
edge(68, 149).
edge(160, 161).
edge(102, 140).
edge(91, 162).
edge(165, 175).
edge(30, 157).
edge(134, 160).
edge(21, 138).
edge(15, 173).
edge(100, 102).
edge(11, 153).
edge(0, 23).
edge(90, 158).
edge(37, 151).
edge(147, 162).
edge(101, 113).
edge(130, 162).
edge(142, 145).
edge(66, 102).
edge(17, 70).
edge(68, 167).
edge(24, 103).
edge(9, 178).
edge(11, 62).
edge(44, 60).
edge(91, 150).
edge(29, 143).
edge(9, 75).
edge(94, 167).
edge(102, 104).
edge(64, 154).
edge(44, 167).
edge(40, 105).
edge(8, 24).
edge(98, 118).
edge(10, 48).
edge(116, 170).
edge(145, 172).
edge(40, 71).
edge(93, 144).
edge(114, 121).
edge(43, 68).
edge(126, 139).
edge(34, 131).
edge(87, 143).
edge(58, 138).
edge(76, 93).
edge(111, 156).
edge(71, 84).
edge(56, 69).
edge(61, 145).
edge(133, 155).
edge(78, 165).
edge(143, 146).
edge(26, 95).
edge(75, 110).
edge(86, 138).
edge(7, 56).
edge(56, 139).
edge(43, 124).
edge(129, 137).
edge(98, 122).
edge(51, 163).
edge(117, 122).
edge(42, 138).
edge(31, 34).
edge(66, 113).
edge(127, 174).
edge(40, 162).
edge(83, 110).
edge(73, 90).
edge(104, 160).
edge(68, 120).
edge(15, 175).
edge(60, 74).
edge(24, 106).
edge(5, 105).
edge(29, 36).
edge(52, 96).
edge(22, 67).
edge(104, 170).
edge(94, 151).
edge(49, 166).
edge(107, 147).
edge(62, 122).
edge(131, 142).
edge(20, 99).
edge(63, 132).
edge(28, 48).
edge(158, 159).
edge(39, 113).
edge(40, 138).
edge(11, 129).
edge(20, 119).
edge(66, 168).
edge(12, 141).
edge(53, 123).
edge(34, 128).
edge(8, 26).
edge(77, 79).
edge(72, 114).
edge(48, 63).
edge(110, 116).
edge(6, 11).
edge(37, 150).
edge(48, 171).
edge(59, 108).
edge(95, 177).
edge(34, 152).
edge(40, 74).
edge(16, 82).
edge(79, 157).
edge(51, 120).
edge(59, 133).
edge(100, 167).
edge(72, 78).
edge(7, 37).
edge(149, 177).
edge(14, 50).
edge(6, 149).
edge(71, 72).
edge(54, 87).
edge(25, 26).
edge(87, 126).
edge(43, 72).
edge(150, 163).
edge(11, 83).
edge(37, 136).
edge(34, 55).
edge(55, 156).
edge(102, 172).
edge(130, 176).
edge(28, 145).
edge(10, 17).
edge(140, 159).
edge(123, 175).
edge(1, 123).
edge(13, 24).
edge(2, 62).
edge(3, 120).
edge(54, 69).
edge(17, 114).
edge(26, 58).
edge(130, 154).
edge(111, 130).
edge(148, 168).
edge(108, 133).
edge(65, 126).
edge(83, 126).
edge(70, 107).
edge(72, 93).
edge(23, 47).
edge(0, 155).
edge(38, 160).
edge(23, 27).
edge(16, 158).
edge(91, 161).
edge(14, 63).
edge(22, 141).
edge(1, 114).
edge(78, 150).
edge(121, 176).
edge(9, 110).
edge(115, 144).
edge(142, 154).
edge(103, 143).
edge(16, 21).
edge(139, 175).
edge(147, 149).
edge(28, 122).
edge(3, 26).
edge(160, 167).
edge(41, 159).
edge(86, 156).
edge(43, 128).
edge(32, 158).
edge(70, 111).
edge(99, 166).
edge(7, 97).
edge(13, 138).
edge(4, 63).
edge(58, 169).
edge(119, 159).
edge(115, 176).
edge(15, 160).
edge(53, 129).
edge(46, 55).
edge(13, 140).
edge(21, 85).
edge(69, 79).
edge(38, 127).
edge(38, 62).
edge(21, 39).
edge(80, 109).
edge(29, 144).
edge(70, 101).
edge(1, 29).
edge(3, 159).
edge(72, 109).
edge(133, 177).
edge(24, 130).
edge(8, 71).
edge(27, 75).
edge(61, 139).
edge(57, 107).
edge(3, 129).
edge(55, 130).
edge(25, 160).
edge(12, 125).
edge(55, 174).
edge(37, 109).
edge(18, 32).
edge(48, 139).
edge(109, 116).
edge(63, 153).
edge(16, 143).
edge(4, 65).
edge(77, 129).
edge(29, 146).
edge(22, 76).
edge(101, 147).
edge(92, 123).
edge(106, 108).
edge(44, 115).
edge(79, 173).
edge(57, 98).
edge(72, 101).
edge(67, 112).
edge(151, 166).
edge(31, 45).
edge(69, 149).
edge(70, 115).
edge(51, 53).
edge(35, 122).
edge(9, 20).
edge(64, 98).
edge(93, 132).
edge(52, 158).
edge(22, 164).
edge(73, 110).
edge(15, 156).
edge(106, 138).
edge(50, 65).
edge(7, 167).
edge(50, 115).
edge(12, 71).
edge(83, 151).
edge(14, 176).
edge(44, 163).
edge(85, 126).
edge(78, 119).
edge(67, 173).
edge(25, 145).
edge(19, 117).
edge(71, 172).
edge(41, 114).
edge(27, 87).
edge(27, 86).
edge(104, 111).
edge(48, 140).
edge(96, 105).
edge(16, 130).
edge(13, 102).
edge(22, 45).
edge(36, 150).
edge(100, 138).
edge(28, 130).
edge(0, 163).
edge(98, 137).
edge(55, 74).
edge(94, 96).
edge(18, 91).
edge(4, 111).
edge(111, 131).
edge(53, 69).
edge(144, 148).
edge(97, 101).
edge(48, 117).
edge(6, 77).
edge(70, 165).
edge(97, 155).
edge(136, 143).
edge(127, 173).
edge(23, 112).
edge(61, 66).
edge(25, 57).
edge(108, 127).
edge(7, 48).
edge(19, 109).
edge(106, 165).
edge(65, 135).
edge(39, 81).
edge(37, 165).
edge(104, 120).
edge(30, 143).
edge(30, 123).
edge(27, 59).
edge(70, 164).
edge(27, 139).
edge(46, 100).
edge(15, 59).
edge(33, 71).
edge(42, 55).
edge(118, 154).
edge(1, 16).
edge(83, 142).
edge(81, 177).
edge(141, 163).
edge(103, 117).
edge(147, 159).
edge(1, 111).
edge(79, 93).
edge(90, 132).
edge(63, 91).
edge(46, 104).
edge(53, 167).
edge(5, 41).
edge(107, 148).
edge(54, 79).
edge(33, 123).
edge(46, 129).
edge(44, 152).
edge(51, 139).
edge(81, 168).
edge(16, 174).
edge(147, 171).
edge(4, 16).
edge(32, 93).
edge(64, 83).
edge(133, 154).
edge(52, 95).
edge(43, 116).
edge(24, 146).
edge(68, 138).
edge(60, 116).
edge(61, 63).
edge(68, 84).
edge(46, 113).
edge(85, 129).
edge(69, 76).
edge(43, 45).
edge(34, 162).
edge(73, 128).
edge(15, 27).
edge(39, 114).
edge(97, 111).
edge(84, 116).
edge(14, 34).
edge(53, 85).
edge(101, 131).
edge(9, 148).
edge(83, 128).
edge(74, 75).
edge(34, 64).
edge(83, 164).
edge(16, 97).
edge(46, 57).
edge(134, 145).
edge(21, 144).
edge(93, 98).
edge(38, 115).
edge(3, 141).
edge(98, 130).
edge(36, 121).
edge(42, 132).
edge(18, 138).
edge(7, 35).
edge(82, 111).
edge(136, 158).
edge(84, 151).
edge(34, 113).
edge(40, 90).
edge(73, 139).
edge(15, 60).
edge(7, 136).
edge(98, 105).
edge(160, 169).
edge(55, 111).
edge(110, 125).
edge(23, 34).
edge(76, 116).
edge(70, 146).
edge(49, 138).
edge(13, 60).
edge(146, 175).
edge(34, 126).
edge(38, 40).
edge(28, 128).
edge(43, 88).
edge(152, 159).
edge(25, 171).
edge(81, 130).
edge(1, 100).
edge(37, 138).
edge(27, 177).
edge(38, 168).
edge(61, 80).
edge(30, 41).
edge(116, 118).
edge(10, 66).
edge(150, 175).
edge(37, 80).
edge(62, 117).
edge(115, 126).
edge(12, 31).
edge(66, 157).
edge(56, 66).
edge(51, 175).
edge(29, 167).
edge(74, 171).
edge(106, 120).
edge(15, 51).
edge(13, 128).
edge(61, 92).
edge(15, 150).
edge(66, 152).
edge(89, 154).
edge(101, 171).
edge(65, 67).
edge(63, 170).
edge(42, 96).
edge(2, 7).
edge(6, 115).
edge(17, 99).
edge(67, 165).
edge(11, 35).
edge(45, 48).
edge(13, 45).
edge(112, 154).
edge(128, 138).
edge(10, 149).
edge(108, 174).
edge(87, 121).
edge(117, 175).
edge(21, 145).
edge(43, 160).
edge(50, 150).
edge(39, 75).
edge(14, 33).
edge(87, 90).
edge(2, 133).
edge(1, 46).
edge(40, 69).
edge(32, 118).
edge(18, 72).
edge(81, 103).
edge(73, 131).
edge(47, 171).
edge(61, 151).
edge(28, 109).
edge(12, 169).
edge(66, 120).
edge(5, 96).
edge(49, 118).
edge(62, 86).
edge(36, 80).
edge(89, 125).
edge(15, 19).
edge(38, 171).
edge(164, 175).
edge(4, 69).
edge(13, 46).
edge(76, 88).
edge(94, 134).
edge(19, 104).
edge(80, 113).
edge(72, 122).
edge(20, 172).
edge(11, 90).
edge(93, 108).
edge(34, 138).
edge(44, 84).
edge(60, 134).
edge(46, 162).
edge(24, 31).
edge(46, 65).
edge(51, 60).
edge(4, 30).
edge(42, 160).
edge(25, 73).
edge(8, 139).
edge(88, 117).
edge(7, 44).
edge(83, 138).
edge(0, 89).
edge(132, 160).
edge(86, 153).
edge(112, 136).
edge(90, 131).
edge(2, 37).
edge(84, 178).
edge(19, 95).
edge(31, 72).
edge(63, 100).
edge(34, 77).
edge(74, 148).
edge(88, 143).
edge(8, 138).
edge(5, 9).
edge(16, 169).
edge(19, 158).
edge(164, 167).
edge(19, 46).
edge(110, 126).
edge(67, 143).
edge(23, 41).
edge(114, 137).
edge(36, 106).
edge(86, 143).
edge(16, 77).
edge(0, 152).
edge(98, 125).
edge(4, 149).
edge(0, 176).
edge(76, 144).
edge(69, 160).
edge(71, 117).
edge(34, 73).
edge(79, 80).
edge(93, 170).
edge(26, 90).
edge(65, 145).
edge(28, 45).
edge(10, 47).
edge(112, 163).
edge(99, 106).
edge(31, 65).
edge(34, 76).
edge(73, 167).
edge(3, 145).
edge(77, 112).
edge(10, 27).
edge(4, 23).
edge(25, 44).
edge(21, 163).
edge(6, 37).
edge(137, 149).
edge(21, 168).
edge(25, 86).
edge(39, 49).
edge(143, 161).
edge(120, 165).
edge(42, 110).
edge(46, 60).
edge(4, 118).
edge(92, 150).
edge(37, 39).
edge(123, 171).
edge(44, 155).
edge(107, 130).
edge(17, 95).
edge(37, 89).
edge(100, 161).
edge(10, 25).
edge(54, 93).
edge(66, 146).
edge(7, 66).
edge(29, 148).
edge(41, 67).
edge(49, 50).
edge(129, 164).
edge(28, 158).
edge(28, 58).
edge(14, 143).
edge(41, 172).
edge(116, 171).
edge(30, 118).
edge(89, 94).
edge(76, 84).
edge(50, 129).
edge(91, 139).
edge(39, 90).
edge(115, 141).
edge(40, 52).
edge(50, 89).
edge(5, 106).
edge(8, 64).
edge(44, 79).
edge(42, 157).
edge(13, 22).
edge(24, 135).
edge(53, 98).
edge(51, 157).
edge(112, 144).
edge(19, 130).
edge(62, 100).
edge(2, 9).
edge(11, 80).
edge(8, 131).
edge(92, 113).
edge(87, 134).
edge(122, 142).
edge(30, 149).
edge(89, 144).
edge(7, 38).
edge(81, 96).
edge(37, 78).
edge(137, 138).
edge(74, 139).
edge(7, 155).
edge(5, 140).
edge(133, 148).
edge(146, 160).
edge(20, 38).
edge(43, 44).
edge(37, 160).
edge(94, 112).
edge(97, 164).
edge(25, 177).
edge(3, 127).
edge(57, 135).
edge(47, 95).
edge(141, 159).
edge(3, 36).
edge(115, 172).
edge(53, 57).
edge(5, 69).
edge(10, 67).
edge(61, 103).
edge(16, 43).
edge(19, 164).
edge(11, 18).
edge(138, 147).
edge(69, 162).
edge(145, 155).
edge(33, 147).
edge(49, 143).
edge(7, 8).
edge(9, 66).
edge(62, 99).
edge(1, 122).
edge(130, 177).
edge(68, 174).
edge(69, 178).
edge(152, 160).
edge(115, 175).
edge(36, 40).
edge(5, 124).
edge(14, 39).
edge(106, 126).
edge(38, 109).
edge(10, 50).
edge(113, 126).
edge(67, 129).
edge(61, 112).
edge(38, 176).
edge(9, 169).
edge(60, 155).
edge(82, 145).
edge(47, 161).
edge(118, 147).
edge(37, 87).
edge(8, 14).
edge(14, 19).
edge(0, 82).
edge(39, 152).
edge(132, 133).
edge(43, 84).
edge(65, 104).
edge(73, 108).
edge(41, 101).
edge(55, 162).
edge(146, 165).
edge(104, 166).
edge(50, 105).
edge(22, 93).
edge(77, 158).
edge(59, 118).
edge(89, 177).
edge(95, 176).
edge(97, 156).
edge(1, 69).
edge(60, 165).
edge(51, 136).
edge(90, 165).
edge(156, 169).
edge(142, 166).
edge(0, 112).
edge(33, 168).
edge(156, 174).
edge(127, 142).
edge(23, 160).
edge(14, 144).
edge(87, 171).
edge(38, 124).
edge(0, 87).
edge(14, 15).
edge(52, 131).
edge(40, 165).
edge(17, 166).
edge(23, 55).
edge(120, 147).
edge(87, 129).
edge(94, 143).
edge(77, 175).
edge(0, 47).
edge(4, 174).
edge(36, 123).
edge(23, 66).
edge(41, 49).
edge(18, 136).
edge(27, 121).
edge(60, 164).
edge(52, 117).
edge(42, 124).
edge(104, 144).
edge(5, 144).
edge(7, 108).
edge(109, 142).
edge(63, 115).
edge(14, 60).
edge(4, 123).
edge(18, 53).
edge(3, 176).
edge(91, 107).
edge(9, 96).
edge(28, 97).
edge(23, 108).
edge(36, 78).
edge(39, 51).
edge(67, 147).
edge(60, 150).
edge(79, 177).
edge(24, 36).
edge(140, 147).
edge(27, 166).
edge(37, 120).
edge(64, 171).
edge(56, 163).
edge(21, 44).
edge(107, 111).
edge(3, 131).
edge(37, 67).
edge(20, 148).
edge(134, 135).
edge(28, 41).
edge(28, 131).
edge(51, 70).
edge(3, 92).
edge(63, 145).
edge(102, 164).
edge(54, 83).
edge(30, 97).
edge(139, 156).
edge(26, 39).
edge(95, 162).
edge(24, 72).
edge(63, 157).
edge(41, 173).
edge(24, 50).
edge(19, 151).
edge(42, 93).
edge(80, 143).
edge(83, 117).
edge(13, 144).
edge(12, 92).
edge(1, 55).
edge(93, 111).
edge(148, 176).
edge(92, 158).
edge(136, 140).
edge(65, 136).
edge(58, 177).
edge(21, 156).
edge(63, 166).
edge(6, 132).
edge(78, 134).
edge(74, 163).
edge(116, 134).
edge(139, 165).
edge(57, 67).
edge(123, 169).
edge(22, 168).
edge(90, 105).
edge(0, 61).
edge(36, 142).
edge(169, 174).
edge(35, 61).
edge(25, 116).
edge(31, 70).
edge(75, 111).
edge(119, 131).
edge(55, 175).
edge(43, 102).
edge(80, 116).
edge(35, 48).
edge(7, 79).
edge(33, 103).
edge(14, 120).
edge(55, 125).
edge(133, 151).
edge(89, 176).
edge(44, 61).
edge(167, 174).
edge(33, 114).
edge(101, 154).
edge(129, 130).
edge(54, 176).
edge(83, 168).
edge(0, 174).
edge(34, 166).
edge(81, 134).
edge(134, 153).
edge(33, 38).
edge(56, 157).
edge(39, 116).
edge(122, 170).
edge(17, 178).
edge(11, 47).
edge(19, 147).
edge(1, 34).
edge(21, 151).
edge(108, 173).
edge(81, 104).
edge(5, 22).
edge(76, 97).
edge(65, 91).
edge(41, 120).
edge(108, 162).
edge(5, 78).
edge(48, 95).
edge(32, 172).
edge(99, 150).
edge(142, 165).
edge(112, 123).
edge(88, 141).
edge(82, 95).
edge(126, 160).
edge(46, 169).
edge(121, 174).
edge(59, 135).
edge(153, 172).
edge(132, 141).
edge(5, 125).
edge(62, 168).
edge(82, 104).
edge(65, 121).
edge(98, 148).
edge(40, 160).
edge(121, 168).
edge(21, 84).
edge(5, 160).
edge(60, 112).
edge(43, 67).
edge(79, 163).
edge(164, 170).
edge(148, 163).
edge(77, 91).
edge(24, 47).
edge(27, 83).
edge(46, 122).
edge(9, 43).
edge(35, 150).
edge(42, 135).
edge(35, 101).
edge(58, 164).
edge(128, 164).
edge(13, 152).
edge(81, 157).
edge(22, 104).
edge(78, 118).
edge(83, 113).
edge(118, 132).
edge(105, 150).
edge(1, 171).
edge(36, 156).
edge(136, 171).
edge(127, 143).
edge(40, 113).
edge(44, 124).
edge(35, 42).
edge(96, 134).
edge(35, 133).
edge(46, 62).
edge(92, 134).
edge(66, 85).
edge(133, 169).
edge(66, 112).
edge(128, 140).
edge(32, 129).
edge(16, 18).
edge(46, 66).
edge(5, 87).
edge(88, 171).
edge(147, 168).
edge(5, 24).
edge(135, 168).
edge(66, 145).
edge(129, 172).
edge(66, 90).
edge(17, 49).
edge(41, 178).
edge(28, 137).
edge(42, 97).
edge(47, 93).
edge(92, 159).
edge(26, 117).
edge(40, 73).
edge(118, 161).
edge(1, 141).
edge(1, 93).
edge(83, 175).
edge(25, 84).
edge(19, 79).
edge(117, 120).
edge(45, 169).
edge(99, 165).
edge(42, 50).
edge(57, 116).
edge(60, 65).
edge(112, 168).
edge(40, 88).
edge(18, 92).
edge(28, 61).
edge(75, 175).
edge(24, 108).
edge(135, 151).
edge(14, 163).
edge(15, 49).
edge(71, 174).
edge(65, 127).
edge(124, 136).
edge(44, 135).
edge(48, 50).
edge(39, 174).
edge(147, 155).
edge(47, 127).
edge(25, 117).
edge(173, 174).
edge(18, 25).
edge(40, 97).
edge(5, 132).
edge(10, 160).
edge(80, 163).
edge(48, 143).
edge(125, 174).
edge(70, 176).
edge(29, 145).
edge(12, 160).
edge(64, 96).
edge(43, 174).
edge(8, 88).
edge(52, 77).
edge(154, 165).
edge(71, 152).
edge(80, 100).
edge(8, 117).
edge(138, 162).
edge(12, 111).
edge(143, 151).
edge(4, 56).
edge(10, 134).
edge(38, 123).
edge(119, 161).
edge(36, 95).
edge(80, 104).
edge(17, 149).
edge(153, 177).
edge(50, 131).
edge(88, 168).
edge(146, 148).
edge(65, 125).
edge(45, 62).
edge(28, 77).
edge(21, 169).
edge(75, 141).
edge(62, 103).
edge(74, 141).
edge(1, 130).
edge(108, 119).
edge(96, 162).
edge(43, 103).
edge(91, 101).
edge(29, 156).
edge(65, 88).
edge(57, 68).
edge(8, 13).
edge(5, 40).
edge(60, 129).
edge(79, 171).
edge(92, 153).
edge(23, 64).
edge(28, 174).
edge(61, 69).
edge(23, 77).
edge(55, 126).
edge(98, 143).
edge(85, 99).
edge(12, 17).
edge(132, 143).
edge(131, 176).
edge(78, 94).
edge(82, 108).
edge(28, 168).
edge(24, 149).
edge(33, 154).
edge(102, 163).
edge(70, 175).
edge(7, 19).
edge(117, 140).
edge(11, 124).
edge(111, 141).
edge(11, 72).
edge(81, 143).
edge(43, 125).
edge(8, 121).
edge(85, 140).
edge(40, 154).
edge(112, 147).
edge(64, 81).
edge(104, 153).
edge(49, 74).
edge(67, 175).
edge(32, 115).
edge(15, 45).
edge(38, 55).
edge(21, 70).
edge(28, 64).
edge(52, 150).
edge(104, 136).
edge(38, 51).
edge(80, 175).
edge(33, 115).
edge(158, 171).
edge(74, 118).
edge(55, 140).
edge(134, 157).
edge(113, 116).
edge(15, 107).
edge(5, 80).
edge(8, 145).
edge(86, 119).
edge(103, 171).
edge(62, 84).
edge(35, 43).
edge(106, 167).
edge(85, 117).
edge(7, 170).
edge(12, 27).
edge(75, 129).
edge(153, 159).
edge(54, 145).
edge(100, 116).
edge(126, 136).
edge(14, 88).
edge(109, 110).
edge(75, 156).
edge(31, 148).
edge(48, 155).
edge(155, 169).
edge(51, 144).
edge(143, 168).
edge(4, 128).
edge(16, 106).
edge(58, 64).
edge(114, 131).
edge(82, 134).
edge(88, 152).
edge(31, 102).
edge(24, 151).
edge(26, 94).
edge(26, 173).
edge(18, 160).
edge(43, 48).
edge(63, 142).
edge(57, 151).
edge(104, 163).
edge(150, 151).
edge(110, 154).
edge(76, 137).
edge(100, 139).
edge(108, 142).
edge(55, 151).
edge(30, 178).
edge(25, 110).
edge(33, 136).
edge(73, 151).
edge(4, 50).
edge(71, 104).
edge(117, 132).
edge(5, 84).
edge(135, 167).
edge(36, 100).
edge(12, 57).
edge(4, 39).
edge(59, 115).
edge(99, 144).
edge(60, 156).
edge(39, 74).
edge(45, 145).
edge(10, 35).
edge(76, 151).
edge(106, 143).
edge(14, 40).
edge(6, 8).
edge(46, 49).
edge(66, 147).
edge(17, 143).
edge(64, 79).
edge(10, 107).
edge(38, 145).
edge(59, 61).
edge(134, 143).
edge(14, 43).
edge(29, 132).
edge(128, 176).
edge(12, 44).
edge(27, 161).
edge(137, 152).
edge(17, 159).
edge(93, 161).
edge(23, 76).
edge(69, 144).
edge(102, 170).
edge(11, 40).
edge(17, 72).
edge(23, 24).
edge(8, 29).
edge(39, 126).
edge(93, 152).
edge(58, 125).
edge(131, 144).
edge(63, 173).
edge(21, 152).
edge(46, 172).
edge(64, 139).
edge(22, 130).
edge(63, 172).
edge(59, 79).
edge(92, 126).
edge(77, 176).
edge(6, 21).
edge(42, 48).
edge(35, 71).
edge(60, 118).
edge(105, 141).
edge(98, 159).
edge(21, 147).
edge(91, 178).
edge(35, 113).
edge(91, 109).
edge(4, 79).
edge(71, 177).
edge(68, 135).
edge(127, 165).
edge(16, 22).
edge(20, 55).
edge(52, 168).
edge(12, 157).
edge(45, 55).
edge(44, 59).
edge(93, 173).
edge(20, 94).
edge(36, 160).
edge(89, 149).
edge(5, 118).
edge(59, 178).
edge(37, 105).
edge(15, 31).
edge(49, 142).
edge(110, 147).
edge(91, 170).
edge(2, 53).
edge(0, 10).
edge(32, 73).
edge(73, 135).
edge(101, 151).
edge(45, 140).
edge(30, 35).
edge(65, 130).
edge(91, 175).
edge(74, 137).
edge(118, 134).
edge(7, 95).
edge(13, 116).
edge(7, 104).
edge(13, 166).
edge(1, 85).
edge(53, 58).
edge(3, 164).
edge(26, 149).
edge(49, 135).
edge(74, 111).
edge(38, 134).
edge(28, 96).
edge(122, 169).
edge(21, 61).
edge(82, 143).
edge(45, 65).
edge(51, 77).
edge(101, 114).
edge(72, 82).
edge(157, 167).
edge(64, 134).
edge(51, 140).
edge(31, 134).
edge(66, 135).
edge(15, 138).
edge(14, 57).
edge(2, 52).
edge(56, 93).
edge(55, 146).
edge(100, 173).
edge(135, 158).
edge(42, 86).
edge(30, 48).
edge(86, 167).
edge(18, 38).
edge(12, 55).
edge(42, 126).
edge(134, 169).
edge(19, 93).
edge(117, 163).
edge(121, 164).
edge(33, 68).
edge(107, 138).
edge(13, 97).
edge(34, 92).
edge(14, 22).
edge(4, 130).
edge(5, 176).
edge(54, 157).
edge(33, 61).
edge(49, 94).
edge(36, 126).
edge(31, 55).
edge(48, 73).
edge(113, 137).
edge(24, 155).
edge(26, 112).
edge(5, 110).
edge(114, 133).
edge(49, 69).
edge(99, 134).
edge(53, 66).
edge(3, 25).
edge(79, 102).
edge(42, 109).
edge(52, 61).
edge(40, 85).
edge(132, 171).
edge(41, 77).
edge(156, 171).
edge(109, 127).
edge(57, 82).
edge(41, 118).
edge(49, 139).
edge(78, 160).
edge(110, 145).
edge(28, 46).
edge(42, 73).
edge(15, 88).
edge(57, 92).
edge(0, 91).
edge(39, 111).
edge(7, 111).
edge(3, 149).
edge(0, 106).
edge(25, 133).
edge(81, 159).
edge(151, 173).
edge(8, 153).
edge(63, 131).
edge(135, 137).
edge(2, 119).
edge(32, 140).
edge(114, 142).
edge(20, 70).
edge(34, 168).
edge(0, 13).
edge(86, 137).
edge(10, 34).
edge(86, 92).
edge(121, 167).
edge(62, 71).
edge(6, 155).
edge(22, 145).
edge(157, 171).
edge(97, 129).
edge(61, 68).
edge(44, 66).
edge(39, 140).
edge(28, 47).
edge(21, 139).
edge(6, 154).
edge(1, 28).
edge(74, 96).
edge(24, 118).
edge(13, 163).
edge(29, 168).
edge(5, 153).
edge(99, 125).
edge(29, 93).
edge(142, 161).
edge(108, 112).
edge(17, 162).
edge(58, 167).
edge(38, 86).
edge(37, 66).
edge(154, 171).
edge(0, 80).
edge(82, 121).
edge(84, 130).
edge(36, 84).
edge(26, 86).
edge(145, 150).
edge(21, 24).
edge(16, 23).
edge(91, 108).
edge(46, 73).
edge(9, 77).
edge(26, 170).
edge(26, 129).
edge(13, 141).
edge(18, 177).
edge(27, 176).
edge(98, 145).
edge(15, 133).
edge(19, 174).
edge(80, 121).
edge(157, 161).
edge(27, 35).
edge(120, 122).
edge(52, 73).
edge(9, 26).
edge(58, 79).
edge(32, 134).
edge(81, 109).
edge(39, 118).
edge(57, 69).
edge(75, 177).
edge(85, 107).
edge(48, 176).
edge(42, 151).
edge(46, 64).
edge(34, 125).
edge(63, 97).
edge(76, 105).
edge(149, 169).
edge(73, 75).
edge(28, 124).
edge(121, 159).
edge(117, 125).
edge(29, 131).
edge(9, 89).
edge(93, 102).
edge(2, 34).
edge(159, 173).
edge(93, 148).
edge(16, 137).
edge(119, 122).
edge(48, 129).
edge(8, 168).
edge(10, 97).
edge(117, 153).
edge(40, 141).
edge(97, 117).
edge(49, 63).
edge(36, 93).
edge(98, 104).
edge(91, 115).
edge(75, 86).
edge(42, 101).
edge(97, 145).
edge(152, 173).
edge(58, 124).
edge(7, 147).
edge(146, 168).
edge(3, 91).
edge(76, 110).
edge(118, 121).
edge(19, 69).
edge(100, 150).
edge(72, 105).
edge(99, 168).
edge(148, 171).
edge(121, 147).
edge(129, 149).
edge(25, 72).
edge(57, 171).
edge(93, 150).
edge(17, 21).
edge(90, 120).
edge(142, 148).
edge(147, 161).
edge(41, 82).
edge(4, 162).
edge(65, 176).
edge(30, 130).
edge(6, 139).
edge(67, 73).
edge(9, 157).
edge(28, 134).
edge(161, 173).
edge(46, 107).
edge(4, 97).
edge(143, 162).
edge(19, 48).
edge(11, 81).
edge(133, 159).
edge(137, 177).
edge(42, 65).
edge(22, 68).
edge(28, 116).
edge(89, 152).
edge(18, 93).
edge(92, 136).
edge(25, 147).
edge(101, 132).
edge(2, 154).
edge(60, 143).
edge(49, 177).
edge(35, 166).
edge(52, 124).
edge(51, 166).
edge(64, 84).
edge(1, 97).
edge(66, 126).
edge(63, 96).
edge(50, 169).
edge(102, 129).
edge(22, 35).
edge(10, 113).
edge(131, 153).
edge(103, 124).
edge(37, 51).
edge(64, 150).
edge(161, 166).
edge(53, 146).
edge(62, 142).
edge(102, 125).
edge(39, 41).
edge(32, 102).
edge(14, 172).
edge(41, 92).
edge(12, 127).
edge(60, 85).
edge(95, 143).
edge(124, 153).
edge(23, 91).
edge(129, 165).
edge(11, 48).
edge(24, 65).
edge(5, 142).
edge(112, 139).
edge(8, 36).
edge(37, 96).
edge(2, 69).
edge(27, 89).
edge(99, 118).
edge(43, 79).
edge(36, 128).
edge(31, 108).
edge(105, 132).
edge(81, 151).
edge(39, 72).
edge(71, 81).
edge(158, 172).
edge(27, 155).
edge(87, 88).
edge(28, 62).
edge(33, 50).
edge(53, 92).
edge(142, 160).
edge(43, 46).
edge(35, 107).
edge(28, 36).
edge(144, 152).
edge(138, 139).
edge(12, 43).
edge(7, 146).
edge(67, 123).
edge(6, 25).
edge(67, 121).
edge(56, 124).
edge(86, 100).
edge(87, 164).
edge(7, 77).
edge(92, 175).
edge(72, 104).
edge(113, 124).
edge(62, 153).
edge(16, 90).
edge(22, 111).
edge(46, 92).
edge(56, 164).
edge(1, 158).
edge(47, 92).
edge(57, 117).
edge(90, 156).
edge(74, 114).
edge(141, 162).
edge(5, 30).
edge(25, 102).
edge(40, 119).
edge(141, 154).
edge(101, 159).
edge(139, 153).
edge(52, 100).
edge(24, 107).
edge(8, 39).
edge(24, 39).
edge(1, 146).
edge(24, 97).
edge(3, 16).
edge(89, 167).
edge(56, 131).
edge(95, 171).
edge(141, 146).
edge(35, 154).
edge(18, 84).
edge(29, 75).
edge(75, 140).
edge(48, 74).
edge(38, 91).
edge(31, 106).
edge(132, 176).
edge(72, 113).
edge(150, 152).
edge(53, 74).
edge(69, 176).
edge(20, 74).
edge(3, 96).
edge(30, 153).
edge(45, 175).
edge(87, 169).
edge(48, 141).
edge(2, 28).
edge(41, 88).
edge(23, 93).
edge(63, 72).
edge(8, 159).
edge(1, 84).
edge(22, 101).
edge(45, 172).
edge(76, 142).
edge(39, 102).
edge(58, 118).
edge(9, 23).
edge(58, 163).
edge(28, 103).
edge(36, 37).
edge(103, 113).
edge(12, 153).
edge(62, 167).
edge(126, 163).
edge(33, 165).
edge(83, 100).
edge(7, 93).
edge(26, 150).
edge(57, 169).
edge(10, 167).
edge(86, 98).
edge(126, 135).
edge(17, 26).
edge(109, 114).
edge(60, 138).
edge(41, 85).
edge(18, 94).
edge(87, 128).
edge(6, 89).
edge(72, 79).
edge(106, 148).
edge(41, 63).
edge(124, 132).
edge(46, 144).
edge(45, 82).
edge(43, 55).
edge(26, 159).
edge(60, 133).
edge(159, 170).
edge(56, 113).
edge(85, 103).
edge(121, 123).
edge(165, 172).
edge(154, 173).
edge(33, 140).
edge(78, 108).
edge(8, 62).
edge(48, 83).
edge(7, 175).
edge(15, 77).
edge(43, 93).
edge(4, 68).
edge(14, 52).
edge(98, 135).
edge(6, 123).
edge(8, 22).
edge(133, 165).
edge(116, 146).
edge(54, 75).
edge(45, 64).
edge(151, 157).
edge(17, 22).
edge(19, 36).
edge(1, 166).
edge(67, 150).
edge(45, 109).
edge(47, 105).
edge(1, 148).
edge(53, 142).
edge(52, 162).
edge(3, 123).
edge(40, 134).
edge(19, 157).
edge(7, 27).
edge(54, 148).
edge(31, 52).
edge(48, 128).
edge(54, 177).
edge(53, 77).
edge(23, 60).
edge(75, 136).
edge(101, 138).
edge(39, 67).
edge(65, 69).
edge(47, 136).
edge(48, 66).
edge(56, 77).
edge(134, 170).
edge(27, 124).
edge(11, 36).
edge(24, 160).
edge(78, 142).
edge(20, 137).
edge(56, 144).
edge(12, 115).
edge(60, 103).
edge(48, 86).
edge(102, 139).
edge(22, 137).
edge(67, 71).
edge(38, 77).
edge(33, 84).
edge(15, 70).
edge(61, 108).
edge(125, 127).
edge(1, 104).
edge(96, 116).
edge(70, 125).
edge(25, 34).
edge(75, 114).
edge(78, 126).
edge(64, 69).
edge(1, 21).
edge(23, 30).
edge(14, 78).
edge(87, 116).
edge(5, 8).
edge(35, 37).
edge(78, 139).
edge(38, 112).
edge(60, 87).
edge(83, 174).
edge(49, 174).
edge(42, 100).
edge(92, 176).
edge(52, 154).
edge(10, 132).
edge(14, 152).
edge(49, 153).
edge(70, 168).
edge(42, 123).
edge(55, 105).
edge(78, 169).
edge(61, 137).
edge(59, 82).
edge(52, 87).
edge(67, 94).
edge(63, 129).
edge(30, 117).
edge(43, 152).
edge(8, 151).
edge(162, 164).
edge(5, 81).
edge(53, 137).
edge(107, 150).
edge(64, 165).
edge(29, 136).
edge(85, 93).
edge(18, 22).
edge(52, 169).
edge(48, 112).
edge(10, 117).
edge(45, 81).
edge(82, 128).
edge(30, 148).
edge(89, 127).
edge(17, 30).
edge(54, 97).
edge(2, 59).
edge(108, 125).
edge(36, 135).
edge(39, 54).
edge(3, 10).
edge(61, 71).
edge(89, 171).
edge(32, 90).
edge(1, 20).
edge(77, 102).
edge(69, 124).
edge(66, 78).
edge(18, 155).
edge(32, 78).
edge(29, 52).
edge(33, 75).
edge(53, 72).
edge(80, 158).
edge(119, 170).
edge(70, 99).
edge(133, 149).
edge(47, 63).
edge(161, 174).
edge(14, 47).
edge(0, 94).
edge(62, 95).
edge(171, 173).
edge(17, 105).
edge(16, 135).
edge(105, 121).
edge(125, 128).
edge(110, 155).
edge(35, 77).
edge(102, 153).
edge(56, 146).
edge(50, 97).
edge(27, 167).
edge(140, 157).
edge(110, 136).
edge(63, 98).
edge(51, 94).
edge(0, 98).
edge(44, 73).
edge(57, 173).
edge(53, 83).
edge(6, 72).
edge(133, 167).
edge(81, 100).
edge(16, 103).
edge(106, 131).
edge(32, 159).
edge(28, 79).
edge(125, 161).
edge(63, 174).
edge(31, 132).
edge(60, 114).
edge(132, 148).
edge(78, 97).
edge(90, 99).
edge(57, 58).
edge(68, 83).
edge(3, 5).
edge(158, 168).
edge(32, 126).
edge(58, 99).
edge(115, 161).
edge(47, 154).
edge(31, 103).
edge(36, 171).
edge(0, 14).
edge(67, 119).
edge(16, 176).
edge(43, 94).
edge(168, 169).
edge(12, 32).
edge(97, 177).
edge(52, 155).
edge(21, 81).
edge(155, 174).
edge(30, 86).
edge(110, 118).
edge(16, 121).
edge(48, 78).
edge(28, 29).
edge(137, 146).
edge(132, 153).
edge(144, 176).
edge(123, 145).
edge(97, 115).
edge(29, 54).
edge(10, 108).
edge(39, 144).
edge(85, 136).
edge(155, 165).
edge(90, 139).
edge(6, 112).
edge(50, 62).
edge(165, 167).
edge(25, 140).
edge(57, 71).
edge(37, 98).
edge(66, 129).
edge(29, 103).
edge(138, 153).
edge(98, 150).
edge(40, 131).
edge(44, 92).
edge(37, 168).
edge(172, 177).
edge(6, 82).
edge(7, 61).
edge(76, 92).
edge(12, 165).
edge(77, 133).
edge(122, 127).
edge(116, 144).
edge(15, 47).
edge(144, 163).
edge(9, 14).
edge(77, 127).
edge(67, 105).
edge(156, 158).
edge(72, 83).
edge(87, 161).
edge(106, 169).
edge(65, 72).
edge(26, 50).
edge(86, 161).
edge(28, 57).
edge(40, 56).
edge(27, 49).
edge(114, 165).
edge(157, 169).
edge(123, 140).
edge(21, 134).
edge(18, 62).
edge(50, 147).
edge(107, 136).
edge(1, 174).
edge(29, 92).
edge(75, 166).
edge(32, 57).
edge(31, 166).
edge(28, 52).
edge(2, 169).
edge(46, 52).
edge(32, 95).
edge(122, 164).
edge(74, 138).
edge(48, 118).
edge(104, 143).
edge(48, 151).
edge(27, 118).
edge(61, 76).
edge(55, 107).
edge(149, 155).
edge(108, 129).
edge(151, 163).
edge(55, 160).
edge(23, 175).
edge(3, 52).
edge(34, 121).
edge(67, 148).
edge(40, 140).
edge(79, 140).
edge(36, 57).
edge(51, 134).
edge(31, 173).
edge(19, 107).
edge(54, 62).
edge(24, 35).
edge(107, 112).
edge(34, 46).
edge(16, 151).
edge(96, 97).
edge(117, 169).
edge(27, 168).
edge(28, 94).
edge(10, 95).
edge(37, 68).
edge(105, 156).
edge(19, 82).
edge(111, 114).
edge(9, 153).
edge(7, 57).
edge(18, 168).
edge(92, 177).
edge(71, 118).
edge(12, 94).
edge(30, 105).
edge(120, 172).
edge(122, 124).
edge(1, 10).
edge(140, 142).
edge(43, 118).
edge(69, 138).
edge(78, 121).
edge(48, 103).
edge(29, 176).
edge(40, 66).
edge(82, 166).
edge(28, 108).
edge(113, 170).
edge(59, 137).
edge(78, 168).
edge(116, 127).
edge(21, 59).
edge(79, 133).
edge(63, 123).
edge(93, 105).
edge(54, 174).
edge(25, 65).
edge(68, 170).
edge(110, 168).
edge(115, 125).
edge(8, 100).
edge(40, 43).
edge(22, 32).
edge(6, 107).
edge(85, 151).
edge(9, 135).
edge(0, 30).
edge(33, 174).
edge(145, 156).
edge(26, 96).
edge(41, 79).
edge(34, 103).
edge(55, 178).
edge(48, 54).
edge(38, 119).
edge(43, 123).
edge(169, 173).
edge(51, 177).
edge(69, 100).
edge(96, 161).
edge(13, 56).
edge(123, 161).
edge(63, 77).
edge(39, 164).
edge(31, 59).
edge(75, 152).
edge(2, 43).
edge(114, 162).
edge(62, 146).
edge(134, 176).
edge(34, 118).
edge(42, 178).
edge(47, 67).
edge(69, 151).
edge(13, 178).
edge(78, 88).
edge(65, 147).
edge(84, 143).
edge(56, 172).
edge(97, 166).
edge(4, 113).
edge(37, 60).
edge(1, 63).
edge(19, 84).
edge(105, 123).
edge(50, 110).
edge(8, 89).
edge(34, 164).
edge(3, 82).
edge(101, 175).
edge(35, 103).
edge(63, 64).
edge(44, 137).
edge(10, 88).
edge(5, 93).
edge(140, 148).
edge(26, 165).
edge(146, 158).
edge(10, 143).
edge(32, 117).
edge(20, 58).
edge(16, 113).
edge(18, 164).
edge(28, 68).
edge(19, 28).
edge(12, 177).
edge(62, 159).
edge(17, 89).
edge(14, 107).
edge(110, 173).
edge(16, 86).
edge(77, 107).
edge(8, 35).
edge(25, 150).
edge(47, 109).
edge(10, 60).
edge(106, 121).
edge(94, 104).
edge(30, 128).
edge(53, 99).
edge(60, 109).
edge(25, 98).
edge(11, 24).
edge(52, 93).
edge(100, 137).
edge(95, 129).
edge(139, 162).
edge(82, 118).
edge(95, 138).
edge(19, 42).
edge(41, 97).
edge(132, 166).
edge(23, 82).
edge(90, 128).
edge(52, 112).
edge(162, 163).
edge(86, 135).
edge(6, 28).
edge(62, 162).
edge(14, 131).
edge(99, 104).
edge(88, 177).
edge(160, 165).
edge(59, 138).
edge(91, 177).
edge(69, 168).
edge(110, 141).
edge(103, 145).
edge(36, 50).
edge(18, 88).
edge(107, 132).
edge(148, 174).
edge(55, 133).
edge(35, 87).
edge(16, 160).
edge(80, 96).
edge(100, 146).
edge(52, 165).
edge(60, 106).
edge(2, 91).
edge(125, 141).
edge(72, 158).
edge(166, 167).
edge(20, 130).
edge(29, 157).
edge(137, 173).
edge(0, 126).
edge(166, 171).
edge(143, 147).
edge(42, 82).
edge(35, 67).
edge(11, 167).
edge(16, 139).
edge(48, 62).
edge(108, 156).
edge(42, 108).
edge(45, 163).
edge(20, 39).
edge(68, 169).
edge(31, 131).
edge(21, 83).
edge(64, 120).
edge(127, 166).
edge(112, 138).
edge(161, 177).
edge(116, 162).
edge(83, 85).
edge(90, 107).
edge(41, 119).
edge(21, 73).
edge(71, 148).
edge(28, 102).
edge(90, 162).
edge(77, 120).
edge(130, 137).
edge(91, 148).
edge(14, 178).
edge(55, 153).
edge(61, 126).
edge(41, 109).
edge(41, 135).
edge(18, 39).
edge(68, 74).
edge(75, 91).
edge(22, 99).
edge(45, 99).
edge(105, 146).
edge(59, 120).
edge(127, 157).
edge(2, 111).
edge(80, 156).
edge(23, 138).
edge(7, 81).
edge(7, 32).
edge(126, 157).
edge(20, 68).
edge(39, 69).
edge(113, 127).
edge(168, 171).
edge(10, 152).
edge(2, 40).
edge(8, 125).
edge(117, 133).
edge(40, 120).
edge(31, 123).
edge(4, 148).
edge(25, 56).
edge(4, 135).
edge(6, 83).
edge(66, 103).
edge(97, 154).
edge(159, 172).
edge(50, 63).
edge(17, 101).
edge(58, 84).
edge(126, 178).
edge(30, 106).
edge(68, 121).
edge(42, 171).
edge(32, 137).
edge(62, 65).
edge(13, 127).
edge(1, 66).
edge(60, 111).
edge(104, 112).
edge(5, 116).
edge(93, 140).
edge(138, 168).
edge(29, 138).
edge(7, 74).
edge(112, 119).
edge(96, 100).
edge(28, 170).
edge(120, 178).
edge(28, 166).
edge(113, 136).
edge(82, 132).
edge(54, 61).
edge(8, 18).
edge(2, 20).
edge(57, 174).
edge(140, 158).
edge(90, 153).
edge(24, 178).
edge(28, 84).
edge(95, 133).
edge(18, 129).
edge(109, 111).
edge(44, 109).
edge(10, 162).
edge(35, 152).
edge(48, 123).
edge(81, 115).
edge(117, 150).
edge(120, 123).
edge(20, 93).
edge(42, 92).
edge(42, 119).
edge(65, 71).
edge(77, 81).
edge(54, 133).
edge(20, 157).
edge(11, 173).
edge(113, 132).
edge(60, 107).
edge(71, 153).
edge(101, 145).
edge(133, 141).
edge(83, 94).
edge(24, 68).
edge(35, 153).
edge(61, 85).
edge(1, 88).
edge(103, 147).
edge(90, 96).
edge(22, 110).
edge(87, 100).
edge(7, 142).
edge(96, 101).
edge(80, 122).
edge(19, 170).
edge(18, 149).
edge(43, 156).
edge(76, 98).
edge(49, 96).
edge(103, 176).
edge(50, 173).
edge(73, 107).
edge(27, 131).
edge(63, 111).
edge(13, 37).
edge(95, 116).
edge(40, 171).
edge(76, 90).
edge(76, 117).
edge(70, 141).
edge(4, 84).
edge(29, 73).
edge(169, 171).
edge(63, 106).
edge(17, 131).
edge(17, 129).
edge(89, 155).
edge(8, 147).
edge(99, 110).
edge(38, 162).
edge(41, 70).
edge(41, 46).
edge(52, 109).
edge(149, 164).
edge(49, 98).
edge(58, 153).
edge(53, 163).
edge(83, 99).
edge(128, 143).
edge(86, 91).
edge(25, 28).
edge(94, 155).
edge(107, 141).
edge(76, 147).
edge(75, 155).
edge(76, 170).
edge(78, 125).
edge(6, 22).
edge(87, 109).
edge(55, 61).
edge(120, 129).
edge(118, 139).
edge(45, 126).
edge(85, 144).
edge(60, 152).
edge(39, 103).
edge(68, 172).
edge(123, 156).
edge(21, 30).
edge(108, 135).
edge(8, 34).
edge(60, 93).
edge(63, 84).
edge(20, 118).
edge(152, 169).
edge(14, 157).
edge(58, 75).
edge(22, 23).
edge(53, 59).
edge(83, 133).
edge(116, 152).
edge(10, 147).
edge(60, 63).
edge(101, 105).
edge(32, 38).
edge(60, 140).
edge(59, 74).
edge(28, 135).
edge(5, 36).
edge(25, 46).
edge(5, 150).
edge(47, 115).
edge(121, 157).
edge(142, 156).
edge(67, 95).
edge(104, 149).
edge(27, 123).
edge(111, 171).
edge(1, 24).
edge(33, 157).
edge(69, 146).
edge(46, 174).
edge(16, 96).
edge(94, 139).
edge(21, 97).
edge(16, 40).
edge(149, 176).
edge(93, 113).
edge(45, 46).
edge(43, 162).
edge(62, 139).
edge(110, 148).
edge(94, 107).
edge(73, 150).
edge(135, 144).
edge(67, 177).
edge(129, 173).
edge(56, 85).
edge(69, 99).
edge(128, 170).
edge(125, 152).
edge(159, 175).
edge(53, 113).
edge(88, 96).
edge(40, 62).
edge(23, 119).
edge(18, 51).
edge(53, 127).
edge(8, 85).
edge(30, 81).
edge(45, 122).
edge(17, 103).
edge(117, 119).
edge(14, 147).
edge(74, 170).
edge(12, 104).
edge(11, 144).
edge(145, 158).
edge(75, 160).
edge(125, 167).
edge(87, 130).
edge(138, 161).
edge(78, 114).
edge(23, 149).
edge(36, 112).
edge(106, 160).
edge(57, 146).
edge(34, 63).
edge(33, 99).
edge(14, 31).
edge(149, 157).
edge(58, 85).
edge(72, 131).
edge(13, 26).
edge(46, 115).
edge(47, 153).
edge(132, 175).
edge(26, 177).
edge(128, 133).
edge(16, 117).
edge(31, 133).
edge(84, 121).
edge(101, 158).
edge(27, 170).
edge(4, 18).
edge(26, 47).
edge(59, 90).
edge(111, 173).
edge(26, 138).
edge(42, 134).
edge(72, 172).
edge(80, 90).
edge(42, 128).
edge(134, 141).
edge(117, 161).
edge(66, 87).
edge(108, 175).
edge(2, 79).
edge(36, 94).
edge(65, 82).
edge(75, 142).
edge(118, 140).
edge(55, 56).
edge(16, 177).
edge(23, 84).
edge(116, 142).
edge(45, 77).
edge(18, 28).
edge(65, 110).
edge(23, 120).
edge(46, 156).
edge(99, 173).
edge(74, 127).
edge(22, 119).
edge(56, 96).
edge(142, 174).
edge(8, 119).
edge(34, 141).
edge(9, 98).
edge(62, 108).
edge(17, 80).
edge(100, 177).
edge(68, 156).
edge(128, 159).
edge(36, 67).
edge(88, 100).
edge(122, 154).
edge(11, 165).
edge(64, 142).
edge(76, 158).
edge(112, 125).
edge(10, 100).
edge(6, 52).
edge(23, 35).
edge(9, 46).
edge(2, 100).
edge(77, 174).
edge(123, 134).
edge(38, 48).
edge(155, 163).
edge(58, 82).
edge(48, 169).
edge(96, 165).
edge(144, 149).
edge(139, 147).
edge(57, 62).
edge(23, 110).
edge(47, 50).
edge(12, 81).
edge(5, 66).
edge(89, 168).
edge(49, 62).
edge(22, 87).
edge(15, 52).
edge(10, 26).
edge(24, 99).
edge(47, 145).
edge(57, 145).
edge(3, 106).
edge(3, 72).
edge(28, 49).
edge(68, 151).
edge(136, 170).
edge(80, 128).
edge(112, 169).
edge(42, 78).
edge(70, 98).
edge(138, 140).
edge(89, 107).
edge(86, 172).
edge(54, 141).
edge(35, 171).
edge(105, 162).
edge(8, 80).
edge(61, 156).
edge(7, 47).
edge(2, 109).
edge(27, 80).
edge(7, 177).
edge(14, 16).
edge(16, 125).
edge(10, 140).
edge(12, 121).
edge(16, 100).
edge(60, 98).
edge(58, 73).
edge(32, 34).
edge(17, 130).
edge(35, 170).
edge(163, 168).
edge(131, 132).
edge(43, 61).
edge(62, 132).
edge(23, 69).
edge(64, 91).
edge(150, 160).
edge(32, 71).
edge(8, 137).
edge(100, 115).
edge(16, 101).
edge(5, 55).
edge(41, 141).
edge(39, 147).
edge(21, 55).
edge(66, 160).
edge(41, 116).
edge(58, 94).
edge(34, 69).
edge(5, 148).
edge(138, 158).
edge(101, 178).
edge(45, 119).
edge(0, 65).
edge(92, 100).
edge(154, 157).
edge(104, 130).
edge(16, 49).
edge(5, 111).
edge(9, 56).
edge(5, 152).
edge(21, 47).
edge(36, 178).
edge(33, 155).
edge(40, 155).
edge(102, 151).
edge(9, 154).
edge(56, 118).
edge(21, 58).
edge(44, 102).
edge(13, 33).
edge(75, 97).
edge(43, 166).
edge(97, 176).
edge(20, 112).
edge(8, 107).
edge(79, 81).
edge(145, 151).
edge(55, 110).
edge(51, 143).
edge(50, 69).
edge(94, 130).
edge(23, 153).
edge(27, 173).
edge(133, 162).
edge(107, 120).
edge(73, 116).
edge(103, 152).
edge(8, 90).
edge(1, 62).
edge(150, 154).
edge(6, 35).
edge(59, 123).
edge(113, 160).
edge(35, 76).
edge(4, 157).
edge(80, 146).
edge(67, 116).
edge(85, 89).
edge(99, 130).
edge(24, 48).
edge(18, 121).
edge(3, 61).
edge(51, 127).
edge(76, 127).
edge(82, 130).
edge(116, 140).
edge(134, 136).
edge(91, 116).
edge(60, 115).
edge(128, 131).
edge(95, 169).
edge(115, 146).
edge(116, 174).
edge(26, 133).
edge(4, 76).
edge(7, 94).
edge(110, 114).
edge(100, 153).
edge(37, 159).
edge(88, 124).
edge(68, 147).
edge(2, 166).
edge(29, 56).
edge(135, 136).
edge(93, 165).
edge(67, 169).
edge(114, 171).
edge(17, 59).
edge(48, 99).
edge(55, 170).
edge(1, 162).
edge(74, 112).
edge(76, 134).
edge(80, 152).
edge(3, 118).
edge(22, 154).
edge(20, 164).
edge(74, 78).
edge(29, 153).
edge(59, 122).
edge(1, 31).
edge(4, 36).
edge(50, 94).
edge(75, 105).
edge(18, 159).
edge(3, 140).
edge(54, 121).
edge(16, 58).
edge(108, 145).
edge(90, 167).
edge(94, 156).
edge(37, 142).
edge(15, 80).
edge(109, 132).
edge(12, 117).
edge(6, 128).
edge(88, 154).
edge(48, 51).
edge(42, 95).
edge(46, 141).
edge(5, 145).
edge(49, 78).
edge(17, 164).
edge(71, 176).
edge(63, 147).
edge(102, 168).
edge(121, 149).
edge(38, 103).
edge(33, 167).
edge(23, 132).
edge(1, 15).
edge(54, 167).
edge(66, 154).
edge(94, 159).
edge(43, 155).
edge(64, 149).
edge(0, 60).
edge(115, 166).
edge(10, 64).
edge(22, 90).
edge(10, 46).
edge(46, 82).
edge(76, 166).
edge(19, 136).
edge(99, 128).
edge(31, 56).
edge(13, 50).
edge(82, 154).
edge(2, 161).
edge(43, 97).
edge(72, 177).
edge(69, 142).
edge(113, 114).
edge(41, 60).
edge(29, 47).
edge(108, 134).
edge(28, 51).
edge(111, 117).
edge(10, 14).
edge(14, 141).
edge(5, 101).
edge(111, 138).
edge(56, 57).
edge(21, 135).
edge(60, 72).
edge(16, 34).
edge(16, 166).
edge(70, 148).
edge(122, 136).
edge(78, 177).
edge(118, 135).
edge(40, 48).
edge(127, 154).
edge(34, 36).
edge(21, 137).
edge(149, 171).
edge(90, 127).
edge(26, 146).
edge(100, 117).
edge(115, 128).
edge(63, 121).
edge(107, 161).
edge(39, 128).
edge(45, 51).
edge(108, 154).
edge(75, 108).
edge(35, 126).
edge(35, 167).
edge(7, 17).
edge(32, 86).
edge(148, 157).
edge(111, 176).
edge(4, 90).
edge(75, 116).
edge(10, 169).
edge(82, 168).
edge(50, 135).
edge(69, 125).
edge(51, 149).
edge(53, 132).
edge(24, 101).
edge(109, 136).
edge(74, 143).
edge(46, 128).
edge(127, 172).
edge(49, 123).
edge(54, 123).
edge(151, 162).
edge(15, 24).
edge(71, 82).
edge(37, 101).
edge(87, 127).
edge(32, 80).
edge(19, 51).
edge(23, 169).
edge(1, 75).
edge(65, 97).
edge(31, 167).
edge(153, 175).
edge(28, 173).
edge(40, 76).
edge(101, 172).
edge(14, 160).
edge(96, 147).
edge(47, 148).
edge(47, 90).
edge(18, 161).
edge(55, 143).
edge(50, 161).
edge(77, 92).
edge(100, 174).
edge(95, 167).
edge(15, 178).
edge(84, 140).
edge(31, 115).
edge(63, 122).
edge(67, 68).
edge(30, 71).
edge(10, 106).
edge(9, 61).
edge(85, 150).
edge(29, 60).
edge(58, 136).
edge(70, 163).
edge(3, 28).
edge(76, 168).
edge(47, 164).
edge(15, 154).
edge(104, 175).
edge(56, 82).
edge(42, 47).
edge(83, 167).
edge(77, 116).
edge(83, 148).
edge(10, 40).
edge(31, 62).
edge(34, 51).
edge(29, 76).
edge(21, 62).
edge(31, 78).
edge(66, 67).
edge(107, 143).
edge(56, 117).
edge(43, 148).
edge(95, 140).
edge(21, 111).
edge(11, 172).
edge(86, 106).
edge(98, 142).
edge(51, 93).
edge(62, 83).
edge(127, 159).
edge(16, 165).
edge(75, 117).
edge(37, 170).
edge(60, 158).
edge(21, 167).
edge(51, 142).
edge(21, 63).
edge(7, 40).
edge(71, 154).
edge(16, 79).
edge(63, 87).
edge(90, 104).
edge(71, 79).
edge(7, 85).
edge(6, 42).
edge(46, 178).
edge(99, 112).
edge(51, 76).
edge(92, 109).
edge(53, 149).
edge(87, 155).
edge(1, 124).
edge(71, 178).
edge(43, 86).
edge(57, 150).
edge(136, 165).
edge(59, 81).
edge(117, 135).
edge(29, 104).
edge(50, 162).
edge(29, 113).
edge(90, 137).
edge(67, 126).
edge(27, 148).
edge(37, 55).
edge(66, 164).
edge(17, 147).
edge(112, 174).
edge(24, 58).
edge(87, 112).
edge(17, 132).
edge(9, 81).
edge(31, 73).
edge(94, 145).
edge(14, 74).
edge(76, 81).
edge(130, 155).
edge(111, 170).
edge(147, 152).
edge(53, 78).
edge(118, 143).
edge(22, 24).
edge(20, 42).
edge(122, 168).
edge(46, 116).
edge(63, 85).
edge(78, 85).
edge(106, 113).
edge(165, 173).
edge(9, 142).
edge(0, 33).
edge(64, 168).
edge(70, 169).
edge(15, 102).
edge(83, 153).
edge(48, 91).
edge(37, 71).
edge(47, 51).
edge(8, 23).
edge(24, 60).
edge(119, 178).
edge(103, 137).
edge(119, 172).
edge(3, 112).
edge(46, 119).
edge(18, 124).
edge(18, 174).
edge(74, 101).
edge(78, 106).
edge(121, 141).
edge(151, 167).
edge(26, 163).
edge(23, 123).
edge(21, 95).
edge(47, 152).
edge(90, 149).
edge(18, 68).
edge(42, 60).
edge(45, 50).
edge(21, 146).
edge(4, 20).
edge(9, 164).
edge(99, 131).
edge(75, 89).
edge(46, 97).
edge(30, 44).
edge(66, 167).
edge(25, 85).
edge(139, 176).
edge(93, 146).
edge(71, 105).
edge(99, 149).
edge(18, 64).
edge(4, 173).
edge(23, 37).
edge(93, 119).
edge(26, 85).
edge(44, 116).
edge(136, 151).
edge(118, 164).
edge(74, 80).
edge(19, 125).
edge(97, 158).
edge(71, 75).
edge(22, 59).
edge(56, 106).
edge(36, 38).
edge(17, 48).
edge(25, 39).
edge(122, 145).
edge(96, 167).
edge(22, 63).
edge(51, 147).
edge(4, 136).
edge(105, 122).
edge(30, 84).
edge(49, 170).
edge(116, 176).
edge(122, 167).
edge(34, 163).
edge(39, 137).
edge(31, 122).
edge(9, 175).
edge(46, 106).
edge(139, 157).
edge(17, 133).
edge(147, 148).
edge(124, 164).
edge(74, 165).
edge(7, 164).
edge(27, 172).
edge(39, 141).
edge(71, 140).
edge(7, 176).
edge(83, 91).
edge(34, 114).
edge(28, 43).
edge(59, 166).
edge(102, 167).
edge(77, 157).
edge(55, 161).
edge(47, 168).
edge(87, 113).
edge(65, 173).
edge(22, 44).
edge(22, 122).
edge(10, 122).
edge(142, 159).
edge(79, 87).
edge(104, 146).
edge(8, 21).
edge(0, 105).
edge(68, 136).
edge(9, 107).
edge(127, 133).
edge(107, 172).
edge(5, 133).
edge(60, 131).
edge(35, 55).
edge(106, 124).
edge(55, 88).
edge(73, 130).
edge(45, 68).
edge(62, 128).
edge(122, 128).
edge(43, 83).
edge(154, 163).
edge(125, 139).
edge(69, 170).
edge(81, 132).
edge(17, 160).
edge(32, 136).
edge(111, 126).
edge(2, 4).
edge(0, 67).
edge(53, 121).
edge(33, 67).
edge(78, 90).
edge(7, 18).
edge(102, 137).
edge(20, 115).
edge(64, 90).
edge(21, 33).
edge(44, 56).
edge(61, 170).
edge(156, 168).
edge(19, 140).
edge(70, 132).
edge(11, 93).
edge(57, 114).
edge(13, 153).
edge(25, 89).
edge(42, 79).
edge(76, 133).
edge(54, 127).
edge(81, 99).
edge(102, 175).
edge(58, 65).
edge(23, 137).
edge(43, 157).
edge(65, 117).
edge(57, 170).
edge(6, 62).
edge(31, 84).
edge(30, 45).
edge(132, 135).
edge(23, 168).
edge(5, 46).
edge(36, 173).
edge(14, 110).
edge(50, 101).
edge(28, 159).
edge(29, 84).
edge(133, 152).
edge(26, 78).
edge(134, 168).
edge(73, 91).
edge(59, 109).
edge(5, 137).
edge(76, 143).
edge(34, 43).
edge(87, 92).
edge(7, 174).
edge(20, 69).
edge(152, 153).
edge(17, 42).
edge(65, 165).
edge(82, 160).
edge(84, 99).
edge(123, 176).
edge(132, 140).
edge(97, 119).
edge(124, 146).
edge(79, 86).
edge(49, 86).
edge(32, 43).
edge(9, 174).
edge(53, 62).
edge(13, 71).
edge(24, 28).
edge(85, 100).
edge(19, 108).
edge(123, 139).
edge(108, 165).
edge(12, 142).
edge(9, 131).
edge(44, 119).
edge(5, 45).
edge(135, 152).
edge(45, 101).
edge(11, 141).
edge(90, 117).
edge(35, 85).
edge(97, 168).
edge(41, 62).
edge(47, 133).
edge(48, 110).
edge(4, 41).
edge(111, 132).
edge(59, 117).
edge(166, 172).
edge(42, 81).
edge(22, 139).
edge(38, 84).
edge(132, 144).
edge(14, 118).
edge(71, 136).
edge(75, 171).
edge(17, 33).
edge(28, 127).
edge(61, 142).
edge(12, 15).
edge(28, 66).
edge(65, 171).
edge(79, 145).
edge(27, 50).
edge(9, 126).
edge(123, 126).
edge(115, 129).
edge(5, 117).
edge(53, 88).
edge(2, 113).
edge(49, 59).
edge(87, 115).
edge(123, 137).
edge(0, 124).
edge(28, 88).
edge(25, 155).
edge(44, 91).
edge(155, 168).
edge(9, 99).
edge(12, 107).
edge(40, 54).
edge(24, 81).
edge(100, 135).
edge(66, 98).
edge(73, 99).
edge(66, 109).
edge(31, 97).
edge(136, 162).
edge(109, 112).
edge(10, 103).
edge(13, 170).
edge(43, 167).
edge(102, 149).
edge(113, 162).
edge(156, 165).
edge(75, 102).
edge(30, 134).
edge(30, 37).
edge(17, 86).
edge(40, 100).
edge(92, 142).
edge(10, 81).
edge(26, 105).
edge(24, 86).
edge(84, 159).
edge(60, 70).
edge(103, 165).
edge(18, 77).
edge(42, 66).
edge(15, 128).
edge(50, 168).
edge(85, 112).
edge(26, 73).
edge(38, 165).
edge(32, 127).
edge(97, 165).
edge(84, 153).
edge(16, 171).
edge(34, 96).
edge(39, 100).
edge(16, 24).
edge(81, 88).
edge(41, 91).
edge(11, 114).
edge(86, 101).
edge(25, 141).
edge(144, 154).
edge(19, 31).
edge(16, 118).
edge(83, 144).
edge(20, 176).
edge(141, 176).
edge(58, 60).
edge(48, 165).
edge(17, 115).
edge(113, 173).
edge(72, 160).
edge(94, 173).
edge(61, 178).
edge(112, 155).
edge(133, 172).
edge(35, 162).
edge(5, 33).
edge(94, 144).
edge(79, 148).
edge(15, 165).
edge(45, 79).
edge(75, 101).
edge(19, 87).
edge(90, 110).
edge(32, 178).
edge(41, 102).
edge(12, 72).
edge(62, 174).
edge(48, 93).
edge(42, 64).
edge(107, 167).
edge(92, 138).
edge(8, 20).
edge(95, 151).
edge(2, 65).
edge(134, 149).
edge(66, 122).
edge(14, 121).
edge(46, 47).
edge(25, 51).
edge(115, 156).
edge(3, 74).
edge(59, 177).
edge(0, 17).
edge(94, 175).
edge(17, 90).
edge(2, 128).
edge(68, 168).
edge(11, 121).
edge(40, 47).
edge(153, 164).
edge(93, 149).
edge(20, 89).
edge(28, 105).
edge(18, 34).
edge(100, 132).
edge(45, 75).
edge(37, 167).
edge(9, 16).
edge(85, 121).
edge(97, 142).
edge(47, 113).
edge(35, 136).
edge(1, 82).
edge(101, 146).
edge(26, 136).
edge(27, 33).
edge(37, 161).
edge(119, 120).
edge(13, 112).
edge(37, 119).
edge(7, 122).
edge(109, 141).
edge(33, 164).
edge(49, 100).
edge(92, 112).
edge(101, 128).
edge(1, 45).
edge(7, 24).
edge(61, 83).
edge(78, 156).
edge(13, 101).
edge(77, 152).
edge(100, 118).
edge(55, 87).
edge(86, 155).
edge(93, 106).
edge(10, 30).
edge(88, 97).
edge(151, 161).
edge(35, 137).
edge(23, 151).
edge(30, 82).
edge(26, 34).
edge(52, 69).
edge(34, 123).
edge(42, 162).
edge(19, 26).
edge(173, 176).
edge(122, 175).
edge(112, 176).
edge(93, 166).
edge(70, 77).
edge(153, 155).
edge(0, 34).
edge(84, 171).
edge(86, 134).
edge(28, 140).
edge(122, 157).
edge(7, 46).
edge(25, 81).
edge(125, 138).
edge(43, 133).
edge(156, 172).
edge(11, 63).
edge(26, 54).
edge(49, 175).
edge(40, 149).
edge(84, 123).
edge(12, 36).
edge(58, 146).
edge(91, 95).
edge(5, 108).
edge(86, 105).
edge(30, 146).
edge(88, 134).
edge(12, 64).
edge(61, 158).
edge(24, 44).
edge(99, 103).
edge(38, 166).
edge(62, 120).
edge(29, 121).
edge(130, 145).
edge(91, 168).
edge(0, 26).
edge(123, 142).
edge(51, 145).
edge(99, 124).
edge(4, 57).
edge(107, 162).
edge(44, 76).
edge(74, 128).
edge(73, 124).
edge(27, 110).
edge(47, 78).
edge(148, 172).
edge(104, 114).
edge(2, 150).
edge(65, 99).
edge(52, 71).
edge(120, 143).
edge(31, 117).
edge(23, 56).
edge(75, 169).
edge(5, 92).
edge(9, 149).
edge(0, 103).
edge(66, 149).
edge(119, 144).
edge(89, 119).
edge(61, 114).
edge(109, 161).
edge(30, 87).
edge(94, 117).
edge(105, 145).
edge(47, 49).
edge(77, 128).
edge(14, 64).
edge(37, 153).
edge(93, 114).
edge(100, 101).
edge(116, 156).
edge(145, 152).
edge(0, 1).
edge(14, 51).
edge(168, 176).
edge(16, 153).
edge(23, 51).
edge(30, 60).
edge(3, 53).
edge(70, 129).
edge(71, 160).
edge(86, 176).
edge(90, 169).
edge(94, 140).
edge(148, 177).
edge(26, 49).
edge(149, 175).
edge(80, 91).
edge(83, 171).
edge(103, 157).
edge(152, 163).
edge(39, 58).
edge(173, 175).
edge(39, 177).
edge(123, 167).
edge(52, 156).
edge(24, 77).
edge(99, 108).
edge(32, 51).
edge(87, 173).
edge(42, 46).
edge(35, 173).
edge(64, 80).
edge(34, 133).
edge(76, 172).
edge(66, 72).
edge(17, 158).
edge(117, 155).
edge(101, 117).
edge(112, 118).
edge(56, 126).
edge(34, 107).
edge(45, 164).
edge(119, 136).
edge(17, 102).
edge(3, 148).
edge(30, 127).
edge(106, 139).
edge(13, 98).
edge(25, 35).
edge(11, 170).
edge(16, 47).
edge(127, 169).
edge(39, 73).
edge(151, 168).
edge(6, 158).
edge(32, 69).
edge(131, 172).
edge(22, 176).
edge(0, 5).
edge(92, 137).
edge(20, 132).
edge(156, 160).
edge(67, 98).
edge(34, 169).
edge(33, 169).
edge(66, 114).
edge(147, 160).
edge(91, 136).
edge(71, 122).
edge(86, 96).
edge(86, 160).
edge(90, 130).
edge(84, 154).
edge(41, 124).
edge(123, 151).
edge(33, 170).
edge(31, 147).
edge(60, 144).
edge(111, 163).
edge(108, 160).
edge(9, 72).
edge(50, 77).
edge(112, 124).
edge(13, 40).
edge(90, 134).
edge(143, 174).
edge(2, 95).
edge(53, 172).
edge(43, 80).
edge(8, 66).
edge(74, 134).
edge(48, 175).
edge(32, 142).
edge(122, 138).
edge(23, 118).
edge(84, 172).
edge(51, 130).
edge(52, 72).
edge(156, 177).
edge(3, 18).
edge(60, 86).
edge(22, 153).
edge(12, 39).
edge(22, 147).
edge(76, 89).
edge(70, 118).
edge(74, 178).
edge(50, 54).
edge(64, 70).
edge(67, 166).
edge(40, 59).
edge(60, 146).
edge(107, 126).
edge(76, 103).
edge(134, 142).
edge(8, 116).
edge(119, 168).
edge(125, 171).
edge(70, 119).
edge(55, 76).
edge(106, 127).
edge(103, 159).
edge(79, 150).
edge(54, 165).
edge(110, 165).
edge(96, 126).
edge(54, 156).
edge(18, 146).
edge(137, 174).
edge(23, 48).
edge(66, 71).
edge(79, 94).
edge(54, 92).
edge(13, 38).
edge(98, 129).
edge(105, 144).
edge(36, 166).
edge(44, 131).
edge(71, 165).
edge(45, 94).
edge(31, 156).
edge(87, 168).
edge(32, 81).
edge(68, 153).
edge(87, 149).
edge(49, 107).
edge(129, 150).
edge(63, 156).
edge(46, 130).
edge(41, 145).
edge(20, 162).
edge(99, 152).
edge(21, 71).
edge(43, 112).
edge(102, 108).
edge(30, 50).
edge(62, 113).
edge(5, 151).
edge(51, 110).
edge(41, 59).
edge(56, 114).
edge(12, 147).
edge(56, 132).
edge(137, 175).
edge(0, 40).
edge(46, 53).
edge(104, 161).
edge(85, 96).
edge(49, 151).
edge(93, 163).
edge(39, 153).
edge(16, 138).
edge(64, 119).
edge(111, 150).
edge(136, 156).
edge(36, 104).
edge(8, 124).
edge(16, 65).
edge(91, 100).
edge(0, 62).
edge(11, 65).
edge(63, 167).
edge(3, 47).
edge(5, 27).
edge(57, 162).
edge(63, 160).
edge(38, 110).
edge(43, 129).
edge(28, 78).
edge(66, 86).
edge(31, 109).
edge(92, 141).
edge(66, 176).
edge(25, 124).
edge(72, 143).
edge(48, 178).
edge(81, 117).
edge(24, 59).
edge(149, 165).
edge(60, 81).
edge(132, 156).
edge(51, 99).
edge(12, 174).
edge(42, 67).
edge(26, 166).
edge(158, 176).
edge(116, 145).
edge(113, 135).
edge(77, 111).
edge(65, 90).
edge(33, 119).
edge(5, 115).
edge(36, 45).
edge(102, 105).
edge(1, 142).
edge(27, 42).
edge(0, 25).
edge(97, 118).
edge(24, 147).
edge(124, 163).
edge(165, 166).
edge(19, 20).
edge(67, 167).
edge(90, 145).
edge(56, 162).
edge(34, 144).
edge(39, 160).
edge(118, 138).
edge(120, 121).
edge(43, 114).
edge(22, 85).
edge(91, 124).
edge(18, 45).
edge(164, 165).
edge(35, 156).
edge(56, 120).
edge(75, 158).
edge(53, 119).
edge(7, 13).
edge(126, 146).
edge(17, 97).
edge(101, 115).
edge(150, 176).
edge(43, 132).
edge(63, 71).
edge(124, 145).
edge(102, 141).
edge(101, 119).
edge(34, 38).
edge(44, 104).
edge(144, 167).
edge(25, 96).
edge(29, 170).
edge(4, 98).
edge(28, 126).
edge(44, 65).
edge(76, 145).
edge(134, 139).
edge(32, 52).
edge(64, 151).
edge(115, 165).
edge(30, 115).
edge(135, 176).
edge(46, 114).
edge(46, 79).
edge(29, 110).
edge(68, 140).
edge(2, 75).
edge(52, 115).
edge(17, 73).
edge(46, 166).
edge(4, 25).
edge(54, 118).
edge(35, 39).
edge(138, 163).
edge(11, 175).
edge(38, 54).
edge(54, 78).
edge(91, 113).
edge(40, 72).
edge(67, 70).
edge(90, 94).
edge(13, 77).
edge(8, 152).
edge(5, 129).
edge(14, 70).
edge(13, 52).
edge(13, 109).
edge(124, 158).
edge(37, 46).
edge(33, 128).
edge(18, 170).
edge(7, 51).
edge(23, 65).
edge(23, 167).
edge(53, 109).
edge(136, 152).
edge(11, 161).
edge(118, 171).
edge(124, 165).
edge(118, 165).
edge(29, 164).
edge(43, 117).
edge(22, 49).
edge(68, 90).
edge(1, 173).
edge(95, 147).
edge(32, 68).
edge(16, 111).
edge(100, 119).
edge(66, 127).
edge(16, 157).
edge(90, 100).
edge(0, 141).
edge(8, 109).
edge(21, 164).
edge(60, 136).
edge(68, 103).
edge(85, 95).
edge(73, 115).
edge(47, 172).
edge(30, 43).
edge(7, 131).
edge(39, 148).
edge(78, 87).
edge(76, 167).
edge(133, 158).
edge(83, 139).
edge(28, 113).
edge(64, 169).
edge(46, 126).
edge(75, 149).
edge(77, 87).
edge(20, 21).
edge(51, 155).
edge(11, 26).
edge(88, 91).
edge(92, 94).
edge(61, 122).
edge(115, 132).
edge(6, 40).
edge(72, 74).
edge(11, 22).
edge(49, 51).
edge(92, 161).
edge(55, 68).
edge(49, 102).
edge(46, 61).
edge(112, 167).
edge(84, 173).
edge(89, 175).
edge(74, 177).
edge(5, 154).
edge(12, 42).
edge(18, 19).
edge(93, 103).
edge(3, 111).
edge(162, 176).
edge(42, 69).
edge(51, 176).
edge(94, 109).
edge(123, 165).
edge(27, 65).
edge(0, 146).
edge(96, 110).
edge(34, 74).
edge(37, 178).
edge(6, 120).
edge(71, 158).
edge(55, 158).
edge(99, 148).
edge(8, 127).
edge(74, 119).
edge(1, 57).
edge(88, 153).
edge(25, 172).
edge(64, 162).
edge(0, 139).
edge(26, 161).
edge(106, 177).
edge(48, 111).
edge(79, 124).
edge(52, 142).
edge(36, 92).
edge(60, 79).
edge(150, 166).
edge(27, 151).
edge(79, 107).
edge(98, 112).
edge(1, 71).
edge(98, 163).
edge(125, 126).
edge(10, 127).
edge(96, 115).
edge(62, 87).
edge(63, 124).
edge(17, 122).
edge(73, 153).
edge(156, 164).
edge(144, 161).
edge(89, 126).
edge(23, 150).
edge(57, 124).
edge(68, 162).
edge(15, 57).
edge(1, 134).
edge(25, 66).
edge(43, 164).
edge(39, 176).
edge(46, 89).
edge(53, 71).
edge(8, 95).
edge(42, 154).
edge(154, 155).
edge(29, 78).
edge(89, 145).
edge(33, 159).
edge(94, 132).
edge(116, 137).
edge(34, 59).
edge(45, 96).
edge(10, 112).
edge(51, 133).
edge(25, 119).
edge(53, 86).
edge(57, 126).
edge(112, 162).
edge(32, 85).
edge(84, 128).
edge(135, 145).
edge(70, 92).
edge(106, 163).
edge(21, 172).
edge(6, 14).
edge(65, 149).
edge(11, 136).
edge(3, 114).
edge(50, 159).
edge(45, 121).
edge(19, 24).
edge(120, 171).
edge(31, 164).
edge(4, 58).
edge(95, 146).
edge(69, 114).
edge(24, 91).
edge(12, 144).
edge(58, 102).
edge(71, 169).
edge(158, 167).
edge(42, 158).
edge(106, 149).
edge(141, 153).
edge(46, 88).
edge(27, 53).
edge(44, 121).
edge(68, 94).
edge(107, 146).
edge(66, 156).
edge(64, 85).
edge(22, 62).
edge(19, 146).
edge(120, 150).
edge(10, 176).
edge(124, 157).
edge(14, 159).
edge(147, 166).
edge(4, 67).
edge(56, 119).
edge(20, 155).
edge(82, 85).
edge(11, 44).
edge(133, 157).
edge(46, 51).
edge(39, 92).
edge(27, 150).
edge(57, 144).
edge(105, 168).
edge(130, 166).
edge(34, 171).
edge(22, 92).
edge(69, 118).
edge(74, 123).
edge(125, 168).
edge(115, 149).
edge(7, 135).
edge(35, 139).
edge(44, 146).
edge(67, 149).
edge(30, 112).
edge(63, 117).
edge(76, 163).
edge(44, 140).
edge(70, 88).
edge(90, 157).
edge(44, 64).
edge(2, 139).
edge(110, 117).
edge(14, 29).
edge(2, 102).
edge(7, 117).
edge(93, 151).
edge(88, 167).
edge(68, 166).
edge(33, 85).
edge(36, 91).
edge(27, 165).
edge(8, 33).
edge(15, 72).
edge(9, 121).
edge(18, 157).
edge(65, 73).
edge(129, 132).
edge(11, 58).
edge(109, 150).
edge(82, 120).
edge(48, 156).
edge(48, 87).
edge(83, 127).
edge(54, 129).
edge(78, 162).
edge(42, 175).
edge(38, 173).
edge(127, 177).
edge(5, 65).
edge(118, 168).
edge(18, 55).
edge(53, 56).
edge(26, 104).
edge(86, 141).
edge(27, 130).
edge(78, 84).
edge(43, 153).
edge(4, 151).
edge(117, 168).
edge(17, 79).
edge(44, 77).
edge(11, 20).
edge(110, 113).
edge(85, 160).
edge(20, 97).
edge(6, 124).
edge(23, 113).
edge(108, 149).
edge(81, 164).
edge(63, 105).
edge(0, 178).
edge(72, 174).
edge(127, 144).
edge(23, 146).
edge(101, 174).
edge(6, 67).
edge(62, 138).
edge(37, 132).
edge(18, 134).
edge(69, 84).
edge(66, 81).
edge(8, 77).
edge(68, 116).
edge(82, 177).
edge(56, 127).
edge(7, 137).
edge(33, 35).
edge(80, 167).
edge(101, 133).
edge(132, 136).
edge(77, 93).
edge(13, 69).
edge(12, 119).
edge(47, 130).
edge(21, 122).
edge(66, 174).
edge(85, 162).
edge(3, 7).
edge(22, 126).
edge(35, 130).
edge(6, 69).
edge(14, 125).
edge(25, 50).
edge(157, 158).
edge(16, 42).
edge(91, 133).
edge(49, 162).
edge(26, 69).
edge(91, 98).
edge(8, 37).
edge(10, 21).
edge(19, 144).
edge(43, 100).
edge(73, 138).
edge(21, 112).
edge(64, 122).
edge(69, 126).
edge(82, 144).
edge(13, 167).
edge(26, 137).
edge(75, 148).
edge(61, 78).
edge(142, 157).
edge(69, 137).
edge(63, 133).
edge(33, 63).
edge(60, 110).
edge(20, 113).
edge(131, 160).
edge(148, 155).
edge(99, 114).
edge(98, 116).
edge(39, 175).
edge(10, 123).
edge(59, 60).
edge(1, 13).
edge(98, 164).
edge(17, 161).
edge(30, 67).
edge(104, 121).
edge(38, 61).
edge(0, 148).
edge(14, 146).
edge(116, 165).
edge(63, 151).
edge(172, 178).
edge(15, 105).
edge(74, 115).
edge(35, 161).
edge(37, 126).
edge(42, 49).
edge(46, 152).
edge(128, 160).
edge(31, 83).
edge(138, 178).
edge(30, 122).
edge(138, 171).
edge(113, 169).
edge(63, 114).
edge(13, 148).
edge(100, 131).
edge(129, 169).
edge(12, 167).
edge(24, 98).
edge(111, 174).
edge(31, 116).
edge(52, 108).
edge(93, 153).
edge(54, 64).
edge(24, 168).
edge(9, 65).
edge(65, 172).
edge(28, 99).
edge(103, 110).
edge(13, 156).
edge(39, 154).
edge(41, 107).
edge(41, 103).
edge(48, 71).
edge(74, 150).
edge(102, 113).
edge(111, 136).
edge(42, 58).
edge(27, 132).
edge(16, 33).
edge(82, 157).
edge(47, 134).
edge(24, 116).
edge(142, 176).
edge(122, 141).
edge(97, 133).
edge(36, 154).
edge(32, 119).
edge(6, 99).
edge(61, 116).
edge(103, 130).
edge(87, 141).
edge(111, 146).
edge(27, 29).
edge(23, 98).
edge(10, 89).
edge(55, 139).
edge(43, 138).
edge(148, 150).
edge(39, 133).
edge(15, 151).
edge(141, 174).
edge(32, 72).
edge(116, 166).
edge(115, 121).
edge(48, 127).
edge(47, 146).
edge(8, 172).
edge(69, 141).
edge(33, 100).
edge(127, 145).
edge(28, 98).
edge(91, 130).
edge(78, 112).
edge(168, 178).
edge(71, 80).
edge(106, 166).
edge(20, 48).
edge(81, 173).
edge(108, 159).
edge(88, 160).
edge(93, 96).
edge(84, 89).
edge(45, 74).
edge(32, 45).
edge(21, 150).
edge(105, 112).
edge(21, 101).
edge(12, 140).
edge(10, 65).
edge(37, 156).
edge(14, 164).
edge(9, 172).
edge(55, 177).
edge(98, 176).
edge(94, 153).
edge(17, 23).
edge(157, 172).
edge(55, 136).
edge(45, 112).
edge(14, 79).
edge(12, 37).
edge(2, 72).
edge(33, 166).
edge(78, 82).
edge(3, 160).
edge(94, 163).
edge(87, 145).
edge(7, 133).
edge(106, 114).
edge(161, 178).
edge(49, 66).
edge(15, 82).
edge(43, 140).
edge(155, 157).
edge(78, 148).
edge(68, 164).
edge(91, 94).
edge(21, 29).
edge(10, 110).
edge(35, 78).
edge(129, 147).
edge(16, 159).
edge(75, 122).
edge(19, 56).
edge(15, 176).
edge(0, 21).
edge(85, 161).
edge(58, 77).
edge(16, 64).
edge(38, 75).
edge(103, 172).
edge(84, 135).
edge(47, 138).
edge(31, 95).
edge(71, 78).
edge(50, 61).
edge(97, 167).
edge(58, 158).
edge(29, 63).
edge(51, 52).
edge(61, 67).
edge(10, 29).
edge(32, 67).
edge(40, 80).
edge(76, 139).
edge(46, 90).
edge(3, 76).
edge(4, 134).
edge(70, 72).
edge(89, 105).
edge(109, 129).
edge(70, 155).
edge(25, 112).
edge(7, 125).
edge(0, 170).
edge(28, 176).
edge(103, 160).
edge(98, 102).
edge(14, 75).
edge(79, 136).
edge(53, 67).
edge(9, 176).
edge(111, 137).
edge(16, 76).
edge(135, 138).
edge(97, 139).
edge(43, 87).
edge(166, 175).
edge(95, 132).
edge(45, 152).
edge(36, 102).
edge(52, 123).
edge(25, 59).
edge(143, 167).
edge(1, 86).
edge(0, 109).
edge(116, 130).
edge(79, 83).
edge(25, 120).
edge(148, 169).
edge(125, 172).
edge(128, 175).
edge(54, 89).
edge(60, 174).
edge(74, 109).
edge(62, 75).
edge(11, 77).
edge(31, 82).
edge(8, 140).
edge(130, 160).
edge(88, 138).
edge(78, 166).
edge(100, 147).
edge(149, 156).
edge(78, 80).
edge(20, 33).
edge(44, 58).
edge(55, 73).
edge(2, 50).
edge(16, 108).
edge(84, 120).
edge(4, 55).
edge(27, 69).
edge(20, 131).
edge(58, 97).
edge(51, 167).
edge(132, 177).
edge(122, 126).
edge(42, 74).
edge(133, 139).
edge(5, 47).
edge(20, 121).
edge(2, 49).
edge(4, 74).
edge(137, 159).
edge(20, 54).
edge(104, 142).
edge(91, 149).
edge(78, 174).
edge(40, 77).
edge(34, 48).
edge(129, 162).
edge(55, 72).
edge(117, 123).
edge(56, 63).
edge(44, 99).
edge(61, 62).
edge(12, 87).
edge(57, 91).
edge(52, 178).
edge(42, 77).
edge(73, 127).
edge(129, 178).
edge(47, 143).
edge(152, 164).
edge(36, 127).
edge(88, 121).
edge(2, 19).
edge(59, 99).
edge(166, 176).
edge(64, 166).
edge(23, 139).
edge(12, 152).
edge(61, 162).
edge(89, 109).
edge(4, 170).
edge(32, 112).
edge(109, 135).
edge(8, 53).
edge(47, 96).
edge(84, 119).
edge(12, 29).
edge(129, 148).
edge(40, 61).
edge(88, 125).
edge(52, 104).
edge(9, 145).
edge(63, 95).
edge(18, 56).
edge(78, 163).
edge(146, 163).
edge(54, 128).
edge(100, 134).
edge(3, 178).
edge(32, 121).
edge(40, 98).
edge(12, 91).
edge(6, 60).
edge(15, 67).
edge(23, 36).
edge(8, 74).
edge(107, 158).
edge(111, 112).
edge(71, 155).
edge(71, 125).
edge(79, 106).
edge(61, 132).
edge(8, 157).
edge(145, 169).
edge(3, 35).
edge(83, 119).
edge(17, 136).
edge(110, 119).
edge(31, 140).
edge(0, 16).
edge(3, 125).
edge(13, 161).
edge(3, 137).
edge(24, 131).
edge(62, 107).
edge(18, 109).
edge(149, 174).
edge(12, 112).
edge(52, 113).
edge(43, 134).
edge(136, 144).
edge(61, 93).
edge(53, 150).
edge(45, 156).
edge(90, 173).
edge(144, 145).
edge(79, 99).
edge(52, 171).
edge(145, 168).
edge(70, 90).
edge(122, 172).
edge(77, 162).
edge(134, 172).
edge(63, 161).
edge(99, 139).
edge(73, 173).
edge(73, 79).
edge(12, 98).
edge(69, 167).
edge(79, 143).
edge(21, 80).
edge(67, 178).
edge(9, 97).
edge(66, 91).
edge(35, 63).
edge(15, 177).
edge(18, 130).
edge(41, 78).
edge(79, 119).
edge(100, 103).
edge(10, 45).
edge(59, 157).
edge(52, 88).
edge(18, 66).
edge(62, 134).
edge(88, 103).
edge(7, 52).
edge(109, 172).
edge(65, 116).
edge(115, 122).
edge(96, 106).
edge(114, 178).
edge(55, 176).
edge(66, 162).
edge(8, 25).
edge(27, 60).
edge(23, 106).
edge(106, 118).
edge(17, 151).
edge(18, 90).
edge(22, 31).
edge(122, 146).
edge(88, 104).
edge(39, 130).
edge(62, 64).
edge(60, 147).
edge(4, 169).
edge(119, 130).
edge(11, 164).
edge(23, 81).
edge(95, 136).
edge(30, 94).
edge(15, 53).
edge(27, 79).
edge(29, 31).
edge(75, 88).
edge(72, 167).
edge(44, 128).
edge(26, 40).
edge(34, 42).
edge(3, 152).
edge(10, 82).
edge(23, 33).
edge(15, 97).
edge(28, 138).
edge(90, 121).
edge(151, 159).
edge(78, 141).
edge(75, 151).
edge(72, 119).
edge(143, 154).
edge(39, 68).
edge(26, 169).
edge(10, 148).
edge(56, 109).
edge(99, 116).
edge(90, 98).
edge(21, 34).
edge(23, 127).
edge(65, 133).
edge(108, 158).
edge(92, 148).
edge(82, 165).
edge(86, 129).
edge(167, 176).
edge(104, 123).
edge(45, 91).
edge(46, 161).
edge(42, 106).
edge(24, 51).
edge(67, 81).
edge(166, 169).
edge(125, 134).
edge(74, 87).
edge(104, 152).
edge(63, 78).
edge(121, 125).
edge(1, 58).
edge(26, 44).
edge(6, 55).
edge(143, 176).
edge(20, 135).
edge(22, 178).
edge(6, 102).
edge(108, 163).
edge(11, 143).
edge(138, 150).
edge(148, 156).
edge(42, 164).
edge(120, 138).
edge(74, 152).
edge(119, 151).
edge(133, 175).
edge(33, 91).
edge(14, 111).
edge(91, 104).
edge(60, 97).
edge(13, 57).
edge(90, 146).
edge(21, 74).
edge(85, 97).
edge(20, 46).
edge(10, 139).
edge(33, 127).
edge(128, 148).
edge(13, 82).
edge(6, 24).
edge(78, 120).
edge(77, 118).
edge(114, 170).
edge(25, 149).
edge(73, 81).
edge(103, 106).
edge(6, 117).
edge(116, 121).
edge(2, 106).
edge(77, 161).
edge(83, 169).
edge(30, 102).
edge(33, 97).
edge(116, 128).
edge(23, 45).
edge(29, 172).
edge(41, 51).
edge(32, 161).
edge(43, 147).
edge(32, 44).
edge(13, 73).
edge(161, 172).
edge(91, 127).
edge(95, 120).
edge(47, 155).
edge(92, 164).
edge(157, 178).
edge(38, 107).
edge(11, 33).
edge(67, 103).
edge(33, 58).
edge(73, 114).
edge(118, 152).
edge(4, 40).
edge(25, 45).
edge(98, 128).
edge(57, 87).
edge(63, 103).
edge(12, 143).
edge(18, 115).
edge(14, 175).
edge(7, 129).
edge(28, 39).
edge(95, 148).
edge(3, 107).
edge(128, 151).
edge(84, 127).
edge(10, 57).
edge(74, 129).
edge(51, 172).
edge(9, 161).
edge(164, 172).
edge(63, 112).
edge(63, 76).
edge(58, 140).
edge(3, 4).
edge(18, 78).
edge(68, 115).
edge(44, 69).
edge(50, 121).
edge(9, 93).
edge(80, 87).
edge(139, 158).
edge(77, 88).
edge(78, 100).
edge(51, 100).
edge(50, 82).
edge(64, 114).
edge(48, 138).
edge(35, 44).
edge(3, 163).
edge(86, 123).
edge(8, 158).
edge(84, 111).
edge(31, 85).
edge(37, 130).
edge(37, 152).
edge(21, 120).
edge(27, 67).
edge(141, 156).
edge(15, 39).
edge(52, 163).
edge(12, 137).
edge(11, 132).
edge(23, 173).
edge(67, 135).
edge(14, 104).
edge(7, 45).
edge(43, 163).
edge(17, 150).
edge(21, 40).
edge(38, 39).
edge(59, 165).
edge(3, 34).
edge(154, 176).
edge(8, 54).
edge(62, 131).
edge(92, 101).
edge(88, 140).
edge(16, 35).
edge(43, 59).
edge(69, 174).
edge(0, 70).
edge(39, 91).
edge(138, 148).
edge(47, 149).
edge(123, 154).
edge(107, 174).
edge(49, 88).
edge(11, 159).
edge(6, 141).
edge(49, 156).
edge(109, 152).
edge(120, 148).
edge(34, 41).
edge(5, 156).
edge(43, 135).
edge(82, 137).
edge(109, 168).
edge(147, 175).
edge(2, 11).
edge(47, 91).
edge(163, 164).
edge(17, 45).
edge(115, 140).
edge(76, 99).
edge(24, 133).
edge(53, 103).
edge(122, 125).
edge(33, 153).
edge(59, 172).
edge(88, 101).
edge(50, 96).
edge(92, 127).
edge(6, 30).
edge(73, 140).
edge(65, 163).
edge(19, 83).
edge(0, 115).
edge(62, 70).
edge(77, 178).
edge(77, 115).
edge(99, 127).
edge(107, 113).
edge(52, 139).
edge(33, 39).
edge(33, 175).
edge(78, 175).
edge(4, 150).
edge(99, 123).
edge(17, 77).
edge(67, 72).
edge(0, 157).
edge(38, 133).
edge(63, 168).
edge(109, 156).
edge(24, 84).
edge(15, 155).
edge(20, 95).
edge(55, 70).
edge(158, 175).
edge(36, 65).
edge(37, 54).
edge(26, 67).
edge(97, 169).
edge(39, 156).
edge(53, 91).
edge(59, 130).
edge(62, 135).
edge(30, 99).
edge(118, 166).
edge(41, 86).
edge(73, 109).
edge(78, 170).
edge(52, 121).
edge(51, 56).
edge(13, 86).
edge(50, 171).
edge(58, 86).
edge(91, 114).
edge(3, 44).
edge(54, 169).
edge(65, 164).
edge(76, 136).
edge(1, 78).
edge(61, 161).
edge(2, 104).
edge(78, 79).
edge(66, 100).
edge(84, 165).
edge(12, 155).
edge(93, 97).
edge(150, 169).
edge(9, 114).
edge(25, 109).
edge(27, 76).
edge(33, 107).
edge(83, 136).
edge(3, 83).
edge(105, 136).
edge(7, 166).
edge(39, 127).
edge(19, 134).
edge(11, 146).
edge(86, 103).
edge(37, 135).
edge(100, 162).
edge(5, 94).
edge(12, 146).
edge(29, 67).
edge(41, 45).
edge(5, 147).
edge(31, 57).
edge(13, 160).
edge(83, 89).
edge(4, 13).
edge(101, 112).
edge(12, 114).
edge(32, 111).
edge(80, 140).
edge(94, 176).
edge(57, 80).
edge(27, 117).
edge(30, 54).
edge(14, 55).
edge(81, 97).
edge(35, 51).
edge(32, 177).
edge(33, 104).
edge(13, 106).
edge(60, 128).
edge(94, 131).
edge(110, 150).
edge(14, 128).
edge(32, 156).
edge(13, 35).
edge(24, 43).
edge(45, 71).
edge(63, 171).
edge(111, 149).
edge(123, 128).
edge(10, 172).
edge(138, 165).
edge(118, 122).
edge(48, 88).
edge(30, 169).
edge(69, 75).
edge(67, 75).
edge(51, 109).
edge(18, 178).
edge(14, 136).
edge(70, 166).
edge(67, 174).
edge(110, 171).
edge(134, 162).
edge(1, 72).
edge(27, 174).
edge(26, 118).
edge(75, 168).
edge(2, 141).
edge(43, 149).
edge(108, 157).
edge(97, 171).
edge(7, 67).
edge(19, 152).
edge(113, 122).
edge(41, 160).
edge(106, 162).
edge(96, 135).
edge(10, 104).
edge(100, 160).
edge(29, 42).
edge(71, 109).
edge(111, 118).
edge(14, 32).
edge(24, 89).
edge(23, 89).
edge(27, 113).
edge(105, 163).
edge(73, 93).
edge(53, 154).
edge(36, 176).
edge(45, 157).
edge(75, 123).
edge(143, 173).
edge(47, 111).
edge(46, 83).
edge(81, 90).
edge(5, 146).
edge(130, 174).
edge(21, 131).
edge(84, 157).
edge(16, 167).
edge(62, 140).
edge(168, 172).
edge(2, 103).
edge(21, 54).
edge(0, 95).
edge(2, 44).
edge(73, 144).
edge(112, 116).
edge(1, 48).
edge(71, 114).
edge(11, 85).
edge(29, 70).
edge(78, 103).
edge(71, 73).
edge(41, 44).
edge(53, 166).
edge(52, 130).
edge(109, 121).
edge(65, 162).
edge(138, 175).
edge(76, 108).
edge(160, 178).
edge(47, 112).
edge(38, 94).
edge(44, 49).
edge(31, 144).
edge(0, 4).
edge(49, 150).
edge(53, 105).
edge(63, 135).
edge(148, 149).
edge(10, 90).
edge(149, 153).
edge(76, 149).
edge(29, 112).
edge(49, 113).
edge(28, 40).
edge(24, 139).
edge(39, 95).
edge(3, 62).
edge(107, 154).
edge(75, 103).
edge(4, 105).
edge(115, 160).
edge(85, 111).
edge(144, 173).
edge(95, 153).
edge(83, 157).
edge(115, 168).
edge(19, 132).
edge(58, 59).
edge(30, 172).
edge(67, 108).
edge(6, 90).
edge(96, 166).
edge(75, 139).
edge(54, 172).
edge(174, 178).
edge(0, 135).
edge(62, 161).
edge(118, 128).
edge(38, 118).
edge(145, 164).
edge(32, 108).
edge(58, 88).
edge(5, 44).
edge(46, 84).
edge(154, 168).
edge(50, 164).
edge(31, 130).
edge(30, 95).
edge(33, 139).
edge(56, 158).
edge(88, 102).
edge(65, 83).
edge(11, 162).
edge(145, 177).
edge(45, 116).
edge(0, 171).
edge(38, 49).
edge(124, 159).
edge(72, 92).
edge(114, 134).
edge(100, 133).
edge(113, 139).
edge(5, 14).
edge(75, 85).
edge(125, 162).
edge(24, 52).
edge(144, 178).
edge(2, 76).
edge(99, 167).
edge(129, 144).
edge(46, 98).
edge(6, 92).
edge(148, 173).
edge(76, 80).
edge(130, 164).
edge(26, 176).
edge(115, 154).
edge(63, 73).
edge(46, 111).
edge(2, 165).
edge(97, 157).
edge(72, 157).
edge(31, 153).
edge(134, 137).
edge(18, 162).
edge(61, 123).
edge(60, 154).
edge(108, 130).
edge(83, 178).
edge(106, 140).
edge(21, 123).
edge(41, 68).
edge(10, 151).
edge(21, 117).
edge(26, 155).
edge(164, 171).
edge(7, 148).
edge(11, 39).
edge(16, 31).
edge(21, 27).
edge(59, 68).
edge(35, 176).
edge(110, 156).
edge(98, 113).
edge(125, 163).
edge(66, 101).
edge(97, 170).
edge(36, 109).
edge(43, 159).
edge(109, 174).
edge(151, 160).
edge(51, 119).
edge(4, 132).
edge(3, 134).
edge(69, 87).
edge(15, 111).
edge(50, 125).
edge(57, 76).
edge(24, 105).
edge(11, 97).
edge(36, 90).
edge(5, 64).
edge(96, 114).
edge(55, 131).
edge(108, 116).
edge(13, 72).
edge(5, 75).
edge(101, 144).
edge(86, 148).
edge(39, 62).
edge(47, 177).
edge(6, 126).
edge(78, 131).
edge(6, 98).
edge(32, 59).
edge(109, 120).
edge(88, 112).
edge(10, 28).
edge(60, 121).
edge(42, 163).
edge(57, 143).
edge(108, 141).
edge(19, 57).
edge(54, 126).
edge(126, 133).
edge(14, 162).
edge(17, 123).
edge(6, 170).
edge(122, 132).
edge(85, 157).
edge(4, 48).
edge(148, 175).
edge(114, 156).
edge(1, 131).
edge(17, 47).
edge(132, 168).
edge(19, 105).
edge(114, 168).
edge(91, 126).
edge(8, 162).
edge(123, 127).
edge(43, 120).
edge(31, 99).
edge(78, 143).
edge(79, 88).
edge(150, 164).
edge(46, 173).
edge(15, 20).
edge(83, 130).
edge(4, 5).
edge(108, 153).
edge(13, 110).
edge(26, 60).
edge(130, 159).
edge(30, 109).
edge(65, 146).
edge(99, 105).
edge(111, 119).
edge(114, 138).
edge(9, 105).
edge(59, 116).
edge(130, 163).
edge(49, 129).
edge(51, 162).
edge(25, 169).
edge(66, 172).
edge(30, 129).
edge(7, 103).
edge(46, 109).
edge(16, 73).
edge(44, 62).
edge(75, 127).
edge(49, 152).
edge(71, 173).
edge(36, 52).
edge(24, 83).
edge(117, 143).
edge(11, 32).
edge(93, 100).
edge(18, 24).
edge(124, 143).
edge(17, 74).
edge(53, 178).
edge(7, 171).
edge(68, 109).
edge(3, 94).
edge(43, 151).
edge(31, 39).
edge(7, 58).
edge(37, 122).
edge(11, 64).
edge(8, 49).
edge(64, 148).
edge(4, 160).
edge(20, 158).
edge(74, 121).
edge(43, 96).
edge(104, 171).
edge(47, 86).
edge(95, 114).
edge(16, 142).
edge(4, 53).
edge(6, 145).
edge(31, 128).
edge(20, 122).
edge(4, 12).
edge(74, 97).
edge(32, 100).
edge(28, 139).
edge(137, 170).
edge(22, 165).
edge(62, 129).
edge(107, 129).
edge(93, 126).
edge(35, 140).
edge(5, 23).
edge(48, 81).
edge(103, 144).
edge(4, 117).
edge(63, 176).
edge(146, 173).
edge(6, 106).
edge(69, 74).
edge(78, 105).
edge(75, 133).
edge(130, 152).
edge(97, 110).
edge(10, 173).
edge(61, 110).
edge(103, 174).
edge(62, 102).
edge(14, 117).
edge(71, 112).
edge(26, 43).
edge(56, 107).
edge(34, 135).
edge(98, 162).
edge(138, 151).
edge(120, 173).
edge(48, 57).
edge(31, 111).
edge(125, 143).
edge(79, 170).
edge(85, 118).
edge(48, 136).
edge(91, 142).
edge(130, 161).
edge(96, 137).
edge(135, 178).
edge(7, 92).
edge(27, 164).
edge(84, 141).
edge(118, 124).
edge(83, 140).
edge(56, 59).
edge(62, 144).
edge(66, 68).
edge(108, 128).
edge(9, 84).
edge(2, 84).
edge(95, 159).
edge(24, 30).
edge(138, 156).
edge(1, 120).
edge(67, 83).
edge(5, 91).
edge(58, 114).
edge(109, 134).
edge(59, 121).
edge(26, 51).
edge(96, 151).
edge(108, 168).
edge(64, 97).
edge(99, 137).
edge(31, 139).
edge(60, 127).
edge(63, 136).
edge(18, 117).
edge(43, 154).
edge(56, 86).
edge(79, 161).
edge(51, 96).
edge(79, 146).
edge(130, 143).
edge(67, 156).
edge(63, 68).
edge(7, 121).
edge(21, 65).
edge(81, 176).
edge(86, 173).
edge(44, 160).
edge(51, 113).
edge(121, 171).
edge(44, 142).
edge(4, 51).
edge(34, 94).
edge(58, 107).
edge(85, 170).
edge(50, 91).
edge(39, 138).
edge(119, 132).
edge(33, 172).
edge(85, 127).
edge(36, 77).
edge(88, 111).
edge(116, 175).
edge(81, 84).
edge(38, 102).
edge(101, 109).
edge(9, 124).
edge(22, 107).
edge(79, 104).
edge(22, 150).
edge(79, 130).
edge(52, 126).
edge(121, 145).
edge(12, 175).
edge(90, 159).
edge(54, 72).
edge(3, 139).
edge(14, 38).
edge(12, 132).
edge(146, 166).
edge(14, 66).
edge(58, 137).
edge(21, 82).
edge(6, 51).
edge(156, 163).
edge(96, 160).
edge(8, 55).
edge(35, 135).
edge(98, 103).
edge(26, 99).
edge(146, 161).
edge(163, 178).
edge(87, 138).
edge(12, 97).
edge(107, 117).
edge(33, 72).
edge(59, 162).
edge(36, 89).
edge(5, 12).
edge(1, 109).
edge(97, 107).
edge(57, 74).
edge(105, 138).
edge(111, 134).
edge(83, 102).
edge(54, 70).
edge(33, 124).
edge(19, 169).
edge(40, 111).
edge(70, 109).
edge(58, 133).
edge(108, 124).
edge(8, 10).
edge(104, 165).
edge(34, 80).
edge(6, 101).
edge(4, 17).
edge(6, 153).
edge(20, 114).
edge(40, 177).
edge(20, 102).
edge(24, 156).
edge(15, 122).
edge(3, 58).
edge(49, 81).
edge(21, 170).
edge(33, 37).
edge(119, 128).
edge(31, 137).
edge(148, 161).
edge(44, 133).
edge(29, 160).
edge(11, 68).
edge(7, 75).
edge(66, 117).
edge(136, 175).
edge(59, 64).
edge(0, 96).
edge(80, 141).
edge(3, 104).
edge(82, 155).
edge(82, 105).
edge(5, 90).
edge(57, 95).
edge(50, 117).
edge(1, 140).
edge(125, 177).
edge(109, 165).
edge(130, 153).
edge(75, 99).
edge(12, 54).
edge(30, 74).
edge(2, 155).
edge(20, 85).
edge(141, 150).
edge(12, 77).
edge(101, 169).
edge(53, 159).
edge(52, 137).
edge(34, 120).
edge(112, 170).
edge(13, 93).
edge(32, 65).
edge(50, 102).
edge(11, 148).
edge(6, 166).
edge(23, 62).
edge(33, 95).
edge(120, 126).
edge(19, 111).
edge(107, 163).
edge(123, 155).
edge(107, 171).
edge(49, 80).
edge(15, 54).
edge(10, 130).
edge(52, 153).
edge(49, 121).
edge(130, 171).
edge(123, 157).
edge(32, 163).
edge(117, 149).
edge(137, 169).
edge(111, 115).
edge(9, 35).
edge(16, 37).
edge(132, 137).
edge(25, 167).
edge(19, 142).
edge(102, 157).
edge(32, 132).
edge(41, 48).
edge(46, 145).
edge(98, 170).
edge(44, 126).
edge(108, 111).
edge(83, 162).
edge(2, 85).
edge(53, 90).
edge(83, 105).
edge(95, 134).
edge(28, 117).
edge(12, 116).
edge(2, 26).
edge(100, 109).
edge(2, 82).
edge(14, 94).
edge(13, 31).
edge(135, 161).
edge(102, 158).
edge(46, 59).
edge(39, 57).
edge(36, 103).
edge(136, 148).
edge(29, 147).
edge(42, 145).
edge(4, 91).
edge(58, 104).
edge(31, 121).
edge(32, 53).
edge(59, 112).
edge(15, 18).
edge(1, 60).
edge(70, 177).
edge(22, 26).
edge(87, 97).
edge(26, 174).
edge(57, 122).
edge(112, 166).
edge(90, 92).
edge(27, 38).
edge(12, 66).
edge(29, 88).
edge(48, 149).
edge(0, 71).
edge(139, 172).
edge(18, 74).
edge(84, 152).
edge(93, 176).
edge(16, 83).
edge(45, 69).
edge(121, 178).
edge(11, 49).
edge(54, 130).
edge(12, 158).
edge(45, 102).
edge(112, 160).
edge(7, 173).
edge(11, 115).
edge(31, 118).
edge(7, 11).
edge(124, 127).
edge(57, 99).
edge(19, 98).
edge(149, 152).
edge(53, 141).
edge(45, 98).
edge(29, 119).
edge(86, 142).
edge(60, 71).
edge(15, 143).
edge(29, 159).
edge(0, 85).
edge(76, 160).
edge(82, 99).
edge(73, 162).
edge(31, 101).
edge(72, 149).
edge(0, 54).
edge(71, 86).
edge(51, 121).
edge(151, 152).
edge(68, 144).
edge(14, 18).
edge(4, 54).
edge(8, 67).
edge(35, 111).
edge(111, 165).
edge(90, 129).
edge(17, 168).
edge(30, 121).
edge(23, 176).
edge(140, 141).
edge(50, 67).
edge(4, 64).
edge(65, 92).
edge(30, 136).
edge(124, 137).
edge(24, 157).
edge(124, 166).
edge(2, 88).
edge(39, 97).
edge(112, 128).
edge(131, 154).
edge(131, 136).
edge(125, 159).
edge(119, 145).
edge(27, 160).
edge(47, 150).
edge(85, 143).
edge(3, 88).
edge(26, 79).
edge(14, 169).
edge(92, 178).
edge(100, 143).
edge(6, 53).
edge(71, 156).
edge(79, 91).
edge(6, 110).
edge(80, 110).
edge(143, 145).
edge(49, 172).
edge(57, 178).
edge(64, 137).
edge(132, 134).
edge(87, 178).
edge(111, 128).
edge(35, 102).
edge(32, 107).
edge(143, 158).
edge(77, 163).
edge(87, 101).
edge(27, 40).
edge(36, 161).
edge(27, 141).
edge(58, 115).
edge(58, 72).
edge(12, 45).
edge(73, 172).
edge(105, 164).
edge(3, 59).
edge(34, 119).
edge(132, 174).
edge(17, 171).
edge(130, 168).
edge(144, 159).
edge(49, 58).
edge(23, 26).
edge(21, 79).
edge(51, 98).
edge(76, 96).
edge(99, 126).
edge(70, 80).
edge(54, 95).
edge(24, 62).
edge(21, 166).
edge(44, 107).
edge(9, 137).
edge(72, 147).
edge(65, 131).
edge(50, 120).
edge(78, 83).
edge(22, 108).
edge(22, 138).
edge(86, 127).
edge(15, 43).
edge(7, 118).
edge(57, 176).
edge(37, 79).
edge(58, 171).
edge(39, 108).
edge(58, 172).
edge(24, 124).
edge(23, 117).
edge(28, 59).
edge(4, 15).
edge(64, 106).
edge(120, 139).
edge(96, 118).
edge(77, 108).
edge(53, 107).
edge(35, 38).
edge(126, 177).
edge(119, 124).
edge(66, 95).
edge(23, 58).
edge(84, 176).
edge(11, 94).
edge(54, 90).
edge(84, 104).
edge(64, 107).
edge(34, 149).
edge(93, 115).
edge(33, 161).
edge(92, 145).
edge(143, 155).
edge(4, 43).
edge(104, 147).
edge(4, 37).
edge(110, 178).
edge(116, 173).
edge(109, 160).
edge(69, 148).
edge(55, 134).
edge(87, 150).
edge(101, 162).
edge(6, 39).
edge(14, 26).
edge(110, 139).
edge(82, 102).
edge(71, 164).
edge(114, 118).
edge(77, 168).
edge(81, 163).
edge(68, 81).
edge(80, 103).
edge(8, 15).
edge(82, 101).
edge(107, 144).
edge(116, 129).
edge(20, 82).
edge(6, 59).
edge(19, 58).
edge(74, 82).
edge(130, 175).
edge(48, 84).
edge(23, 130).
edge(119, 156).
edge(88, 119).
edge(31, 124).
edge(16, 116).
edge(89, 91).
edge(143, 148).
edge(114, 129).
edge(143, 177).
edge(35, 84).
edge(72, 76).
edge(75, 131).
edge(71, 138).
edge(121, 165).
edge(48, 77).
edge(135, 160).
edge(135, 143).
edge(10, 163).
edge(59, 71).
edge(4, 125).
edge(13, 67).
edge(63, 162).
edge(89, 121).
edge(38, 73).
edge(10, 62).
edge(46, 121).
edge(131, 166).
edge(13, 91).
edge(31, 61).
edge(26, 100).
edge(51, 58).
edge(82, 147).
edge(72, 162).
edge(15, 169).
edge(55, 85).
edge(31, 162).
edge(9, 128).
edge(34, 176).
edge(145, 175).
edge(11, 38).
edge(6, 9).
edge(96, 131).
edge(5, 19).
edge(80, 108).
edge(9, 42).
edge(101, 149).
edge(78, 173).
edge(84, 160).
edge(40, 67).
edge(119, 126).
edge(58, 145).
edge(90, 172).
edge(100, 111).
edge(28, 92).
edge(0, 147).
edge(60, 76).
edge(34, 170).
edge(31, 75).
edge(94, 141).
edge(23, 159).
edge(42, 174).
edge(66, 142).
edge(56, 152).
edge(20, 61).
edge(45, 115).
edge(140, 156).
edge(37, 92).
edge(80, 111).
edge(7, 21).
edge(21, 36).
edge(71, 145).
edge(17, 20).
edge(60, 113).
edge(10, 119).
edge(45, 159).
edge(115, 143).
edge(28, 177).
edge(66, 161).
edge(77, 119).
edge(13, 87).
edge(94, 146).
edge(25, 105).
edge(110, 161).
edge(36, 114).
edge(93, 142).
edge(66, 175).
edge(46, 140).
edge(28, 155).
edge(53, 63).
edge(20, 87).
edge(31, 37).
edge(13, 104).
edge(9, 163).
edge(174, 177).
edge(101, 106).
edge(1, 76).
edge(121, 148).
edge(128, 161).
edge(118, 129).
edge(17, 63).
edge(53, 177).
edge(11, 106).
edge(48, 168).
edge(100, 136).
edge(27, 68).
edge(41, 134).
edge(20, 25).
edge(75, 92).
edge(5, 77).
edge(115, 158).
edge(27, 55).
edge(65, 148).
edge(11, 12).
edge(127, 168).
edge(59, 145).
edge(119, 165).
edge(156, 175).
edge(112, 156).
edge(68, 134).
edge(85, 171).
edge(94, 165).
edge(21, 102).
edge(100, 128).
edge(2, 32).
edge(93, 155).
edge(105, 171).
edge(27, 169).
edge(8, 59).
edge(33, 101).
edge(141, 166).
edge(15, 32).
edge(8, 171).
edge(38, 126).
edge(33, 62).
edge(33, 44).
edge(45, 73).
edge(93, 136).
edge(154, 161).
edge(70, 120).
edge(63, 83).
edge(102, 144).
edge(44, 106).
edge(43, 173).
edge(6, 164).
edge(16, 173).
edge(91, 97).
edge(6, 116).
edge(76, 173).
edge(2, 29).
edge(75, 107).
edge(100, 121).
edge(66, 169).
edge(24, 95).
edge(90, 166).
edge(140, 146).
edge(29, 122).
edge(67, 132).
edge(46, 71).
edge(80, 178).
edge(46, 63).
edge(21, 116).
edge(9, 166).
edge(51, 91).
edge(94, 168).
edge(26, 98).
edge(100, 140).
edge(131, 162).
edge(76, 82).
edge(59, 146).
edge(82, 158).
edge(124, 160).
edge(52, 62).
edge(29, 106).
edge(6, 94).
edge(30, 39).
edge(88, 89).
edge(55, 64).
edge(56, 173).
edge(2, 112).
edge(67, 120).
edge(162, 165).
edge(139, 166).
edge(12, 83).
edge(40, 153).
edge(39, 84).
edge(64, 75).
edge(55, 71).
edge(46, 75).
edge(19, 121).
edge(10, 109).
edge(8, 114).
edge(26, 75).
edge(31, 90).
edge(99, 163).
edge(24, 141).
edge(116, 135).
edge(50, 123).
edge(18, 145).
edge(83, 95).
edge(60, 89).
edge(103, 123).
edge(27, 98).
edge(18, 142).
edge(111, 157).
edge(9, 19).
edge(40, 60).
edge(82, 90).
edge(150, 170).
edge(41, 164).
edge(28, 71).
edge(10, 114).
edge(105, 137).
edge(145, 167).
edge(167, 169).
edge(7, 128).
edge(97, 127).
edge(73, 141).
edge(15, 96).
edge(78, 96).
edge(159, 169).
edge(21, 178).
edge(2, 74).
edge(44, 63).
edge(20, 44).
edge(43, 126).
edge(115, 173).
edge(22, 114).
edge(46, 135).
edge(41, 71).
edge(17, 32).
edge(57, 129).
edge(22, 42).
edge(103, 178).
edge(57, 161).
edge(9, 94).
edge(148, 166).
edge(24, 166).
edge(48, 56).
edge(21, 130).
edge(32, 98).
edge(67, 114).
edge(68, 113).
edge(32, 87).
edge(48, 82).
edge(25, 151).
edge(98, 107).
edge(89, 137).
edge(90, 118).
edge(76, 148).
edge(78, 157).
edge(89, 136).
edge(21, 66).
edge(46, 170).
edge(121, 161).
edge(50, 55).
edge(69, 147).
edge(21, 64).
edge(38, 92).
edge(69, 156).
edge(31, 88).
edge(74, 94).
edge(40, 133).
edge(128, 152).
edge(53, 112).
edge(21, 41).
edge(0, 7).
edge(38, 85).
edge(118, 169).
edge(1, 22).
edge(0, 78).
edge(33, 89).
edge(96, 158).
edge(80, 170).
edge(72, 142).
edge(27, 34).
edge(80, 86).
edge(1, 178).
edge(52, 54).
edge(104, 108).
edge(96, 173).
edge(82, 139).
edge(58, 162).
edge(113, 149).
edge(76, 169).
edge(24, 53).
edge(20, 49).
edge(45, 134).
edge(51, 105).
edge(3, 90).
edge(87, 123).
edge(33, 176).
edge(41, 146).
edge(35, 129).
edge(47, 169).
edge(118, 159).
edge(37, 41).
edge(120, 149).
edge(51, 85).
edge(133, 161).
edge(77, 138).
edge(99, 153).
edge(14, 150).
edge(52, 89).
edge(96, 141).
edge(133, 144).
edge(92, 151).
edge(27, 162).
edge(12, 154).
edge(100, 165).
edge(96, 102).
edge(76, 119).
edge(113, 157).
edge(52, 106).
edge(48, 72).
edge(72, 73).
edge(16, 162).
edge(95, 110).
edge(25, 48).
edge(91, 156).
edge(37, 110).
edge(39, 55).
edge(6, 113).
edge(29, 35).
edge(65, 174).
edge(75, 162).
edge(5, 50).
edge(126, 147).
edge(16, 115).
edge(30, 162).
edge(39, 162).
edge(73, 87).
edge(104, 138).
edge(59, 87).
edge(26, 61).
edge(19, 133).
edge(69, 129).
edge(155, 160).
edge(124, 129).
edge(146, 172).
edge(58, 122).
edge(68, 72).
edge(75, 170).
edge(93, 94).
edge(17, 116).
edge(1, 79).
edge(42, 140).
edge(123, 124).
edge(23, 52).
edge(16, 74).
edge(10, 53).
edge(36, 96).
edge(24, 54).
edge(39, 123).
edge(87, 157).
edge(54, 106).
edge(155, 156).
edge(109, 173).
edge(1, 156).
edge(14, 139).
edge(38, 154).
edge(20, 66).
edge(9, 108).
edge(79, 154).
edge(0, 93).
edge(154, 156).
edge(139, 167).
edge(27, 136).
edge(89, 173).
edge(58, 71).
edge(55, 97).
edge(104, 159).
edge(56, 78).
edge(98, 126).
edge(110, 164).
edge(67, 106).
edge(139, 164).
edge(162, 167).
edge(69, 163).
edge(13, 23).
edge(58, 120).
edge(39, 169).
edge(66, 93).
edge(85, 178).
edge(45, 66).
edge(0, 140).
edge(22, 157).
edge(7, 151).
edge(90, 177).
edge(37, 99).
edge(28, 178).
edge(3, 165).
edge(1, 164).
edge(63, 177).
edge(26, 53).
edge(55, 57).
edge(13, 132).
edge(108, 172).
edge(81, 133).
edge(34, 67).
edge(4, 27).
edge(68, 122).
edge(77, 106).
edge(131, 165).
edge(21, 154).
edge(13, 139).
edge(89, 153).
edge(36, 167).
edge(71, 126).
edge(46, 125).
edge(25, 134).
edge(47, 142).
edge(66, 153).
edge(60, 83).
edge(49, 65).
edge(28, 86).
edge(151, 165).
edge(97, 103).
edge(134, 154).
edge(18, 123).
edge(14, 82).
edge(0, 168).
edge(58, 67).
edge(137, 168).
edge(120, 176).
edge(49, 148).
edge(13, 145).
edge(27, 56).
edge(75, 95).
edge(105, 111).
edge(13, 74).
edge(59, 148).
edge(85, 108).
edge(41, 137).
edge(6, 43).
edge(91, 152).
edge(61, 100).
edge(20, 86).
edge(6, 165).
edge(36, 115).
edge(82, 163).
edge(40, 132).
edge(43, 78).
edge(100, 107).
edge(10, 161).
edge(5, 143).
edge(54, 161).
edge(53, 138).
edge(62, 160).
edge(33, 34).
edge(94, 108).
edge(5, 59).
edge(68, 158).
edge(99, 109).
edge(95, 115).
edge(37, 123).
edge(24, 92).
edge(38, 156).
edge(38, 52).
edge(84, 114).
edge(0, 121).
edge(77, 165).
edge(16, 140).
edge(52, 86).
edge(45, 47).
edge(9, 151).
edge(16, 109).
edge(15, 118).
edge(20, 83).
edge(54, 66).
edge(6, 142).
edge(165, 174).
edge(19, 34).
edge(21, 28).
edge(79, 95).
edge(51, 138).
edge(13, 165).
edge(17, 109).
edge(23, 100).
edge(62, 143).
edge(40, 75).
edge(70, 108).
edge(28, 118).
edge(37, 117).
edge(3, 79).
edge(105, 159).
edge(23, 79).
edge(42, 150).
edge(62, 67).
edge(118, 173).
edge(90, 160).
edge(2, 27).
edge(66, 123).
edge(65, 86).
edge(16, 170).
edge(65, 108).
edge(16, 48).
edge(121, 150).
edge(6, 173).
edge(42, 168).
edge(158, 163).
edge(43, 53).
edge(13, 114).
edge(41, 117).
edge(20, 133).
edge(12, 48).
edge(54, 111).
edge(64, 136).
edge(100, 169).
edge(52, 57).
edge(139, 174).
edge(69, 116).
edge(115, 145).
edge(126, 151).
edge(95, 102).
edge(13, 119).
edge(24, 104).
edge(24, 38).
edge(49, 104).
edge(75, 128).
edge(173, 177).
edge(77, 80).
edge(20, 91).
edge(3, 13).
edge(127, 146).
edge(9, 160).
edge(23, 83).
edge(65, 154).
edge(26, 71).
edge(92, 129).
edge(19, 156).
edge(24, 63).
edge(34, 130).
edge(52, 170).
edge(26, 59).
edge(33, 53).
edge(74, 161).
edge(107, 145).
edge(60, 66).
edge(16, 150).
edge(57, 175).
edge(17, 41).
edge(80, 106).
edge(119, 162).
edge(52, 74).
edge(41, 162).
edge(143, 153).
edge(73, 174).
edge(60, 178).
edge(69, 165).
edge(149, 150).
edge(7, 86).
edge(68, 124).
edge(90, 147).
edge(88, 135).
edge(27, 143).
edge(157, 164).
edge(130, 169).
edge(17, 137).
edge(147, 177).
edge(109, 167).
edge(3, 68).
edge(49, 67).
edge(29, 100).
edge(144, 177).
edge(16, 148).
edge(16, 99).
edge(3, 130).
edge(28, 162).
edge(38, 138).
edge(66, 177).
edge(3, 156).
edge(23, 88).
edge(122, 140).
edge(136, 176).
edge(18, 120).
edge(27, 147).
edge(31, 80).
edge(78, 178).
edge(107, 119).
edge(7, 64).
edge(71, 134).
edge(14, 95).
edge(171, 174).
edge(131, 164).
edge(0, 172).
edge(66, 107).
edge(12, 30).
edge(39, 42).
edge(79, 144).
edge(12, 73).
edge(113, 123).
edge(10, 142).
edge(63, 175).
edge(84, 118).
edge(23, 50).
edge(78, 86).
edge(18, 139).
edge(104, 157).
edge(65, 122).
edge(54, 77).
edge(69, 111).
edge(55, 108).
edge(43, 65).
edge(10, 99).
edge(18, 147).
edge(36, 54).
edge(76, 141).
edge(70, 89).
edge(15, 104).
edge(10, 170).
edge(10, 22).
edge(144, 158).
edge(38, 128).
edge(65, 100).
edge(134, 165).
edge(136, 139).
edge(119, 135).
edge(86, 124).
edge(121, 136).
edge(114, 139).
edge(62, 112).
edge(75, 176).
edge(33, 122).
edge(79, 96).
edge(27, 43).
edge(27, 45).
edge(120, 170).
edge(12, 80).
edge(40, 49).
edge(37, 147).
edge(78, 130).
edge(60, 167).
edge(72, 156).
edge(98, 141).
edge(68, 98).
edge(89, 147).
edge(51, 115).
edge(19, 65).
edge(65, 152).
edge(43, 177).
edge(8, 58).
edge(63, 130).
edge(55, 69).
edge(112, 120).
edge(7, 145).
edge(105, 107).
edge(6, 174).
edge(9, 95).
edge(66, 163).
edge(73, 92).
edge(128, 149).
edge(80, 124).
edge(152, 165).
edge(24, 132).
edge(44, 172).
edge(11, 41).
edge(16, 54).
edge(150, 161).
edge(11, 127).
edge(45, 162).
edge(141, 168).
edge(121, 133).
edge(64, 146).
edge(78, 124).
edge(26, 162).
edge(40, 156).
edge(8, 31).
edge(130, 131).
edge(36, 83).
edge(35, 143).
edge(49, 134).
edge(96, 111).
edge(56, 92).
edge(104, 155).
edge(148, 159).
edge(6, 105).
edge(39, 110).
edge(11, 78).
edge(12, 33).
edge(34, 178).
edge(13, 79).
edge(84, 112).
edge(32, 128).
edge(7, 26).
edge(97, 143).
edge(106, 174).
edge(0, 169).
edge(55, 77).
edge(102, 128).
edge(2, 89).
edge(20, 139).
edge(9, 133).
edge(11, 99).
edge(46, 163).
edge(115, 159).
edge(3, 126).
edge(54, 117).
edge(105, 133).
edge(78, 135).
edge(40, 175).
edge(2, 51).
edge(18, 82).
edge(37, 143).
edge(48, 160).
edge(94, 105).
edge(87, 119).
edge(92, 135).
edge(9, 27).
edge(0, 156).
edge(57, 78).
edge(30, 68).
edge(50, 108).
edge(68, 157).
edge(120, 140).
edge(14, 115).
edge(58, 166).
edge(3, 6).
edge(115, 157).
edge(40, 164).
edge(54, 154).
edge(74, 108).
edge(90, 112).
edge(77, 164).
edge(83, 107).
edge(2, 45).
edge(0, 149).
edge(123, 130).
edge(97, 137).
edge(58, 62).
edge(146, 171).
edge(69, 154).
edge(47, 126).
edge(15, 48).
edge(52, 160).
edge(70, 103).
edge(30, 101).
edge(18, 63).
edge(5, 135).
edge(96, 128).
edge(11, 86).
edge(142, 167).
edge(104, 106).
edge(109, 119).
edge(4, 72).
edge(128, 153).
edge(49, 82).
edge(54, 84).
edge(7, 65).
edge(11, 84).
edge(146, 155).
edge(69, 96).
edge(139, 168).
edge(2, 63).
edge(132, 146).
edge(13, 147).
edge(136, 146).
edge(3, 39).
edge(47, 48).
edge(62, 94).
edge(47, 173).
edge(77, 110).
edge(3, 40).
edge(25, 58).
edge(144, 168).
edge(65, 70).
edge(40, 55).
edge(34, 157).
edge(31, 142).
edge(86, 107).
edge(44, 156).
edge(66, 75).
edge(55, 80).
edge(35, 59).
edge(44, 114).
edge(37, 63).
edge(32, 50).
edge(107, 155).
edge(69, 71).
edge(51, 160).
edge(58, 139).
edge(68, 73).
edge(76, 102).
edge(9, 10).
edge(1, 132).
edge(140, 144).
edge(35, 97).
edge(86, 128).
edge(70, 75).
edge(116, 143).
edge(52, 174).
edge(8, 166).
edge(90, 123).
edge(0, 144).
edge(103, 138).
edge(65, 138).
edge(24, 71).
edge(47, 85).
edge(42, 113).
edge(35, 163).
edge(14, 92).
edge(83, 123).
edge(106, 117).
edge(107, 151).
edge(99, 120).
edge(81, 152).
edge(31, 174).
edge(2, 99).
edge(13, 162).
edge(82, 122).
edge(56, 90).
edge(39, 121).
edge(115, 174).
edge(91, 137).
edge(0, 75).
edge(31, 50).
edge(63, 86).
edge(50, 109).
edge(61, 81).
edge(56, 137).
edge(46, 142).
edge(53, 168).
edge(9, 51).
edge(72, 98).
edge(27, 111).
edge(41, 53).
edge(48, 52).
edge(49, 52).
edge(145, 159).
edge(42, 133).
edge(113, 151).
edge(24, 115).
edge(111, 151).
edge(1, 119).
edge(51, 158).
edge(79, 172).
edge(121, 175).
edge(31, 49).
edge(77, 132).
edge(126, 141).
edge(113, 144).
edge(32, 141).
edge(57, 77).
edge(59, 85).
edge(6, 172).
edge(163, 165).
edge(97, 100).
edge(43, 143).
edge(103, 112).
edge(72, 148).
edge(27, 107).
edge(39, 78).
edge(18, 167).
edge(134, 173).
edge(30, 135).
edge(87, 96).
edge(67, 144).
edge(53, 165).
edge(127, 147).
edge(21, 96).
edge(70, 161).
edge(85, 152).
edge(29, 41).
edge(11, 61).
edge(82, 112).
edge(44, 178).
edge(15, 174).
edge(39, 106).
edge(39, 93).
edge(80, 98).
edge(102, 142).
edge(69, 150).
edge(103, 167).
edge(48, 150).
edge(0, 158).
edge(91, 132).
edge(105, 169).
edge(103, 134).
edge(6, 10).
edge(41, 131).
edge(65, 123).
edge(37, 56).
edge(44, 101).
edge(3, 69).
edge(97, 132).
edge(70, 94).
edge(45, 59).
edge(59, 80).
edge(26, 121).
edge(51, 104).
edge(91, 174).
edge(108, 169).
edge(120, 164).
edge(3, 124).
edge(7, 55).
edge(25, 163).
edge(24, 167).
edge(139, 160).
edge(8, 111).
edge(33, 88).
edge(60, 64).
edge(18, 118).
edge(8, 115).
edge(78, 116).
edge(93, 156).
edge(25, 122).
edge(34, 142).
edge(26, 66).
edge(60, 173).
edge(110, 129).
edge(114, 175).
edge(26, 127).
edge(60, 99).
edge(148, 167).
edge(26, 142).
edge(15, 42).
edge(37, 128).
edge(86, 117).
edge(111, 147).
edge(129, 177).
edge(86, 120).
edge(129, 151).
edge(49, 141).
edge(44, 83).
edge(137, 164).
edge(13, 99).
edge(128, 135).
edge(38, 96).
edge(24, 74).
edge(31, 176).
edge(19, 44).
edge(87, 175).
edge(13, 17).
edge(37, 53).
edge(60, 104).
edge(42, 136).
edge(20, 166).
edge(84, 94).
edge(36, 97).
edge(15, 101).
edge(45, 138).
edge(93, 178).
edge(34, 83).
edge(41, 108).
edge(37, 169).
edge(5, 62).
edge(15, 63).
edge(12, 25).
edge(70, 110).
edge(108, 147).
edge(63, 102).
edge(146, 162).
edge(106, 173).
edge(65, 120).
edge(72, 75).
edge(58, 161).
edge(26, 139).
edge(17, 93).
edge(137, 154).
edge(20, 77).
edge(17, 146).
edge(60, 168).
edge(129, 136).
edge(3, 75).
edge(81, 140).
edge(83, 143).
edge(46, 54).
edge(9, 87).
edge(94, 119).
edge(41, 89).
edge(158, 178).
edge(26, 88).
edge(105, 143).
edge(118, 144).
edge(15, 95).
edge(81, 93).
edge(21, 68).
edge(20, 117).
edge(18, 103).
edge(159, 166).
edge(8, 99).
edge(49, 149).
edge(21, 103).
edge(79, 149).
edge(106, 134).
edge(103, 151).
edge(6, 118).
edge(112, 151).
edge(1, 73).
edge(91, 129).
edge(102, 138).
edge(35, 141).
edge(112, 126).
edge(74, 169).
edge(77, 149).
edge(19, 162).
edge(81, 106).
edge(25, 54).
edge(2, 90).
edge(46, 154).
edge(114, 172).
edge(22, 132).
edge(119, 147).
edge(6, 171).
edge(54, 132).
edge(36, 155).
edge(46, 143).
edge(19, 94).
edge(62, 178).
edge(16, 132).
edge(18, 96).
edge(41, 64).
edge(130, 158).
edge(103, 104).
edge(11, 100).
edge(10, 133).
edge(37, 116).
edge(21, 173).
edge(51, 57).
edge(67, 115).
edge(61, 129).
edge(7, 15).
edge(22, 100).
edge(41, 142).
edge(85, 115).
edge(38, 159).
edge(28, 101).
edge(120, 167).
edge(4, 8).
edge(35, 45).
edge(66, 159).
edge(160, 170).
edge(93, 110).
edge(46, 68).
edge(6, 85).
edge(49, 168).
edge(58, 174).
edge(156, 176).
edge(57, 125).
edge(35, 81).
edge(66, 111).
edge(134, 140).
edge(30, 154).
edge(61, 160).
edge(60, 166).
edge(1, 125).
edge(115, 150).
edge(27, 62).
edge(88, 170).
edge(25, 125).
edge(21, 148).
edge(81, 118).
edge(157, 176).
edge(48, 64).
edge(62, 73).
edge(144, 171).
edge(103, 141).
edge(36, 60).
edge(41, 96).
edge(1, 43).
edge(20, 161).
edge(127, 150).
edge(46, 108).
edge(1, 161).
edge(65, 111).
edge(2, 31).
edge(51, 97).
edge(76, 130).
edge(12, 20).
edge(14, 137).
edge(66, 115).
edge(105, 172).
edge(77, 121).
edge(61, 120).
edge(102, 135).
edge(92, 133).
edge(85, 104).
edge(4, 85).
edge(39, 172).
edge(73, 100).
edge(31, 110).
edge(36, 58).
edge(117, 171).
edge(130, 149).
edge(10, 15).
edge(18, 99).
edge(29, 127).
edge(43, 168).
edge(2, 58).
edge(48, 164).
edge(66, 137).
edge(23, 174).
edge(14, 67).
edge(132, 159).
edge(19, 131).
edge(73, 113).
edge(14, 58).
edge(115, 135).
edge(41, 143).
edge(77, 143).
edge(23, 28).
edge(22, 140).
edge(17, 177).
edge(125, 142).
edge(83, 87).
edge(21, 104).
edge(37, 57).
edge(96, 176).
edge(33, 87).
edge(26, 172).
edge(7, 105).
edge(45, 104).
edge(110, 172).
edge(6, 147).
edge(93, 157).
edge(149, 170).
edge(77, 122).
edge(23, 25).
edge(36, 141).
edge(73, 97).
edge(35, 83).
edge(19, 160).
edge(40, 130).
edge(43, 77).
edge(98, 121).
edge(30, 89).
edge(7, 88).
edge(93, 117).
edge(26, 168).
edge(84, 163).
edge(61, 99).
edge(98, 111).
edge(46, 146).
edge(31, 67).
edge(33, 109).
edge(41, 42).
edge(78, 91).
edge(125, 176).
edge(17, 44).
edge(117, 162).
edge(73, 120).
edge(81, 162).
edge(27, 97).
edge(68, 108).
edge(47, 144).
edge(15, 61).
edge(25, 74).
edge(129, 158).
edge(114, 136).
edge(93, 127).
edge(4, 164).
edge(87, 163).
edge(77, 104).
edge(49, 95).
edge(100, 104).
edge(13, 83).
edge(126, 170).
edge(77, 113).
edge(56, 75).
edge(99, 135).
edge(123, 133).
edge(60, 82).
edge(47, 99).
edge(134, 151).
edge(67, 168).
edge(37, 112).
edge(13, 36).
edge(38, 136).
edge(56, 105).
edge(87, 177).
edge(98, 169).
edge(39, 96).
edge(56, 153).
edge(124, 169).
edge(10, 153).
edge(48, 85).
edge(36, 143).
edge(1, 106).
edge(12, 128).
edge(67, 153).
edge(167, 170).
edge(93, 177).
edge(62, 126).
edge(1, 163).
edge(97, 149).
edge(22, 124).
edge(98, 133).
edge(83, 150).
edge(9, 111).
edge(64, 153).
edge(13, 66).
edge(75, 146).
edge(12, 90).
edge(12, 136).
edge(44, 70).
edge(55, 99).
edge(65, 112).
edge(49, 154).
edge(16, 123).
edge(4, 114).
edge(115, 137).
edge(22, 115).
edge(3, 65).
edge(19, 25).
edge(8, 102).
edge(45, 95).
edge(68, 71).
edge(16, 70).
edge(15, 136).
edge(94, 114).
edge(100, 142).
edge(24, 66).
edge(99, 143).
edge(3, 56).
edge(66, 73).
edge(22, 73).
edge(24, 164).
edge(57, 72).
edge(22, 54).
edge(22, 105).
edge(112, 146).
edge(37, 157).
edge(17, 57).
edge(60, 177).
edge(65, 139).
edge(9, 17).
edge(52, 94).
edge(127, 128).
edge(31, 120).
edge(40, 126).
edge(135, 150).
edge(29, 129).
edge(22, 94).
edge(163, 169).
edge(25, 29).
edge(142, 164).
edge(125, 175).
edge(9, 118).
edge(57, 133).
edge(42, 53).
edge(107, 127).
edge(0, 132).
edge(64, 103).
edge(74, 159).
edge(73, 175).
edge(16, 133).
edge(63, 90).
edge(129, 143).
edge(47, 62).
edge(30, 33).
edge(63, 128).
edge(65, 169).
edge(52, 81).
edge(12, 35).
edge(14, 44).
edge(2, 67).
edge(54, 65).
edge(19, 116).
edge(124, 125).
edge(94, 106).
edge(24, 169).
edge(106, 155).
edge(67, 164).
edge(53, 117).
edge(62, 78).
edge(33, 46).
edge(11, 158).
edge(5, 113).
edge(122, 174).
edge(42, 90).
edge(59, 73).
edge(8, 69).
edge(95, 124).
edge(33, 143).
edge(76, 178).
edge(25, 78).
edge(133, 156).
edge(71, 119).
edge(22, 170).
edge(56, 112).
edge(10, 159).
edge(41, 115).
edge(152, 170).
edge(0, 24).
edge(31, 112).
edge(55, 60).
edge(85, 86).
edge(82, 87).
edge(33, 93).
edge(34, 97).
edge(57, 63).
edge(12, 16).
edge(8, 128).
edge(15, 69).
edge(15, 98).
edge(27, 72).
edge(21, 26).
edge(28, 163).
edge(90, 140).
edge(31, 42).
edge(38, 158).
edge(85, 164).
edge(49, 171).
edge(3, 46).
edge(88, 149).
edge(41, 128).
edge(144, 155).
edge(121, 138).
edge(69, 70).
edge(11, 19).
edge(127, 167).
edge(90, 122).
edge(4, 46).
edge(45, 114).
edge(94, 157).
edge(34, 165).
edge(70, 87).
edge(23, 156).
edge(38, 157).
edge(74, 90).
edge(59, 153).
edge(88, 145).
edge(44, 48).
edge(36, 116).
edge(3, 122).
edge(66, 99).
edge(59, 141).
edge(58, 83).
edge(146, 174).
edge(65, 115).
edge(52, 102).
edge(9, 62).
edge(98, 153).
edge(115, 151).
edge(38, 117).
edge(49, 131).
edge(82, 167).
edge(27, 159).
edge(87, 176).
edge(32, 152).
edge(46, 160).
edge(120, 154).
edge(7, 110).
edge(3, 21).
edge(55, 86).
edge(34, 161).
edge(80, 134).
edge(0, 38).
edge(81, 121).
edge(21, 49).
edge(20, 154).
edge(102, 107).
edge(50, 122).
edge(21, 142).
edge(3, 60).
edge(34, 134).
edge(57, 155).
edge(76, 177).
edge(112, 114).
edge(143, 152).
edge(20, 22).
edge(43, 82).
edge(88, 142).
edge(41, 151).
edge(50, 80).
edge(98, 177).
edge(147, 158).
edge(35, 52).
edge(103, 122).
edge(97, 136).
edge(72, 138).
edge(18, 43).
edge(82, 124).
edge(60, 163).
edge(19, 139).
edge(86, 88).
edge(6, 114).
edge(35, 123).
edge(13, 80).
edge(41, 152).
edge(43, 111).
edge(59, 92).
edge(93, 123).
edge(53, 139).
edge(117, 151).
edge(79, 97).
edge(86, 108).
edge(73, 82).
edge(136, 141).
edge(11, 87).
edge(50, 148).
edge(7, 138).
edge(57, 163).
edge(86, 146).
edge(28, 55).
edge(13, 75).
edge(133, 135).
edge(122, 143).
edge(81, 86).
edge(105, 177).
edge(141, 164).
edge(14, 145).
edge(23, 39).
edge(96, 136).
edge(21, 119).
edge(54, 67).
edge(124, 149).
edge(8, 73).
edge(96, 120).
edge(20, 129).
edge(81, 174).
edge(101, 103).
edge(147, 153).
edge(64, 158).
edge(33, 171).
edge(165, 171).
edge(32, 149).
edge(44, 105).
edge(79, 152).
edge(49, 124).
edge(6, 27).
edge(22, 102).
edge(75, 104).
edge(38, 161).
edge(93, 128).
edge(45, 155).
edge(153, 173).
edge(10, 157).
edge(55, 98).
edge(52, 133).
edge(88, 144).
edge(25, 162).
edge(16, 94).
edge(32, 56).
edge(55, 172).
edge(91, 151).
edge(48, 55).
edge(60, 132).
edge(60, 139).
edge(78, 123).
edge(19, 50).
edge(73, 177).
edge(73, 168).
edge(90, 109).
edge(29, 154).
edge(150, 174).
edge(11, 109).
edge(95, 117).
edge(101, 148).
edge(22, 40).
edge(45, 111).
edge(116, 167).
edge(40, 176).
edge(20, 163).
edge(30, 108).
edge(37, 82).
edge(22, 95).
edge(61, 65).
edge(48, 154).
edge(19, 29).
edge(58, 78).
edge(103, 116).
edge(28, 87).
edge(15, 134).
edge(137, 166).
edge(7, 42).
edge(80, 129).
edge(112, 142).
edge(159, 167).
edge(8, 93).
edge(62, 82).
edge(73, 126).
edge(59, 161).
edge(91, 155).
edge(36, 56).
edge(102, 119).
edge(164, 174).
edge(20, 36).
edge(14, 91).
edge(167, 171).
edge(7, 113).
edge(107, 109).
edge(75, 100).
edge(13, 158).
edge(46, 120).
edge(61, 109).
edge(42, 143).
edge(78, 104).
edge(42, 172).
edge(10, 105).
edge(63, 139).
edge(141, 177).
edge(105, 119).
edge(176, 177).
edge(1, 110).
edge(64, 141).
edge(91, 172).
edge(3, 100).
edge(74, 100).
edge(149, 161).
edge(96, 113).
edge(14, 84).
edge(85, 134).
edge(112, 122).
edge(24, 119).
edge(25, 174).
edge(128, 137).
edge(162, 175).
edge(67, 118).
edge(5, 165).
edge(76, 111).
edge(30, 76).
edge(102, 114).
edge(34, 154).
edge(21, 35).
edge(41, 66).
edge(16, 112).
edge(30, 104).
edge(154, 158).
edge(27, 61).
edge(2, 39).
edge(20, 56).
edge(115, 170).
edge(79, 113).
edge(6, 103).
edge(18, 42).
edge(32, 106).
edge(0, 175).
edge(139, 173).
edge(110, 120).
edge(27, 153).
edge(133, 173).
edge(99, 157).
edge(3, 162).
edge(0, 15).
edge(88, 126).
edge(109, 144).
edge(30, 98).
edge(77, 124).
edge(7, 31).
edge(58, 70).
edge(36, 158).
edge(101, 129).
edge(44, 113).
edge(60, 88).
edge(11, 119).
edge(84, 106).
edge(12, 103).
edge(28, 133).
edge(84, 109).
edge(75, 83).
edge(79, 139).
edge(19, 70).
edge(58, 144).
edge(13, 117).
edge(131, 150).
edge(109, 158).
edge(13, 28).
edge(139, 163).
edge(141, 172).
edge(2, 101).
edge(25, 111).
edge(17, 28).
edge(105, 114).
edge(29, 57).
edge(25, 95).
edge(20, 101).
edge(16, 122).
edge(7, 43).
edge(109, 123).
edge(17, 107).
edge(61, 167).
edge(95, 123).
edge(157, 165).
edge(78, 158).
edge(128, 156).
edge(41, 161).
edge(101, 139).
edge(46, 159).
edge(157, 174).
edge(102, 174).
edge(46, 175).
edge(67, 109).
edge(51, 164).
edge(89, 146).
edge(24, 134).
edge(49, 176).
edge(16, 72).
edge(62, 92).
edge(57, 96).
edge(6, 64).
edge(64, 176).
edge(113, 152).
edge(128, 171).
edge(47, 55).
edge(44, 176).
edge(85, 177).
edge(130, 170).
edge(50, 149).
edge(93, 131).
edge(18, 148).
edge(64, 129).
edge(86, 87).
edge(43, 131).
edge(119, 167).
edge(2, 174).
edge(112, 152).
edge(72, 140).
edge(13, 129).
edge(16, 61).
edge(11, 171).
edge(37, 175).
edge(7, 124).
edge(39, 46).
edge(99, 141).
edge(4, 166).
edge(22, 58).
edge(70, 157).
edge(42, 88).
edge(102, 120).
edge(9, 53).
edge(72, 159).
edge(9, 144).
edge(55, 135).
edge(50, 71).
edge(73, 111).
edge(11, 163).
edge(2, 142).
edge(1, 91).
edge(31, 86).
edge(30, 155).
edge(1, 137).
edge(140, 150).
edge(19, 60).
edge(46, 155).
edge(24, 42).
edge(29, 124).
edge(142, 147).
edge(150, 173).
edge(84, 158).
edge(56, 91).
edge(39, 83).
edge(2, 35).
edge(29, 107).
edge(77, 85).
edge(58, 63).
edge(51, 122).
edge(14, 30).
edge(32, 169).
edge(114, 158).
edge(140, 175).
edge(155, 161).
edge(91, 135).
edge(19, 115).
edge(45, 150).
edge(117, 159).
edge(39, 88).
edge(62, 72).
edge(7, 78).
edge(128, 157).
edge(29, 140).
edge(80, 139).
edge(82, 135).
edge(11, 14).
edge(49, 137).
edge(72, 128).
edge(128, 163).
edge(94, 128).
edge(70, 171).
edge(15, 50).
edge(49, 109).
edge(65, 89).
edge(17, 29).
edge(69, 101).
edge(78, 99).
edge(1, 18).
edge(62, 176).
edge(10, 69).
edge(40, 129).
edge(134, 167).
edge(145, 149).
edge(97, 106).
edge(80, 176).
edge(18, 29).
edge(8, 148).
edge(77, 146).
edge(3, 138).
edge(36, 99).
edge(110, 162).
edge(105, 153).
edge(1, 49).
edge(114, 159).
edge(14, 97).
edge(15, 76).
edge(36, 152).
edge(15, 33).
edge(49, 99).
edge(139, 150).
edge(92, 107).
edge(71, 175).
edge(87, 124).
edge(86, 115).
edge(21, 128).
edge(124, 161).
edge(111, 152).
edge(4, 139).
edge(44, 90).
edge(139, 149).
edge(13, 146).
edge(70, 105).
edge(46, 150).
edge(65, 102).
edge(67, 139).
edge(91, 99).
edge(135, 173).
edge(50, 118).
edge(127, 156).
edge(62, 97).
edge(28, 65).
edge(121, 151).
edge(2, 145).
edge(35, 151).
edge(17, 82).
edge(32, 39).
edge(81, 145).
edge(36, 63).
edge(7, 172).
edge(19, 165).
edge(16, 38).
edge(14, 119).
edge(0, 49).
edge(49, 158).
edge(24, 45).
edge(119, 174).
edge(48, 120).
edge(72, 102).
edge(118, 155).
edge(28, 34).
edge(2, 22).
edge(65, 87).
edge(129, 135).
edge(19, 148).
edge(108, 110).
edge(71, 166).
edge(46, 134).
edge(95, 103).
edge(44, 55).
edge(140, 145).
edge(6, 81).
edge(58, 109).
edge(129, 153).
edge(51, 159).
edge(38, 47).
edge(56, 169).
edge(135, 157).
edge(122, 152).
edge(139, 154).
edge(43, 91).
edge(95, 122).
edge(24, 122).
edge(24, 61).
edge(163, 177).
edge(1, 99).
edge(64, 140).
edge(88, 133).
edge(64, 118).
edge(57, 159).
edge(53, 148).
edge(21, 132).
edge(30, 175).
edge(30, 96).
edge(96, 168).
edge(90, 168).
edge(37, 50).
edge(109, 128).
edge(47, 57).
edge(41, 54).
edge(157, 175).
edge(29, 151).
edge(89, 164).
edge(13, 154).
edge(63, 146).
edge(87, 117).
edge(51, 78).
edge(0, 31).
edge(4, 29).
edge(20, 23).
edge(94, 115).
edge(33, 42).
edge(81, 166).
edge(31, 143).
edge(10, 11).
edge(134, 150).
edge(70, 150).
edge(31, 77).
edge(51, 118).
edge(115, 142).
edge(85, 113).
edge(22, 161).
edge(46, 147).
edge(131, 147).
edge(69, 97).
edge(34, 54).
edge(47, 64).
edge(50, 126).
edge(40, 168).
edge(3, 97).
edge(91, 144).
edge(55, 79).
edge(5, 89).
edge(92, 165).
edge(4, 101).
edge(100, 106).
edge(38, 64).
edge(44, 112).
edge(147, 164).
edge(21, 158).
edge(19, 23).
edge(5, 34).
edge(101, 130).
edge(5, 13).
edge(83, 173).
edge(46, 124).
edge(48, 146).
edge(14, 36).
edge(51, 80).
edge(46, 165).
edge(26, 103).
edge(17, 60).
edge(69, 155).
edge(4, 92).
edge(3, 33).
edge(47, 103).
edge(35, 121).
edge(32, 131).
edge(12, 99).
edge(87, 146).
edge(35, 98).
edge(64, 116).
edge(38, 113).
edge(30, 119).
edge(5, 136).
edge(42, 43).
edge(22, 53).
edge(52, 119).
edge(4, 95).
edge(24, 172).
edge(79, 178).
edge(30, 144).
edge(14, 122).
edge(28, 93).
edge(35, 164).
edge(161, 167).
edge(11, 108).
edge(75, 137).
edge(23, 63).
edge(86, 178).
edge(94, 137).
edge(64, 155).
edge(36, 177).
edge(68, 79).
edge(99, 132).
edge(119, 142).
edge(82, 126).
edge(75, 150).
edge(96, 143).
edge(64, 88).
edge(25, 60).
edge(64, 135).
edge(26, 109).
edge(88, 173).
edge(29, 101).
edge(75, 76).
edge(38, 76).
edge(70, 135).
edge(20, 28).
edge(17, 68).
edge(63, 116).
edge(46, 58).
edge(162, 173).
edge(5, 67).
edge(12, 109).
edge(21, 153).
edge(15, 26).
edge(83, 103).
edge(133, 138).
edge(2, 15).
edge(122, 133).
edge(7, 162).
edge(69, 90).
edge(74, 172).
edge(100, 145).
edge(82, 96).
edge(89, 132).
edge(64, 178).
edge(56, 159).
edge(51, 174).
edge(113, 161).
edge(55, 155).
edge(40, 117).
edge(75, 154).
edge(72, 99).
edge(110, 175).
edge(7, 34).
edge(31, 32).
edge(10, 23).
edge(125, 145).
edge(33, 56).
edge(8, 130).
edge(37, 103).
edge(36, 61).
edge(99, 177).
edge(78, 117).
edge(22, 39).
edge(90, 136).
edge(114, 143).
edge(26, 35).
edge(4, 81).
edge(51, 103).
edge(26, 68).
edge(82, 83).
edge(71, 83).
edge(115, 155).
edge(26, 152).
edge(121, 172).
edge(17, 111).
edge(34, 112).
edge(70, 97).
edge(35, 36).
edge(96, 104).
edge(132, 152).
edge(78, 133).
edge(51, 137).
edge(5, 170).
edge(2, 108).
edge(0, 56).
edge(54, 178).
edge(24, 46).
edge(96, 149).
edge(63, 141).
edge(36, 69).
edge(54, 58).
edge(116, 154).
edge(26, 141).
edge(6, 49).
edge(81, 89).
edge(53, 97).
edge(11, 133).
edge(45, 49).
edge(29, 55).
edge(9, 130).
edge(51, 148).
edge(40, 103).
edge(91, 121).
edge(22, 41).
edge(40, 46).
edge(91, 123).
edge(32, 175).
edge(33, 80).
edge(80, 165).
edge(99, 162).
edge(44, 53).
edge(4, 61).
edge(59, 89).
edge(40, 82).
edge(53, 176).
edge(9, 68).
edge(41, 65).
edge(22, 80).
edge(101, 160).
edge(7, 132).
edge(99, 122).
edge(161, 163).
edge(114, 151).
edge(74, 142).
edge(81, 149).
edge(126, 137).
edge(5, 174).
edge(76, 154).
edge(34, 95).
edge(29, 81).
edge(8, 27).
edge(15, 110).
edge(41, 55).
edge(11, 176).
edge(54, 82).
edge(45, 173).
edge(82, 119).
edge(121, 124).
edge(6, 146).
edge(42, 117).
edge(1, 59).
edge(84, 174).
edge(4, 14).
edge(7, 159).
edge(41, 61).
edge(57, 139).
edge(113, 177).
edge(15, 55).
edge(95, 128).
edge(101, 126).
edge(13, 85).
edge(25, 178).
edge(113, 150).
edge(109, 118).
edge(38, 129).
edge(167, 168).
edge(11, 30).
edge(54, 80).
edge(162, 178).
edge(38, 106).
edge(12, 13).
edge(73, 96).
edge(56, 168).
edge(1, 27).
edge(27, 158).
edge(140, 172).
edge(89, 97).
edge(43, 89).
edge(160, 164).
edge(74, 162).
edge(49, 120).
edge(44, 87).
edge(9, 11).
edge(35, 68).
edge(46, 132).
edge(50, 142).
edge(136, 168).
edge(83, 145).
edge(42, 147).
edge(24, 123).
edge(58, 106).
edge(122, 156).
edge(6, 38).
edge(105, 147).
edge(14, 161).
edge(4, 21).
edge(108, 176).
edge(24, 170).
edge(34, 151).
edge(2, 92).
edge(0, 55).
edge(6, 23).
edge(46, 105).
edge(75, 132).
edge(58, 151).
edge(24, 140).
edge(40, 159).
edge(36, 72).
edge(15, 25).
edge(131, 159).
edge(32, 105).
edge(11, 15).
edge(111, 177).
edge(7, 14).
edge(127, 141).
edge(50, 92).
edge(124, 175).
edge(108, 122).
edge(64, 78).
edge(36, 41).
edge(102, 154).
edge(126, 169).
edge(67, 158).
edge(106, 164).
edge(19, 35).
edge(20, 30).
edge(4, 176).
edge(19, 171).
edge(5, 169).
edge(49, 146).
edge(114, 177).
edge(52, 85).
edge(18, 67).
edge(13, 27).
edge(9, 104).
edge(22, 97).
edge(22, 88).
edge(128, 154).
edge(66, 136).
edge(122, 134).
edge(43, 122).
edge(19, 112).
edge(122, 147).
edge(123, 152).
edge(47, 53).
edge(50, 172).
edge(44, 95).
edge(29, 118).
edge(81, 92).
edge(101, 177).
edge(25, 75).
edge(22, 51).
edge(22, 109).
edge(55, 92).
edge(34, 49).
edge(22, 74).
edge(72, 175).
edge(116, 141).
edge(78, 81).
edge(160, 174).
edge(134, 146).
edge(119, 176).
edge(148, 154).
edge(41, 130).
edge(78, 110).
edge(61, 155).
edge(105, 106).
edge(60, 96).
edge(67, 91).
edge(145, 166).
edge(134, 138).
edge(98, 157).
edge(66, 173).
edge(1, 112).
edge(117, 160).
edge(25, 37).
edge(61, 79).
edge(37, 40).
edge(106, 146).
edge(38, 82).
edge(30, 173).
edge(29, 149).
edge(33, 132).
edge(20, 73).
edge(153, 162).
edge(2, 178).
edge(47, 160).
edge(2, 78).
edge(27, 88).
edge(50, 112).
edge(12, 100).
edge(104, 154).
edge(32, 120).
edge(121, 155).
edge(70, 96).
edge(73, 119).
edge(28, 171).
edge(55, 90).
edge(59, 154).
edge(39, 159).
edge(59, 114).
edge(25, 90).
edge(57, 64).
edge(2, 36).
edge(13, 124).
edge(29, 82).
edge(52, 78).
edge(47, 125).
edge(45, 84).
edge(11, 28).
edge(25, 168).
edge(47, 170).
edge(107, 122).
edge(169, 176).
edge(83, 98).
edge(11, 140).
edge(10, 126).
edge(131, 148).
edge(37, 164).
edge(54, 119).
edge(92, 170).
edge(33, 133).
edge(87, 154).
edge(19, 37).
edge(125, 169).
edge(33, 178).
edge(113, 133).
edge(160, 176).
edge(27, 142).
edge(39, 82).
edge(7, 141).
edge(31, 177).
edge(61, 95).
edge(4, 45).
edge(54, 100).
edge(42, 99).
edge(64, 74).
edge(14, 105).
edge(38, 144).
edge(3, 63).
edge(59, 103).
edge(110, 111).
edge(25, 123).
edge(19, 168).
edge(40, 50).
edge(9, 162).
edge(6, 17).
edge(80, 144).
edge(13, 133).
edge(3, 57).
edge(40, 136).
edge(28, 123).
edge(18, 54).
edge(89, 135).
edge(9, 22).
edge(122, 162).
edge(20, 98).
edge(34, 109).
edge(116, 148).
edge(104, 134).
edge(67, 161).
edge(34, 78).
edge(49, 57).
edge(0, 99).
edge(89, 112).
edge(113, 167).
edge(54, 63).
edge(44, 158).
edge(36, 46).
edge(6, 148).
weight(0, 14).
weight(1, 15).
weight(2, 2).
weight(3, 8).
weight(4, 9).
weight(5, 13).
weight(6, 3).
weight(7, 9).
weight(8, 3).
weight(9, 10).
weight(10, 7).
weight(11, 18).
weight(12, 7).
weight(13, 22).
weight(14, 13).
weight(15, 15).
weight(16, 22).
weight(17, 1).
weight(18, 2).
weight(19, 16).
weight(20, 15).
weight(21, 1).
weight(22, 19).
weight(23, 20).
weight(24, 5).
weight(25, 24).
weight(26, 19).
weight(27, 20).
weight(28, 11).
weight(29, 23).
weight(30, 8).
weight(31, 6).
weight(32, 19).
weight(33, 11).
weight(34, 16).
weight(35, 15).
weight(36, 24).
weight(37, 7).
weight(38, 22).
weight(39, 16).
weight(40, 13).
weight(41, 21).
weight(42, 1).
weight(43, 18).
weight(44, 20).
weight(45, 1).
weight(46, 14).
weight(47, 22).
weight(48, 22).
weight(49, 7).
weight(50, 22).
weight(51, 1).
weight(52, 12).
weight(53, 23).
weight(54, 19).
weight(55, 12).
weight(56, 10).
weight(57, 24).
weight(58, 24).
weight(59, 4).
weight(60, 18).
weight(61, 21).
weight(62, 6).
weight(63, 16).
weight(64, 19).
weight(65, 5).
weight(66, 18).
weight(67, 4).
weight(68, 3).
weight(69, 15).
weight(70, 11).
weight(71, 20).
weight(72, 7).
weight(73, 17).
weight(74, 21).
weight(75, 13).
weight(76, 23).
weight(77, 24).
weight(78, 21).
weight(79, 2).
weight(80, 19).
weight(81, 17).
weight(82, 10).
weight(83, 8).
weight(84, 21).
weight(85, 20).
weight(86, 22).
weight(87, 13).
weight(88, 13).
weight(89, 15).
weight(90, 13).
weight(91, 15).
weight(92, 11).
weight(93, 12).
weight(94, 6).
weight(95, 8).
weight(96, 5).
weight(97, 3).
weight(98, 24).
weight(99, 10).
weight(100, 14).
weight(101, 16).
weight(102, 16).
weight(103, 22).
weight(104, 13).
weight(105, 6).
weight(106, 6).
weight(107, 13).
weight(108, 17).
weight(109, 23).
weight(110, 19).
weight(111, 9).
weight(112, 11).
weight(113, 13).
weight(114, 4).
weight(115, 15).
weight(116, 3).
weight(117, 7).
weight(118, 12).
weight(119, 8).
weight(120, 16).
weight(121, 15).
weight(122, 7).
weight(123, 21).
weight(124, 22).
weight(125, 19).
weight(126, 18).
weight(127, 8).
weight(128, 8).
weight(129, 15).
weight(130, 12).
weight(131, 20).
weight(132, 7).
weight(133, 7).
weight(134, 8).
weight(135, 23).
weight(136, 16).
weight(137, 24).
weight(138, 2).
weight(139, 11).
weight(140, 20).
weight(141, 12).
weight(142, 24).
weight(143, 17).
weight(144, 19).
weight(145, 22).
weight(146, 15).
weight(147, 4).
weight(148, 11).
weight(149, 5).
weight(150, 21).
weight(151, 21).
weight(152, 16).
weight(153, 10).
weight(154, 2).
weight(155, 18).
weight(156, 15).
weight(157, 16).
weight(158, 5).
weight(159, 11).
weight(160, 23).
weight(161, 21).
weight(162, 4).
weight(163, 23).
weight(164, 10).
weight(165, 17).
weight(166, 22).
weight(167, 7).
weight(168, 6).
weight(169, 10).
weight(170, 8).
weight(171, 4).
weight(172, 24).
weight(173, 13).
weight(174, 24).
weight(175, 3).
weight(176, 24).
weight(177, 11).
weight(178, 13).

{in(V)} :- node(V).
:- in(U), in(V), U < V, not edge(U,V).
:~ not in(V), weight(V,W). [W@1,V]
