elem(1..75).
set(1..115).
in(1, 2).
in(1, 3).
in(1, 5).
in(1, 6).
in(1, 7).
in(1, 9).
in(1, 11).
in(1, 14).
in(1, 15).
in(1, 17).
in(1, 21).
in(1, 23).
in(1, 25).
in(1, 28).
in(1, 30).
in(1, 35).
in(1, 36).
in(1, 40).
in(1, 42).
in(1, 43).
in(1, 45).
in(1, 52).
in(1, 53).
in(1, 54).
in(1, 55).
in(1, 57).
in(1, 60).
in(1, 68).
in(1, 71).
in(2, 1).
in(2, 6).
in(2, 7).
in(2, 8).
in(2, 12).
in(2, 15).
in(2, 20).
in(2, 21).
in(2, 22).
in(2, 25).
in(2, 26).
in(2, 27).
in(2, 31).
in(2, 36).
in(2, 41).
in(2, 42).
in(2, 43).
in(2, 44).
in(2, 46).
in(2, 48).
in(2, 50).
in(2, 53).
in(2, 55).
in(2, 56).
in(2, 58).
in(2, 60).
in(2, 63).
in(2, 65).
in(2, 68).
in(2, 71).
in(2, 72).
in(2, 73).
in(3, 3).
in(3, 7).
in(3, 9).
in(3, 12).
in(3, 13).
in(3, 17).
in(3, 24).
in(3, 28).
in(3, 29).
in(3, 31).
in(3, 34).
in(3, 36).
in(3, 37).
in(3, 49).
in(3, 50).
in(3, 53).
in(3, 54).
in(3, 57).
in(3, 58).
in(3, 60).
in(3, 61).
in(3, 63).
in(3, 68).
in(3, 69).
in(3, 73).
in(3, 75).
in(4, 2).
in(4, 4).
in(4, 14).
in(4, 15).
in(4, 17).
in(4, 18).
in(4, 19).
in(4, 21).
in(4, 26).
in(4, 31).
in(4, 36).
in(4, 39).
in(4, 42).
in(4, 43).
in(4, 47).
in(4, 49).
in(4, 54).
in(4, 55).
in(4, 56).
in(4, 57).
in(4, 60).
in(4, 61).
in(4, 62).
in(4, 63).
in(4, 64).
in(4, 65).
in(4, 67).
in(4, 69).
in(4, 73).
in(5, 4).
in(5, 6).
in(5, 7).
in(5, 9).
in(5, 14).
in(5, 19).
in(5, 21).
in(5, 23).
in(5, 25).
in(5, 26).
in(5, 29).
in(5, 32).
in(5, 33).
in(5, 35).
in(5, 38).
in(5, 43).
in(5, 44).
in(5, 46).
in(5, 49).
in(5, 53).
in(5, 56).
in(5, 60).
in(5, 61).
in(5, 63).
in(5, 71).
in(5, 74).
in(6, 3).
in(6, 5).
in(6, 6).
in(6, 9).
in(6, 12).
in(6, 15).
in(6, 16).
in(6, 17).
in(6, 25).
in(6, 26).
in(6, 28).
in(6, 29).
in(6, 30).
in(6, 32).
in(6, 35).
in(6, 36).
in(6, 42).
in(6, 47).
in(6, 48).
in(6, 50).
in(6, 55).
in(6, 57).
in(6, 60).
in(6, 62).
in(6, 64).
in(6, 66).
in(6, 68).
in(6, 70).
in(6, 71).
in(6, 73).
in(6, 74).
in(7, 6).
in(7, 8).
in(7, 12).
in(7, 14).
in(7, 15).
in(7, 23).
in(7, 24).
in(7, 25).
in(7, 30).
in(7, 31).
in(7, 35).
in(7, 36).
in(7, 38).
in(7, 41).
in(7, 47).
in(7, 50).
in(7, 56).
in(7, 57).
in(7, 60).
in(7, 62).
in(7, 71).
in(7, 73).
in(8, 1).
in(8, 4).
in(8, 7).
in(8, 9).
in(8, 11).
in(8, 12).
in(8, 15).
in(8, 16).
in(8, 21).
in(8, 24).
in(8, 26).
in(8, 27).
in(8, 28).
in(8, 29).
in(8, 30).
in(8, 34).
in(8, 37).
in(8, 39).
in(8, 40).
in(8, 41).
in(8, 43).
in(8, 44).
in(8, 48).
in(8, 55).
in(8, 58).
in(8, 60).
in(8, 61).
in(8, 66).
in(8, 69).
in(8, 74).
in(9, 1).
in(9, 3).
in(9, 9).
in(9, 10).
in(9, 11).
in(9, 12).
in(9, 15).
in(9, 17).
in(9, 27).
in(9, 29).
in(9, 30).
in(9, 36).
in(9, 38).
in(9, 40).
in(9, 41).
in(9, 46).
in(9, 47).
in(9, 49).
in(9, 50).
in(9, 52).
in(9, 59).
in(9, 61).
in(9, 62).
in(10, 2).
in(10, 4).
in(10, 5).
in(10, 6).
in(10, 7).
in(10, 18).
in(10, 24).
in(10, 25).
in(10, 28).
in(10, 30).
in(10, 32).
in(10, 40).
in(10, 44).
in(10, 45).
in(10, 46).
in(10, 48).
in(10, 49).
in(10, 50).
in(10, 54).
in(10, 55).
in(10, 57).
in(10, 60).
in(10, 63).
in(10, 64).
in(10, 72).
in(10, 73).
in(10, 75).
in(11, 1).
in(11, 2).
in(11, 4).
in(11, 5).
in(11, 8).
in(11, 9).
in(11, 13).
in(11, 18).
in(11, 20).
in(11, 23).
in(11, 27).
in(11, 28).
in(11, 29).
in(11, 32).
in(11, 35).
in(11, 37).
in(11, 38).
in(11, 39).
in(11, 40).
in(11, 43).
in(11, 44).
in(11, 47).
in(11, 49).
in(11, 50).
in(11, 51).
in(11, 53).
in(11, 62).
in(11, 72).
in(11, 74).
in(12, 1).
in(12, 4).
in(12, 9).
in(12, 10).
in(12, 13).
in(12, 15).
in(12, 23).
in(12, 29).
in(12, 30).
in(12, 32).
in(12, 34).
in(12, 37).
in(12, 42).
in(12, 43).
in(12, 44).
in(12, 50).
in(12, 51).
in(12, 53).
in(12, 54).
in(12, 56).
in(12, 57).
in(12, 61).
in(12, 63).
in(12, 70).
in(12, 72).
in(12, 75).
in(13, 2).
in(13, 8).
in(13, 9).
in(13, 10).
in(13, 12).
in(13, 14).
in(13, 15).
in(13, 16).
in(13, 17).
in(13, 20).
in(13, 21).
in(13, 23).
in(13, 27).
in(13, 28).
in(13, 30).
in(13, 36).
in(13, 38).
in(13, 39).
in(13, 41).
in(13, 48).
in(13, 51).
in(13, 52).
in(13, 54).
in(13, 55).
in(13, 65).
in(13, 68).
in(13, 69).
in(13, 72).
in(13, 74).
in(13, 75).
in(14, 1).
in(14, 2).
in(14, 4).
in(14, 9).
in(14, 22).
in(14, 25).
in(14, 31).
in(14, 32).
in(14, 34).
in(14, 36).
in(14, 37).
in(14, 39).
in(14, 41).
in(14, 47).
in(14, 49).
in(14, 52).
in(14, 53).
in(14, 54).
in(14, 60).
in(14, 61).
in(14, 62).
in(14, 63).
in(14, 69).
in(14, 75).
in(15, 2).
in(15, 4).
in(15, 7).
in(15, 8).
in(15, 9).
in(15, 15).
in(15, 16).
in(15, 17).
in(15, 18).
in(15, 21).
in(15, 23).
in(15, 27).
in(15, 33).
in(15, 36).
in(15, 37).
in(15, 41).
in(15, 52).
in(15, 53).
in(15, 54).
in(15, 55).
in(15, 56).
in(15, 63).
in(15, 65).
in(15, 75).
in(16, 12).
in(16, 13).
in(16, 18).
in(16, 19).
in(16, 24).
in(16, 29).
in(16, 30).
in(16, 35).
in(16, 37).
in(16, 38).
in(16, 39).
in(16, 40).
in(16, 42).
in(16, 44).
in(16, 47).
in(16, 48).
in(16, 51).
in(16, 52).
in(16, 54).
in(16, 56).
in(16, 58).
in(16, 63).
in(16, 65).
in(16, 71).
in(16, 73).
in(17, 1).
in(17, 3).
in(17, 6).
in(17, 12).
in(17, 17).
in(17, 18).
in(17, 20).
in(17, 21).
in(17, 24).
in(17, 29).
in(17, 30).
in(17, 32).
in(17, 34).
in(17, 36).
in(17, 41).
in(17, 42).
in(17, 44).
in(17, 45).
in(17, 56).
in(17, 57).
in(17, 58).
in(17, 61).
in(17, 62).
in(17, 71).
in(17, 75).
in(18, 2).
in(18, 3).
in(18, 11).
in(18, 17).
in(18, 28).
in(18, 33).
in(18, 36).
in(18, 39).
in(18, 42).
in(18, 46).
in(18, 49).
in(18, 54).
in(18, 56).
in(18, 57).
in(18, 58).
in(18, 62).
in(18, 64).
in(18, 66).
in(18, 73).
in(18, 74).
in(18, 75).
in(19, 1).
in(19, 3).
in(19, 11).
in(19, 12).
in(19, 18).
in(19, 21).
in(19, 23).
in(19, 24).
in(19, 25).
in(19, 27).
in(19, 29).
in(19, 34).
in(19, 39).
in(19, 41).
in(19, 46).
in(19, 51).
in(19, 55).
in(19, 56).
in(19, 57).
in(19, 70).
in(19, 71).
in(19, 74).
in(20, 1).
in(20, 5).
in(20, 6).
in(20, 10).
in(20, 11).
in(20, 12).
in(20, 15).
in(20, 16).
in(20, 18).
in(20, 19).
in(20, 27).
in(20, 33).
in(20, 35).
in(20, 39).
in(20, 40).
in(20, 45).
in(20, 52).
in(20, 54).
in(20, 59).
in(20, 60).
in(20, 63).
in(20, 64).
in(20, 74).
in(21, 6).
in(21, 7).
in(21, 8).
in(21, 10).
in(21, 12).
in(21, 14).
in(21, 15).
in(21, 20).
in(21, 23).
in(21, 27).
in(21, 32).
in(21, 34).
in(21, 36).
in(21, 38).
in(21, 39).
in(21, 40).
in(21, 41).
in(21, 43).
in(21, 44).
in(21, 45).
in(21, 48).
in(21, 50).
in(21, 53).
in(21, 54).
in(21, 59).
in(21, 61).
in(21, 67).
in(21, 70).
in(21, 72).
in(22, 3).
in(22, 4).
in(22, 6).
in(22, 8).
in(22, 9).
in(22, 13).
in(22, 14).
in(22, 18).
in(22, 20).
in(22, 27).
in(22, 34).
in(22, 35).
in(22, 36).
in(22, 38).
in(22, 39).
in(22, 41).
in(22, 42).
in(22, 44).
in(22, 45).
in(22, 50).
in(22, 51).
in(22, 53).
in(22, 55).
in(22, 57).
in(22, 61).
in(22, 65).
in(22, 71).
in(22, 72).
in(22, 74).
in(22, 75).
in(23, 2).
in(23, 4).
in(23, 6).
in(23, 9).
in(23, 12).
in(23, 13).
in(23, 18).
in(23, 21).
in(23, 22).
in(23, 23).
in(23, 24).
in(23, 26).
in(23, 28).
in(23, 33).
in(23, 38).
in(23, 42).
in(23, 43).
in(23, 44).
in(23, 45).
in(23, 48).
in(23, 53).
in(23, 63).
in(23, 67).
in(23, 70).
in(23, 73).
in(23, 74).
in(24, 1).
in(24, 2).
in(24, 16).
in(24, 17).
in(24, 23).
in(24, 25).
in(24, 26).
in(24, 29).
in(24, 32).
in(24, 37).
in(24, 41).
in(24, 44).
in(24, 45).
in(24, 48).
in(24, 50).
in(24, 51).
in(24, 53).
in(24, 56).
in(24, 57).
in(24, 60).
in(24, 61).
in(24, 67).
in(24, 75).
in(25, 1).
in(25, 2).
in(25, 4).
in(25, 7).
in(25, 8).
in(25, 9).
in(25, 10).
in(25, 11).
in(25, 12).
in(25, 15).
in(25, 17).
in(25, 24).
in(25, 26).
in(25, 28).
in(25, 29).
in(25, 37).
in(25, 38).
in(25, 39).
in(25, 40).
in(25, 43).
in(25, 44).
in(25, 50).
in(25, 51).
in(25, 52).
in(25, 53).
in(25, 56).
in(25, 59).
in(25, 60).
in(25, 62).
in(25, 65).
in(25, 70).
in(26, 11).
in(26, 13).
in(26, 15).
in(26, 17).
in(26, 21).
in(26, 25).
in(26, 26).
in(26, 27).
in(26, 30).
in(26, 34).
in(26, 35).
in(26, 37).
in(26, 38).
in(26, 42).
in(26, 47).
in(26, 49).
in(26, 50).
in(26, 52).
in(26, 53).
in(26, 60).
in(26, 61).
in(26, 62).
in(26, 63).
in(26, 66).
in(26, 69).
in(26, 72).
in(26, 73).
in(27, 3).
in(27, 4).
in(27, 5).
in(27, 6).
in(27, 8).
in(27, 10).
in(27, 13).
in(27, 14).
in(27, 15).
in(27, 20).
in(27, 26).
in(27, 28).
in(27, 29).
in(27, 33).
in(27, 34).
in(27, 35).
in(27, 37).
in(27, 38).
in(27, 40).
in(27, 42).
in(27, 48).
in(27, 51).
in(27, 56).
in(27, 58).
in(27, 62).
in(27, 63).
in(27, 67).
in(27, 69).
in(27, 70).
in(27, 71).
in(28, 1).
in(28, 2).
in(28, 3).
in(28, 6).
in(28, 7).
in(28, 12).
in(28, 14).
in(28, 15).
in(28, 17).
in(28, 21).
in(28, 24).
in(28, 26).
in(28, 27).
in(28, 28).
in(28, 31).
in(28, 33).
in(28, 39).
in(28, 45).
in(28, 51).
in(28, 53).
in(28, 54).
in(28, 55).
in(28, 57).
in(28, 58).
in(28, 60).
in(28, 61).
in(28, 63).
in(28, 72).
in(28, 73).
in(28, 74).
in(29, 1).
in(29, 2).
in(29, 4).
in(29, 5).
in(29, 6).
in(29, 17).
in(29, 20).
in(29, 21).
in(29, 23).
in(29, 27).
in(29, 29).
in(29, 33).
in(29, 34).
in(29, 37).
in(29, 40).
in(29, 41).
in(29, 44).
in(29, 46).
in(29, 47).
in(29, 48).
in(29, 50).
in(29, 57).
in(29, 58).
in(29, 62).
in(29, 68).
in(29, 73).
in(29, 74).
in(30, 3).
in(30, 7).
in(30, 8).
in(30, 9).
in(30, 14).
in(30, 15).
in(30, 16).
in(30, 19).
in(30, 20).
in(30, 22).
in(30, 25).
in(30, 26).
in(30, 27).
in(30, 29).
in(30, 31).
in(30, 34).
in(30, 36).
in(30, 37).
in(30, 48).
in(30, 54).
in(30, 55).
in(30, 57).
in(30, 59).
in(30, 60).
in(30, 61).
in(30, 64).
in(30, 65).
in(30, 68).
in(30, 69).
in(30, 70).
in(30, 73).
in(31, 3).
in(31, 6).
in(31, 7).
in(31, 8).
in(31, 12).
in(31, 13).
in(31, 14).
in(31, 26).
in(31, 27).
in(31, 28).
in(31, 29).
in(31, 31).
in(31, 39).
in(31, 41).
in(31, 43).
in(31, 44).
in(31, 48).
in(31, 54).
in(31, 56).
in(31, 57).
in(31, 58).
in(31, 63).
in(31, 66).
in(31, 73).
in(31, 74).
in(32, 1).
in(32, 7).
in(32, 10).
in(32, 11).
in(32, 12).
in(32, 14).
in(32, 16).
in(32, 17).
in(32, 20).
in(32, 21).
in(32, 23).
in(32, 24).
in(32, 25).
in(32, 28).
in(32, 31).
in(32, 32).
in(32, 33).
in(32, 34).
in(32, 43).
in(32, 45).
in(32, 46).
in(32, 58).
in(32, 59).
in(32, 64).
in(32, 65).
in(32, 69).
in(32, 72).
in(32, 73).
in(32, 75).
in(33, 2).
in(33, 4).
in(33, 5).
in(33, 7).
in(33, 8).
in(33, 12).
in(33, 13).
in(33, 14).
in(33, 15).
in(33, 17).
in(33, 20).
in(33, 22).
in(33, 23).
in(33, 28).
in(33, 31).
in(33, 38).
in(33, 43).
in(33, 45).
in(33, 49).
in(33, 60).
in(33, 62).
in(33, 67).
in(33, 68).
in(33, 69).
in(33, 71).
in(33, 74).
in(33, 75).
in(34, 1).
in(34, 6).
in(34, 8).
in(34, 14).
in(34, 16).
in(34, 18).
in(34, 20).
in(34, 21).
in(34, 29).
in(34, 30).
in(34, 31).
in(34, 35).
in(34, 39).
in(34, 40).
in(34, 41).
in(34, 43).
in(34, 44).
in(34, 48).
in(34, 50).
in(34, 52).
in(34, 53).
in(34, 55).
in(34, 58).
in(34, 60).
in(34, 61).
in(34, 63).
in(34, 68).
in(34, 71).
in(34, 72).
in(34, 74).
in(35, 3).
in(35, 4).
in(35, 7).
in(35, 9).
in(35, 13).
in(35, 14).
in(35, 16).
in(35, 20).
in(35, 21).
in(35, 23).
in(35, 26).
in(35, 27).
in(35, 34).
in(35, 37).
in(35, 39).
in(35, 44).
in(35, 45).
in(35, 53).
in(35, 58).
in(35, 60).
in(35, 63).
in(35, 67).
in(35, 69).
in(35, 70).
in(35, 73).
in(36, 2).
in(36, 4).
in(36, 5).
in(36, 6).
in(36, 14).
in(36, 15).
in(36, 17).
in(36, 19).
in(36, 20).
in(36, 22).
in(36, 25).
in(36, 28).
in(36, 29).
in(36, 34).
in(36, 38).
in(36, 39).
in(36, 40).
in(36, 41).
in(36, 46).
in(36, 50).
in(36, 52).
in(36, 53).
in(36, 56).
in(36, 57).
in(36, 58).
in(36, 59).
in(36, 61).
in(36, 66).
in(36, 69).
in(36, 73).
in(36, 74).
in(37, 3).
in(37, 4).
in(37, 6).
in(37, 12).
in(37, 15).
in(37, 18).
in(37, 24).
in(37, 27).
in(37, 28).
in(37, 38).
in(37, 45).
in(37, 55).
in(37, 56).
in(37, 57).
in(37, 59).
in(37, 62).
in(37, 64).
in(37, 65).
in(37, 67).
in(37, 72).
in(37, 73).
in(37, 74).
in(38, 2).
in(38, 3).
in(38, 4).
in(38, 6).
in(38, 8).
in(38, 10).
in(38, 12).
in(38, 13).
in(38, 15).
in(38, 16).
in(38, 17).
in(38, 20).
in(38, 25).
in(38, 28).
in(38, 34).
in(38, 37).
in(38, 45).
in(38, 51).
in(38, 56).
in(38, 57).
in(38, 62).
in(38, 68).
in(38, 70).
in(38, 75).
in(39, 66).
in(39, 35).
in(39, 58).
in(39, 5).
in(39, 37).
in(39, 39).
in(39, 67).
in(39, 42).
in(39, 45).
in(39, 51).
in(39, 20).
in(39, 22).
in(39, 24).
in(39, 56).
in(39, 59).
in(39, 28).
in(39, 62).
in(39, 31).
in(40, 1).
in(40, 4).
in(40, 5).
in(40, 9).
in(40, 11).
in(40, 17).
in(40, 18).
in(40, 19).
in(40, 20).
in(40, 21).
in(40, 24).
in(40, 28).
in(40, 35).
in(40, 37).
in(40, 40).
in(40, 41).
in(40, 46).
in(40, 47).
in(40, 50).
in(40, 51).
in(40, 55).
in(40, 56).
in(40, 58).
in(40, 59).
in(40, 61).
in(40, 64).
in(40, 65).
in(40, 66).
in(40, 69).
in(40, 71).
in(41, 2).
in(41, 6).
in(41, 15).
in(41, 21).
in(41, 28).
in(41, 29).
in(41, 30).
in(41, 34).
in(41, 35).
in(41, 37).
in(41, 38).
in(41, 39).
in(41, 40).
in(41, 47).
in(41, 49).
in(41, 53).
in(41, 54).
in(41, 58).
in(41, 60).
in(41, 63).
in(41, 67).
in(41, 68).
in(41, 72).
in(42, 1).
in(42, 2).
in(42, 3).
in(42, 9).
in(42, 11).
in(42, 12).
in(42, 14).
in(42, 15).
in(42, 16).
in(42, 17).
in(42, 20).
in(42, 22).
in(42, 23).
in(42, 25).
in(42, 28).
in(42, 29).
in(42, 30).
in(42, 34).
in(42, 38).
in(42, 39).
in(42, 40).
in(42, 48).
in(42, 51).
in(42, 52).
in(42, 53).
in(42, 56).
in(42, 62).
in(42, 63).
in(42, 65).
in(42, 68).
in(42, 69).
in(42, 70).
in(42, 73).
in(43, 2).
in(43, 3).
in(43, 5).
in(43, 14).
in(43, 16).
in(43, 22).
in(43, 23).
in(43, 29).
in(43, 33).
in(43, 34).
in(43, 35).
in(43, 36).
in(43, 42).
in(43, 43).
in(43, 51).
in(43, 52).
in(43, 57).
in(43, 62).
in(43, 63).
in(43, 67).
in(43, 70).
in(43, 73).
in(43, 75).
in(44, 1).
in(44, 3).
in(44, 5).
in(44, 6).
in(44, 10).
in(44, 11).
in(44, 12).
in(44, 13).
in(44, 16).
in(44, 21).
in(44, 22).
in(44, 23).
in(44, 24).
in(44, 30).
in(44, 31).
in(44, 33).
in(44, 34).
in(44, 36).
in(44, 38).
in(44, 44).
in(44, 46).
in(44, 49).
in(44, 51).
in(44, 54).
in(44, 57).
in(44, 58).
in(44, 65).
in(44, 67).
in(44, 69).
in(44, 71).
in(44, 72).
in(44, 73).
in(44, 74).
in(44, 75).
in(45, 7).
in(45, 11).
in(45, 14).
in(45, 17).
in(45, 18).
in(45, 20).
in(45, 21).
in(45, 22).
in(45, 24).
in(45, 26).
in(45, 27).
in(45, 28).
in(45, 33).
in(45, 35).
in(45, 38).
in(45, 39).
in(45, 40).
in(45, 42).
in(45, 51).
in(45, 57).
in(45, 64).
in(45, 69).
in(46, 1).
in(46, 3).
in(46, 5).
in(46, 6).
in(46, 8).
in(46, 9).
in(46, 16).
in(46, 17).
in(46, 18).
in(46, 26).
in(46, 27).
in(46, 30).
in(46, 33).
in(46, 34).
in(46, 43).
in(46, 45).
in(46, 46).
in(46, 50).
in(46, 53).
in(46, 55).
in(46, 58).
in(46, 62).
in(46, 68).
in(46, 72).
in(46, 74).
in(47, 2).
in(47, 5).
in(47, 7).
in(47, 10).
in(47, 13).
in(47, 16).
in(47, 18).
in(47, 19).
in(47, 23).
in(47, 24).
in(47, 25).
in(47, 26).
in(47, 27).
in(47, 33).
in(47, 40).
in(47, 48).
in(47, 63).
in(47, 67).
in(47, 68).
in(47, 71).
in(47, 73).
in(48, 1).
in(48, 8).
in(48, 9).
in(48, 10).
in(48, 11).
in(48, 12).
in(48, 13).
in(48, 14).
in(48, 17).
in(48, 18).
in(48, 19).
in(48, 20).
in(48, 22).
in(48, 25).
in(48, 26).
in(48, 27).
in(48, 28).
in(48, 31).
in(48, 34).
in(48, 35).
in(48, 38).
in(48, 39).
in(48, 51).
in(48, 53).
in(48, 54).
in(48, 57).
in(48, 58).
in(48, 59).
in(48, 61).
in(48, 62).
in(48, 63).
in(48, 65).
in(48, 70).
in(48, 72).
in(49, 2).
in(49, 7).
in(49, 11).
in(49, 17).
in(49, 21).
in(49, 22).
in(49, 31).
in(49, 35).
in(49, 36).
in(49, 37).
in(49, 38).
in(49, 39).
in(49, 42).
in(49, 52).
in(49, 54).
in(49, 57).
in(49, 58).
in(49, 60).
in(49, 61).
in(49, 62).
in(49, 63).
in(49, 64).
in(49, 65).
in(49, 67).
in(49, 68).
in(49, 71).
in(50, 5).
in(50, 9).
in(50, 11).
in(50, 13).
in(50, 18).
in(50, 19).
in(50, 28).
in(50, 30).
in(50, 35).
in(50, 37).
in(50, 38).
in(50, 41).
in(50, 45).
in(50, 46).
in(50, 52).
in(50, 53).
in(50, 55).
in(50, 56).
in(50, 64).
in(50, 65).
in(50, 67).
in(50, 70).
in(50, 71).
in(50, 73).
in(51, 1).
in(51, 5).
in(51, 6).
in(51, 11).
in(51, 15).
in(51, 16).
in(51, 17).
in(51, 22).
in(51, 28).
in(51, 38).
in(51, 45).
in(51, 46).
in(51, 47).
in(51, 48).
in(51, 50).
in(51, 52).
in(51, 56).
in(51, 57).
in(51, 62).
in(51, 64).
in(51, 68).
in(51, 70).
in(51, 71).
in(51, 73).
in(51, 74).
in(52, 3).
in(52, 4).
in(52, 6).
in(52, 10).
in(52, 12).
in(52, 13).
in(52, 17).
in(52, 22).
in(52, 23).
in(52, 24).
in(52, 26).
in(52, 30).
in(52, 39).
in(52, 45).
in(52, 46).
in(52, 51).
in(52, 53).
in(52, 54).
in(52, 59).
in(52, 64).
in(52, 69).
in(52, 70).
in(52, 72).
in(52, 75).
in(53, 2).
in(53, 4).
in(53, 5).
in(53, 11).
in(53, 12).
in(53, 16).
in(53, 19).
in(53, 21).
in(53, 23).
in(53, 28).
in(53, 33).
in(53, 34).
in(53, 38).
in(53, 47).
in(53, 52).
in(53, 53).
in(53, 54).
in(53, 57).
in(53, 58).
in(53, 64).
in(53, 71).
in(53, 73).
in(53, 75).
in(54, 4).
in(54, 5).
in(54, 7).
in(54, 15).
in(54, 16).
in(54, 17).
in(54, 18).
in(54, 20).
in(54, 21).
in(54, 25).
in(54, 27).
in(54, 29).
in(54, 30).
in(54, 32).
in(54, 37).
in(54, 38).
in(54, 39).
in(54, 42).
in(54, 43).
in(54, 44).
in(54, 47).
in(54, 48).
in(54, 52).
in(54, 54).
in(54, 55).
in(54, 57).
in(54, 61).
in(54, 64).
in(54, 65).
in(54, 72).
in(54, 74).
in(55, 4).
in(55, 6).
in(55, 7).
in(55, 8).
in(55, 9).
in(55, 10).
in(55, 17).
in(55, 19).
in(55, 30).
in(55, 31).
in(55, 33).
in(55, 35).
in(55, 36).
in(55, 37).
in(55, 41).
in(55, 42).
in(55, 43).
in(55, 44).
in(55, 47).
in(55, 52).
in(55, 54).
in(55, 60).
in(55, 65).
in(55, 66).
in(55, 68).
in(55, 69).
in(55, 70).
in(55, 72).
in(55, 73).
in(55, 75).
in(56, 3).
in(56, 5).
in(56, 8).
in(56, 14).
in(56, 26).
in(56, 29).
in(56, 31).
in(56, 33).
in(56, 39).
in(56, 41).
in(56, 44).
in(56, 47).
in(56, 55).
in(56, 57).
in(56, 58).
in(56, 60).
in(56, 65).
in(56, 67).
in(56, 69).
in(56, 70).
in(56, 73).
in(56, 74).
in(57, 4).
in(57, 7).
in(57, 12).
in(57, 13).
in(57, 17).
in(57, 18).
in(57, 20).
in(57, 25).
in(57, 30).
in(57, 31).
in(57, 32).
in(57, 34).
in(57, 35).
in(57, 37).
in(57, 42).
in(57, 43).
in(57, 44).
in(57, 47).
in(57, 48).
in(57, 50).
in(57, 52).
in(57, 56).
in(57, 58).
in(57, 64).
in(57, 65).
in(57, 66).
in(57, 67).
in(57, 74).
in(57, 75).
in(58, 1).
in(58, 6).
in(58, 7).
in(58, 8).
in(58, 10).
in(58, 13).
in(58, 14).
in(58, 16).
in(58, 20).
in(58, 23).
in(58, 25).
in(58, 28).
in(58, 29).
in(58, 31).
in(58, 35).
in(58, 38).
in(58, 43).
in(58, 45).
in(58, 46).
in(58, 51).
in(58, 53).
in(58, 54).
in(58, 55).
in(58, 56).
in(58, 58).
in(58, 61).
in(58, 63).
in(58, 65).
in(58, 74).
in(58, 75).
in(59, 5).
in(59, 8).
in(59, 22).
in(59, 24).
in(59, 25).
in(59, 27).
in(59, 28).
in(59, 29).
in(59, 30).
in(59, 32).
in(59, 43).
in(59, 53).
in(59, 59).
in(59, 64).
in(59, 66).
in(59, 67).
in(59, 72).
in(59, 73).
in(59, 74).
in(60, 1).
in(60, 2).
in(60, 3).
in(60, 7).
in(60, 9).
in(60, 11).
in(60, 12).
in(60, 14).
in(60, 17).
in(60, 19).
in(60, 20).
in(60, 24).
in(60, 25).
in(60, 28).
in(60, 31).
in(60, 33).
in(60, 35).
in(60, 44).
in(60, 45).
in(60, 52).
in(60, 54).
in(60, 57).
in(60, 58).
in(60, 59).
in(60, 66).
in(60, 68).
in(60, 70).
in(60, 72).
in(60, 73).
in(60, 75).
in(61, 4).
in(61, 5).
in(61, 8).
in(61, 9).
in(61, 11).
in(61, 13).
in(61, 17).
in(61, 19).
in(61, 24).
in(61, 26).
in(61, 27).
in(61, 35).
in(61, 39).
in(61, 40).
in(61, 41).
in(61, 43).
in(61, 46).
in(61, 53).
in(61, 62).
in(61, 69).
in(61, 72).
in(61, 73).
in(61, 75).
in(62, 4).
in(62, 9).
in(62, 10).
in(62, 19).
in(62, 20).
in(62, 21).
in(62, 30).
in(62, 33).
in(62, 34).
in(62, 41).
in(62, 44).
in(62, 46).
in(62, 48).
in(62, 51).
in(62, 53).
in(62, 56).
in(62, 58).
in(62, 61).
in(62, 63).
in(62, 64).
in(62, 67).
in(63, 4).
in(63, 9).
in(63, 10).
in(63, 11).
in(63, 15).
in(63, 18).
in(63, 19).
in(63, 21).
in(63, 24).
in(63, 29).
in(63, 30).
in(63, 31).
in(63, 36).
in(63, 37).
in(63, 39).
in(63, 41).
in(63, 43).
in(63, 48).
in(63, 50).
in(63, 51).
in(63, 52).
in(63, 55).
in(63, 64).
in(63, 67).
in(63, 68).
in(63, 70).
in(63, 71).
in(63, 73).
in(63, 74).
in(64, 5).
in(64, 13).
in(64, 15).
in(64, 18).
in(64, 19).
in(64, 20).
in(64, 26).
in(64, 28).
in(64, 30).
in(64, 33).
in(64, 34).
in(64, 37).
in(64, 38).
in(64, 39).
in(64, 41).
in(64, 42).
in(64, 44).
in(64, 45).
in(64, 50).
in(64, 54).
in(64, 55).
in(64, 57).
in(64, 58).
in(64, 60).
in(64, 62).
in(64, 65).
in(64, 68).
in(64, 69).
in(64, 74).
in(65, 3).
in(65, 4).
in(65, 6).
in(65, 10).
in(65, 14).
in(65, 17).
in(65, 18).
in(65, 19).
in(65, 23).
in(65, 24).
in(65, 27).
in(65, 29).
in(65, 31).
in(65, 32).
in(65, 35).
in(65, 37).
in(65, 38).
in(65, 41).
in(65, 43).
in(65, 47).
in(65, 49).
in(65, 50).
in(65, 53).
in(65, 56).
in(65, 57).
in(65, 58).
in(65, 59).
in(65, 60).
in(65, 66).
in(66, 1).
in(66, 7).
in(66, 8).
in(66, 9).
in(66, 12).
in(66, 18).
in(66, 25).
in(66, 30).
in(66, 32).
in(66, 33).
in(66, 36).
in(66, 38).
in(66, 41).
in(66, 47).
in(66, 52).
in(66, 53).
in(66, 54).
in(66, 55).
in(66, 56).
in(66, 57).
in(66, 58).
in(66, 60).
in(66, 62).
in(66, 67).
in(66, 68).
in(66, 72).
in(66, 73).
in(67, 2).
in(67, 5).
in(67, 6).
in(67, 7).
in(67, 13).
in(67, 14).
in(67, 20).
in(67, 21).
in(67, 23).
in(67, 24).
in(67, 25).
in(67, 26).
in(67, 31).
in(67, 32).
in(67, 34).
in(67, 35).
in(67, 37).
in(67, 40).
in(67, 44).
in(67, 46).
in(67, 59).
in(67, 63).
in(67, 66).
in(67, 71).
in(67, 72).
in(67, 73).
in(67, 75).
in(68, 2).
in(68, 3).
in(68, 8).
in(68, 14).
in(68, 18).
in(68, 23).
in(68, 24).
in(68, 28).
in(68, 30).
in(68, 31).
in(68, 32).
in(68, 34).
in(68, 36).
in(68, 38).
in(68, 42).
in(68, 45).
in(68, 48).
in(68, 51).
in(68, 55).
in(68, 57).
in(68, 60).
in(68, 61).
in(68, 63).
in(68, 64).
in(68, 68).
in(68, 70).
in(68, 71).
in(68, 72).
in(68, 74).
in(69, 4).
in(69, 5).
in(69, 6).
in(69, 11).
in(69, 22).
in(69, 26).
in(69, 28).
in(69, 29).
in(69, 31).
in(69, 32).
in(69, 33).
in(69, 35).
in(69, 36).
in(69, 39).
in(69, 40).
in(69, 43).
in(69, 45).
in(69, 48).
in(69, 49).
in(69, 51).
in(69, 53).
in(69, 57).
in(69, 69).
in(69, 75).
in(70, 1).
in(70, 3).
in(70, 8).
in(70, 11).
in(70, 12).
in(70, 13).
in(70, 14).
in(70, 17).
in(70, 19).
in(70, 21).
in(70, 22).
in(70, 27).
in(70, 29).
in(70, 36).
in(70, 42).
in(70, 43).
in(70, 48).
in(70, 54).
in(70, 55).
in(70, 56).
in(70, 60).
in(70, 61).
in(70, 63).
in(70, 65).
in(70, 69).
in(70, 71).
in(70, 72).
in(71, 1).
in(71, 2).
in(71, 10).
in(71, 11).
in(71, 12).
in(71, 15).
in(71, 16).
in(71, 18).
in(71, 21).
in(71, 24).
in(71, 25).
in(71, 26).
in(71, 28).
in(71, 30).
in(71, 33).
in(71, 36).
in(71, 37).
in(71, 38).
in(71, 39).
in(71, 41).
in(71, 45).
in(71, 49).
in(71, 50).
in(71, 53).
in(71, 56).
in(71, 58).
in(71, 60).
in(71, 61).
in(71, 64).
in(71, 65).
in(71, 66).
in(71, 69).
in(71, 72).
in(71, 73).
in(71, 74).
in(72, 4).
in(72, 5).
in(72, 6).
in(72, 7).
in(72, 9).
in(72, 10).
in(72, 13).
in(72, 17).
in(72, 19).
in(72, 22).
in(72, 23).
in(72, 24).
in(72, 25).
in(72, 26).
in(72, 29).
in(72, 36).
in(72, 38).
in(72, 39).
in(72, 41).
in(72, 42).
in(72, 43).
in(72, 47).
in(72, 55).
in(72, 58).
in(72, 59).
in(72, 60).
in(72, 61).
in(72, 64).
in(72, 71).
in(72, 75).
in(73, 4).
in(73, 6).
in(73, 14).
in(73, 15).
in(73, 16).
in(73, 21).
in(73, 23).
in(73, 25).
in(73, 34).
in(73, 35).
in(73, 38).
in(73, 41).
in(73, 43).
in(73, 48).
in(73, 51).
in(73, 54).
in(73, 60).
in(73, 62).
in(73, 63).
in(73, 64).
in(73, 65).
in(73, 66).
in(73, 70).
in(73, 72).
in(74, 4).
in(74, 6).
in(74, 8).
in(74, 9).
in(74, 12).
in(74, 13).
in(74, 14).
in(74, 15).
in(74, 20).
in(74, 22).
in(74, 24).
in(74, 28).
in(74, 30).
in(74, 35).
in(74, 36).
in(74, 41).
in(74, 47).
in(74, 49).
in(74, 50).
in(74, 52).
in(74, 55).
in(74, 56).
in(74, 59).
in(74, 60).
in(74, 61).
in(74, 65).
in(74, 70).
in(74, 73).
in(74, 75).
in(75, 1).
in(75, 5).
in(75, 7).
in(75, 11).
in(75, 12).
in(75, 13).
in(75, 18).
in(75, 20).
in(75, 21).
in(75, 25).
in(75, 30).
in(75, 32).
in(75, 33).
in(75, 37).
in(75, 38).
in(75, 39).
in(75, 42).
in(75, 44).
in(75, 46).
in(75, 52).
in(75, 54).
in(75, 61).
in(75, 64).
in(75, 67).
in(75, 68).
in(75, 69).
in(76, 1).
in(76, 3).
in(76, 7).
in(76, 9).
in(76, 11).
in(76, 15).
in(76, 16).
in(76, 18).
in(76, 20).
in(76, 23).
in(76, 27).
in(76, 29).
in(76, 30).
in(76, 31).
in(76, 32).
in(76, 35).
in(76, 37).
in(76, 39).
in(76, 45).
in(76, 46).
in(76, 49).
in(76, 52).
in(76, 53).
in(76, 56).
in(76, 61).
in(76, 67).
in(76, 68).
in(76, 71).
in(76, 73).
in(76, 75).
in(77, 3).
in(77, 5).
in(77, 6).
in(77, 7).
in(77, 8).
in(77, 13).
in(77, 16).
in(77, 22).
in(77, 23).
in(77, 24).
in(77, 26).
in(77, 27).
in(77, 29).
in(77, 31).
in(77, 32).
in(77, 41).
in(77, 46).
in(77, 50).
in(77, 53).
in(77, 59).
in(77, 61).
in(77, 62).
in(77, 63).
in(77, 65).
in(77, 66).
in(77, 68).
in(78, 4).
in(78, 15).
in(78, 17).
in(78, 24).
in(78, 26).
in(78, 27).
in(78, 28).
in(78, 30).
in(78, 33).
in(78, 34).
in(78, 35).
in(78, 39).
in(78, 44).
in(78, 47).
in(78, 49).
in(78, 50).
in(78, 56).
in(78, 57).
in(78, 58).
in(78, 62).
in(78, 67).
in(78, 70).
in(78, 72).
in(78, 73).
in(78, 75).
in(79, 4).
in(79, 9).
in(79, 13).
in(79, 18).
in(79, 30).
in(79, 33).
in(79, 34).
in(79, 37).
in(79, 40).
in(79, 42).
in(79, 44).
in(79, 47).
in(79, 48).
in(79, 49).
in(79, 51).
in(79, 53).
in(79, 56).
in(79, 61).
in(79, 64).
in(79, 65).
in(79, 66).
in(79, 67).
in(79, 70).
in(80, 1).
in(80, 3).
in(80, 5).
in(80, 10).
in(80, 16).
in(80, 23).
in(80, 25).
in(80, 27).
in(80, 28).
in(80, 29).
in(80, 31).
in(80, 32).
in(80, 36).
in(80, 37).
in(80, 39).
in(80, 40).
in(80, 41).
in(80, 45).
in(80, 46).
in(80, 47).
in(80, 49).
in(80, 50).
in(80, 51).
in(80, 60).
in(80, 67).
in(80, 68).
in(80, 70).
in(80, 72).
in(80, 73).
in(81, 1).
in(81, 3).
in(81, 4).
in(81, 12).
in(81, 17).
in(81, 18).
in(81, 19).
in(81, 20).
in(81, 21).
in(81, 22).
in(81, 24).
in(81, 26).
in(81, 28).
in(81, 31).
in(81, 33).
in(81, 35).
in(81, 36).
in(81, 37).
in(81, 42).
in(81, 43).
in(81, 44).
in(81, 45).
in(81, 46).
in(81, 47).
in(81, 49).
in(81, 50).
in(81, 51).
in(81, 57).
in(81, 59).
in(81, 65).
in(81, 69).
in(81, 72).
in(81, 73).
in(81, 75).
in(82, 1).
in(82, 3).
in(82, 4).
in(82, 7).
in(82, 13).
in(82, 15).
in(82, 16).
in(82, 23).
in(82, 24).
in(82, 27).
in(82, 28).
in(82, 30).
in(82, 31).
in(82, 35).
in(82, 36).
in(82, 38).
in(82, 39).
in(82, 42).
in(82, 50).
in(82, 55).
in(82, 60).
in(82, 66).
in(82, 70).
in(83, 4).
in(83, 5).
in(83, 6).
in(83, 19).
in(83, 21).
in(83, 23).
in(83, 26).
in(83, 27).
in(83, 28).
in(83, 30).
in(83, 31).
in(83, 36).
in(83, 41).
in(83, 42).
in(83, 43).
in(83, 49).
in(83, 51).
in(83, 52).
in(83, 55).
in(83, 56).
in(83, 59).
in(83, 62).
in(83, 63).
in(83, 67).
in(83, 68).
in(83, 73).
in(83, 74).
in(84, 1).
in(84, 2).
in(84, 5).
in(84, 6).
in(84, 7).
in(84, 10).
in(84, 13).
in(84, 14).
in(84, 18).
in(84, 19).
in(84, 21).
in(84, 26).
in(84, 40).
in(84, 41).
in(84, 47).
in(84, 52).
in(84, 57).
in(84, 59).
in(84, 60).
in(84, 62).
in(84, 64).
in(84, 66).
in(84, 67).
in(84, 68).
in(84, 70).
in(84, 71).
in(84, 74).
in(85, 3).
in(85, 4).
in(85, 8).
in(85, 12).
in(85, 15).
in(85, 17).
in(85, 19).
in(85, 24).
in(85, 26).
in(85, 31).
in(85, 32).
in(85, 33).
in(85, 34).
in(85, 38).
in(85, 39).
in(85, 40).
in(85, 48).
in(85, 49).
in(85, 50).
in(85, 52).
in(85, 53).
in(85, 54).
in(85, 57).
in(85, 58).
in(85, 61).
in(85, 65).
in(85, 66).
in(85, 69).
in(85, 70).
in(85, 71).
in(85, 75).
in(86, 1).
in(86, 2).
in(86, 5).
in(86, 6).
in(86, 7).
in(86, 12).
in(86, 20).
in(86, 22).
in(86, 24).
in(86, 27).
in(86, 30).
in(86, 31).
in(86, 32).
in(86, 33).
in(86, 39).
in(86, 41).
in(86, 43).
in(86, 44).
in(86, 45).
in(86, 49).
in(86, 51).
in(86, 57).
in(86, 62).
in(86, 71).
in(86, 75).
in(87, 1).
in(87, 11).
in(87, 12).
in(87, 14).
in(87, 21).
in(87, 22).
in(87, 24).
in(87, 27).
in(87, 31).
in(87, 33).
in(87, 35).
in(87, 38).
in(87, 39).
in(87, 40).
in(87, 42).
in(87, 43).
in(87, 44).
in(87, 45).
in(87, 49).
in(87, 50).
in(87, 51).
in(87, 57).
in(87, 61).
in(87, 64).
in(87, 65).
in(87, 69).
in(87, 71).
in(88, 1).
in(88, 4).
in(88, 7).
in(88, 8).
in(88, 9).
in(88, 10).
in(88, 12).
in(88, 14).
in(88, 17).
in(88, 20).
in(88, 24).
in(88, 28).
in(88, 31).
in(88, 36).
in(88, 38).
in(88, 52).
in(88, 55).
in(88, 58).
in(88, 59).
in(88, 65).
in(88, 67).
in(88, 68).
in(88, 70).
in(88, 72).
in(88, 73).
in(89, 10).
in(89, 12).
in(89, 13).
in(89, 17).
in(89, 18).
in(89, 21).
in(89, 24).
in(89, 28).
in(89, 29).
in(89, 32).
in(89, 36).
in(89, 40).
in(89, 42).
in(89, 44).
in(89, 45).
in(89, 50).
in(89, 52).
in(89, 53).
in(89, 57).
in(89, 58).
in(89, 62).
in(89, 67).
in(89, 70).
in(89, 74).
in(90, 5).
in(90, 6).
in(90, 9).
in(90, 12).
in(90, 15).
in(90, 16).
in(90, 20).
in(90, 27).
in(90, 28).
in(90, 30).
in(90, 31).
in(90, 35).
in(90, 36).
in(90, 37).
in(90, 39).
in(90, 44).
in(90, 45).
in(90, 48).
in(90, 52).
in(90, 53).
in(90, 54).
in(90, 56).
in(90, 57).
in(90, 59).
in(90, 60).
in(90, 65).
in(91, 2).
in(91, 3).
in(91, 4).
in(91, 5).
in(91, 8).
in(91, 10).
in(91, 12).
in(91, 15).
in(91, 16).
in(91, 23).
in(91, 24).
in(91, 25).
in(91, 31).
in(91, 34).
in(91, 37).
in(91, 41).
in(91, 45).
in(91, 46).
in(91, 49).
in(91, 50).
in(91, 55).
in(91, 57).
in(91, 58).
in(91, 59).
in(91, 62).
in(91, 63).
in(91, 67).
in(91, 69).
in(91, 75).
in(92, 2).
in(92, 5).
in(92, 6).
in(92, 7).
in(92, 8).
in(92, 9).
in(92, 11).
in(92, 12).
in(92, 15).
in(92, 23).
in(92, 24).
in(92, 28).
in(92, 29).
in(92, 32).
in(92, 34).
in(92, 38).
in(92, 39).
in(92, 40).
in(92, 46).
in(92, 47).
in(92, 51).
in(92, 62).
in(92, 64).
in(92, 65).
in(92, 66).
in(92, 69).
in(92, 71).
in(92, 75).
in(93, 1).
in(93, 2).
in(93, 3).
in(93, 6).
in(93, 14).
in(93, 17).
in(93, 24).
in(93, 30).
in(93, 32).
in(93, 33).
in(93, 36).
in(93, 39).
in(93, 42).
in(93, 47).
in(93, 52).
in(93, 53).
in(93, 56).
in(93, 60).
in(93, 61).
in(93, 66).
in(93, 67).
in(94, 19).
in(94, 22).
in(94, 24).
in(94, 25).
in(94, 29).
in(94, 31).
in(94, 32).
in(94, 34).
in(94, 35).
in(94, 39).
in(94, 40).
in(94, 41).
in(94, 43).
in(94, 45).
in(94, 47).
in(94, 49).
in(94, 58).
in(94, 61).
in(94, 64).
in(94, 70).
in(94, 73).
in(95, 3).
in(95, 6).
in(95, 16).
in(95, 17).
in(95, 22).
in(95, 24).
in(95, 27).
in(95, 31).
in(95, 32).
in(95, 33).
in(95, 34).
in(95, 35).
in(95, 38).
in(95, 39).
in(95, 40).
in(95, 42).
in(95, 45).
in(95, 47).
in(95, 48).
in(95, 49).
in(95, 50).
in(95, 51).
in(95, 55).
in(95, 56).
in(95, 58).
in(95, 59).
in(95, 61).
in(95, 62).
in(95, 63).
in(95, 65).
in(95, 66).
in(95, 70).
in(95, 71).
in(95, 73).
in(96, 1).
in(96, 2).
in(96, 4).
in(96, 6).
in(96, 7).
in(96, 11).
in(96, 14).
in(96, 17).
in(96, 20).
in(96, 25).
in(96, 26).
in(96, 31).
in(96, 35).
in(96, 38).
in(96, 43).
in(96, 49).
in(96, 50).
in(96, 54).
in(96, 57).
in(96, 64).
in(96, 68).
in(96, 69).
in(96, 71).
in(97, 32).
in(97, 65).
in(97, 66).
in(97, 3).
in(97, 36).
in(97, 68).
in(97, 69).
in(97, 7).
in(97, 70).
in(97, 11).
in(97, 13).
in(97, 45).
in(97, 15).
in(97, 46).
in(97, 49).
in(97, 52).
in(97, 57).
in(97, 31).
in(98, 1).
in(98, 4).
in(98, 5).
in(98, 12).
in(98, 13).
in(98, 14).
in(98, 16).
in(98, 20).
in(98, 22).
in(98, 25).
in(98, 28).
in(98, 31).
in(98, 32).
in(98, 43).
in(98, 44).
in(98, 49).
in(98, 50).
in(98, 52).
in(98, 56).
in(98, 57).
in(98, 58).
in(98, 64).
in(98, 65).
in(98, 67).
in(98, 69).
in(98, 70).
in(98, 73).
in(99, 2).
in(99, 8).
in(99, 11).
in(99, 12).
in(99, 14).
in(99, 15).
in(99, 16).
in(99, 20).
in(99, 21).
in(99, 24).
in(99, 25).
in(99, 31).
in(99, 34).
in(99, 36).
in(99, 43).
in(99, 44).
in(99, 45).
in(99, 46).
in(99, 48).
in(99, 51).
in(99, 52).
in(99, 53).
in(99, 54).
in(99, 55).
in(99, 59).
in(99, 66).
in(99, 67).
in(99, 69).
in(99, 72).
in(99, 73).
in(100, 4).
in(100, 8).
in(100, 11).
in(100, 13).
in(100, 14).
in(100, 19).
in(100, 22).
in(100, 23).
in(100, 25).
in(100, 26).
in(100, 28).
in(100, 31).
in(100, 40).
in(100, 45).
in(100, 46).
in(100, 49).
in(100, 50).
in(100, 59).
in(100, 60).
in(100, 63).
in(100, 67).
in(100, 68).
in(100, 69).
in(100, 71).
in(100, 73).
in(101, 8).
in(101, 10).
in(101, 14).
in(101, 16).
in(101, 18).
in(101, 20).
in(101, 24).
in(101, 27).
in(101, 30).
in(101, 34).
in(101, 40).
in(101, 42).
in(101, 43).
in(101, 44).
in(101, 46).
in(101, 47).
in(101, 48).
in(101, 49).
in(101, 50).
in(101, 61).
in(101, 63).
in(101, 64).
in(101, 68).
in(101, 72).
in(102, 1).
in(102, 2).
in(102, 3).
in(102, 5).
in(102, 6).
in(102, 11).
in(102, 12).
in(102, 13).
in(102, 17).
in(102, 18).
in(102, 19).
in(102, 21).
in(102, 22).
in(102, 25).
in(102, 27).
in(102, 29).
in(102, 34).
in(102, 35).
in(102, 38).
in(102, 39).
in(102, 40).
in(102, 43).
in(102, 51).
in(102, 52).
in(102, 53).
in(102, 54).
in(102, 61).
in(102, 63).
in(102, 65).
in(102, 66).
in(102, 67).
in(102, 68).
in(102, 69).
in(102, 74).
in(103, 2).
in(103, 4).
in(103, 6).
in(103, 9).
in(103, 11).
in(103, 12).
in(103, 15).
in(103, 17).
in(103, 25).
in(103, 27).
in(103, 28).
in(103, 30).
in(103, 31).
in(103, 32).
in(103, 35).
in(103, 36).
in(103, 37).
in(103, 39).
in(103, 44).
in(103, 45).
in(103, 46).
in(103, 49).
in(103, 50).
in(103, 51).
in(103, 53).
in(103, 54).
in(103, 55).
in(103, 56).
in(103, 58).
in(103, 61).
in(103, 62).
in(103, 70).
in(103, 71).
in(103, 75).
in(104, 1).
in(104, 3).
in(104, 6).
in(104, 7).
in(104, 10).
in(104, 12).
in(104, 13).
in(104, 15).
in(104, 16).
in(104, 21).
in(104, 22).
in(104, 23).
in(104, 29).
in(104, 34).
in(104, 35).
in(104, 37).
in(104, 42).
in(104, 44).
in(104, 45).
in(104, 49).
in(104, 50).
in(104, 51).
in(104, 54).
in(104, 56).
in(104, 62).
in(104, 69).
in(104, 73).
in(104, 75).
in(105, 1).
in(105, 2).
in(105, 5).
in(105, 6).
in(105, 12).
in(105, 14).
in(105, 15).
in(105, 16).
in(105, 23).
in(105, 34).
in(105, 36).
in(105, 40).
in(105, 41).
in(105, 42).
in(105, 43).
in(105, 49).
in(105, 54).
in(105, 55).
in(105, 61).
in(105, 67).
in(105, 69).
in(106, 2).
in(106, 5).
in(106, 8).
in(106, 9).
in(106, 13).
in(106, 14).
in(106, 16).
in(106, 18).
in(106, 26).
in(106, 27).
in(106, 28).
in(106, 32).
in(106, 35).
in(106, 39).
in(106, 40).
in(106, 42).
in(106, 44).
in(106, 45).
in(106, 56).
in(106, 58).
in(106, 59).
in(106, 62).
in(106, 64).
in(106, 66).
in(106, 67).
in(106, 70).
in(106, 71).
in(106, 72).
in(106, 73).
in(107, 1).
in(107, 3).
in(107, 6).
in(107, 11).
in(107, 15).
in(107, 17).
in(107, 19).
in(107, 20).
in(107, 22).
in(107, 23).
in(107, 24).
in(107, 28).
in(107, 29).
in(107, 33).
in(107, 35).
in(107, 37).
in(107, 42).
in(107, 45).
in(107, 52).
in(107, 56).
in(107, 62).
in(107, 64).
in(107, 65).
in(107, 67).
in(107, 70).
in(108, 1).
in(108, 5).
in(108, 8).
in(108, 10).
in(108, 15).
in(108, 18).
in(108, 20).
in(108, 24).
in(108, 27).
in(108, 29).
in(108, 30).
in(108, 33).
in(108, 34).
in(108, 36).
in(108, 38).
in(108, 43).
in(108, 49).
in(108, 50).
in(108, 53).
in(108, 56).
in(108, 58).
in(108, 66).
in(108, 67).
in(108, 69).
in(108, 75).
in(109, 1).
in(109, 2).
in(109, 3).
in(109, 5).
in(109, 10).
in(109, 13).
in(109, 14).
in(109, 16).
in(109, 20).
in(109, 22).
in(109, 23).
in(109, 26).
in(109, 29).
in(109, 30).
in(109, 33).
in(109, 34).
in(109, 35).
in(109, 37).
in(109, 42).
in(109, 44).
in(109, 50).
in(109, 54).
in(109, 55).
in(109, 59).
in(109, 61).
in(109, 63).
in(109, 64).
in(109, 65).
in(109, 69).
in(109, 70).
in(109, 72).
in(109, 74).
in(109, 75).
in(110, 7).
in(110, 8).
in(110, 11).
in(110, 26).
in(110, 29).
in(110, 32).
in(110, 33).
in(110, 35).
in(110, 40).
in(110, 41).
in(110, 45).
in(110, 46).
in(110, 47).
in(110, 50).
in(110, 51).
in(110, 54).
in(110, 55).
in(110, 60).
in(110, 61).
in(110, 63).
in(110, 66).
in(110, 67).
in(110, 71).
in(110, 75).
in(111, 1).
in(111, 3).
in(111, 4).
in(111, 5).
in(111, 7).
in(111, 8).
in(111, 10).
in(111, 12).
in(111, 13).
in(111, 15).
in(111, 16).
in(111, 22).
in(111, 24).
in(111, 27).
in(111, 28).
in(111, 31).
in(111, 33).
in(111, 34).
in(111, 35).
in(111, 40).
in(111, 41).
in(111, 43).
in(111, 48).
in(111, 52).
in(111, 60).
in(111, 61).
in(111, 62).
in(111, 64).
in(111, 66).
in(111, 68).
in(111, 71).
in(111, 72).
in(111, 74).
in(112, 5).
in(112, 9).
in(112, 11).
in(112, 15).
in(112, 17).
in(112, 19).
in(112, 20).
in(112, 22).
in(112, 29).
in(112, 31).
in(112, 35).
in(112, 41).
in(112, 42).
in(112, 51).
in(112, 52).
in(112, 60).
in(112, 62).
in(112, 63).
in(112, 66).
in(112, 69).
in(112, 73).
in(112, 74).
in(113, 1).
in(113, 2).
in(113, 3).
in(113, 4).
in(113, 10).
in(113, 15).
in(113, 18).
in(113, 19).
in(113, 21).
in(113, 22).
in(113, 24).
in(113, 25).
in(113, 28).
in(113, 29).
in(113, 30).
in(113, 32).
in(113, 33).
in(113, 42).
in(113, 48).
in(113, 51).
in(113, 59).
in(113, 60).
in(113, 61).
in(113, 64).
in(113, 65).
in(113, 66).
in(113, 71).
in(114, 1).
in(114, 4).
in(114, 5).
in(114, 10).
in(114, 14).
in(114, 15).
in(114, 17).
in(114, 18).
in(114, 22).
in(114, 24).
in(114, 31).
in(114, 36).
in(114, 37).
in(114, 38).
in(114, 42).
in(114, 49).
in(114, 54).
in(114, 55).
in(114, 62).
in(114, 63).
in(114, 69).
in(114, 70).
in(114, 71).
in(114, 73).
in(114, 74).
in(114, 75).
in(115, 5).
in(115, 7).
in(115, 8).
in(115, 13).
in(115, 14).
in(115, 21).
in(115, 31).
in(115, 33).
in(115, 35).
in(115, 38).
in(115, 40).
in(115, 42).
in(115, 44).
in(115, 45).
in(115, 49).
in(115, 50).
in(115, 51).
in(115, 52).
in(115, 54).
in(115, 55).
in(115, 64).
in(115, 66).
in(115, 67).
in(115, 73).
weight(1, 6).
weight(2, 1).
weight(3, 3).
weight(4, 3).
weight(5, 6).
weight(6, 6).
weight(7, 4).
weight(8, 5).
weight(9, 6).
weight(10, 4).
weight(11, 6).
weight(12, 4).
weight(13, 1).
weight(14, 4).
weight(15, 3).
weight(16, 5).
weight(17, 6).
weight(18, 2).
weight(19, 5).
weight(20, 3).
weight(21, 5).
weight(22, 3).
weight(23, 3).
weight(24, 2).
weight(25, 4).
weight(26, 5).
weight(27, 2).
weight(28, 1).
weight(29, 2).
weight(30, 6).
weight(31, 1).
weight(32, 2).
weight(33, 4).
weight(34, 1).
weight(35, 4).
weight(36, 3).
weight(37, 4).
weight(38, 2).
weight(39, 5).
weight(40, 5).
weight(41, 5).
weight(42, 5).
weight(43, 6).
weight(44, 1).
weight(45, 5).
weight(46, 5).
weight(47, 4).
weight(48, 2).
weight(49, 5).
weight(50, 6).
weight(51, 1).
weight(52, 1).
weight(53, 1).
weight(54, 5).
weight(55, 2).
weight(56, 6).
weight(57, 5).
weight(58, 1).
weight(59, 4).
weight(60, 6).
weight(61, 1).
weight(62, 6).
weight(63, 1).
weight(64, 5).
weight(65, 4).
weight(66, 3).
weight(67, 4).
weight(68, 2).
weight(69, 3).
weight(70, 6).
weight(71, 3).
weight(72, 6).
weight(73, 1).
weight(74, 3).
weight(75, 5).
weight(76, 5).
weight(77, 5).
weight(78, 2).
weight(79, 4).
weight(80, 1).
weight(81, 4).
weight(82, 5).
weight(83, 5).
weight(84, 3).
weight(85, 3).
weight(86, 5).
weight(87, 4).
weight(88, 2).
weight(89, 4).
weight(90, 1).
weight(91, 6).
weight(92, 4).
weight(93, 5).
weight(94, 6).
weight(95, 2).
weight(96, 2).
weight(97, 3).
weight(98, 4).
weight(99, 5).
weight(100, 3).
weight(101, 1).
weight(102, 3).
weight(103, 1).
weight(104, 5).
weight(105, 2).
weight(106, 4).
weight(107, 2).
weight(108, 4).
weight(109, 3).
weight(110, 6).
weight(111, 4).
weight(112, 4).
weight(113, 2).
weight(114, 1).
weight(115, 3).

{ choose(S) } :- set(S).
:- choose(S1), choose(S2), S1 < S2, in(S1,E), in(S2,E).
:~ not choose(S), weight(S,W). [W@1,S]
