elem(1..90).
set(1..139).
in(1, 10).
in(1, 11).
in(1, 15).
in(1, 18).
in(1, 20).
in(1, 23).
in(1, 24).
in(1, 27).
in(1, 30).
in(1, 34).
in(1, 38).
in(1, 54).
in(1, 55).
in(1, 57).
in(1, 59).
in(1, 65).
in(1, 66).
in(1, 67).
in(1, 73).
in(1, 76).
in(1, 77).
in(1, 81).
in(1, 84).
in(1, 89).
in(1, 90).
in(2, 17).
in(2, 21).
in(2, 24).
in(2, 27).
in(2, 31).
in(2, 32).
in(2, 33).
in(2, 37).
in(2, 38).
in(2, 40).
in(2, 41).
in(2, 43).
in(2, 45).
in(2, 48).
in(2, 54).
in(2, 64).
in(2, 68).
in(2, 71).
in(2, 72).
in(2, 75).
in(2, 76).
in(2, 81).
in(2, 82).
in(2, 85).
in(2, 90).
in(3, 6).
in(3, 10).
in(3, 12).
in(3, 15).
in(3, 16).
in(3, 20).
in(3, 22).
in(3, 30).
in(3, 31).
in(3, 32).
in(3, 36).
in(3, 43).
in(3, 47).
in(3, 49).
in(3, 57).
in(3, 68).
in(3, 70).
in(3, 72).
in(3, 78).
in(3, 79).
in(3, 81).
in(3, 85).
in(3, 90).
in(4, 2).
in(4, 19).
in(4, 25).
in(4, 28).
in(4, 33).
in(4, 34).
in(4, 35).
in(4, 36).
in(4, 42).
in(4, 44).
in(4, 45).
in(4, 47).
in(4, 48).
in(4, 51).
in(4, 57).
in(4, 70).
in(4, 77).
in(4, 79).
in(4, 84).
in(4, 86).
in(4, 88).
in(5, 2).
in(5, 3).
in(5, 36).
in(5, 5).
in(5, 71).
in(5, 72).
in(5, 9).
in(5, 73).
in(5, 44).
in(5, 77).
in(5, 80).
in(5, 81).
in(5, 24).
in(5, 27).
in(5, 63).
in(6, 1).
in(6, 5).
in(6, 12).
in(6, 13).
in(6, 19).
in(6, 22).
in(6, 23).
in(6, 24).
in(6, 25).
in(6, 41).
in(6, 43).
in(6, 46).
in(6, 48).
in(6, 50).
in(6, 63).
in(6, 66).
in(6, 69).
in(6, 74).
in(6, 77).
in(6, 86).
in(6, 87).
in(7, 1).
in(7, 7).
in(7, 9).
in(7, 13).
in(7, 14).
in(7, 15).
in(7, 33).
in(7, 41).
in(7, 44).
in(7, 45).
in(7, 47).
in(7, 51).
in(7, 53).
in(7, 57).
in(7, 66).
in(7, 68).
in(7, 73).
in(7, 75).
in(7, 76).
in(7, 83).
in(7, 84).
in(7, 89).
in(7, 90).
in(8, 3).
in(8, 7).
in(8, 8).
in(8, 14).
in(8, 15).
in(8, 16).
in(8, 19).
in(8, 22).
in(8, 27).
in(8, 28).
in(8, 29).
in(8, 43).
in(8, 47).
in(8, 50).
in(8, 51).
in(8, 54).
in(8, 61).
in(8, 66).
in(8, 70).
in(8, 73).
in(8, 78).
in(8, 79).
in(9, 65).
in(9, 2).
in(9, 5).
in(9, 6).
in(9, 71).
in(9, 90).
in(9, 9).
in(9, 10).
in(9, 11).
in(9, 16).
in(9, 18).
in(9, 19).
in(9, 22).
in(9, 55).
in(9, 24).
in(9, 56).
in(9, 28).
in(9, 30).
in(10, 2).
in(10, 4).
in(10, 8).
in(10, 11).
in(10, 14).
in(10, 15).
in(10, 20).
in(10, 22).
in(10, 32).
in(10, 33).
in(10, 38).
in(10, 40).
in(10, 41).
in(10, 44).
in(10, 45).
in(10, 46).
in(10, 52).
in(10, 61).
in(10, 62).
in(10, 63).
in(10, 68).
in(10, 71).
in(10, 76).
in(10, 79).
in(10, 80).
in(10, 83).
in(10, 90).
in(11, 3).
in(11, 7).
in(11, 10).
in(11, 13).
in(11, 15).
in(11, 17).
in(11, 23).
in(11, 24).
in(11, 25).
in(11, 37).
in(11, 38).
in(11, 40).
in(11, 44).
in(11, 45).
in(11, 52).
in(11, 55).
in(11, 62).
in(11, 68).
in(11, 69).
in(11, 71).
in(11, 78).
in(11, 79).
in(11, 88).
in(11, 89).
in(12, 3).
in(12, 5).
in(12, 6).
in(12, 11).
in(12, 15).
in(12, 18).
in(12, 23).
in(12, 26).
in(12, 27).
in(12, 29).
in(12, 32).
in(12, 35).
in(12, 40).
in(12, 45).
in(12, 46).
in(12, 47).
in(12, 51).
in(12, 59).
in(12, 62).
in(12, 63).
in(12, 65).
in(12, 67).
in(12, 69).
in(12, 70).
in(12, 71).
in(12, 72).
in(12, 77).
in(12, 78).
in(12, 80).
in(12, 88).
in(13, 1).
in(13, 3).
in(13, 4).
in(13, 6).
in(13, 14).
in(13, 16).
in(13, 27).
in(13, 28).
in(13, 32).
in(13, 34).
in(13, 38).
in(13, 39).
in(13, 41).
in(13, 43).
in(13, 47).
in(13, 49).
in(13, 54).
in(13, 56).
in(13, 57).
in(13, 59).
in(13, 62).
in(13, 65).
in(13, 66).
in(13, 68).
in(13, 73).
in(13, 83).
in(13, 88).
in(14, 3).
in(14, 4).
in(14, 8).
in(14, 15).
in(14, 17).
in(14, 18).
in(14, 20).
in(14, 26).
in(14, 29).
in(14, 31).
in(14, 41).
in(14, 42).
in(14, 43).
in(14, 47).
in(14, 48).
in(14, 49).
in(14, 53).
in(14, 55).
in(14, 57).
in(14, 64).
in(14, 67).
in(14, 69).
in(14, 71).
in(14, 77).
in(14, 78).
in(14, 81).
in(14, 84).
in(14, 90).
in(15, 2).
in(15, 3).
in(15, 4).
in(15, 6).
in(15, 11).
in(15, 15).
in(15, 17).
in(15, 31).
in(15, 33).
in(15, 39).
in(15, 41).
in(15, 42).
in(15, 43).
in(15, 54).
in(15, 58).
in(15, 59).
in(15, 71).
in(15, 72).
in(15, 74).
in(15, 87).
in(16, 32).
in(16, 67).
in(16, 5).
in(16, 37).
in(16, 7).
in(16, 70).
in(16, 90).
in(16, 76).
in(16, 80).
in(16, 18).
in(16, 21).
in(16, 22).
in(16, 55).
in(16, 85).
in(16, 58).
in(16, 59).
in(16, 60).
in(16, 29).
in(17, 2).
in(17, 6).
in(17, 10).
in(17, 13).
in(17, 14).
in(17, 19).
in(17, 24).
in(17, 25).
in(17, 28).
in(17, 30).
in(17, 31).
in(17, 39).
in(17, 65).
in(17, 66).
in(17, 70).
in(17, 76).
in(17, 77).
in(17, 83).
in(17, 90).
in(18, 32).
in(18, 1).
in(18, 65).
in(18, 35).
in(18, 66).
in(18, 38).
in(18, 7).
in(18, 40).
in(18, 43).
in(18, 14).
in(18, 46).
in(18, 81).
in(18, 88).
in(18, 89).
in(18, 90).
in(18, 27).
in(18, 60).
in(18, 30).
in(19, 8).
in(19, 11).
in(19, 23).
in(19, 25).
in(19, 28).
in(19, 31).
in(19, 35).
in(19, 43).
in(19, 46).
in(19, 47).
in(19, 53).
in(19, 54).
in(19, 55).
in(19, 61).
in(19, 69).
in(19, 71).
in(19, 73).
in(19, 80).
in(19, 84).
in(19, 85).
in(19, 87).
in(20, 14).
in(20, 15).
in(20, 16).
in(20, 32).
in(20, 34).
in(20, 37).
in(20, 38).
in(20, 40).
in(20, 45).
in(20, 46).
in(20, 51).
in(20, 52).
in(20, 53).
in(20, 62).
in(20, 63).
in(20, 65).
in(20, 66).
in(20, 70).
in(20, 80).
in(20, 81).
in(21, 2).
in(21, 3).
in(21, 7).
in(21, 9).
in(21, 10).
in(21, 12).
in(21, 18).
in(21, 21).
in(21, 23).
in(21, 27).
in(21, 31).
in(21, 33).
in(21, 35).
in(21, 50).
in(21, 53).
in(21, 57).
in(21, 58).
in(21, 59).
in(21, 62).
in(21, 63).
in(21, 64).
in(21, 69).
in(21, 72).
in(21, 74).
in(21, 79).
in(21, 81).
in(21, 82).
in(21, 84).
in(21, 85).
in(22, 1).
in(22, 4).
in(22, 8).
in(22, 11).
in(22, 14).
in(22, 25).
in(22, 26).
in(22, 27).
in(22, 29).
in(22, 35).
in(22, 37).
in(22, 40).
in(22, 44).
in(22, 45).
in(22, 47).
in(22, 48).
in(22, 50).
in(22, 61).
in(22, 63).
in(22, 65).
in(22, 67).
in(22, 70).
in(22, 79).
in(22, 80).
in(22, 85).
in(22, 87).
in(22, 89).
in(23, 12).
in(23, 13).
in(23, 16).
in(23, 18).
in(23, 19).
in(23, 28).
in(23, 29).
in(23, 31).
in(23, 33).
in(23, 34).
in(23, 38).
in(23, 42).
in(23, 45).
in(23, 49).
in(23, 53).
in(23, 60).
in(23, 73).
in(23, 85).
in(23, 88).
in(23, 90).
in(24, 32).
in(24, 33).
in(24, 2).
in(24, 11).
in(24, 44).
in(24, 45).
in(24, 75).
in(24, 47).
in(24, 16).
in(24, 19).
in(24, 20).
in(24, 51).
in(24, 87).
in(24, 55).
in(24, 62).
in(24, 60).
in(24, 30).
in(24, 63).
in(25, 4).
in(25, 36).
in(25, 69).
in(25, 70).
in(25, 40).
in(25, 41).
in(25, 72).
in(25, 11).
in(25, 44).
in(25, 13).
in(25, 48).
in(25, 17).
in(25, 50).
in(25, 19).
in(25, 53).
in(25, 85).
in(25, 86).
in(25, 24).
in(26, 2).
in(26, 3).
in(26, 6).
in(26, 7).
in(26, 16).
in(26, 22).
in(26, 23).
in(26, 25).
in(26, 27).
in(26, 28).
in(26, 30).
in(26, 31).
in(26, 32).
in(26, 40).
in(26, 41).
in(26, 43).
in(26, 45).
in(26, 53).
in(26, 58).
in(26, 61).
in(26, 64).
in(26, 67).
in(26, 72).
in(26, 74).
in(26, 77).
in(26, 83).
in(26, 87).
in(26, 89).
in(27, 64).
in(27, 33).
in(27, 2).
in(27, 3).
in(27, 35).
in(27, 37).
in(27, 38).
in(27, 66).
in(27, 14).
in(27, 81).
in(27, 51).
in(27, 53).
in(27, 54).
in(27, 23).
in(27, 57).
in(28, 32).
in(28, 33).
in(28, 3).
in(28, 35).
in(28, 67).
in(28, 9).
in(28, 73).
in(28, 45).
in(28, 14).
in(28, 47).
in(28, 16).
in(28, 17).
in(28, 84).
in(28, 85).
in(28, 88).
in(28, 58).
in(29, 8).
in(29, 10).
in(29, 14).
in(29, 19).
in(29, 22).
in(29, 29).
in(29, 34).
in(29, 41).
in(29, 50).
in(29, 54).
in(29, 63).
in(29, 64).
in(29, 66).
in(29, 68).
in(29, 71).
in(29, 74).
in(29, 79).
in(29, 80).
in(29, 82).
in(29, 89).
in(29, 90).
in(30, 3).
in(30, 5).
in(30, 8).
in(30, 11).
in(30, 19).
in(30, 21).
in(30, 30).
in(30, 35).
in(30, 37).
in(30, 38).
in(30, 42).
in(30, 50).
in(30, 53).
in(30, 54).
in(30, 57).
in(30, 60).
in(30, 66).
in(30, 67).
in(30, 69).
in(30, 71).
in(30, 74).
in(30, 76).
in(30, 80).
in(30, 83).
in(30, 84).
in(31, 11).
in(31, 18).
in(31, 20).
in(31, 22).
in(31, 31).
in(31, 37).
in(31, 39).
in(31, 41).
in(31, 42).
in(31, 45).
in(31, 47).
in(31, 50).
in(31, 55).
in(31, 59).
in(31, 66).
in(31, 68).
in(31, 73).
in(31, 76).
in(31, 84).
in(31, 89).
in(32, 10).
in(32, 12).
in(32, 13).
in(32, 16).
in(32, 25).
in(32, 36).
in(32, 38).
in(32, 41).
in(32, 44).
in(32, 46).
in(32, 49).
in(32, 58).
in(32, 73).
in(32, 74).
in(32, 77).
in(32, 80).
in(32, 81).
in(32, 85).
in(32, 87).
in(32, 88).
in(33, 1).
in(33, 10).
in(33, 14).
in(33, 17).
in(33, 23).
in(33, 26).
in(33, 35).
in(33, 46).
in(33, 54).
in(33, 62).
in(33, 63).
in(33, 64).
in(33, 67).
in(33, 71).
in(33, 75).
in(33, 76).
in(33, 78).
in(33, 84).
in(33, 90).
in(34, 7).
in(34, 13).
in(34, 28).
in(34, 30).
in(34, 31).
in(34, 36).
in(34, 37).
in(34, 38).
in(34, 39).
in(34, 41).
in(34, 43).
in(34, 47).
in(34, 49).
in(34, 50).
in(34, 53).
in(34, 58).
in(34, 66).
in(34, 70).
in(34, 72).
in(34, 78).
in(35, 3).
in(35, 4).
in(35, 8).
in(35, 9).
in(35, 11).
in(35, 16).
in(35, 17).
in(35, 18).
in(35, 21).
in(35, 22).
in(35, 23).
in(35, 24).
in(35, 27).
in(35, 28).
in(35, 29).
in(35, 32).
in(35, 34).
in(35, 38).
in(35, 39).
in(35, 43).
in(35, 45).
in(35, 55).
in(35, 58).
in(35, 63).
in(35, 74).
in(35, 75).
in(35, 77).
in(35, 79).
in(35, 82).
in(35, 83).
in(35, 88).
in(36, 9).
in(36, 11).
in(36, 16).
in(36, 17).
in(36, 21).
in(36, 25).
in(36, 36).
in(36, 39).
in(36, 40).
in(36, 44).
in(36, 55).
in(36, 66).
in(36, 67).
in(36, 74).
in(36, 76).
in(36, 77).
in(36, 79).
in(36, 81).
in(36, 86).
in(37, 2).
in(37, 3).
in(37, 9).
in(37, 12).
in(37, 19).
in(37, 20).
in(37, 26).
in(37, 40).
in(37, 42).
in(37, 44).
in(37, 47).
in(37, 49).
in(37, 53).
in(37, 56).
in(37, 64).
in(37, 66).
in(37, 71).
in(37, 72).
in(37, 73).
in(37, 75).
in(37, 76).
in(37, 84).
in(37, 86).
in(37, 89).
in(38, 1).
in(38, 12).
in(38, 14).
in(38, 16).
in(38, 17).
in(38, 20).
in(38, 29).
in(38, 30).
in(38, 31).
in(38, 39).
in(38, 41).
in(38, 43).
in(38, 46).
in(38, 48).
in(38, 51).
in(38, 54).
in(38, 60).
in(38, 62).
in(38, 67).
in(38, 69).
in(38, 80).
in(38, 81).
in(38, 84).
in(39, 2).
in(39, 16).
in(39, 26).
in(39, 33).
in(39, 35).
in(39, 42).
in(39, 44).
in(39, 46).
in(39, 50).
in(39, 52).
in(39, 56).
in(39, 58).
in(39, 60).
in(39, 61).
in(39, 67).
in(39, 69).
in(39, 73).
in(39, 79).
in(39, 80).
in(39, 82).
in(39, 85).
in(40, 3).
in(40, 14).
in(40, 15).
in(40, 18).
in(40, 21).
in(40, 24).
in(40, 27).
in(40, 28).
in(40, 35).
in(40, 36).
in(40, 40).
in(40, 47).
in(40, 51).
in(40, 56).
in(40, 57).
in(40, 60).
in(40, 64).
in(40, 73).
in(40, 74).
in(40, 78).
in(40, 82).
in(41, 1).
in(41, 3).
in(41, 4).
in(41, 8).
in(41, 10).
in(41, 12).
in(41, 13).
in(41, 15).
in(41, 16).
in(41, 17).
in(41, 18).
in(41, 19).
in(41, 20).
in(41, 25).
in(41, 26).
in(41, 31).
in(41, 32).
in(41, 38).
in(41, 40).
in(41, 54).
in(41, 58).
in(41, 73).
in(41, 76).
in(41, 78).
in(41, 85).
in(41, 90).
in(42, 6).
in(42, 11).
in(42, 17).
in(42, 31).
in(42, 35).
in(42, 36).
in(42, 37).
in(42, 44).
in(42, 47).
in(42, 48).
in(42, 50).
in(42, 62).
in(42, 63).
in(42, 75).
in(42, 78).
in(42, 79).
in(42, 82).
in(42, 83).
in(42, 89).
in(42, 90).
in(43, 1).
in(43, 4).
in(43, 6).
in(43, 9).
in(43, 17).
in(43, 19).
in(43, 20).
in(43, 22).
in(43, 25).
in(43, 29).
in(43, 33).
in(43, 34).
in(43, 36).
in(43, 38).
in(43, 46).
in(43, 47).
in(43, 49).
in(43, 52).
in(43, 53).
in(43, 59).
in(43, 63).
in(43, 66).
in(43, 69).
in(43, 71).
in(43, 76).
in(43, 85).
in(43, 88).
in(43, 90).
in(44, 12).
in(44, 13).
in(44, 14).
in(44, 16).
in(44, 20).
in(44, 21).
in(44, 23).
in(44, 35).
in(44, 37).
in(44, 50).
in(44, 55).
in(44, 57).
in(44, 62).
in(44, 64).
in(44, 65).
in(44, 66).
in(44, 79).
in(44, 85).
in(44, 90).
in(45, 6).
in(45, 7).
in(45, 14).
in(45, 17).
in(45, 18).
in(45, 21).
in(45, 29).
in(45, 30).
in(45, 32).
in(45, 33).
in(45, 36).
in(45, 42).
in(45, 47).
in(45, 50).
in(45, 51).
in(45, 54).
in(45, 58).
in(45, 60).
in(45, 62).
in(45, 67).
in(45, 69).
in(45, 71).
in(45, 73).
in(45, 75).
in(45, 76).
in(45, 78).
in(45, 80).
in(45, 81).
in(45, 82).
in(45, 84).
in(45, 90).
in(46, 2).
in(46, 7).
in(46, 9).
in(46, 11).
in(46, 28).
in(46, 33).
in(46, 36).
in(46, 38).
in(46, 40).
in(46, 42).
in(46, 47).
in(46, 49).
in(46, 56).
in(46, 66).
in(46, 71).
in(46, 75).
in(46, 76).
in(46, 81).
in(46, 85).
in(47, 34).
in(47, 69).
in(47, 6).
in(47, 42).
in(47, 43).
in(47, 14).
in(47, 15).
in(47, 47).
in(47, 79).
in(47, 50).
in(47, 20).
in(47, 84).
in(47, 54).
in(47, 24).
in(47, 27).
in(47, 63).
in(47, 31).
in(48, 1).
in(48, 2).
in(48, 7).
in(48, 8).
in(48, 15).
in(48, 18).
in(48, 19).
in(48, 22).
in(48, 35).
in(48, 36).
in(48, 38).
in(48, 39).
in(48, 50).
in(48, 52).
in(48, 58).
in(48, 59).
in(48, 65).
in(48, 69).
in(48, 75).
in(48, 76).
in(48, 78).
in(48, 88).
in(49, 10).
in(49, 12).
in(49, 15).
in(49, 19).
in(49, 24).
in(49, 26).
in(49, 31).
in(49, 36).
in(49, 38).
in(49, 43).
in(49, 47).
in(49, 51).
in(49, 59).
in(49, 66).
in(49, 68).
in(49, 72).
in(49, 75).
in(49, 79).
in(49, 82).
in(49, 86).
in(50, 5).
in(50, 9).
in(50, 12).
in(50, 19).
in(50, 20).
in(50, 30).
in(50, 32).
in(50, 34).
in(50, 38).
in(50, 41).
in(50, 43).
in(50, 46).
in(50, 51).
in(50, 53).
in(50, 60).
in(50, 61).
in(50, 63).
in(50, 67).
in(50, 68).
in(50, 72).
in(50, 73).
in(50, 84).
in(50, 88).
in(50, 89).
in(51, 1).
in(51, 11).
in(51, 17).
in(51, 19).
in(51, 20).
in(51, 26).
in(51, 27).
in(51, 28).
in(51, 29).
in(51, 32).
in(51, 33).
in(51, 35).
in(51, 36).
in(51, 38).
in(51, 39).
in(51, 43).
in(51, 45).
in(51, 46).
in(51, 51).
in(51, 57).
in(51, 58).
in(51, 66).
in(51, 80).
in(51, 84).
in(51, 85).
in(52, 2).
in(52, 4).
in(52, 10).
in(52, 12).
in(52, 24).
in(52, 29).
in(52, 32).
in(52, 33).
in(52, 36).
in(52, 38).
in(52, 40).
in(52, 42).
in(52, 47).
in(52, 49).
in(52, 55).
in(52, 72).
in(52, 73).
in(52, 74).
in(52, 89).
in(53, 65).
in(53, 2).
in(53, 70).
in(53, 39).
in(53, 73).
in(53, 42).
in(53, 13).
in(53, 46).
in(53, 47).
in(53, 50).
in(53, 82).
in(53, 84).
in(53, 53).
in(53, 56).
in(53, 89).
in(53, 90).
in(53, 27).
in(54, 6).
in(54, 9).
in(54, 14).
in(54, 15).
in(54, 16).
in(54, 20).
in(54, 21).
in(54, 28).
in(54, 29).
in(54, 33).
in(54, 35).
in(54, 37).
in(54, 38).
in(54, 40).
in(54, 42).
in(54, 46).
in(54, 51).
in(54, 66).
in(54, 72).
in(54, 73).
in(54, 75).
in(54, 84).
in(54, 86).
in(54, 87).
in(54, 88).
in(55, 7).
in(55, 10).
in(55, 12).
in(55, 15).
in(55, 18).
in(55, 21).
in(55, 22).
in(55, 23).
in(55, 25).
in(55, 30).
in(55, 31).
in(55, 32).
in(55, 33).
in(55, 36).
in(55, 40).
in(55, 42).
in(55, 43).
in(55, 45).
in(55, 48).
in(55, 58).
in(55, 61).
in(55, 66).
in(55, 67).
in(55, 72).
in(55, 74).
in(55, 76).
in(55, 79).
in(55, 83).
in(55, 84).
in(55, 86).
in(56, 5).
in(56, 9).
in(56, 10).
in(56, 12).
in(56, 17).
in(56, 30).
in(56, 35).
in(56, 37).
in(56, 40).
in(56, 43).
in(56, 47).
in(56, 48).
in(56, 60).
in(56, 65).
in(56, 66).
in(56, 72).
in(56, 73).
in(56, 85).
in(56, 86).
in(56, 90).
in(57, 2).
in(57, 4).
in(57, 6).
in(57, 11).
in(57, 12).
in(57, 13).
in(57, 14).
in(57, 15).
in(57, 19).
in(57, 20).
in(57, 22).
in(57, 30).
in(57, 32).
in(57, 40).
in(57, 44).
in(57, 46).
in(57, 48).
in(57, 52).
in(57, 55).
in(57, 56).
in(57, 62).
in(57, 67).
in(57, 68).
in(57, 70).
in(57, 75).
in(57, 78).
in(57, 79).
in(57, 81).
in(57, 84).
in(57, 90).
in(58, 5).
in(58, 7).
in(58, 8).
in(58, 9).
in(58, 10).
in(58, 19).
in(58, 20).
in(58, 22).
in(58, 23).
in(58, 26).
in(58, 30).
in(58, 31).
in(58, 37).
in(58, 40).
in(58, 43).
in(58, 53).
in(58, 58).
in(58, 61).
in(58, 64).
in(58, 72).
in(58, 75).
in(58, 76).
in(58, 78).
in(58, 83).
in(58, 89).
in(59, 64).
in(59, 1).
in(59, 66).
in(59, 3).
in(59, 35).
in(59, 39).
in(59, 8).
in(59, 44).
in(59, 48).
in(59, 81).
in(59, 19).
in(59, 53).
in(59, 85).
in(59, 26).
in(59, 27).
in(59, 28).
in(59, 31).
in(60, 2).
in(60, 6).
in(60, 8).
in(60, 12).
in(60, 16).
in(60, 19).
in(60, 23).
in(60, 25).
in(60, 35).
in(60, 38).
in(60, 41).
in(60, 44).
in(60, 45).
in(60, 46).
in(60, 51).
in(60, 52).
in(60, 53).
in(60, 54).
in(60, 56).
in(60, 69).
in(60, 71).
in(60, 72).
in(60, 73).
in(60, 77).
in(60, 86).
in(60, 90).
in(61, 8).
in(61, 12).
in(61, 18).
in(61, 20).
in(61, 21).
in(61, 24).
in(61, 26).
in(61, 27).
in(61, 34).
in(61, 38).
in(61, 40).
in(61, 41).
in(61, 46).
in(61, 47).
in(61, 48).
in(61, 58).
in(61, 76).
in(61, 78).
in(61, 79).
in(61, 82).
in(61, 83).
in(61, 84).
in(61, 86).
in(62, 1).
in(62, 2).
in(62, 3).
in(62, 5).
in(62, 6).
in(62, 7).
in(62, 10).
in(62, 24).
in(62, 30).
in(62, 34).
in(62, 36).
in(62, 38).
in(62, 47).
in(62, 48).
in(62, 51).
in(62, 52).
in(62, 56).
in(62, 59).
in(62, 60).
in(62, 64).
in(62, 66).
in(62, 70).
in(62, 74).
in(62, 80).
in(62, 86).
in(62, 87).
in(62, 89).
in(63, 2).
in(63, 4).
in(63, 6).
in(63, 14).
in(63, 17).
in(63, 20).
in(63, 27).
in(63, 29).
in(63, 33).
in(63, 38).
in(63, 40).
in(63, 42).
in(63, 45).
in(63, 46).
in(63, 49).
in(63, 53).
in(63, 57).
in(63, 59).
in(63, 67).
in(63, 68).
in(63, 69).
in(63, 70).
in(63, 77).
in(63, 84).
in(63, 89).
in(63, 90).
in(64, 32).
in(64, 64).
in(64, 34).
in(64, 36).
in(64, 5).
in(64, 7).
in(64, 41).
in(64, 14).
in(64, 80).
in(64, 50).
in(64, 19).
in(64, 20).
in(64, 85).
in(64, 55).
in(64, 24).
in(64, 26).
in(64, 59).
in(64, 28).
in(65, 6).
in(65, 8).
in(65, 13).
in(65, 16).
in(65, 19).
in(65, 20).
in(65, 28).
in(65, 32).
in(65, 34).
in(65, 40).
in(65, 47).
in(65, 48).
in(65, 49).
in(65, 51).
in(65, 62).
in(65, 63).
in(65, 65).
in(65, 69).
in(65, 81).
in(65, 83).
in(65, 86).
in(65, 87).
in(66, 2).
in(66, 10).
in(66, 19).
in(66, 24).
in(66, 25).
in(66, 41).
in(66, 44).
in(66, 47).
in(66, 49).
in(66, 50).
in(66, 61).
in(66, 62).
in(66, 65).
in(66, 71).
in(66, 75).
in(66, 78).
in(66, 79).
in(66, 87).
in(66, 88).
in(66, 89).
in(67, 9).
in(67, 12).
in(67, 13).
in(67, 14).
in(67, 15).
in(67, 17).
in(67, 23).
in(67, 26).
in(67, 33).
in(67, 39).
in(67, 46).
in(67, 47).
in(67, 54).
in(67, 55).
in(67, 60).
in(67, 62).
in(67, 65).
in(67, 68).
in(67, 78).
in(67, 80).
in(67, 81).
in(67, 87).
in(67, 89).
in(67, 90).
in(68, 33).
in(68, 66).
in(68, 37).
in(68, 6).
in(68, 41).
in(68, 74).
in(68, 11).
in(68, 44).
in(68, 13).
in(68, 45).
in(68, 46).
in(68, 79).
in(68, 53).
in(68, 85).
in(68, 23).
in(68, 56).
in(68, 60).
in(69, 5).
in(69, 9).
in(69, 13).
in(69, 20).
in(69, 24).
in(69, 30).
in(69, 33).
in(69, 36).
in(69, 38).
in(69, 39).
in(69, 48).
in(69, 51).
in(69, 56).
in(69, 57).
in(69, 60).
in(69, 70).
in(69, 74).
in(69, 81).
in(69, 82).
in(69, 86).
in(69, 87).
in(69, 88).
in(70, 6).
in(70, 8).
in(70, 9).
in(70, 10).
in(70, 12).
in(70, 13).
in(70, 26).
in(70, 31).
in(70, 34).
in(70, 35).
in(70, 36).
in(70, 37).
in(70, 38).
in(70, 42).
in(70, 43).
in(70, 45).
in(70, 51).
in(70, 52).
in(70, 53).
in(70, 59).
in(70, 61).
in(70, 62).
in(70, 71).
in(70, 78).
in(70, 85).
in(70, 87).
in(70, 88).
in(71, 2).
in(71, 5).
in(71, 6).
in(71, 15).
in(71, 16).
in(71, 23).
in(71, 24).
in(71, 25).
in(71, 26).
in(71, 37).
in(71, 41).
in(71, 44).
in(71, 48).
in(71, 54).
in(71, 56).
in(71, 59).
in(71, 65).
in(71, 70).
in(71, 78).
in(71, 79).
in(71, 84).
in(71, 87).
in(71, 88).
in(71, 89).
in(72, 10).
in(72, 17).
in(72, 21).
in(72, 24).
in(72, 25).
in(72, 26).
in(72, 27).
in(72, 30).
in(72, 32).
in(72, 34).
in(72, 36).
in(72, 46).
in(72, 51).
in(72, 52).
in(72, 53).
in(72, 57).
in(72, 61).
in(72, 62).
in(72, 64).
in(72, 65).
in(72, 75).
in(72, 77).
in(72, 81).
in(72, 86).
in(72, 88).
in(73, 32).
in(73, 1).
in(73, 64).
in(73, 90).
in(73, 71).
in(73, 8).
in(73, 40).
in(73, 75).
in(73, 17).
in(73, 18).
in(73, 19).
in(73, 21).
in(73, 22).
in(73, 25).
in(73, 26).
in(73, 27).
in(73, 31).
in(74, 5).
in(74, 7).
in(74, 16).
in(74, 22).
in(74, 27).
in(74, 35).
in(74, 42).
in(74, 43).
in(74, 46).
in(74, 48).
in(74, 59).
in(74, 60).
in(74, 62).
in(74, 63).
in(74, 67).
in(74, 69).
in(74, 80).
in(74, 82).
in(74, 87).
in(74, 88).
in(74, 90).
in(75, 4).
in(75, 7).
in(75, 12).
in(75, 16).
in(75, 19).
in(75, 21).
in(75, 25).
in(75, 28).
in(75, 29).
in(75, 31).
in(75, 32).
in(75, 37).
in(75, 38).
in(75, 44).
in(75, 46).
in(75, 48).
in(75, 52).
in(75, 57).
in(75, 66).
in(75, 67).
in(75, 70).
in(75, 79).
in(75, 81).
in(75, 82).
in(76, 1).
in(76, 4).
in(76, 9).
in(76, 14).
in(76, 20).
in(76, 27).
in(76, 30).
in(76, 38).
in(76, 39).
in(76, 45).
in(76, 47).
in(76, 48).
in(76, 50).
in(76, 51).
in(76, 62).
in(76, 71).
in(76, 74).
in(76, 76).
in(76, 78).
in(76, 79).
in(76, 88).
in(77, 4).
in(77, 9).
in(77, 10).
in(77, 12).
in(77, 15).
in(77, 18).
in(77, 22).
in(77, 28).
in(77, 44).
in(77, 47).
in(77, 61).
in(77, 67).
in(77, 68).
in(77, 69).
in(77, 71).
in(77, 74).
in(77, 75).
in(77, 80).
in(77, 82).
in(77, 88).
in(78, 2).
in(78, 5).
in(78, 6).
in(78, 10).
in(78, 11).
in(78, 15).
in(78, 16).
in(78, 20).
in(78, 23).
in(78, 27).
in(78, 29).
in(78, 43).
in(78, 45).
in(78, 50).
in(78, 55).
in(78, 58).
in(78, 70).
in(78, 71).
in(78, 72).
in(78, 73).
in(78, 78).
in(78, 80).
in(78, 89).
in(79, 1).
in(79, 3).
in(79, 5).
in(79, 8).
in(79, 10).
in(79, 11).
in(79, 21).
in(79, 22).
in(79, 23).
in(79, 28).
in(79, 30).
in(79, 33).
in(79, 34).
in(79, 37).
in(79, 39).
in(79, 44).
in(79, 48).
in(79, 50).
in(79, 57).
in(79, 60).
in(79, 70).
in(79, 71).
in(79, 76).
in(79, 84).
in(79, 86).
in(80, 1).
in(80, 3).
in(80, 8).
in(80, 10).
in(80, 11).
in(80, 12).
in(80, 14).
in(80, 16).
in(80, 20).
in(80, 23).
in(80, 26).
in(80, 28).
in(80, 31).
in(80, 36).
in(80, 40).
in(80, 45).
in(80, 57).
in(80, 59).
in(80, 61).
in(80, 65).
in(80, 69).
in(80, 71).
in(80, 73).
in(80, 78).
in(80, 79).
in(80, 81).
in(80, 85).
in(80, 87).
in(81, 7).
in(81, 8).
in(81, 11).
in(81, 12).
in(81, 19).
in(81, 20).
in(81, 21).
in(81, 36).
in(81, 47).
in(81, 48).
in(81, 52).
in(81, 53).
in(81, 60).
in(81, 62).
in(81, 69).
in(81, 71).
in(81, 73).
in(81, 77).
in(81, 80).
in(81, 81).
in(81, 82).
in(81, 87).
in(81, 90).
in(82, 2).
in(82, 3).
in(82, 5).
in(82, 7).
in(82, 8).
in(82, 9).
in(82, 12).
in(82, 16).
in(82, 23).
in(82, 28).
in(82, 32).
in(82, 36).
in(82, 37).
in(82, 43).
in(82, 46).
in(82, 47).
in(82, 49).
in(82, 53).
in(82, 55).
in(82, 58).
in(82, 64).
in(82, 65).
in(82, 72).
in(82, 75).
in(82, 88).
in(82, 89).
in(83, 1).
in(83, 8).
in(83, 13).
in(83, 16).
in(83, 19).
in(83, 24).
in(83, 28).
in(83, 31).
in(83, 39).
in(83, 44).
in(83, 45).
in(83, 47).
in(83, 50).
in(83, 54).
in(83, 60).
in(83, 63).
in(83, 68).
in(83, 70).
in(83, 72).
in(83, 74).
in(83, 81).
in(83, 83).
in(83, 85).
in(83, 86).
in(83, 88).
in(84, 9).
in(84, 11).
in(84, 23).
in(84, 24).
in(84, 25).
in(84, 29).
in(84, 30).
in(84, 34).
in(84, 36).
in(84, 46).
in(84, 51).
in(84, 54).
in(84, 57).
in(84, 64).
in(84, 68).
in(84, 72).
in(84, 74).
in(84, 75).
in(84, 76).
in(84, 80).
in(84, 87).
in(84, 88).
in(85, 15).
in(85, 17).
in(85, 18).
in(85, 21).
in(85, 22).
in(85, 30).
in(85, 44).
in(85, 52).
in(85, 53).
in(85, 56).
in(85, 59).
in(85, 61).
in(85, 63).
in(85, 64).
in(85, 68).
in(85, 72).
in(85, 77).
in(85, 78).
in(85, 86).
in(85, 87).
in(85, 88).
in(86, 33).
in(86, 65).
in(86, 70).
in(86, 73).
in(86, 10).
in(86, 43).
in(86, 74).
in(86, 13).
in(86, 14).
in(86, 15).
in(86, 47).
in(86, 50).
in(86, 20).
in(86, 52).
in(86, 25).
in(86, 59).
in(86, 60).
in(86, 29).
in(87, 3).
in(87, 8).
in(87, 11).
in(87, 12).
in(87, 14).
in(87, 16).
in(87, 19).
in(87, 22).
in(87, 24).
in(87, 27).
in(87, 31).
in(87, 32).
in(87, 34).
in(87, 43).
in(87, 48).
in(87, 58).
in(87, 60).
in(87, 64).
in(87, 65).
in(87, 69).
in(87, 70).
in(87, 78).
in(87, 79).
in(87, 81).
in(87, 84).
in(87, 86).
in(87, 88).
in(87, 89).
in(88, 2).
in(88, 5).
in(88, 9).
in(88, 12).
in(88, 20).
in(88, 22).
in(88, 27).
in(88, 31).
in(88, 38).
in(88, 40).
in(88, 50).
in(88, 52).
in(88, 53).
in(88, 55).
in(88, 56).
in(88, 57).
in(88, 66).
in(88, 76).
in(88, 77).
in(88, 81).
in(88, 82).
in(88, 88).
in(89, 66).
in(89, 35).
in(89, 58).
in(89, 8).
in(89, 47).
in(89, 79).
in(89, 81).
in(89, 50).
in(89, 51).
in(89, 52).
in(89, 82).
in(89, 85).
in(89, 86).
in(89, 25).
in(89, 26).
in(89, 61).
in(90, 67).
in(90, 5).
in(90, 40).
in(90, 9).
in(90, 10).
in(90, 11).
in(90, 12).
in(90, 44).
in(90, 73).
in(90, 19).
in(90, 51).
in(90, 83).
in(90, 22).
in(90, 54).
in(90, 60).
in(90, 63).
in(91, 3).
in(91, 7).
in(91, 10).
in(91, 11).
in(91, 12).
in(91, 19).
in(91, 20).
in(91, 23).
in(91, 25).
in(91, 30).
in(91, 35).
in(91, 40).
in(91, 53).
in(91, 54).
in(91, 58).
in(91, 61).
in(91, 62).
in(91, 71).
in(91, 77).
in(91, 78).
in(91, 84).
in(92, 1).
in(92, 3).
in(92, 5).
in(92, 6).
in(92, 8).
in(92, 14).
in(92, 15).
in(92, 23).
in(92, 24).
in(92, 30).
in(92, 33).
in(92, 36).
in(92, 37).
in(92, 41).
in(92, 52).
in(92, 57).
in(92, 58).
in(92, 59).
in(92, 65).
in(92, 66).
in(92, 74).
in(92, 82).
in(92, 90).
in(93, 3).
in(93, 6).
in(93, 7).
in(93, 9).
in(93, 12).
in(93, 13).
in(93, 16).
in(93, 17).
in(93, 20).
in(93, 27).
in(93, 30).
in(93, 35).
in(93, 36).
in(93, 37).
in(93, 40).
in(93, 42).
in(93, 45).
in(93, 50).
in(93, 52).
in(93, 55).
in(93, 57).
in(93, 60).
in(93, 63).
in(93, 65).
in(93, 67).
in(93, 76).
in(93, 79).
in(93, 80).
in(93, 81).
in(93, 89).
in(94, 2).
in(94, 5).
in(94, 13).
in(94, 21).
in(94, 25).
in(94, 27).
in(94, 35).
in(94, 41).
in(94, 43).
in(94, 44).
in(94, 47).
in(94, 53).
in(94, 56).
in(94, 57).
in(94, 64).
in(94, 65).
in(94, 68).
in(94, 71).
in(94, 73).
in(94, 76).
in(94, 77).
in(94, 80).
in(94, 82).
in(94, 85).
in(94, 90).
in(95, 32).
in(95, 66).
in(95, 4).
in(95, 5).
in(95, 38).
in(95, 7).
in(95, 59).
in(95, 10).
in(95, 15).
in(95, 17).
in(95, 83).
in(95, 84).
in(95, 21).
in(95, 85).
in(95, 86).
in(95, 27).
in(96, 6).
in(96, 10).
in(96, 15).
in(96, 16).
in(96, 17).
in(96, 19).
in(96, 22).
in(96, 25).
in(96, 32).
in(96, 34).
in(96, 40).
in(96, 41).
in(96, 47).
in(96, 48).
in(96, 51).
in(96, 52).
in(96, 57).
in(96, 60).
in(96, 80).
in(96, 82).
in(96, 84).
in(96, 87).
in(97, 64).
in(97, 1).
in(97, 35).
in(97, 69).
in(97, 38).
in(97, 39).
in(97, 8).
in(97, 40).
in(97, 70).
in(97, 12).
in(97, 46).
in(97, 60).
in(97, 18).
in(97, 51).
in(97, 20).
in(97, 23).
in(97, 28).
in(97, 62).
in(98, 64).
in(98, 65).
in(98, 2).
in(98, 35).
in(98, 36).
in(98, 5).
in(98, 37).
in(98, 41).
in(98, 73).
in(98, 74).
in(98, 76).
in(98, 14).
in(98, 52).
in(98, 23).
in(98, 88).
in(98, 61).
in(99, 64).
in(99, 65).
in(99, 34).
in(99, 35).
in(99, 5).
in(99, 72).
in(99, 74).
in(99, 46).
in(99, 82).
in(99, 51).
in(99, 21).
in(99, 23).
in(99, 24).
in(99, 56).
in(99, 88).
in(99, 28).
in(99, 62).
in(100, 2).
in(100, 3).
in(100, 5).
in(100, 8).
in(100, 9).
in(100, 14).
in(100, 17).
in(100, 27).
in(100, 28).
in(100, 36).
in(100, 37).
in(100, 49).
in(100, 50).
in(100, 59).
in(100, 60).
in(100, 62).
in(100, 64).
in(100, 65).
in(100, 71).
in(100, 72).
in(100, 74).
in(100, 86).
in(100, 89).
in(101, 4).
in(101, 15).
in(101, 18).
in(101, 19).
in(101, 23).
in(101, 24).
in(101, 26).
in(101, 36).
in(101, 37).
in(101, 39).
in(101, 42).
in(101, 44).
in(101, 53).
in(101, 60).
in(101, 62).
in(101, 64).
in(101, 66).
in(101, 72).
in(101, 79).
in(101, 85).
in(101, 88).
in(101, 90).
in(102, 3).
in(102, 15).
in(102, 16).
in(102, 18).
in(102, 19).
in(102, 22).
in(102, 27).
in(102, 33).
in(102, 39).
in(102, 40).
in(102, 42).
in(102, 52).
in(102, 58).
in(102, 59).
in(102, 60).
in(102, 65).
in(102, 66).
in(102, 88).
in(102, 90).
in(103, 1).
in(103, 6).
in(103, 7).
in(103, 8).
in(103, 11).
in(103, 24).
in(103, 27).
in(103, 30).
in(103, 36).
in(103, 41).
in(103, 53).
in(103, 55).
in(103, 57).
in(103, 60).
in(103, 61).
in(103, 62).
in(103, 64).
in(103, 67).
in(103, 68).
in(103, 74).
in(103, 76).
in(103, 83).
in(103, 85).
in(103, 87).
in(103, 89).
in(103, 90).
in(104, 3).
in(104, 8).
in(104, 11).
in(104, 17).
in(104, 20).
in(104, 26).
in(104, 27).
in(104, 31).
in(104, 32).
in(104, 33).
in(104, 36).
in(104, 37).
in(104, 41).
in(104, 44).
in(104, 48).
in(104, 49).
in(104, 50).
in(104, 51).
in(104, 57).
in(104, 58).
in(104, 63).
in(104, 68).
in(104, 69).
in(104, 72).
in(104, 85).
in(105, 2).
in(105, 7).
in(105, 8).
in(105, 9).
in(105, 10).
in(105, 20).
in(105, 24).
in(105, 25).
in(105, 30).
in(105, 32).
in(105, 41).
in(105, 46).
in(105, 47).
in(105, 49).
in(105, 50).
in(105, 55).
in(105, 61).
in(105, 63).
in(105, 75).
in(105, 80).
in(105, 84).
in(105, 88).
in(105, 90).
in(106, 66).
in(106, 5).
in(106, 72).
in(106, 42).
in(106, 43).
in(106, 44).
in(106, 14).
in(106, 49).
in(106, 51).
in(106, 52).
in(106, 53).
in(106, 54).
in(106, 83).
in(106, 56).
in(106, 62).
in(106, 87).
in(106, 88).
in(106, 30).
in(107, 1).
in(107, 2).
in(107, 3).
in(107, 4).
in(107, 8).
in(107, 12).
in(107, 14).
in(107, 16).
in(107, 22).
in(107, 27).
in(107, 29).
in(107, 36).
in(107, 37).
in(107, 38).
in(107, 44).
in(107, 45).
in(107, 52).
in(107, 61).
in(107, 63).
in(107, 66).
in(107, 69).
in(107, 72).
in(107, 73).
in(107, 88).
in(107, 89).
in(107, 90).
in(108, 8).
in(108, 16).
in(108, 17).
in(108, 24).
in(108, 25).
in(108, 29).
in(108, 32).
in(108, 33).
in(108, 36).
in(108, 38).
in(108, 44).
in(108, 46).
in(108, 48).
in(108, 50).
in(108, 52).
in(108, 55).
in(108, 58).
in(108, 65).
in(108, 72).
in(108, 83).
in(108, 84).
in(108, 85).
in(109, 4).
in(109, 10).
in(109, 12).
in(109, 15).
in(109, 19).
in(109, 21).
in(109, 28).
in(109, 30).
in(109, 31).
in(109, 36).
in(109, 38).
in(109, 42).
in(109, 43).
in(109, 44).
in(109, 47).
in(109, 53).
in(109, 56).
in(109, 57).
in(109, 61).
in(109, 63).
in(109, 65).
in(109, 67).
in(109, 81).
in(109, 84).
in(109, 86).
in(109, 88).
in(110, 1).
in(110, 2).
in(110, 12).
in(110, 17).
in(110, 23).
in(110, 25).
in(110, 32).
in(110, 41).
in(110, 44).
in(110, 45).
in(110, 60).
in(110, 63).
in(110, 69).
in(110, 70).
in(110, 73).
in(110, 77).
in(110, 81).
in(110, 85).
in(110, 87).
in(110, 88).
in(110, 89).
in(110, 90).
in(111, 2).
in(111, 5).
in(111, 14).
in(111, 15).
in(111, 18).
in(111, 26).
in(111, 28).
in(111, 29).
in(111, 37).
in(111, 38).
in(111, 39).
in(111, 42).
in(111, 46).
in(111, 49).
in(111, 54).
in(111, 62).
in(111, 63).
in(111, 65).
in(111, 67).
in(111, 68).
in(111, 69).
in(111, 74).
in(111, 75).
in(111, 89).
in(112, 6).
in(112, 8).
in(112, 9).
in(112, 17).
in(112, 20).
in(112, 22).
in(112, 23).
in(112, 27).
in(112, 28).
in(112, 33).
in(112, 35).
in(112, 39).
in(112, 42).
in(112, 43).
in(112, 46).
in(112, 52).
in(112, 56).
in(112, 60).
in(112, 62).
in(112, 63).
in(112, 66).
in(112, 72).
in(112, 77).
in(112, 78).
in(112, 81).
in(112, 83).
in(113, 1).
in(113, 3).
in(113, 36).
in(113, 37).
in(113, 58).
in(113, 90).
in(113, 8).
in(113, 40).
in(113, 13).
in(113, 78).
in(113, 16).
in(113, 48).
in(113, 52).
in(113, 22).
in(113, 23).
in(113, 87).
in(113, 57).
in(113, 26).
in(114, 65).
in(114, 3).
in(114, 68).
in(114, 72).
in(114, 74).
in(114, 43).
in(114, 77).
in(114, 78).
in(114, 81).
in(114, 20).
in(114, 22).
in(114, 87).
in(114, 56).
in(114, 59).
in(114, 31).
in(115, 1).
in(115, 7).
in(115, 10).
in(115, 11).
in(115, 12).
in(115, 19).
in(115, 20).
in(115, 25).
in(115, 30).
in(115, 31).
in(115, 33).
in(115, 34).
in(115, 36).
in(115, 52).
in(115, 53).
in(115, 62).
in(115, 64).
in(115, 65).
in(115, 71).
in(115, 76).
in(115, 82).
in(115, 83).
in(115, 90).
in(116, 4).
in(116, 8).
in(116, 13).
in(116, 15).
in(116, 19).
in(116, 21).
in(116, 28).
in(116, 48).
in(116, 53).
in(116, 54).
in(116, 56).
in(116, 58).
in(116, 64).
in(116, 66).
in(116, 72).
in(116, 79).
in(116, 85).
in(116, 86).
in(116, 87).
in(117, 3).
in(117, 5).
in(117, 7).
in(117, 10).
in(117, 12).
in(117, 13).
in(117, 14).
in(117, 15).
in(117, 26).
in(117, 33).
in(117, 35).
in(117, 41).
in(117, 44).
in(117, 50).
in(117, 52).
in(117, 57).
in(117, 64).
in(117, 69).
in(117, 77).
in(117, 80).
in(117, 82).
in(117, 84).
in(117, 85).
in(117, 86).
in(117, 87).
in(118, 4).
in(118, 5).
in(118, 8).
in(118, 10).
in(118, 12).
in(118, 14).
in(118, 20).
in(118, 24).
in(118, 28).
in(118, 29).
in(118, 33).
in(118, 36).
in(118, 44).
in(118, 45).
in(118, 50).
in(118, 56).
in(118, 66).
in(118, 68).
in(118, 71).
in(118, 74).
in(118, 76).
in(118, 78).
in(118, 81).
in(118, 82).
in(118, 83).
in(118, 88).
in(118, 89).
in(119, 1).
in(119, 2).
in(119, 16).
in(119, 19).
in(119, 20).
in(119, 24).
in(119, 25).
in(119, 27).
in(119, 31).
in(119, 33).
in(119, 42).
in(119, 43).
in(119, 44).
in(119, 45).
in(119, 46).
in(119, 57).
in(119, 58).
in(119, 72).
in(119, 74).
in(119, 76).
in(119, 81).
in(119, 82).
in(119, 89).
in(120, 5).
in(120, 8).
in(120, 10).
in(120, 12).
in(120, 13).
in(120, 16).
in(120, 19).
in(120, 24).
in(120, 27).
in(120, 31).
in(120, 38).
in(120, 46).
in(120, 48).
in(120, 52).
in(120, 54).
in(120, 68).
in(120, 78).
in(120, 81).
in(120, 89).
in(121, 4).
in(121, 5).
in(121, 10).
in(121, 27).
in(121, 28).
in(121, 30).
in(121, 33).
in(121, 41).
in(121, 42).
in(121, 51).
in(121, 59).
in(121, 61).
in(121, 66).
in(121, 67).
in(121, 71).
in(121, 73).
in(121, 76).
in(121, 79).
in(121, 87).
in(121, 88).
in(121, 90).
in(122, 2).
in(122, 3).
in(122, 7).
in(122, 9).
in(122, 10).
in(122, 12).
in(122, 18).
in(122, 20).
in(122, 21).
in(122, 30).
in(122, 35).
in(122, 40).
in(122, 44).
in(122, 48).
in(122, 57).
in(122, 60).
in(122, 71).
in(122, 80).
in(122, 81).
in(122, 84).
in(122, 85).
in(122, 90).
in(123, 10).
in(123, 13).
in(123, 21).
in(123, 22).
in(123, 23).
in(123, 25).
in(123, 32).
in(123, 33).
in(123, 34).
in(123, 41).
in(123, 43).
in(123, 45).
in(123, 53).
in(123, 55).
in(123, 59).
in(123, 63).
in(123, 74).
in(123, 78).
in(123, 88).
in(123, 89).
in(124, 4).
in(124, 13).
in(124, 15).
in(124, 16).
in(124, 19).
in(124, 21).
in(124, 22).
in(124, 26).
in(124, 30).
in(124, 34).
in(124, 36).
in(124, 38).
in(124, 40).
in(124, 47).
in(124, 51).
in(124, 60).
in(124, 64).
in(124, 65).
in(124, 67).
in(124, 68).
in(124, 70).
in(124, 76).
in(125, 89).
in(125, 35).
in(125, 3).
in(125, 38).
in(125, 71).
in(125, 73).
in(125, 74).
in(125, 43).
in(125, 77).
in(125, 16).
in(125, 83).
in(125, 20).
in(125, 53).
in(125, 22).
in(125, 57).
in(125, 90).
in(126, 2).
in(126, 8).
in(126, 11).
in(126, 14).
in(126, 16).
in(126, 18).
in(126, 19).
in(126, 20).
in(126, 21).
in(126, 22).
in(126, 24).
in(126, 25).
in(126, 27).
in(126, 31).
in(126, 33).
in(126, 51).
in(126, 68).
in(126, 71).
in(126, 78).
in(126, 79).
in(126, 86).
in(126, 88).
in(127, 3).
in(127, 4).
in(127, 6).
in(127, 18).
in(127, 34).
in(127, 35).
in(127, 36).
in(127, 38).
in(127, 40).
in(127, 45).
in(127, 50).
in(127, 52).
in(127, 55).
in(127, 63).
in(127, 64).
in(127, 70).
in(127, 79).
in(127, 85).
in(127, 90).
in(128, 3).
in(128, 11).
in(128, 20).
in(128, 21).
in(128, 28).
in(128, 31).
in(128, 34).
in(128, 39).
in(128, 47).
in(128, 48).
in(128, 49).
in(128, 53).
in(128, 58).
in(128, 61).
in(128, 62).
in(128, 65).
in(128, 71).
in(128, 76).
in(128, 79).
in(128, 83).
in(128, 87).
in(129, 2).
in(129, 3).
in(129, 5).
in(129, 8).
in(129, 12).
in(129, 13).
in(129, 14).
in(129, 15).
in(129, 17).
in(129, 21).
in(129, 22).
in(129, 23).
in(129, 24).
in(129, 25).
in(129, 30).
in(129, 40).
in(129, 43).
in(129, 44).
in(129, 45).
in(129, 46).
in(129, 48).
in(129, 56).
in(129, 59).
in(129, 60).
in(129, 63).
in(129, 65).
in(129, 70).
in(129, 72).
in(129, 75).
in(129, 76).
in(129, 87).
in(130, 7).
in(130, 15).
in(130, 22).
in(130, 23).
in(130, 25).
in(130, 27).
in(130, 28).
in(130, 35).
in(130, 36).
in(130, 40).
in(130, 46).
in(130, 57).
in(130, 61).
in(130, 62).
in(130, 63).
in(130, 64).
in(130, 65).
in(130, 66).
in(130, 73).
in(130, 83).
in(130, 86).
in(130, 90).
in(131, 3).
in(131, 5).
in(131, 7).
in(131, 16).
in(131, 20).
in(131, 21).
in(131, 23).
in(131, 24).
in(131, 25).
in(131, 28).
in(131, 34).
in(131, 41).
in(131, 49).
in(131, 51).
in(131, 53).
in(131, 62).
in(131, 70).
in(131, 76).
in(131, 77).
in(131, 86).
in(132, 3).
in(132, 5).
in(132, 7).
in(132, 13).
in(132, 15).
in(132, 21).
in(132, 23).
in(132, 26).
in(132, 29).
in(132, 32).
in(132, 35).
in(132, 49).
in(132, 51).
in(132, 52).
in(132, 53).
in(132, 56).
in(132, 59).
in(132, 63).
in(132, 65).
in(132, 66).
in(132, 68).
in(132, 69).
in(132, 73).
in(132, 76).
in(132, 85).
in(133, 3).
in(133, 4).
in(133, 5).
in(133, 8).
in(133, 10).
in(133, 11).
in(133, 12).
in(133, 25).
in(133, 29).
in(133, 30).
in(133, 32).
in(133, 41).
in(133, 42).
in(133, 44).
in(133, 46).
in(133, 54).
in(133, 61).
in(133, 64).
in(133, 66).
in(133, 67).
in(133, 70).
in(133, 71).
in(133, 74).
in(133, 79).
in(133, 82).
in(133, 87).
in(133, 88).
in(133, 89).
in(134, 2).
in(134, 4).
in(134, 6).
in(134, 14).
in(134, 16).
in(134, 17).
in(134, 21).
in(134, 25).
in(134, 28).
in(134, 30).
in(134, 31).
in(134, 43).
in(134, 48).
in(134, 49).
in(134, 50).
in(134, 52).
in(134, 53).
in(134, 54).
in(134, 59).
in(134, 61).
in(134, 70).
in(134, 73).
in(134, 74).
in(134, 77).
in(134, 81).
in(134, 82).
in(134, 84).
in(135, 2).
in(135, 4).
in(135, 9).
in(135, 11).
in(135, 17).
in(135, 20).
in(135, 32).
in(135, 39).
in(135, 42).
in(135, 43).
in(135, 49).
in(135, 51).
in(135, 52).
in(135, 59).
in(135, 62).
in(135, 69).
in(135, 75).
in(135, 76).
in(135, 83).
in(135, 84).
in(135, 87).
in(135, 88).
in(136, 8).
in(136, 10).
in(136, 13).
in(136, 14).
in(136, 16).
in(136, 20).
in(136, 21).
in(136, 28).
in(136, 29).
in(136, 34).
in(136, 36).
in(136, 39).
in(136, 41).
in(136, 43).
in(136, 45).
in(136, 47).
in(136, 51).
in(136, 56).
in(136, 59).
in(136, 60).
in(136, 65).
in(136, 80).
in(137, 1).
in(137, 2).
in(137, 4).
in(137, 6).
in(137, 7).
in(137, 8).
in(137, 9).
in(137, 10).
in(137, 12).
in(137, 15).
in(137, 17).
in(137, 20).
in(137, 25).
in(137, 26).
in(137, 30).
in(137, 37).
in(137, 38).
in(137, 44).
in(137, 45).
in(137, 47).
in(137, 51).
in(137, 56).
in(137, 59).
in(137, 63).
in(137, 67).
in(137, 68).
in(137, 69).
in(137, 74).
in(137, 79).
in(137, 81).
in(137, 87).
in(138, 4).
in(138, 6).
in(138, 7).
in(138, 13).
in(138, 18).
in(138, 25).
in(138, 27).
in(138, 28).
in(138, 33).
in(138, 39).
in(138, 45).
in(138, 46).
in(138, 48).
in(138, 49).
in(138, 52).
in(138, 61).
in(138, 69).
in(138, 71).
in(138, 74).
in(138, 79).
in(138, 80).
in(138, 82).
in(138, 88).
in(138, 89).
in(139, 5).
in(139, 7).
in(139, 8).
in(139, 9).
in(139, 12).
in(139, 18).
in(139, 28).
in(139, 30).
in(139, 32).
in(139, 34).
in(139, 39).
in(139, 42).
in(139, 49).
in(139, 67).
in(139, 80).
in(139, 81).
in(139, 84).
in(139, 85).
in(139, 86).
in(139, 88).
weight(1, 1).
weight(2, 6).
weight(3, 3).
weight(4, 6).
weight(5, 7).
weight(6, 1).
weight(7, 5).
weight(8, 2).
weight(9, 1).
weight(10, 3).
weight(11, 1).
weight(12, 6).
weight(13, 6).
weight(14, 1).
weight(15, 7).
weight(16, 6).
weight(17, 3).
weight(18, 7).
weight(19, 6).
weight(20, 7).
weight(21, 6).
weight(22, 4).
weight(23, 6).
weight(24, 2).
weight(25, 4).
weight(26, 6).
weight(27, 7).
weight(28, 6).
weight(29, 4).
weight(30, 6).
weight(31, 1).
weight(32, 5).
weight(33, 7).
weight(34, 6).
weight(35, 7).
weight(36, 6).
weight(37, 6).
weight(38, 3).
weight(39, 3).
weight(40, 7).
weight(41, 4).
weight(42, 6).
weight(43, 6).
weight(44, 7).
weight(45, 2).
weight(46, 3).
weight(47, 4).
weight(48, 5).
weight(49, 2).
weight(50, 3).
weight(51, 3).
weight(52, 4).
weight(53, 5).
weight(54, 7).
weight(55, 2).
weight(56, 7).
weight(57, 4).
weight(58, 2).
weight(59, 3).
weight(60, 3).
weight(61, 1).
weight(62, 5).
weight(63, 6).
weight(64, 1).
weight(65, 2).
weight(66, 1).
weight(67, 4).
weight(68, 2).
weight(69, 2).
weight(70, 7).
weight(71, 6).
weight(72, 5).
weight(73, 3).
weight(74, 5).
weight(75, 6).
weight(76, 3).
weight(77, 4).
weight(78, 1).
weight(79, 4).
weight(80, 1).
weight(81, 3).
weight(82, 4).
weight(83, 7).
weight(84, 3).
weight(85, 7).
weight(86, 1).
weight(87, 5).
weight(88, 1).
weight(89, 3).
weight(90, 6).
weight(91, 3).
weight(92, 7).
weight(93, 1).
weight(94, 3).
weight(95, 3).
weight(96, 7).
weight(97, 1).
weight(98, 3).
weight(99, 6).
weight(100, 2).
weight(101, 1).
weight(102, 5).
weight(103, 5).
weight(104, 1).
weight(105, 5).
weight(106, 4).
weight(107, 6).
weight(108, 1).
weight(109, 4).
weight(110, 2).
weight(111, 6).
weight(112, 3).
weight(113, 2).
weight(114, 1).
weight(115, 2).
weight(116, 1).
weight(117, 5).
weight(118, 7).
weight(119, 4).
weight(120, 5).
weight(121, 6).
weight(122, 5).
weight(123, 4).
weight(124, 7).
weight(125, 5).
weight(126, 6).
weight(127, 5).
weight(128, 1).
weight(129, 7).
weight(130, 6).
weight(131, 6).
weight(132, 4).
weight(133, 7).
weight(134, 2).
weight(135, 4).
weight(136, 7).
weight(137, 1).
weight(138, 7).
weight(139, 5).

{ choose(S) } :- set(S).
:- choose(S1), choose(S2), S1 < S2, in(S1,E), in(S2,E).
:~ not choose(S), weight(S,W). [W@1,S]
