elem(1..82).
set(1..125).
in(1, 1).
in(1, 2).
in(1, 3).
in(1, 5).
in(1, 6).
in(1, 11).
in(1, 12).
in(1, 13).
in(1, 14).
in(1, 15).
in(1, 18).
in(1, 23).
in(1, 27).
in(1, 30).
in(1, 32).
in(1, 34).
in(1, 35).
in(1, 36).
in(1, 44).
in(1, 47).
in(1, 48).
in(1, 49).
in(1, 50).
in(1, 51).
in(1, 53).
in(1, 59).
in(1, 61).
in(1, 65).
in(1, 69).
in(1, 70).
in(1, 73).
in(1, 75).
in(1, 79).
in(1, 82).
in(2, 6).
in(2, 9).
in(2, 10).
in(2, 11).
in(2, 18).
in(2, 19).
in(2, 21).
in(2, 28).
in(2, 29).
in(2, 30).
in(2, 35).
in(2, 36).
in(2, 37).
in(2, 39).
in(2, 40).
in(2, 41).
in(2, 45).
in(2, 47).
in(2, 48).
in(2, 50).
in(2, 52).
in(2, 55).
in(2, 58).
in(2, 59).
in(2, 61).
in(2, 62).
in(2, 63).
in(2, 67).
in(2, 71).
in(2, 74).
in(2, 77).
in(2, 78).
in(2, 82).
in(3, 4).
in(3, 6).
in(3, 10).
in(3, 12).
in(3, 13).
in(3, 15).
in(3, 19).
in(3, 21).
in(3, 23).
in(3, 24).
in(3, 33).
in(3, 34).
in(3, 37).
in(3, 41).
in(3, 42).
in(3, 43).
in(3, 44).
in(3, 48).
in(3, 49).
in(3, 55).
in(3, 56).
in(3, 57).
in(3, 58).
in(3, 60).
in(3, 63).
in(3, 64).
in(3, 68).
in(3, 73).
in(3, 76).
in(3, 77).
in(3, 81).
in(4, 1).
in(4, 2).
in(4, 4).
in(4, 14).
in(4, 19).
in(4, 23).
in(4, 29).
in(4, 33).
in(4, 34).
in(4, 35).
in(4, 37).
in(4, 38).
in(4, 42).
in(4, 43).
in(4, 45).
in(4, 47).
in(4, 60).
in(4, 62).
in(4, 64).
in(4, 65).
in(4, 70).
in(4, 73).
in(4, 74).
in(4, 82).
in(5, 1).
in(5, 2).
in(5, 6).
in(5, 8).
in(5, 9).
in(5, 11).
in(5, 15).
in(5, 17).
in(5, 20).
in(5, 22).
in(5, 23).
in(5, 24).
in(5, 26).
in(5, 28).
in(5, 30).
in(5, 33).
in(5, 35).
in(5, 41).
in(5, 43).
in(5, 46).
in(5, 47).
in(5, 53).
in(5, 55).
in(5, 57).
in(5, 65).
in(5, 66).
in(5, 69).
in(5, 71).
in(5, 72).
in(5, 76).
in(5, 77).
in(5, 80).
in(5, 81).
in(6, 2).
in(6, 4).
in(6, 6).
in(6, 9).
in(6, 11).
in(6, 12).
in(6, 17).
in(6, 18).
in(6, 22).
in(6, 27).
in(6, 30).
in(6, 32).
in(6, 34).
in(6, 38).
in(6, 44).
in(6, 46).
in(6, 48).
in(6, 49).
in(6, 53).
in(6, 55).
in(6, 57).
in(6, 59).
in(6, 60).
in(6, 68).
in(6, 72).
in(6, 75).
in(6, 76).
in(6, 79).
in(6, 80).
in(7, 1).
in(7, 5).
in(7, 7).
in(7, 21).
in(7, 24).
in(7, 31).
in(7, 32).
in(7, 34).
in(7, 35).
in(7, 36).
in(7, 39).
in(7, 46).
in(7, 47).
in(7, 48).
in(7, 50).
in(7, 51).
in(7, 53).
in(7, 55).
in(7, 56).
in(7, 63).
in(7, 64).
in(7, 65).
in(7, 66).
in(7, 67).
in(7, 70).
in(7, 72).
in(7, 75).
in(7, 77).
in(7, 79).
in(7, 80).
in(7, 81).
in(8, 3).
in(8, 4).
in(8, 11).
in(8, 13).
in(8, 14).
in(8, 15).
in(8, 18).
in(8, 19).
in(8, 22).
in(8, 24).
in(8, 26).
in(8, 29).
in(8, 33).
in(8, 35).
in(8, 41).
in(8, 42).
in(8, 45).
in(8, 50).
in(8, 51).
in(8, 53).
in(8, 56).
in(8, 61).
in(8, 65).
in(8, 67).
in(8, 68).
in(8, 69).
in(8, 74).
in(8, 75).
in(8, 76).
in(8, 78).
in(8, 79).
in(8, 80).
in(8, 81).
in(9, 3).
in(9, 5).
in(9, 7).
in(9, 8).
in(9, 10).
in(9, 11).
in(9, 14).
in(9, 18).
in(9, 20).
in(9, 22).
in(9, 24).
in(9, 28).
in(9, 29).
in(9, 31).
in(9, 33).
in(9, 35).
in(9, 36).
in(9, 37).
in(9, 42).
in(9, 46).
in(9, 50).
in(9, 54).
in(9, 58).
in(9, 59).
in(9, 61).
in(9, 63).
in(9, 64).
in(9, 68).
in(9, 70).
in(9, 71).
in(9, 74).
in(9, 75).
in(9, 80).
in(10, 5).
in(10, 9).
in(10, 11).
in(10, 13).
in(10, 15).
in(10, 21).
in(10, 23).
in(10, 26).
in(10, 27).
in(10, 28).
in(10, 29).
in(10, 31).
in(10, 33).
in(10, 36).
in(10, 43).
in(10, 47).
in(10, 48).
in(10, 50).
in(10, 54).
in(10, 59).
in(10, 63).
in(10, 69).
in(10, 70).
in(10, 71).
in(10, 72).
in(10, 73).
in(10, 74).
in(10, 79).
in(11, 2).
in(11, 6).
in(11, 12).
in(11, 15).
in(11, 18).
in(11, 19).
in(11, 28).
in(11, 30).
in(11, 32).
in(11, 33).
in(11, 36).
in(11, 38).
in(11, 42).
in(11, 43).
in(11, 44).
in(11, 45).
in(11, 46).
in(11, 47).
in(11, 51).
in(11, 52).
in(11, 55).
in(11, 57).
in(11, 58).
in(11, 63).
in(11, 70).
in(11, 71).
in(11, 72).
in(11, 73).
in(11, 78).
in(11, 80).
in(12, 2).
in(12, 8).
in(12, 13).
in(12, 16).
in(12, 19).
in(12, 23).
in(12, 26).
in(12, 29).
in(12, 34).
in(12, 36).
in(12, 37).
in(12, 39).
in(12, 40).
in(12, 46).
in(12, 49).
in(12, 51).
in(12, 52).
in(12, 57).
in(12, 63).
in(12, 66).
in(12, 67).
in(12, 70).
in(12, 71).
in(12, 72).
in(12, 74).
in(12, 75).
in(12, 77).
in(12, 79).
in(12, 80).
in(13, 5).
in(13, 6).
in(13, 7).
in(13, 12).
in(13, 13).
in(13, 14).
in(13, 15).
in(13, 17).
in(13, 19).
in(13, 20).
in(13, 22).
in(13, 23).
in(13, 24).
in(13, 28).
in(13, 32).
in(13, 33).
in(13, 34).
in(13, 41).
in(13, 45).
in(13, 46).
in(13, 48).
in(13, 49).
in(13, 50).
in(13, 51).
in(13, 56).
in(13, 57).
in(13, 66).
in(13, 69).
in(13, 71).
in(13, 74).
in(13, 76).
in(13, 77).
in(14, 1).
in(14, 2).
in(14, 3).
in(14, 4).
in(14, 10).
in(14, 12).
in(14, 17).
in(14, 20).
in(14, 21).
in(14, 22).
in(14, 23).
in(14, 25).
in(14, 28).
in(14, 34).
in(14, 35).
in(14, 36).
in(14, 37).
in(14, 39).
in(14, 42).
in(14, 46).
in(14, 48).
in(14, 50).
in(14, 55).
in(14, 56).
in(14, 57).
in(14, 61).
in(14, 62).
in(14, 65).
in(14, 68).
in(14, 70).
in(14, 71).
in(14, 72).
in(14, 73).
in(14, 74).
in(14, 78).
in(14, 81).
in(14, 82).
in(15, 4).
in(15, 8).
in(15, 10).
in(15, 12).
in(15, 15).
in(15, 18).
in(15, 19).
in(15, 20).
in(15, 27).
in(15, 29).
in(15, 30).
in(15, 31).
in(15, 39).
in(15, 42).
in(15, 44).
in(15, 45).
in(15, 48).
in(15, 50).
in(15, 54).
in(15, 58).
in(15, 59).
in(15, 61).
in(15, 63).
in(15, 65).
in(15, 66).
in(15, 70).
in(15, 77).
in(15, 80).
in(16, 1).
in(16, 2).
in(16, 7).
in(16, 9).
in(16, 12).
in(16, 14).
in(16, 24).
in(16, 26).
in(16, 29).
in(16, 33).
in(16, 36).
in(16, 37).
in(16, 39).
in(16, 41).
in(16, 42).
in(16, 46).
in(16, 50).
in(16, 51).
in(16, 52).
in(16, 53).
in(16, 55).
in(16, 58).
in(16, 61).
in(16, 68).
in(16, 71).
in(16, 72).
in(16, 73).
in(16, 74).
in(16, 77).
in(16, 78).
in(16, 79).
in(16, 82).
in(17, 3).
in(17, 4).
in(17, 7).
in(17, 9).
in(17, 11).
in(17, 13).
in(17, 15).
in(17, 17).
in(17, 18).
in(17, 23).
in(17, 24).
in(17, 28).
in(17, 31).
in(17, 35).
in(17, 36).
in(17, 41).
in(17, 42).
in(17, 43).
in(17, 45).
in(17, 50).
in(17, 53).
in(17, 56).
in(17, 57).
in(17, 58).
in(17, 63).
in(17, 66).
in(17, 67).
in(17, 72).
in(17, 73).
in(17, 77).
in(18, 2).
in(18, 3).
in(18, 5).
in(18, 9).
in(18, 16).
in(18, 17).
in(18, 18).
in(18, 21).
in(18, 22).
in(18, 25).
in(18, 26).
in(18, 28).
in(18, 29).
in(18, 32).
in(18, 40).
in(18, 43).
in(18, 45).
in(18, 47).
in(18, 48).
in(18, 49).
in(18, 53).
in(18, 56).
in(18, 57).
in(18, 58).
in(18, 59).
in(18, 61).
in(18, 62).
in(18, 64).
in(18, 66).
in(18, 67).
in(18, 70).
in(18, 71).
in(18, 72).
in(18, 73).
in(18, 74).
in(18, 77).
in(18, 78).
in(18, 79).
in(19, 1).
in(19, 4).
in(19, 6).
in(19, 8).
in(19, 9).
in(19, 10).
in(19, 17).
in(19, 19).
in(19, 22).
in(19, 25).
in(19, 28).
in(19, 30).
in(19, 32).
in(19, 35).
in(19, 42).
in(19, 46).
in(19, 50).
in(19, 51).
in(19, 52).
in(19, 54).
in(19, 58).
in(19, 59).
in(19, 61).
in(19, 64).
in(19, 66).
in(19, 67).
in(19, 68).
in(19, 69).
in(19, 77).
in(19, 79).
in(19, 80).
in(19, 81).
in(20, 1).
in(20, 2).
in(20, 4).
in(20, 5).
in(20, 9).
in(20, 11).
in(20, 15).
in(20, 20).
in(20, 23).
in(20, 24).
in(20, 28).
in(20, 29).
in(20, 31).
in(20, 33).
in(20, 35).
in(20, 36).
in(20, 38).
in(20, 40).
in(20, 41).
in(20, 45).
in(20, 48).
in(20, 50).
in(20, 52).
in(20, 59).
in(20, 64).
in(20, 65).
in(20, 67).
in(20, 73).
in(20, 80).
in(20, 81).
in(20, 82).
in(21, 1).
in(21, 4).
in(21, 10).
in(21, 11).
in(21, 16).
in(21, 17).
in(21, 19).
in(21, 22).
in(21, 23).
in(21, 25).
in(21, 29).
in(21, 31).
in(21, 34).
in(21, 37).
in(21, 38).
in(21, 39).
in(21, 43).
in(21, 44).
in(21, 47).
in(21, 50).
in(21, 52).
in(21, 53).
in(21, 60).
in(21, 63).
in(21, 64).
in(21, 67).
in(21, 69).
in(21, 71).
in(21, 74).
in(21, 75).
in(21, 76).
in(21, 77).
in(21, 80).
in(22, 7).
in(22, 8).
in(22, 9).
in(22, 17).
in(22, 22).
in(22, 25).
in(22, 27).
in(22, 31).
in(22, 33).
in(22, 34).
in(22, 35).
in(22, 36).
in(22, 40).
in(22, 43).
in(22, 45).
in(22, 48).
in(22, 49).
in(22, 51).
in(22, 53).
in(22, 54).
in(22, 58).
in(22, 60).
in(22, 61).
in(22, 62).
in(22, 63).
in(22, 65).
in(22, 66).
in(22, 74).
in(22, 78).
in(22, 81).
in(23, 2).
in(23, 5).
in(23, 7).
in(23, 10).
in(23, 11).
in(23, 13).
in(23, 15).
in(23, 19).
in(23, 20).
in(23, 22).
in(23, 26).
in(23, 28).
in(23, 30).
in(23, 32).
in(23, 34).
in(23, 36).
in(23, 46).
in(23, 49).
in(23, 51).
in(23, 55).
in(23, 58).
in(23, 59).
in(23, 60).
in(23, 64).
in(23, 66).
in(23, 74).
in(23, 75).
in(23, 79).
in(24, 1).
in(24, 2).
in(24, 3).
in(24, 5).
in(24, 7).
in(24, 10).
in(24, 11).
in(24, 13).
in(24, 16).
in(24, 24).
in(24, 29).
in(24, 31).
in(24, 33).
in(24, 36).
in(24, 38).
in(24, 40).
in(24, 43).
in(24, 44).
in(24, 46).
in(24, 51).
in(24, 54).
in(24, 58).
in(24, 59).
in(24, 60).
in(24, 62).
in(24, 63).
in(24, 65).
in(24, 70).
in(24, 72).
in(24, 75).
in(24, 80).
in(24, 81).
in(25, 2).
in(25, 4).
in(25, 10).
in(25, 13).
in(25, 14).
in(25, 19).
in(25, 25).
in(25, 27).
in(25, 28).
in(25, 29).
in(25, 31).
in(25, 36).
in(25, 37).
in(25, 42).
in(25, 43).
in(25, 47).
in(25, 49).
in(25, 52).
in(25, 53).
in(25, 58).
in(25, 59).
in(25, 62).
in(25, 66).
in(25, 69).
in(25, 70).
in(25, 71).
in(25, 73).
in(25, 74).
in(25, 76).
in(25, 79).
in(25, 81).
in(26, 2).
in(26, 3).
in(26, 4).
in(26, 5).
in(26, 6).
in(26, 9).
in(26, 14).
in(26, 19).
in(26, 22).
in(26, 23).
in(26, 30).
in(26, 32).
in(26, 33).
in(26, 35).
in(26, 37).
in(26, 38).
in(26, 39).
in(26, 41).
in(26, 42).
in(26, 43).
in(26, 44).
in(26, 46).
in(26, 48).
in(26, 49).
in(26, 50).
in(26, 52).
in(26, 58).
in(26, 60).
in(26, 66).
in(26, 67).
in(26, 69).
in(26, 71).
in(26, 74).
in(26, 76).
in(27, 3).
in(27, 7).
in(27, 8).
in(27, 11).
in(27, 13).
in(27, 15).
in(27, 16).
in(27, 17).
in(27, 21).
in(27, 22).
in(27, 25).
in(27, 26).
in(27, 31).
in(27, 34).
in(27, 36).
in(27, 40).
in(27, 41).
in(27, 45).
in(27, 47).
in(27, 49).
in(27, 55).
in(27, 56).
in(27, 57).
in(27, 58).
in(27, 60).
in(27, 63).
in(27, 65).
in(27, 67).
in(27, 68).
in(27, 70).
in(27, 73).
in(27, 75).
in(27, 76).
in(27, 78).
in(27, 80).
in(28, 3).
in(28, 5).
in(28, 11).
in(28, 20).
in(28, 21).
in(28, 22).
in(28, 31).
in(28, 32).
in(28, 38).
in(28, 41).
in(28, 43).
in(28, 44).
in(28, 45).
in(28, 54).
in(28, 57).
in(28, 58).
in(28, 59).
in(28, 68).
in(28, 69).
in(28, 70).
in(28, 74).
in(28, 79).
in(28, 81).
in(29, 1).
in(29, 3).
in(29, 6).
in(29, 10).
in(29, 12).
in(29, 14).
in(29, 18).
in(29, 21).
in(29, 22).
in(29, 24).
in(29, 25).
in(29, 27).
in(29, 30).
in(29, 32).
in(29, 34).
in(29, 35).
in(29, 37).
in(29, 40).
in(29, 42).
in(29, 45).
in(29, 48).
in(29, 49).
in(29, 53).
in(29, 54).
in(29, 56).
in(29, 60).
in(29, 62).
in(29, 65).
in(29, 66).
in(29, 74).
in(29, 77).
in(29, 80).
in(30, 1).
in(30, 3).
in(30, 15).
in(30, 17).
in(30, 19).
in(30, 28).
in(30, 30).
in(30, 31).
in(30, 32).
in(30, 33).
in(30, 38).
in(30, 39).
in(30, 42).
in(30, 43).
in(30, 49).
in(30, 50).
in(30, 60).
in(30, 61).
in(30, 67).
in(30, 71).
in(30, 72).
in(30, 73).
in(30, 74).
in(30, 76).
in(30, 78).
in(30, 79).
in(31, 2).
in(31, 8).
in(31, 10).
in(31, 13).
in(31, 20).
in(31, 22).
in(31, 26).
in(31, 27).
in(31, 29).
in(31, 35).
in(31, 37).
in(31, 39).
in(31, 40).
in(31, 41).
in(31, 42).
in(31, 43).
in(31, 47).
in(31, 49).
in(31, 50).
in(31, 52).
in(31, 53).
in(31, 55).
in(31, 56).
in(31, 58).
in(31, 63).
in(31, 64).
in(31, 67).
in(31, 68).
in(31, 69).
in(31, 73).
in(31, 74).
in(31, 77).
in(31, 78).
in(31, 80).
in(32, 1).
in(32, 3).
in(32, 5).
in(32, 6).
in(32, 9).
in(32, 14).
in(32, 23).
in(32, 30).
in(32, 31).
in(32, 34).
in(32, 35).
in(32, 38).
in(32, 39).
in(32, 42).
in(32, 48).
in(32, 51).
in(32, 58).
in(32, 62).
in(32, 64).
in(32, 66).
in(32, 68).
in(32, 73).
in(32, 78).
in(32, 81).
in(33, 1).
in(33, 2).
in(33, 4).
in(33, 8).
in(33, 10).
in(33, 13).
in(33, 15).
in(33, 20).
in(33, 23).
in(33, 26).
in(33, 28).
in(33, 29).
in(33, 34).
in(33, 35).
in(33, 40).
in(33, 41).
in(33, 46).
in(33, 52).
in(33, 53).
in(33, 55).
in(33, 56).
in(33, 57).
in(33, 59).
in(33, 60).
in(33, 62).
in(33, 63).
in(33, 65).
in(33, 67).
in(33, 68).
in(33, 70).
in(33, 73).
in(33, 74).
in(33, 75).
in(33, 76).
in(33, 77).
in(33, 80).
in(34, 2).
in(34, 6).
in(34, 7).
in(34, 9).
in(34, 16).
in(34, 23).
in(34, 24).
in(34, 31).
in(34, 33).
in(34, 37).
in(34, 40).
in(34, 42).
in(34, 44).
in(34, 49).
in(34, 53).
in(34, 54).
in(34, 55).
in(34, 56).
in(34, 57).
in(34, 58).
in(34, 62).
in(34, 63).
in(34, 65).
in(34, 66).
in(34, 68).
in(34, 70).
in(34, 72).
in(34, 76).
in(34, 79).
in(35, 5).
in(35, 7).
in(35, 9).
in(35, 13).
in(35, 14).
in(35, 15).
in(35, 16).
in(35, 17).
in(35, 21).
in(35, 22).
in(35, 23).
in(35, 25).
in(35, 27).
in(35, 29).
in(35, 31).
in(35, 33).
in(35, 40).
in(35, 41).
in(35, 43).
in(35, 45).
in(35, 46).
in(35, 48).
in(35, 49).
in(35, 52).
in(35, 56).
in(35, 58).
in(35, 63).
in(35, 68).
in(35, 70).
in(35, 74).
in(35, 78).
in(35, 79).
in(36, 8).
in(36, 12).
in(36, 17).
in(36, 20).
in(36, 26).
in(36, 27).
in(36, 30).
in(36, 35).
in(36, 40).
in(36, 42).
in(36, 49).
in(36, 51).
in(36, 52).
in(36, 53).
in(36, 54).
in(36, 57).
in(36, 58).
in(36, 61).
in(36, 62).
in(36, 67).
in(36, 70).
in(36, 71).
in(36, 72).
in(36, 77).
in(36, 82).
in(37, 6).
in(37, 11).
in(37, 12).
in(37, 14).
in(37, 15).
in(37, 16).
in(37, 24).
in(37, 25).
in(37, 26).
in(37, 30).
in(37, 35).
in(37, 37).
in(37, 40).
in(37, 43).
in(37, 44).
in(37, 47).
in(37, 49).
in(37, 50).
in(37, 51).
in(37, 54).
in(37, 64).
in(37, 65).
in(37, 69).
in(37, 73).
in(37, 74).
in(37, 75).
in(37, 76).
in(37, 81).
in(38, 2).
in(38, 7).
in(38, 15).
in(38, 22).
in(38, 30).
in(38, 35).
in(38, 36).
in(38, 37).
in(38, 39).
in(38, 42).
in(38, 45).
in(38, 47).
in(38, 48).
in(38, 51).
in(38, 52).
in(38, 53).
in(38, 54).
in(38, 56).
in(38, 58).
in(38, 60).
in(38, 61).
in(38, 64).
in(38, 67).
in(38, 72).
in(38, 73).
in(38, 75).
in(38, 77).
in(38, 80).
in(38, 82).
in(39, 2).
in(39, 3).
in(39, 5).
in(39, 6).
in(39, 7).
in(39, 8).
in(39, 9).
in(39, 11).
in(39, 13).
in(39, 15).
in(39, 23).
in(39, 25).
in(39, 26).
in(39, 29).
in(39, 36).
in(39, 37).
in(39, 43).
in(39, 44).
in(39, 47).
in(39, 48).
in(39, 51).
in(39, 55).
in(39, 58).
in(39, 61).
in(39, 64).
in(39, 65).
in(39, 66).
in(39, 72).
in(39, 73).
in(39, 76).
in(39, 78).
in(39, 79).
in(40, 1).
in(40, 3).
in(40, 4).
in(40, 7).
in(40, 8).
in(40, 11).
in(40, 12).
in(40, 16).
in(40, 20).
in(40, 23).
in(40, 28).
in(40, 30).
in(40, 31).
in(40, 34).
in(40, 36).
in(40, 39).
in(40, 49).
in(40, 51).
in(40, 58).
in(40, 61).
in(40, 62).
in(40, 63).
in(40, 67).
in(40, 70).
in(40, 72).
in(40, 74).
in(40, 75).
in(40, 78).
in(40, 80).
in(41, 2).
in(41, 3).
in(41, 12).
in(41, 13).
in(41, 18).
in(41, 19).
in(41, 23).
in(41, 25).
in(41, 27).
in(41, 28).
in(41, 29).
in(41, 30).
in(41, 32).
in(41, 35).
in(41, 38).
in(41, 42).
in(41, 45).
in(41, 47).
in(41, 49).
in(41, 50).
in(41, 53).
in(41, 55).
in(41, 57).
in(41, 62).
in(41, 67).
in(41, 70).
in(41, 73).
in(41, 77).
in(41, 79).
in(41, 80).
in(42, 1).
in(42, 2).
in(42, 6).
in(42, 11).
in(42, 13).
in(42, 15).
in(42, 21).
in(42, 25).
in(42, 32).
in(42, 33).
in(42, 35).
in(42, 37).
in(42, 42).
in(42, 43).
in(42, 45).
in(42, 46).
in(42, 48).
in(42, 54).
in(42, 55).
in(42, 56).
in(42, 65).
in(42, 67).
in(42, 69).
in(42, 73).
in(42, 75).
in(42, 77).
in(42, 79).
in(42, 80).
in(42, 81).
in(43, 3).
in(43, 4).
in(43, 12).
in(43, 14).
in(43, 15).
in(43, 16).
in(43, 19).
in(43, 20).
in(43, 24).
in(43, 28).
in(43, 32).
in(43, 33).
in(43, 34).
in(43, 35).
in(43, 36).
in(43, 41).
in(43, 42).
in(43, 43).
in(43, 46).
in(43, 49).
in(43, 53).
in(43, 54).
in(43, 57).
in(43, 61).
in(43, 66).
in(43, 67).
in(43, 68).
in(43, 75).
in(43, 76).
in(43, 78).
in(43, 79).
in(43, 80).
in(44, 3).
in(44, 4).
in(44, 5).
in(44, 9).
in(44, 10).
in(44, 11).
in(44, 18).
in(44, 20).
in(44, 21).
in(44, 25).
in(44, 26).
in(44, 27).
in(44, 28).
in(44, 36).
in(44, 37).
in(44, 40).
in(44, 45).
in(44, 47).
in(44, 49).
in(44, 52).
in(44, 53).
in(44, 55).
in(44, 57).
in(44, 58).
in(44, 60).
in(44, 62).
in(44, 63).
in(44, 65).
in(44, 66).
in(44, 67).
in(44, 68).
in(44, 70).
in(44, 72).
in(44, 80).
in(44, 82).
in(45, 1).
in(45, 3).
in(45, 4).
in(45, 5).
in(45, 6).
in(45, 14).
in(45, 21).
in(45, 22).
in(45, 23).
in(45, 25).
in(45, 26).
in(45, 30).
in(45, 32).
in(45, 43).
in(45, 45).
in(45, 48).
in(45, 49).
in(45, 54).
in(45, 56).
in(45, 59).
in(45, 62).
in(45, 64).
in(45, 65).
in(45, 68).
in(45, 70).
in(45, 71).
in(45, 75).
in(45, 79).
in(45, 82).
in(46, 1).
in(46, 2).
in(46, 3).
in(46, 7).
in(46, 8).
in(46, 9).
in(46, 11).
in(46, 15).
in(46, 18).
in(46, 20).
in(46, 21).
in(46, 32).
in(46, 34).
in(46, 40).
in(46, 45).
in(46, 47).
in(46, 48).
in(46, 50).
in(46, 54).
in(46, 56).
in(46, 59).
in(46, 62).
in(46, 64).
in(46, 65).
in(46, 66).
in(46, 67).
in(46, 70).
in(46, 71).
in(46, 73).
in(46, 74).
in(46, 75).
in(46, 76).
in(46, 82).
in(47, 1).
in(47, 12).
in(47, 13).
in(47, 14).
in(47, 21).
in(47, 22).
in(47, 23).
in(47, 24).
in(47, 32).
in(47, 39).
in(47, 48).
in(47, 49).
in(47, 50).
in(47, 52).
in(47, 57).
in(47, 58).
in(47, 59).
in(47, 62).
in(47, 64).
in(47, 65).
in(47, 66).
in(47, 69).
in(47, 70).
in(47, 71).
in(47, 72).
in(47, 73).
in(47, 80).
in(47, 82).
in(48, 5).
in(48, 8).
in(48, 10).
in(48, 14).
in(48, 15).
in(48, 19).
in(48, 21).
in(48, 22).
in(48, 28).
in(48, 31).
in(48, 36).
in(48, 38).
in(48, 43).
in(48, 44).
in(48, 45).
in(48, 46).
in(48, 48).
in(48, 49).
in(48, 50).
in(48, 52).
in(48, 55).
in(48, 56).
in(48, 57).
in(48, 63).
in(48, 64).
in(48, 65).
in(48, 67).
in(48, 69).
in(48, 72).
in(48, 77).
in(48, 78).
in(48, 79).
in(48, 81).
in(48, 82).
in(49, 2).
in(49, 6).
in(49, 10).
in(49, 11).
in(49, 14).
in(49, 20).
in(49, 22).
in(49, 25).
in(49, 29).
in(49, 31).
in(49, 33).
in(49, 35).
in(49, 36).
in(49, 38).
in(49, 39).
in(49, 45).
in(49, 49).
in(49, 50).
in(49, 51).
in(49, 54).
in(49, 55).
in(49, 56).
in(49, 57).
in(49, 58).
in(49, 60).
in(49, 62).
in(49, 70).
in(49, 72).
in(49, 73).
in(49, 77).
in(49, 78).
in(49, 79).
in(50, 2).
in(50, 3).
in(50, 4).
in(50, 5).
in(50, 8).
in(50, 10).
in(50, 13).
in(50, 18).
in(50, 21).
in(50, 23).
in(50, 24).
in(50, 26).
in(50, 30).
in(50, 33).
in(50, 36).
in(50, 37).
in(50, 40).
in(50, 41).
in(50, 45).
in(50, 48).
in(50, 56).
in(50, 61).
in(50, 62).
in(50, 66).
in(50, 70).
in(50, 72).
in(50, 77).
in(50, 79).
in(50, 82).
in(51, 1).
in(51, 6).
in(51, 7).
in(51, 9).
in(51, 10).
in(51, 11).
in(51, 12).
in(51, 15).
in(51, 20).
in(51, 21).
in(51, 24).
in(51, 28).
in(51, 33).
in(51, 40).
in(51, 47).
in(51, 52).
in(51, 54).
in(51, 55).
in(51, 58).
in(51, 60).
in(51, 61).
in(51, 62).
in(51, 63).
in(51, 65).
in(51, 67).
in(51, 68).
in(51, 69).
in(51, 71).
in(51, 72).
in(51, 76).
in(51, 77).
in(52, 2).
in(52, 4).
in(52, 6).
in(52, 8).
in(52, 16).
in(52, 17).
in(52, 18).
in(52, 20).
in(52, 22).
in(52, 26).
in(52, 28).
in(52, 29).
in(52, 30).
in(52, 31).
in(52, 38).
in(52, 39).
in(52, 41).
in(52, 45).
in(52, 46).
in(52, 52).
in(52, 57).
in(52, 59).
in(52, 60).
in(52, 62).
in(52, 70).
in(52, 77).
in(52, 79).
in(52, 82).
in(53, 6).
in(53, 8).
in(53, 9).
in(53, 20).
in(53, 23).
in(53, 24).
in(53, 29).
in(53, 33).
in(53, 34).
in(53, 35).
in(53, 40).
in(53, 41).
in(53, 42).
in(53, 43).
in(53, 48).
in(53, 54).
in(53, 57).
in(53, 58).
in(53, 59).
in(53, 62).
in(53, 65).
in(53, 66).
in(53, 67).
in(53, 74).
in(53, 75).
in(53, 78).
in(53, 82).
in(54, 1).
in(54, 3).
in(54, 4).
in(54, 5).
in(54, 8).
in(54, 9).
in(54, 10).
in(54, 13).
in(54, 15).
in(54, 16).
in(54, 17).
in(54, 18).
in(54, 20).
in(54, 23).
in(54, 24).
in(54, 25).
in(54, 26).
in(54, 27).
in(54, 29).
in(54, 31).
in(54, 35).
in(54, 36).
in(54, 37).
in(54, 41).
in(54, 45).
in(54, 47).
in(54, 48).
in(54, 50).
in(54, 52).
in(54, 55).
in(54, 56).
in(54, 58).
in(54, 61).
in(54, 62).
in(54, 65).
in(54, 66).
in(54, 72).
in(54, 76).
in(54, 79).
in(54, 81).
in(55, 3).
in(55, 5).
in(55, 6).
in(55, 9).
in(55, 10).
in(55, 14).
in(55, 16).
in(55, 17).
in(55, 20).
in(55, 28).
in(55, 32).
in(55, 33).
in(55, 37).
in(55, 41).
in(55, 42).
in(55, 43).
in(55, 44).
in(55, 45).
in(55, 48).
in(55, 52).
in(55, 54).
in(55, 57).
in(55, 58).
in(55, 60).
in(55, 67).
in(55, 69).
in(55, 70).
in(55, 73).
in(55, 77).
in(55, 81).
in(56, 2).
in(56, 3).
in(56, 4).
in(56, 5).
in(56, 8).
in(56, 9).
in(56, 10).
in(56, 14).
in(56, 18).
in(56, 19).
in(56, 23).
in(56, 25).
in(56, 26).
in(56, 27).
in(56, 28).
in(56, 33).
in(56, 35).
in(56, 37).
in(56, 38).
in(56, 41).
in(56, 42).
in(56, 44).
in(56, 48).
in(56, 49).
in(56, 59).
in(56, 67).
in(56, 68).
in(56, 69).
in(56, 73).
in(56, 74).
in(56, 75).
in(56, 81).
in(56, 82).
in(57, 1).
in(57, 2).
in(57, 3).
in(57, 4).
in(57, 8).
in(57, 9).
in(57, 11).
in(57, 15).
in(57, 19).
in(57, 23).
in(57, 25).
in(57, 31).
in(57, 32).
in(57, 33).
in(57, 39).
in(57, 41).
in(57, 43).
in(57, 46).
in(57, 47).
in(57, 48).
in(57, 51).
in(57, 52).
in(57, 58).
in(57, 63).
in(57, 67).
in(57, 69).
in(57, 70).
in(57, 71).
in(57, 73).
in(57, 75).
in(57, 76).
in(57, 78).
in(57, 79).
in(57, 81).
in(58, 8).
in(58, 13).
in(58, 14).
in(58, 16).
in(58, 20).
in(58, 21).
in(58, 26).
in(58, 30).
in(58, 32).
in(58, 37).
in(58, 41).
in(58, 42).
in(58, 43).
in(58, 46).
in(58, 47).
in(58, 50).
in(58, 53).
in(58, 54).
in(58, 58).
in(58, 60).
in(58, 63).
in(58, 64).
in(58, 65).
in(58, 66).
in(58, 70).
in(58, 71).
in(58, 75).
in(58, 77).
in(58, 80).
in(59, 3).
in(59, 7).
in(59, 11).
in(59, 12).
in(59, 14).
in(59, 15).
in(59, 20).
in(59, 21).
in(59, 24).
in(59, 26).
in(59, 33).
in(59, 34).
in(59, 35).
in(59, 36).
in(59, 40).
in(59, 41).
in(59, 43).
in(59, 44).
in(59, 45).
in(59, 51).
in(59, 53).
in(59, 55).
in(59, 58).
in(59, 63).
in(59, 65).
in(59, 69).
in(59, 72).
in(59, 75).
in(59, 78).
in(59, 79).
in(60, 8).
in(60, 9).
in(60, 10).
in(60, 11).
in(60, 12).
in(60, 13).
in(60, 15).
in(60, 19).
in(60, 27).
in(60, 35).
in(60, 40).
in(60, 41).
in(60, 45).
in(60, 46).
in(60, 49).
in(60, 52).
in(60, 56).
in(60, 57).
in(60, 59).
in(60, 60).
in(60, 65).
in(60, 66).
in(60, 67).
in(60, 68).
in(60, 69).
in(60, 70).
in(60, 72).
in(60, 74).
in(60, 75).
in(60, 76).
in(60, 78).
in(60, 81).
in(61, 1).
in(61, 7).
in(61, 8).
in(61, 9).
in(61, 10).
in(61, 12).
in(61, 16).
in(61, 17).
in(61, 18).
in(61, 24).
in(61, 25).
in(61, 26).
in(61, 28).
in(61, 30).
in(61, 32).
in(61, 37).
in(61, 39).
in(61, 41).
in(61, 49).
in(61, 52).
in(61, 53).
in(61, 54).
in(61, 55).
in(61, 56).
in(61, 57).
in(61, 58).
in(61, 60).
in(61, 61).
in(61, 64).
in(61, 67).
in(61, 72).
in(61, 73).
in(61, 77).
in(61, 78).
in(61, 81).
in(62, 7).
in(62, 8).
in(62, 11).
in(62, 13).
in(62, 17).
in(62, 18).
in(62, 19).
in(62, 20).
in(62, 22).
in(62, 25).
in(62, 26).
in(62, 27).
in(62, 32).
in(62, 33).
in(62, 39).
in(62, 44).
in(62, 45).
in(62, 48).
in(62, 50).
in(62, 54).
in(62, 55).
in(62, 57).
in(62, 58).
in(62, 61).
in(62, 63).
in(62, 65).
in(62, 66).
in(62, 67).
in(62, 68).
in(62, 72).
in(62, 73).
in(62, 78).
in(62, 81).
in(62, 82).
in(63, 3).
in(63, 4).
in(63, 14).
in(63, 17).
in(63, 21).
in(63, 22).
in(63, 26).
in(63, 31).
in(63, 32).
in(63, 33).
in(63, 34).
in(63, 35).
in(63, 36).
in(63, 46).
in(63, 59).
in(63, 60).
in(63, 64).
in(63, 65).
in(63, 67).
in(63, 68).
in(63, 69).
in(63, 70).
in(63, 71).
in(63, 75).
in(63, 78).
in(63, 80).
in(63, 81).
in(63, 82).
in(64, 2).
in(64, 10).
in(64, 14).
in(64, 15).
in(64, 21).
in(64, 23).
in(64, 25).
in(64, 26).
in(64, 28).
in(64, 30).
in(64, 33).
in(64, 36).
in(64, 42).
in(64, 43).
in(64, 46).
in(64, 53).
in(64, 54).
in(64, 56).
in(64, 57).
in(64, 59).
in(64, 62).
in(64, 66).
in(64, 75).
in(64, 76).
in(64, 77).
in(65, 1).
in(65, 10).
in(65, 11).
in(65, 12).
in(65, 17).
in(65, 18).
in(65, 19).
in(65, 22).
in(65, 26).
in(65, 28).
in(65, 33).
in(65, 42).
in(65, 43).
in(65, 45).
in(65, 46).
in(65, 49).
in(65, 52).
in(65, 53).
in(65, 54).
in(65, 55).
in(65, 61).
in(65, 63).
in(65, 65).
in(65, 67).
in(65, 70).
in(65, 73).
in(65, 74).
in(65, 75).
in(65, 79).
in(66, 1).
in(66, 2).
in(66, 4).
in(66, 5).
in(66, 6).
in(66, 10).
in(66, 11).
in(66, 12).
in(66, 13).
in(66, 19).
in(66, 23).
in(66, 25).
in(66, 30).
in(66, 31).
in(66, 36).
in(66, 37).
in(66, 38).
in(66, 41).
in(66, 42).
in(66, 44).
in(66, 45).
in(66, 48).
in(66, 52).
in(66, 53).
in(66, 56).
in(66, 61).
in(66, 64).
in(66, 69).
in(66, 71).
in(66, 73).
in(66, 77).
in(66, 79).
in(67, 2).
in(67, 5).
in(67, 6).
in(67, 8).
in(67, 9).
in(67, 11).
in(67, 13).
in(67, 16).
in(67, 17).
in(67, 18).
in(67, 23).
in(67, 24).
in(67, 25).
in(67, 26).
in(67, 29).
in(67, 32).
in(67, 34).
in(67, 38).
in(67, 40).
in(67, 43).
in(67, 46).
in(67, 52).
in(67, 53).
in(67, 56).
in(67, 57).
in(67, 59).
in(67, 60).
in(67, 62).
in(67, 64).
in(67, 65).
in(67, 66).
in(67, 69).
in(67, 72).
in(67, 77).
in(67, 80).
in(67, 81).
in(68, 2).
in(68, 8).
in(68, 9).
in(68, 10).
in(68, 11).
in(68, 12).
in(68, 13).
in(68, 17).
in(68, 26).
in(68, 31).
in(68, 32).
in(68, 33).
in(68, 34).
in(68, 44).
in(68, 45).
in(68, 46).
in(68, 50).
in(68, 51).
in(68, 53).
in(68, 54).
in(68, 57).
in(68, 58).
in(68, 59).
in(68, 60).
in(68, 62).
in(68, 65).
in(68, 69).
in(68, 70).
in(68, 72).
in(68, 75).
in(68, 76).
in(68, 78).
in(68, 80).
in(68, 81).
in(69, 1).
in(69, 3).
in(69, 5).
in(69, 8).
in(69, 10).
in(69, 12).
in(69, 14).
in(69, 20).
in(69, 22).
in(69, 28).
in(69, 36).
in(69, 40).
in(69, 42).
in(69, 49).
in(69, 51).
in(69, 52).
in(69, 61).
in(69, 62).
in(69, 64).
in(69, 66).
in(69, 72).
in(69, 73).
in(69, 77).
in(69, 78).
in(70, 3).
in(70, 5).
in(70, 7).
in(70, 10).
in(70, 17).
in(70, 21).
in(70, 24).
in(70, 26).
in(70, 31).
in(70, 32).
in(70, 37).
in(70, 42).
in(70, 54).
in(70, 58).
in(70, 60).
in(70, 61).
in(70, 65).
in(70, 66).
in(70, 70).
in(70, 75).
in(70, 76).
in(70, 78).
in(70, 79).
in(70, 81).
in(71, 1).
in(71, 5).
in(71, 10).
in(71, 11).
in(71, 15).
in(71, 21).
in(71, 22).
in(71, 23).
in(71, 24).
in(71, 25).
in(71, 26).
in(71, 27).
in(71, 33).
in(71, 36).
in(71, 38).
in(71, 40).
in(71, 41).
in(71, 43).
in(71, 44).
in(71, 45).
in(71, 46).
in(71, 47).
in(71, 51).
in(71, 52).
in(71, 54).
in(71, 55).
in(71, 59).
in(71, 63).
in(71, 65).
in(71, 71).
in(71, 73).
in(71, 74).
in(71, 75).
in(71, 80).
in(71, 81).
in(72, 3).
in(72, 6).
in(72, 8).
in(72, 9).
in(72, 11).
in(72, 12).
in(72, 13).
in(72, 15).
in(72, 16).
in(72, 24).
in(72, 28).
in(72, 29).
in(72, 32).
in(72, 33).
in(72, 34).
in(72, 36).
in(72, 37).
in(72, 41).
in(72, 43).
in(72, 44).
in(72, 45).
in(72, 46).
in(72, 49).
in(72, 53).
in(72, 55).
in(72, 58).
in(72, 62).
in(72, 67).
in(72, 68).
in(72, 71).
in(72, 73).
in(72, 76).
in(72, 78).
in(72, 79).
in(72, 80).
in(72, 81).
in(73, 1).
in(73, 3).
in(73, 4).
in(73, 7).
in(73, 11).
in(73, 12).
in(73, 17).
in(73, 21).
in(73, 22).
in(73, 24).
in(73, 25).
in(73, 26).
in(73, 30).
in(73, 35).
in(73, 37).
in(73, 38).
in(73, 42).
in(73, 44).
in(73, 46).
in(73, 49).
in(73, 50).
in(73, 51).
in(73, 58).
in(73, 61).
in(73, 62).
in(73, 64).
in(73, 66).
in(73, 68).
in(73, 69).
in(73, 74).
in(73, 75).
in(73, 77).
in(73, 80).
in(74, 2).
in(74, 3).
in(74, 6).
in(74, 12).
in(74, 13).
in(74, 14).
in(74, 15).
in(74, 18).
in(74, 25).
in(74, 28).
in(74, 29).
in(74, 30).
in(74, 33).
in(74, 40).
in(74, 43).
in(74, 49).
in(74, 55).
in(74, 65).
in(74, 66).
in(74, 72).
in(74, 73).
in(74, 75).
in(74, 78).
in(74, 81).
in(75, 3).
in(75, 10).
in(75, 11).
in(75, 13).
in(75, 15).
in(75, 16).
in(75, 21).
in(75, 25).
in(75, 26).
in(75, 28).
in(75, 32).
in(75, 35).
in(75, 42).
in(75, 48).
in(75, 49).
in(75, 59).
in(75, 61).
in(75, 67).
in(75, 69).
in(75, 72).
in(75, 75).
in(75, 77).
in(75, 79).
in(75, 80).
in(75, 82).
in(76, 1).
in(76, 5).
in(76, 6).
in(76, 7).
in(76, 9).
in(76, 11).
in(76, 12).
in(76, 17).
in(76, 20).
in(76, 29).
in(76, 33).
in(76, 36).
in(76, 38).
in(76, 39).
in(76, 41).
in(76, 44).
in(76, 45).
in(76, 47).
in(76, 48).
in(76, 49).
in(76, 50).
in(76, 51).
in(76, 58).
in(76, 59).
in(76, 62).
in(76, 64).
in(76, 74).
in(76, 77).
in(76, 80).
in(76, 81).
in(77, 2).
in(77, 3).
in(77, 5).
in(77, 6).
in(77, 16).
in(77, 18).
in(77, 21).
in(77, 23).
in(77, 28).
in(77, 29).
in(77, 31).
in(77, 33).
in(77, 34).
in(77, 35).
in(77, 36).
in(77, 37).
in(77, 42).
in(77, 49).
in(77, 50).
in(77, 51).
in(77, 54).
in(77, 55).
in(77, 62).
in(77, 64).
in(77, 65).
in(77, 71).
in(77, 73).
in(77, 77).
in(77, 80).
in(78, 2).
in(78, 7).
in(78, 12).
in(78, 14).
in(78, 18).
in(78, 20).
in(78, 21).
in(78, 25).
in(78, 27).
in(78, 31).
in(78, 35).
in(78, 36).
in(78, 38).
in(78, 40).
in(78, 46).
in(78, 48).
in(78, 50).
in(78, 53).
in(78, 58).
in(78, 60).
in(78, 61).
in(78, 63).
in(78, 65).
in(78, 67).
in(78, 71).
in(78, 80).
in(78, 82).
in(79, 3).
in(79, 5).
in(79, 10).
in(79, 12).
in(79, 13).
in(79, 18).
in(79, 22).
in(79, 26).
in(79, 27).
in(79, 33).
in(79, 34).
in(79, 40).
in(79, 45).
in(79, 47).
in(79, 52).
in(79, 54).
in(79, 57).
in(79, 58).
in(79, 59).
in(79, 60).
in(79, 62).
in(79, 63).
in(79, 68).
in(79, 69).
in(79, 71).
in(80, 2).
in(80, 6).
in(80, 8).
in(80, 9).
in(80, 12).
in(80, 16).
in(80, 25).
in(80, 30).
in(80, 39).
in(80, 40).
in(80, 48).
in(80, 49).
in(80, 50).
in(80, 54).
in(80, 60).
in(80, 62).
in(80, 70).
in(80, 72).
in(80, 75).
in(80, 76).
in(80, 77).
in(80, 81).
in(80, 82).
in(81, 3).
in(81, 4).
in(81, 5).
in(81, 7).
in(81, 9).
in(81, 11).
in(81, 14).
in(81, 18).
in(81, 22).
in(81, 24).
in(81, 26).
in(81, 28).
in(81, 30).
in(81, 36).
in(81, 46).
in(81, 50).
in(81, 51).
in(81, 58).
in(81, 59).
in(81, 60).
in(81, 64).
in(81, 66).
in(81, 69).
in(81, 70).
in(81, 82).
in(82, 1).
in(82, 10).
in(82, 12).
in(82, 13).
in(82, 24).
in(82, 25).
in(82, 26).
in(82, 28).
in(82, 30).
in(82, 33).
in(82, 34).
in(82, 36).
in(82, 40).
in(82, 46).
in(82, 51).
in(82, 62).
in(82, 66).
in(82, 68).
in(82, 69).
in(82, 70).
in(82, 71).
in(82, 72).
in(82, 74).
in(82, 76).
in(82, 77).
in(83, 6).
in(83, 11).
in(83, 12).
in(83, 16).
in(83, 18).
in(83, 29).
in(83, 33).
in(83, 50).
in(83, 51).
in(83, 52).
in(83, 53).
in(83, 55).
in(83, 60).
in(83, 67).
in(83, 71).
in(83, 72).
in(83, 75).
in(83, 79).
in(83, 81).
in(83, 82).
in(84, 4).
in(84, 5).
in(84, 9).
in(84, 12).
in(84, 13).
in(84, 17).
in(84, 19).
in(84, 21).
in(84, 22).
in(84, 23).
in(84, 24).
in(84, 26).
in(84, 28).
in(84, 31).
in(84, 34).
in(84, 38).
in(84, 41).
in(84, 42).
in(84, 46).
in(84, 47).
in(84, 48).
in(84, 49).
in(84, 53).
in(84, 55).
in(84, 59).
in(84, 60).
in(84, 63).
in(84, 65).
in(84, 66).
in(84, 73).
in(84, 76).
in(84, 77).
in(84, 80).
in(85, 1).
in(85, 6).
in(85, 8).
in(85, 10).
in(85, 11).
in(85, 14).
in(85, 15).
in(85, 17).
in(85, 18).
in(85, 22).
in(85, 24).
in(85, 25).
in(85, 27).
in(85, 35).
in(85, 46).
in(85, 47).
in(85, 51).
in(85, 58).
in(85, 60).
in(85, 62).
in(85, 63).
in(85, 64).
in(85, 69).
in(85, 70).
in(85, 73).
in(85, 74).
in(85, 76).
in(85, 77).
in(85, 82).
in(86, 3).
in(86, 4).
in(86, 6).
in(86, 8).
in(86, 11).
in(86, 12).
in(86, 13).
in(86, 15).
in(86, 17).
in(86, 18).
in(86, 19).
in(86, 20).
in(86, 21).
in(86, 22).
in(86, 25).
in(86, 26).
in(86, 29).
in(86, 30).
in(86, 31).
in(86, 37).
in(86, 43).
in(86, 46).
in(86, 47).
in(86, 49).
in(86, 50).
in(86, 51).
in(86, 54).
in(86, 57).
in(86, 58).
in(86, 59).
in(86, 61).
in(86, 62).
in(86, 66).
in(86, 72).
in(86, 77).
in(86, 78).
in(86, 80).
in(86, 81).
in(87, 5).
in(87, 6).
in(87, 13).
in(87, 14).
in(87, 16).
in(87, 17).
in(87, 20).
in(87, 22).
in(87, 24).
in(87, 26).
in(87, 29).
in(87, 30).
in(87, 34).
in(87, 38).
in(87, 45).
in(87, 47).
in(87, 53).
in(87, 54).
in(87, 55).
in(87, 56).
in(87, 57).
in(87, 60).
in(87, 62).
in(87, 66).
in(87, 67).
in(87, 70).
in(87, 71).
in(87, 74).
in(87, 78).
in(87, 81).
in(87, 82).
in(88, 2).
in(88, 4).
in(88, 5).
in(88, 6).
in(88, 9).
in(88, 10).
in(88, 12).
in(88, 15).
in(88, 16).
in(88, 20).
in(88, 22).
in(88, 25).
in(88, 27).
in(88, 28).
in(88, 31).
in(88, 32).
in(88, 33).
in(88, 34).
in(88, 36).
in(88, 39).
in(88, 46).
in(88, 50).
in(88, 51).
in(88, 55).
in(88, 62).
in(88, 64).
in(88, 66).
in(88, 70).
in(88, 71).
in(88, 73).
in(88, 76).
in(88, 78).
in(88, 81).
in(88, 82).
in(89, 11).
in(89, 12).
in(89, 15).
in(89, 16).
in(89, 17).
in(89, 18).
in(89, 22).
in(89, 25).
in(89, 26).
in(89, 27).
in(89, 28).
in(89, 29).
in(89, 34).
in(89, 43).
in(89, 44).
in(89, 47).
in(89, 51).
in(89, 52).
in(89, 56).
in(89, 61).
in(89, 65).
in(89, 71).
in(89, 73).
in(89, 74).
in(89, 77).
in(89, 81).
in(89, 82).
in(90, 3).
in(90, 6).
in(90, 8).
in(90, 9).
in(90, 10).
in(90, 11).
in(90, 13).
in(90, 14).
in(90, 16).
in(90, 22).
in(90, 23).
in(90, 29).
in(90, 30).
in(90, 31).
in(90, 34).
in(90, 38).
in(90, 43).
in(90, 46).
in(90, 47).
in(90, 49).
in(90, 54).
in(90, 59).
in(90, 60).
in(90, 61).
in(90, 66).
in(90, 67).
in(90, 69).
in(90, 73).
in(90, 78).
in(90, 80).
in(90, 82).
in(91, 5).
in(91, 11).
in(91, 15).
in(91, 17).
in(91, 18).
in(91, 19).
in(91, 20).
in(91, 23).
in(91, 25).
in(91, 28).
in(91, 30).
in(91, 38).
in(91, 40).
in(91, 46).
in(91, 47).
in(91, 48).
in(91, 53).
in(91, 54).
in(91, 55).
in(91, 57).
in(91, 61).
in(91, 62).
in(91, 65).
in(91, 66).
in(91, 75).
in(91, 76).
in(91, 78).
in(92, 1).
in(92, 2).
in(92, 6).
in(92, 10).
in(92, 11).
in(92, 19).
in(92, 20).
in(92, 22).
in(92, 23).
in(92, 25).
in(92, 26).
in(92, 29).
in(92, 34).
in(92, 40).
in(92, 43).
in(92, 48).
in(92, 50).
in(92, 51).
in(92, 65).
in(92, 67).
in(92, 70).
in(92, 72).
in(92, 73).
in(92, 77).
in(92, 79).
in(92, 82).
in(93, 10).
in(93, 13).
in(93, 18).
in(93, 26).
in(93, 28).
in(93, 30).
in(93, 32).
in(93, 39).
in(93, 43).
in(93, 44).
in(93, 47).
in(93, 48).
in(93, 50).
in(93, 58).
in(93, 62).
in(93, 66).
in(93, 67).
in(93, 72).
in(93, 74).
in(93, 76).
in(93, 77).
in(93, 82).
in(94, 1).
in(94, 3).
in(94, 4).
in(94, 6).
in(94, 7).
in(94, 8).
in(94, 10).
in(94, 14).
in(94, 15).
in(94, 17).
in(94, 18).
in(94, 24).
in(94, 25).
in(94, 27).
in(94, 29).
in(94, 32).
in(94, 36).
in(94, 41).
in(94, 42).
in(94, 44).
in(94, 46).
in(94, 48).
in(94, 49).
in(94, 53).
in(94, 54).
in(94, 57).
in(94, 59).
in(94, 63).
in(94, 64).
in(94, 68).
in(94, 71).
in(94, 72).
in(94, 74).
in(94, 79).
in(94, 80).
in(94, 81).
in(95, 1).
in(95, 6).
in(95, 8).
in(95, 11).
in(95, 13).
in(95, 15).
in(95, 16).
in(95, 19).
in(95, 20).
in(95, 22).
in(95, 24).
in(95, 25).
in(95, 26).
in(95, 27).
in(95, 30).
in(95, 31).
in(95, 34).
in(95, 36).
in(95, 37).
in(95, 39).
in(95, 40).
in(95, 42).
in(95, 53).
in(95, 54).
in(95, 61).
in(95, 62).
in(95, 69).
in(95, 70).
in(95, 73).
in(95, 74).
in(95, 75).
in(95, 78).
in(96, 4).
in(96, 5).
in(96, 9).
in(96, 10).
in(96, 11).
in(96, 12).
in(96, 13).
in(96, 17).
in(96, 19).
in(96, 22).
in(96, 24).
in(96, 27).
in(96, 28).
in(96, 35).
in(96, 37).
in(96, 39).
in(96, 40).
in(96, 46).
in(96, 48).
in(96, 49).
in(96, 60).
in(96, 61).
in(96, 62).
in(96, 63).
in(96, 65).
in(96, 66).
in(96, 68).
in(96, 69).
in(96, 71).
in(96, 72).
in(96, 73).
in(96, 81).
in(96, 82).
in(97, 1).
in(97, 4).
in(97, 5).
in(97, 9).
in(97, 11).
in(97, 13).
in(97, 14).
in(97, 15).
in(97, 20).
in(97, 25).
in(97, 26).
in(97, 29).
in(97, 30).
in(97, 32).
in(97, 34).
in(97, 36).
in(97, 37).
in(97, 42).
in(97, 43).
in(97, 49).
in(97, 50).
in(97, 55).
in(97, 59).
in(97, 62).
in(97, 65).
in(97, 66).
in(97, 67).
in(97, 71).
in(97, 72).
in(97, 73).
in(97, 77).
in(97, 80).
in(97, 82).
in(98, 2).
in(98, 3).
in(98, 6).
in(98, 11).
in(98, 13).
in(98, 14).
in(98, 19).
in(98, 20).
in(98, 21).
in(98, 24).
in(98, 25).
in(98, 27).
in(98, 28).
in(98, 29).
in(98, 33).
in(98, 34).
in(98, 37).
in(98, 39).
in(98, 41).
in(98, 46).
in(98, 48).
in(98, 49).
in(98, 54).
in(98, 55).
in(98, 56).
in(98, 57).
in(98, 59).
in(98, 60).
in(98, 61).
in(98, 62).
in(98, 64).
in(98, 65).
in(98, 69).
in(98, 74).
in(98, 76).
in(98, 80).
in(98, 82).
in(99, 1).
in(99, 2).
in(99, 5).
in(99, 10).
in(99, 11).
in(99, 12).
in(99, 17).
in(99, 18).
in(99, 19).
in(99, 20).
in(99, 21).
in(99, 22).
in(99, 23).
in(99, 25).
in(99, 29).
in(99, 30).
in(99, 31).
in(99, 32).
in(99, 35).
in(99, 37).
in(99, 40).
in(99, 44).
in(99, 46).
in(99, 48).
in(99, 55).
in(99, 56).
in(99, 58).
in(99, 59).
in(99, 60).
in(99, 62).
in(99, 66).
in(99, 67).
in(99, 70).
in(99, 71).
in(99, 80).
in(99, 81).
in(99, 82).
in(100, 3).
in(100, 7).
in(100, 10).
in(100, 16).
in(100, 20).
in(100, 21).
in(100, 24).
in(100, 30).
in(100, 42).
in(100, 43).
in(100, 44).
in(100, 45).
in(100, 51).
in(100, 55).
in(100, 56).
in(100, 58).
in(100, 59).
in(100, 61).
in(100, 62).
in(100, 63).
in(100, 64).
in(100, 69).
in(100, 72).
in(100, 73).
in(100, 81).
in(100, 82).
in(101, 2).
in(101, 5).
in(101, 6).
in(101, 7).
in(101, 8).
in(101, 9).
in(101, 16).
in(101, 17).
in(101, 18).
in(101, 19).
in(101, 21).
in(101, 25).
in(101, 28).
in(101, 29).
in(101, 34).
in(101, 37).
in(101, 38).
in(101, 40).
in(101, 41).
in(101, 42).
in(101, 46).
in(101, 50).
in(101, 53).
in(101, 54).
in(101, 59).
in(101, 66).
in(101, 68).
in(101, 73).
in(101, 75).
in(101, 76).
in(101, 82).
in(102, 4).
in(102, 6).
in(102, 9).
in(102, 10).
in(102, 11).
in(102, 12).
in(102, 13).
in(102, 14).
in(102, 15).
in(102, 17).
in(102, 19).
in(102, 23).
in(102, 24).
in(102, 27).
in(102, 36).
in(102, 37).
in(102, 38).
in(102, 41).
in(102, 43).
in(102, 46).
in(102, 47).
in(102, 48).
in(102, 49).
in(102, 51).
in(102, 53).
in(102, 58).
in(102, 61).
in(102, 62).
in(102, 63).
in(102, 65).
in(102, 67).
in(102, 69).
in(102, 71).
in(102, 73).
in(102, 74).
in(102, 75).
in(102, 78).
in(103, 1).
in(103, 5).
in(103, 7).
in(103, 15).
in(103, 16).
in(103, 19).
in(103, 23).
in(103, 25).
in(103, 26).
in(103, 30).
in(103, 33).
in(103, 36).
in(103, 37).
in(103, 38).
in(103, 42).
in(103, 44).
in(103, 45).
in(103, 46).
in(103, 50).
in(103, 51).
in(103, 53).
in(103, 64).
in(103, 65).
in(103, 67).
in(103, 68).
in(103, 69).
in(103, 71).
in(103, 76).
in(103, 77).
in(103, 79).
in(104, 2).
in(104, 5).
in(104, 7).
in(104, 10).
in(104, 13).
in(104, 14).
in(104, 16).
in(104, 17).
in(104, 19).
in(104, 30).
in(104, 33).
in(104, 36).
in(104, 38).
in(104, 41).
in(104, 45).
in(104, 48).
in(104, 50).
in(104, 60).
in(104, 62).
in(104, 64).
in(104, 67).
in(104, 68).
in(104, 75).
in(104, 76).
in(104, 78).
in(104, 79).
in(105, 1).
in(105, 2).
in(105, 3).
in(105, 4).
in(105, 10).
in(105, 13).
in(105, 21).
in(105, 22).
in(105, 25).
in(105, 31).
in(105, 32).
in(105, 35).
in(105, 39).
in(105, 41).
in(105, 42).
in(105, 43).
in(105, 49).
in(105, 51).
in(105, 54).
in(105, 62).
in(105, 63).
in(105, 66).
in(105, 69).
in(105, 71).
in(105, 74).
in(105, 75).
in(105, 79).
in(105, 80).
in(105, 82).
in(106, 2).
in(106, 8).
in(106, 9).
in(106, 10).
in(106, 11).
in(106, 14).
in(106, 15).
in(106, 16).
in(106, 18).
in(106, 21).
in(106, 22).
in(106, 23).
in(106, 24).
in(106, 25).
in(106, 27).
in(106, 33).
in(106, 35).
in(106, 36).
in(106, 37).
in(106, 38).
in(106, 40).
in(106, 44).
in(106, 47).
in(106, 48).
in(106, 51).
in(106, 54).
in(106, 59).
in(106, 62).
in(106, 64).
in(106, 65).
in(106, 66).
in(106, 69).
in(106, 72).
in(106, 74).
in(106, 76).
in(106, 79).
in(106, 82).
in(107, 3).
in(107, 12).
in(107, 13).
in(107, 14).
in(107, 23).
in(107, 30).
in(107, 32).
in(107, 34).
in(107, 36).
in(107, 37).
in(107, 43).
in(107, 46).
in(107, 48).
in(107, 49).
in(107, 50).
in(107, 53).
in(107, 54).
in(107, 55).
in(107, 56).
in(107, 59).
in(107, 60).
in(107, 62).
in(107, 69).
in(107, 70).
in(107, 75).
in(107, 76).
in(107, 77).
in(107, 81).
in(107, 82).
in(108, 4).
in(108, 5).
in(108, 6).
in(108, 10).
in(108, 11).
in(108, 12).
in(108, 15).
in(108, 19).
in(108, 21).
in(108, 27).
in(108, 30).
in(108, 33).
in(108, 37).
in(108, 42).
in(108, 45).
in(108, 47).
in(108, 51).
in(108, 53).
in(108, 54).
in(108, 56).
in(108, 59).
in(108, 60).
in(108, 61).
in(108, 63).
in(108, 68).
in(108, 69).
in(108, 70).
in(108, 75).
in(108, 77).
in(108, 78).
in(109, 3).
in(109, 5).
in(109, 12).
in(109, 13).
in(109, 15).
in(109, 17).
in(109, 22).
in(109, 24).
in(109, 36).
in(109, 38).
in(109, 41).
in(109, 42).
in(109, 44).
in(109, 45).
in(109, 55).
in(109, 58).
in(109, 59).
in(109, 60).
in(109, 61).
in(109, 63).
in(109, 64).
in(109, 66).
in(109, 68).
in(109, 69).
in(109, 71).
in(109, 72).
in(109, 73).
in(109, 74).
in(109, 75).
in(110, 4).
in(110, 5).
in(110, 11).
in(110, 13).
in(110, 14).
in(110, 17).
in(110, 18).
in(110, 20).
in(110, 24).
in(110, 26).
in(110, 27).
in(110, 32).
in(110, 33).
in(110, 36).
in(110, 37).
in(110, 41).
in(110, 44).
in(110, 49).
in(110, 54).
in(110, 55).
in(110, 59).
in(110, 60).
in(110, 63).
in(110, 69).
in(110, 72).
in(110, 75).
in(110, 78).
in(110, 79).
in(110, 81).
in(111, 6).
in(111, 8).
in(111, 9).
in(111, 16).
in(111, 18).
in(111, 26).
in(111, 28).
in(111, 31).
in(111, 33).
in(111, 35).
in(111, 37).
in(111, 39).
in(111, 40).
in(111, 42).
in(111, 43).
in(111, 45).
in(111, 52).
in(111, 55).
in(111, 56).
in(111, 57).
in(111, 58).
in(111, 60).
in(111, 63).
in(111, 70).
in(111, 72).
in(111, 77).
in(111, 80).
in(112, 5).
in(112, 6).
in(112, 8).
in(112, 9).
in(112, 14).
in(112, 16).
in(112, 18).
in(112, 20).
in(112, 21).
in(112, 23).
in(112, 24).
in(112, 25).
in(112, 26).
in(112, 27).
in(112, 29).
in(112, 32).
in(112, 36).
in(112, 37).
in(112, 39).
in(112, 41).
in(112, 44).
in(112, 54).
in(112, 57).
in(112, 58).
in(112, 59).
in(112, 60).
in(112, 62).
in(112, 63).
in(112, 67).
in(112, 74).
in(112, 81).
in(112, 82).
in(113, 5).
in(113, 7).
in(113, 8).
in(113, 15).
in(113, 16).
in(113, 17).
in(113, 18).
in(113, 23).
in(113, 24).
in(113, 25).
in(113, 30).
in(113, 31).
in(113, 32).
in(113, 38).
in(113, 39).
in(113, 40).
in(113, 41).
in(113, 43).
in(113, 45).
in(113, 50).
in(113, 52).
in(113, 54).
in(113, 56).
in(113, 57).
in(113, 58).
in(113, 59).
in(113, 60).
in(113, 67).
in(113, 69).
in(113, 70).
in(113, 76).
in(113, 78).
in(113, 80).
in(114, 5).
in(114, 9).
in(114, 16).
in(114, 17).
in(114, 20).
in(114, 22).
in(114, 23).
in(114, 24).
in(114, 25).
in(114, 29).
in(114, 33).
in(114, 34).
in(114, 35).
in(114, 36).
in(114, 48).
in(114, 49).
in(114, 51).
in(114, 55).
in(114, 60).
in(114, 63).
in(114, 66).
in(114, 70).
in(114, 74).
in(114, 76).
in(114, 78).
in(115, 1).
in(115, 10).
in(115, 16).
in(115, 19).
in(115, 20).
in(115, 21).
in(115, 22).
in(115, 23).
in(115, 24).
in(115, 26).
in(115, 27).
in(115, 28).
in(115, 31).
in(115, 32).
in(115, 35).
in(115, 37).
in(115, 38).
in(115, 41).
in(115, 49).
in(115, 50).
in(115, 56).
in(115, 58).
in(115, 59).
in(115, 60).
in(115, 62).
in(115, 66).
in(115, 68).
in(115, 70).
in(115, 76).
in(115, 79).
in(115, 80).
in(116, 3).
in(116, 6).
in(116, 7).
in(116, 10).
in(116, 13).
in(116, 14).
in(116, 19).
in(116, 21).
in(116, 24).
in(116, 27).
in(116, 28).
in(116, 29).
in(116, 31).
in(116, 32).
in(116, 37).
in(116, 40).
in(116, 41).
in(116, 44).
in(116, 46).
in(116, 48).
in(116, 49).
in(116, 52).
in(116, 53).
in(116, 54).
in(116, 56).
in(116, 59).
in(116, 60).
in(116, 62).
in(116, 66).
in(116, 68).
in(116, 73).
in(116, 76).
in(117, 3).
in(117, 4).
in(117, 7).
in(117, 14).
in(117, 18).
in(117, 23).
in(117, 25).
in(117, 27).
in(117, 28).
in(117, 30).
in(117, 33).
in(117, 35).
in(117, 36).
in(117, 37).
in(117, 39).
in(117, 40).
in(117, 43).
in(117, 46).
in(117, 51).
in(117, 58).
in(117, 59).
in(117, 60).
in(117, 61).
in(117, 66).
in(117, 70).
in(117, 73).
in(117, 78).
in(117, 80).
in(118, 2).
in(118, 8).
in(118, 9).
in(118, 10).
in(118, 15).
in(118, 17).
in(118, 18).
in(118, 19).
in(118, 21).
in(118, 22).
in(118, 23).
in(118, 25).
in(118, 27).
in(118, 35).
in(118, 37).
in(118, 38).
in(118, 40).
in(118, 41).
in(118, 42).
in(118, 43).
in(118, 49).
in(118, 50).
in(118, 53).
in(118, 55).
in(118, 67).
in(118, 69).
in(118, 71).
in(118, 72).
in(118, 73).
in(118, 74).
in(118, 81).
in(118, 82).
in(119, 1).
in(119, 4).
in(119, 5).
in(119, 8).
in(119, 10).
in(119, 14).
in(119, 19).
in(119, 21).
in(119, 24).
in(119, 25).
in(119, 26).
in(119, 29).
in(119, 33).
in(119, 36).
in(119, 37).
in(119, 39).
in(119, 41).
in(119, 43).
in(119, 46).
in(119, 47).
in(119, 49).
in(119, 52).
in(119, 60).
in(119, 62).
in(119, 63).
in(119, 64).
in(119, 66).
in(119, 68).
in(119, 70).
in(119, 73).
in(119, 79).
in(120, 2).
in(120, 3).
in(120, 4).
in(120, 7).
in(120, 15).
in(120, 20).
in(120, 22).
in(120, 23).
in(120, 25).
in(120, 26).
in(120, 28).
in(120, 30).
in(120, 36).
in(120, 39).
in(120, 40).
in(120, 42).
in(120, 47).
in(120, 49).
in(120, 52).
in(120, 53).
in(120, 57).
in(120, 58).
in(120, 61).
in(120, 62).
in(120, 63).
in(120, 65).
in(120, 66).
in(120, 70).
in(120, 71).
in(120, 73).
in(120, 76).
in(120, 81).
in(121, 1).
in(121, 4).
in(121, 9).
in(121, 10).
in(121, 14).
in(121, 16).
in(121, 17).
in(121, 27).
in(121, 29).
in(121, 40).
in(121, 41).
in(121, 45).
in(121, 52).
in(121, 54).
in(121, 57).
in(121, 58).
in(121, 59).
in(121, 61).
in(121, 62).
in(121, 63).
in(121, 67).
in(121, 69).
in(121, 71).
in(121, 74).
in(121, 75).
in(121, 76).
in(121, 78).
in(121, 81).
in(121, 82).
in(122, 6).
in(122, 7).
in(122, 12).
in(122, 13).
in(122, 14).
in(122, 19).
in(122, 32).
in(122, 34).
in(122, 36).
in(122, 37).
in(122, 39).
in(122, 43).
in(122, 48).
in(122, 51).
in(122, 52).
in(122, 53).
in(122, 62).
in(122, 63).
in(122, 67).
in(122, 68).
in(122, 71).
in(122, 78).
in(122, 79).
in(123, 2).
in(123, 4).
in(123, 7).
in(123, 9).
in(123, 10).
in(123, 13).
in(123, 16).
in(123, 19).
in(123, 22).
in(123, 25).
in(123, 26).
in(123, 30).
in(123, 36).
in(123, 42).
in(123, 43).
in(123, 45).
in(123, 46).
in(123, 48).
in(123, 49).
in(123, 51).
in(123, 52).
in(123, 58).
in(123, 59).
in(123, 60).
in(123, 63).
in(123, 64).
in(123, 67).
in(123, 70).
in(123, 73).
in(123, 74).
in(123, 77).
in(123, 78).
in(123, 79).
in(123, 80).
in(124, 1).
in(124, 5).
in(124, 10).
in(124, 15).
in(124, 19).
in(124, 20).
in(124, 22).
in(124, 23).
in(124, 24).
in(124, 25).
in(124, 26).
in(124, 31).
in(124, 32).
in(124, 33).
in(124, 36).
in(124, 38).
in(124, 39).
in(124, 42).
in(124, 43).
in(124, 46).
in(124, 48).
in(124, 51).
in(124, 57).
in(124, 58).
in(124, 60).
in(124, 61).
in(124, 69).
in(124, 71).
in(124, 73).
in(124, 76).
in(125, 2).
in(125, 5).
in(125, 10).
in(125, 16).
in(125, 17).
in(125, 21).
in(125, 23).
in(125, 27).
in(125, 28).
in(125, 29).
in(125, 35).
in(125, 46).
in(125, 49).
in(125, 52).
in(125, 58).
in(125, 61).
in(125, 62).
in(125, 63).
in(125, 70).
in(125, 71).
in(125, 73).
in(125, 74).
in(125, 75).
in(125, 78).
weight(1, 4).
weight(2, 7).
weight(3, 1).
weight(4, 5).
weight(5, 3).
weight(6, 6).
weight(7, 7).
weight(8, 7).
weight(9, 2).
weight(10, 4).
weight(11, 6).
weight(12, 7).
weight(13, 2).
weight(14, 4).
weight(15, 5).
weight(16, 3).
weight(17, 7).
weight(18, 3).
weight(19, 3).
weight(20, 2).
weight(21, 1).
weight(22, 2).
weight(23, 5).
weight(24, 4).
weight(25, 6).
weight(26, 2).
weight(27, 2).
weight(28, 6).
weight(29, 1).
weight(30, 7).
weight(31, 5).
weight(32, 3).
weight(33, 4).
weight(34, 7).
weight(35, 3).
weight(36, 4).
weight(37, 5).
weight(38, 3).
weight(39, 2).
weight(40, 3).
weight(41, 7).
weight(42, 4).
weight(43, 3).
weight(44, 6).
weight(45, 3).
weight(46, 3).
weight(47, 3).
weight(48, 7).
weight(49, 4).
weight(50, 2).
weight(51, 3).
weight(52, 2).
weight(53, 1).
weight(54, 6).
weight(55, 1).
weight(56, 4).
weight(57, 3).
weight(58, 6).
weight(59, 7).
weight(60, 1).
weight(61, 5).
weight(62, 3).
weight(63, 3).
weight(64, 2).
weight(65, 3).
weight(66, 3).
weight(67, 2).
weight(68, 5).
weight(69, 7).
weight(70, 6).
weight(71, 4).
weight(72, 1).
weight(73, 6).
weight(74, 5).
weight(75, 2).
weight(76, 1).
weight(77, 6).
weight(78, 2).
weight(79, 5).
weight(80, 5).
weight(81, 7).
weight(82, 6).
weight(83, 4).
weight(84, 2).
weight(85, 1).
weight(86, 6).
weight(87, 6).
weight(88, 2).
weight(89, 3).
weight(90, 6).
weight(91, 7).
weight(92, 2).
weight(93, 4).
weight(94, 4).
weight(95, 5).
weight(96, 2).
weight(97, 2).
weight(98, 6).
weight(99, 5).
weight(100, 3).
weight(101, 1).
weight(102, 2).
weight(103, 2).
weight(104, 1).
weight(105, 3).
weight(106, 3).
weight(107, 7).
weight(108, 5).
weight(109, 7).
weight(110, 1).
weight(111, 4).
weight(112, 1).
weight(113, 6).
weight(114, 6).
weight(115, 7).
weight(116, 7).
weight(117, 1).
weight(118, 3).
weight(119, 6).
weight(120, 5).
weight(121, 1).
weight(122, 7).
weight(123, 1).
weight(124, 5).
weight(125, 3).

{ choose(S) } :- set(S).
:- choose(S1), choose(S2), S1 < S2, in(S1,E), in(S2,E).
:~ not choose(S), weight(S,W). [W@1,S]
