elem(1..85).
set(1..131).
in(1, 3).
in(1, 7).
in(1, 10).
in(1, 12).
in(1, 14).
in(1, 15).
in(1, 19).
in(1, 20).
in(1, 30).
in(1, 35).
in(1, 37).
in(1, 39).
in(1, 44).
in(1, 49).
in(1, 55).
in(1, 67).
in(1, 70).
in(1, 71).
in(1, 74).
in(1, 75).
in(1, 77).
in(1, 80).
in(1, 84).
in(2, 4).
in(2, 12).
in(2, 14).
in(2, 15).
in(2, 21).
in(2, 22).
in(2, 29).
in(2, 30).
in(2, 33).
in(2, 34).
in(2, 39).
in(2, 41).
in(2, 42).
in(2, 45).
in(2, 52).
in(2, 53).
in(2, 54).
in(2, 55).
in(2, 60).
in(2, 63).
in(2, 75).
in(2, 76).
in(2, 78).
in(2, 84).
in(3, 4).
in(3, 6).
in(3, 7).
in(3, 9).
in(3, 13).
in(3, 15).
in(3, 17).
in(3, 20).
in(3, 27).
in(3, 31).
in(3, 32).
in(3, 35).
in(3, 36).
in(3, 43).
in(3, 52).
in(3, 64).
in(3, 65).
in(3, 74).
in(3, 75).
in(3, 78).
in(3, 80).
in(4, 2).
in(4, 4).
in(4, 17).
in(4, 19).
in(4, 20).
in(4, 22).
in(4, 29).
in(4, 33).
in(4, 39).
in(4, 41).
in(4, 43).
in(4, 44).
in(4, 48).
in(4, 52).
in(4, 54).
in(4, 55).
in(4, 58).
in(4, 59).
in(4, 65).
in(4, 69).
in(4, 73).
in(4, 76).
in(4, 78).
in(4, 81).
in(4, 82).
in(5, 65).
in(5, 34).
in(5, 67).
in(5, 36).
in(5, 6).
in(5, 7).
in(5, 38).
in(5, 70).
in(5, 42).
in(5, 78).
in(5, 47).
in(5, 22).
in(5, 24).
in(5, 57).
in(5, 56).
in(5, 30).
in(5, 63).
in(6, 3).
in(6, 6).
in(6, 7).
in(6, 8).
in(6, 17).
in(6, 25).
in(6, 33).
in(6, 35).
in(6, 36).
in(6, 41).
in(6, 42).
in(6, 43).
in(6, 45).
in(6, 49).
in(6, 51).
in(6, 57).
in(6, 65).
in(6, 72).
in(6, 74).
in(6, 75).
in(6, 79).
in(6, 84).
in(7, 1).
in(7, 4).
in(7, 5).
in(7, 7).
in(7, 9).
in(7, 11).
in(7, 13).
in(7, 18).
in(7, 19).
in(7, 21).
in(7, 30).
in(7, 31).
in(7, 33).
in(7, 36).
in(7, 50).
in(7, 54).
in(7, 55).
in(7, 58).
in(7, 61).
in(7, 63).
in(7, 71).
in(7, 76).
in(7, 77).
in(7, 78).
in(7, 79).
in(7, 81).
in(7, 85).
in(8, 3).
in(8, 4).
in(8, 5).
in(8, 6).
in(8, 15).
in(8, 16).
in(8, 21).
in(8, 22).
in(8, 27).
in(8, 28).
in(8, 29).
in(8, 31).
in(8, 32).
in(8, 33).
in(8, 35).
in(8, 39).
in(8, 49).
in(8, 55).
in(8, 62).
in(8, 66).
in(8, 72).
in(8, 73).
in(8, 75).
in(8, 79).
in(9, 1).
in(9, 4).
in(9, 6).
in(9, 8).
in(9, 19).
in(9, 20).
in(9, 22).
in(9, 25).
in(9, 31).
in(9, 38).
in(9, 47).
in(9, 51).
in(9, 52).
in(9, 53).
in(9, 54).
in(9, 57).
in(9, 58).
in(9, 62).
in(9, 67).
in(9, 71).
in(9, 74).
in(9, 77).
in(10, 8).
in(10, 9).
in(10, 10).
in(10, 13).
in(10, 22).
in(10, 28).
in(10, 36).
in(10, 37).
in(10, 48).
in(10, 49).
in(10, 53).
in(10, 58).
in(10, 59).
in(10, 60).
in(10, 66).
in(10, 68).
in(10, 69).
in(10, 70).
in(10, 72).
in(10, 73).
in(10, 74).
in(10, 76).
in(10, 82).
in(11, 2).
in(11, 3).
in(11, 5).
in(11, 6).
in(11, 7).
in(11, 10).
in(11, 11).
in(11, 14).
in(11, 18).
in(11, 19).
in(11, 34).
in(11, 36).
in(11, 39).
in(11, 40).
in(11, 42).
in(11, 43).
in(11, 47).
in(11, 52).
in(11, 60).
in(11, 64).
in(11, 69).
in(11, 72).
in(11, 85).
in(12, 1).
in(12, 3).
in(12, 5).
in(12, 15).
in(12, 16).
in(12, 19).
in(12, 26).
in(12, 28).
in(12, 32).
in(12, 33).
in(12, 35).
in(12, 36).
in(12, 40).
in(12, 41).
in(12, 42).
in(12, 43).
in(12, 44).
in(12, 51).
in(12, 64).
in(12, 74).
in(12, 78).
in(12, 80).
in(13, 1).
in(13, 5).
in(13, 7).
in(13, 9).
in(13, 11).
in(13, 14).
in(13, 25).
in(13, 31).
in(13, 33).
in(13, 34).
in(13, 36).
in(13, 40).
in(13, 41).
in(13, 44).
in(13, 46).
in(13, 54).
in(13, 60).
in(13, 65).
in(13, 73).
in(13, 77).
in(13, 82).
in(13, 83).
in(14, 1).
in(14, 2).
in(14, 9).
in(14, 11).
in(14, 16).
in(14, 20).
in(14, 21).
in(14, 22).
in(14, 23).
in(14, 27).
in(14, 29).
in(14, 33).
in(14, 35).
in(14, 36).
in(14, 37).
in(14, 39).
in(14, 48).
in(14, 51).
in(14, 54).
in(14, 56).
in(14, 57).
in(14, 59).
in(14, 63).
in(14, 68).
in(14, 69).
in(14, 70).
in(14, 81).
in(15, 3).
in(15, 4).
in(15, 5).
in(15, 6).
in(15, 10).
in(15, 15).
in(15, 32).
in(15, 33).
in(15, 34).
in(15, 35).
in(15, 37).
in(15, 42).
in(15, 47).
in(15, 49).
in(15, 50).
in(15, 51).
in(15, 53).
in(15, 54).
in(15, 55).
in(15, 61).
in(15, 74).
in(15, 76).
in(15, 78).
in(15, 81).
in(15, 85).
in(16, 6).
in(16, 7).
in(16, 9).
in(16, 14).
in(16, 19).
in(16, 21).
in(16, 27).
in(16, 29).
in(16, 40).
in(16, 42).
in(16, 43).
in(16, 46).
in(16, 48).
in(16, 49).
in(16, 55).
in(16, 63).
in(16, 70).
in(16, 73).
in(16, 77).
in(16, 81).
in(16, 84).
in(17, 13).
in(17, 18).
in(17, 21).
in(17, 22).
in(17, 28).
in(17, 36).
in(17, 37).
in(17, 39).
in(17, 45).
in(17, 51).
in(17, 55).
in(17, 56).
in(17, 58).
in(17, 59).
in(17, 65).
in(17, 67).
in(17, 69).
in(17, 71).
in(17, 73).
in(17, 76).
in(17, 78).
in(17, 79).
in(17, 80).
in(18, 5).
in(18, 9).
in(18, 12).
in(18, 13).
in(18, 15).
in(18, 18).
in(18, 21).
in(18, 22).
in(18, 27).
in(18, 31).
in(18, 34).
in(18, 35).
in(18, 36).
in(18, 37).
in(18, 44).
in(18, 45).
in(18, 48).
in(18, 49).
in(18, 58).
in(18, 59).
in(18, 63).
in(18, 65).
in(18, 66).
in(18, 71).
in(18, 72).
in(18, 74).
in(18, 75).
in(18, 77).
in(18, 80).
in(19, 3).
in(19, 6).
in(19, 12).
in(19, 13).
in(19, 17).
in(19, 19).
in(19, 25).
in(19, 29).
in(19, 32).
in(19, 35).
in(19, 42).
in(19, 44).
in(19, 45).
in(19, 51).
in(19, 53).
in(19, 56).
in(19, 57).
in(19, 58).
in(19, 69).
in(19, 70).
in(19, 79).
in(20, 1).
in(20, 4).
in(20, 8).
in(20, 9).
in(20, 10).
in(20, 11).
in(20, 22).
in(20, 27).
in(20, 30).
in(20, 32).
in(20, 33).
in(20, 37).
in(20, 43).
in(20, 46).
in(20, 47).
in(20, 48).
in(20, 49).
in(20, 50).
in(20, 51).
in(20, 55).
in(20, 56).
in(20, 57).
in(20, 59).
in(20, 62).
in(20, 63).
in(20, 67).
in(20, 71).
in(20, 73).
in(20, 77).
in(20, 81).
in(20, 85).
in(21, 3).
in(21, 4).
in(21, 6).
in(21, 7).
in(21, 9).
in(21, 11).
in(21, 13).
in(21, 15).
in(21, 24).
in(21, 25).
in(21, 28).
in(21, 31).
in(21, 39).
in(21, 44).
in(21, 52).
in(21, 53).
in(21, 55).
in(21, 58).
in(21, 61).
in(21, 66).
in(21, 70).
in(21, 74).
in(21, 77).
in(21, 83).
in(22, 10).
in(22, 14).
in(22, 16).
in(22, 19).
in(22, 21).
in(22, 22).
in(22, 23).
in(22, 28).
in(22, 29).
in(22, 32).
in(22, 36).
in(22, 41).
in(22, 46).
in(22, 53).
in(22, 54).
in(22, 55).
in(22, 70).
in(22, 72).
in(22, 74).
in(22, 79).
in(22, 80).
in(22, 82).
in(22, 83).
in(22, 84).
in(23, 8).
in(23, 9).
in(23, 13).
in(23, 14).
in(23, 19).
in(23, 21).
in(23, 22).
in(23, 27).
in(23, 28).
in(23, 31).
in(23, 32).
in(23, 34).
in(23, 35).
in(23, 40).
in(23, 42).
in(23, 45).
in(23, 47).
in(23, 51).
in(23, 52).
in(23, 55).
in(23, 62).
in(23, 66).
in(23, 70).
in(23, 71).
in(23, 72).
in(23, 73).
in(23, 76).
in(23, 81).
in(24, 1).
in(24, 2).
in(24, 5).
in(24, 11).
in(24, 12).
in(24, 18).
in(24, 22).
in(24, 24).
in(24, 28).
in(24, 34).
in(24, 38).
in(24, 57).
in(24, 60).
in(24, 67).
in(24, 68).
in(24, 71).
in(24, 73).
in(24, 76).
in(24, 78).
in(24, 79).
in(24, 85).
in(25, 64).
in(25, 1).
in(25, 69).
in(25, 6).
in(25, 10).
in(25, 43).
in(25, 76).
in(25, 78).
in(25, 47).
in(25, 16).
in(25, 80).
in(25, 18).
in(25, 19).
in(25, 84).
in(25, 22).
in(25, 23).
in(25, 54).
in(26, 5).
in(26, 6).
in(26, 8).
in(26, 9).
in(26, 10).
in(26, 12).
in(26, 18).
in(26, 19).
in(26, 33).
in(26, 34).
in(26, 38).
in(26, 40).
in(26, 43).
in(26, 47).
in(26, 49).
in(26, 53).
in(26, 58).
in(26, 59).
in(26, 63).
in(26, 65).
in(26, 67).
in(26, 72).
in(26, 74).
in(26, 75).
in(26, 77).
in(26, 82).
in(26, 83).
in(27, 33).
in(27, 34).
in(27, 66).
in(27, 41).
in(27, 10).
in(27, 11).
in(27, 76).
in(27, 47).
in(27, 79).
in(27, 80).
in(27, 18).
in(27, 50).
in(27, 22).
in(27, 25).
in(27, 26).
in(27, 28).
in(28, 2).
in(28, 3).
in(28, 6).
in(28, 14).
in(28, 19).
in(28, 20).
in(28, 30).
in(28, 39).
in(28, 43).
in(28, 44).
in(28, 52).
in(28, 56).
in(28, 61).
in(28, 64).
in(28, 67).
in(28, 68).
in(28, 69).
in(28, 72).
in(28, 73).
in(28, 80).
in(29, 2).
in(29, 7).
in(29, 10).
in(29, 13).
in(29, 15).
in(29, 19).
in(29, 20).
in(29, 21).
in(29, 22).
in(29, 27).
in(29, 29).
in(29, 35).
in(29, 36).
in(29, 38).
in(29, 39).
in(29, 44).
in(29, 46).
in(29, 48).
in(29, 51).
in(29, 60).
in(29, 65).
in(29, 66).
in(29, 73).
in(29, 75).
in(29, 82).
in(30, 5).
in(30, 7).
in(30, 11).
in(30, 12).
in(30, 15).
in(30, 17).
in(30, 18).
in(30, 19).
in(30, 24).
in(30, 26).
in(30, 27).
in(30, 28).
in(30, 31).
in(30, 34).
in(30, 42).
in(30, 43).
in(30, 45).
in(30, 51).
in(30, 52).
in(30, 54).
in(30, 59).
in(30, 64).
in(30, 66).
in(30, 68).
in(30, 69).
in(30, 75).
in(31, 34).
in(31, 66).
in(31, 4).
in(31, 5).
in(31, 69).
in(31, 8).
in(31, 9).
in(31, 43).
in(31, 13).
in(31, 47).
in(31, 17).
in(31, 18).
in(31, 82).
in(31, 22).
in(31, 54).
in(31, 26).
in(31, 28).
in(31, 62).
in(32, 1).
in(32, 6).
in(32, 7).
in(32, 12).
in(32, 14).
in(32, 17).
in(32, 22).
in(32, 28).
in(32, 30).
in(32, 34).
in(32, 35).
in(32, 36).
in(32, 38).
in(32, 41).
in(32, 46).
in(32, 55).
in(32, 57).
in(32, 59).
in(32, 62).
in(32, 70).
in(32, 77).
in(32, 84).
in(33, 5).
in(33, 7).
in(33, 8).
in(33, 10).
in(33, 11).
in(33, 12).
in(33, 13).
in(33, 20).
in(33, 21).
in(33, 24).
in(33, 25).
in(33, 33).
in(33, 34).
in(33, 36).
in(33, 39).
in(33, 43).
in(33, 44).
in(33, 46).
in(33, 47).
in(33, 49).
in(33, 50).
in(33, 59).
in(33, 61).
in(33, 64).
in(33, 69).
in(33, 76).
in(33, 77).
in(33, 78).
in(33, 79).
in(33, 82).
in(33, 83).
in(33, 85).
in(34, 1).
in(34, 3).
in(34, 5).
in(34, 7).
in(34, 8).
in(34, 12).
in(34, 16).
in(34, 17).
in(34, 18).
in(34, 30).
in(34, 31).
in(34, 33).
in(34, 37).
in(34, 41).
in(34, 46).
in(34, 54).
in(34, 56).
in(34, 57).
in(34, 60).
in(34, 61).
in(34, 63).
in(34, 66).
in(34, 71).
in(34, 74).
in(34, 76).
in(34, 79).
in(34, 83).
in(35, 1).
in(35, 2).
in(35, 4).
in(35, 9).
in(35, 15).
in(35, 16).
in(35, 21).
in(35, 22).
in(35, 27).
in(35, 32).
in(35, 37).
in(35, 38).
in(35, 43).
in(35, 47).
in(35, 50).
in(35, 56).
in(35, 61).
in(35, 71).
in(35, 72).
in(35, 81).
in(35, 83).
in(35, 84).
in(36, 3).
in(36, 5).
in(36, 8).
in(36, 9).
in(36, 11).
in(36, 14).
in(36, 16).
in(36, 19).
in(36, 21).
in(36, 24).
in(36, 33).
in(36, 34).
in(36, 41).
in(36, 49).
in(36, 51).
in(36, 52).
in(36, 54).
in(36, 56).
in(36, 58).
in(36, 62).
in(36, 63).
in(36, 65).
in(36, 66).
in(36, 78).
in(36, 79).
in(36, 80).
in(36, 84).
in(37, 5).
in(37, 13).
in(37, 15).
in(37, 17).
in(37, 25).
in(37, 27).
in(37, 29).
in(37, 32).
in(37, 36).
in(37, 41).
in(37, 47).
in(37, 51).
in(37, 53).
in(37, 54).
in(37, 58).
in(37, 59).
in(37, 66).
in(37, 72).
in(37, 73).
in(37, 75).
in(38, 2).
in(38, 3).
in(38, 6).
in(38, 15).
in(38, 17).
in(38, 22).
in(38, 24).
in(38, 33).
in(38, 34).
in(38, 39).
in(38, 40).
in(38, 44).
in(38, 47).
in(38, 55).
in(38, 57).
in(38, 61).
in(38, 62).
in(38, 63).
in(38, 65).
in(38, 66).
in(38, 69).
in(38, 70).
in(38, 71).
in(38, 72).
in(38, 73).
in(38, 78).
in(38, 79).
in(38, 80).
in(38, 84).
in(39, 2).
in(39, 4).
in(39, 5).
in(39, 7).
in(39, 11).
in(39, 16).
in(39, 19).
in(39, 25).
in(39, 35).
in(39, 37).
in(39, 38).
in(39, 41).
in(39, 44).
in(39, 45).
in(39, 52).
in(39, 53).
in(39, 59).
in(39, 60).
in(39, 64).
in(39, 65).
in(39, 67).
in(39, 74).
in(39, 81).
in(39, 82).
in(39, 84).
in(40, 1).
in(40, 5).
in(40, 6).
in(40, 7).
in(40, 8).
in(40, 10).
in(40, 23).
in(40, 25).
in(40, 31).
in(40, 33).
in(40, 36).
in(40, 40).
in(40, 42).
in(40, 45).
in(40, 46).
in(40, 49).
in(40, 50).
in(40, 51).
in(40, 54).
in(40, 69).
in(40, 71).
in(40, 72).
in(40, 74).
in(40, 75).
in(40, 76).
in(40, 81).
in(40, 84).
in(41, 6).
in(41, 17).
in(41, 19).
in(41, 21).
in(41, 22).
in(41, 25).
in(41, 26).
in(41, 34).
in(41, 39).
in(41, 46).
in(41, 47).
in(41, 48).
in(41, 50).
in(41, 52).
in(41, 53).
in(41, 55).
in(41, 59).
in(41, 61).
in(41, 65).
in(41, 67).
in(41, 68).
in(41, 73).
in(41, 77).
in(41, 79).
in(41, 80).
in(42, 2).
in(42, 3).
in(42, 4).
in(42, 6).
in(42, 7).
in(42, 15).
in(42, 23).
in(42, 25).
in(42, 29).
in(42, 30).
in(42, 32).
in(42, 35).
in(42, 36).
in(42, 38).
in(42, 39).
in(42, 58).
in(42, 60).
in(42, 70).
in(42, 72).
in(42, 73).
in(42, 74).
in(42, 78).
in(42, 79).
in(42, 80).
in(42, 82).
in(42, 83).
in(43, 1).
in(43, 3).
in(43, 9).
in(43, 14).
in(43, 16).
in(43, 18).
in(43, 19).
in(43, 26).
in(43, 30).
in(43, 31).
in(43, 40).
in(43, 42).
in(43, 44).
in(43, 45).
in(43, 46).
in(43, 50).
in(43, 52).
in(43, 53).
in(43, 54).
in(43, 55).
in(43, 58).
in(43, 59).
in(43, 62).
in(43, 67).
in(43, 69).
in(43, 71).
in(43, 73).
in(43, 83).
in(44, 4).
in(44, 5).
in(44, 6).
in(44, 9).
in(44, 17).
in(44, 18).
in(44, 21).
in(44, 27).
in(44, 38).
in(44, 41).
in(44, 42).
in(44, 43).
in(44, 47).
in(44, 51).
in(44, 55).
in(44, 59).
in(44, 61).
in(44, 66).
in(44, 67).
in(44, 68).
in(44, 82).
in(45, 3).
in(45, 5).
in(45, 12).
in(45, 26).
in(45, 33).
in(45, 35).
in(45, 40).
in(45, 42).
in(45, 43).
in(45, 45).
in(45, 47).
in(45, 50).
in(45, 54).
in(45, 55).
in(45, 56).
in(45, 57).
in(45, 59).
in(45, 65).
in(45, 70).
in(45, 74).
in(45, 85).
in(46, 1).
in(46, 2).
in(46, 5).
in(46, 6).
in(46, 7).
in(46, 8).
in(46, 14).
in(46, 17).
in(46, 18).
in(46, 20).
in(46, 23).
in(46, 24).
in(46, 26).
in(46, 28).
in(46, 29).
in(46, 34).
in(46, 35).
in(46, 37).
in(46, 42).
in(46, 50).
in(46, 53).
in(46, 57).
in(46, 62).
in(46, 63).
in(46, 69).
in(46, 76).
in(46, 78).
in(46, 79).
in(47, 2).
in(47, 5).
in(47, 8).
in(47, 9).
in(47, 23).
in(47, 27).
in(47, 28).
in(47, 29).
in(47, 34).
in(47, 35).
in(47, 38).
in(47, 41).
in(47, 42).
in(47, 57).
in(47, 62).
in(47, 66).
in(47, 68).
in(47, 71).
in(47, 74).
in(47, 77).
in(47, 79).
in(48, 2).
in(48, 7).
in(48, 8).
in(48, 14).
in(48, 22).
in(48, 23).
in(48, 25).
in(48, 27).
in(48, 30).
in(48, 31).
in(48, 34).
in(48, 35).
in(48, 42).
in(48, 47).
in(48, 52).
in(48, 53).
in(48, 55).
in(48, 57).
in(48, 60).
in(48, 62).
in(48, 66).
in(48, 69).
in(48, 70).
in(48, 82).
in(48, 83).
in(48, 84).
in(49, 5).
in(49, 6).
in(49, 9).
in(49, 11).
in(49, 13).
in(49, 17).
in(49, 21).
in(49, 24).
in(49, 26).
in(49, 32).
in(49, 34).
in(49, 36).
in(49, 39).
in(49, 42).
in(49, 45).
in(49, 47).
in(49, 48).
in(49, 49).
in(49, 51).
in(49, 57).
in(49, 61).
in(49, 63).
in(49, 73).
in(49, 74).
in(49, 77).
in(49, 81).
in(50, 2).
in(50, 3).
in(50, 8).
in(50, 10).
in(50, 16).
in(50, 18).
in(50, 21).
in(50, 26).
in(50, 29).
in(50, 30).
in(50, 37).
in(50, 39).
in(50, 43).
in(50, 44).
in(50, 49).
in(50, 51).
in(50, 57).
in(50, 58).
in(50, 66).
in(50, 69).
in(50, 75).
in(50, 77).
in(50, 83).
in(50, 85).
in(51, 9).
in(51, 10).
in(51, 11).
in(51, 17).
in(51, 25).
in(51, 26).
in(51, 30).
in(51, 34).
in(51, 57).
in(51, 58).
in(51, 61).
in(51, 64).
in(51, 66).
in(51, 67).
in(51, 68).
in(51, 70).
in(51, 72).
in(51, 74).
in(51, 78).
in(52, 1).
in(52, 2).
in(52, 33).
in(52, 59).
in(52, 42).
in(52, 76).
in(52, 49).
in(52, 50).
in(52, 51).
in(52, 20).
in(52, 52).
in(52, 23).
in(52, 57).
in(52, 27).
in(53, 3).
in(53, 35).
in(53, 36).
in(53, 11).
in(53, 78).
in(53, 15).
in(53, 49).
in(53, 18).
in(53, 19).
in(53, 51).
in(53, 83).
in(53, 54).
in(53, 23).
in(53, 56).
in(53, 60).
in(53, 61).
in(53, 31).
in(54, 2).
in(54, 7).
in(54, 9).
in(54, 14).
in(54, 18).
in(54, 19).
in(54, 26).
in(54, 29).
in(54, 33).
in(54, 36).
in(54, 37).
in(54, 39).
in(54, 47).
in(54, 50).
in(54, 53).
in(54, 57).
in(54, 68).
in(54, 73).
in(54, 81).
in(54, 85).
in(55, 2).
in(55, 35).
in(55, 6).
in(55, 38).
in(55, 40).
in(55, 59).
in(55, 72).
in(55, 45).
in(55, 77).
in(55, 47).
in(55, 80).
in(55, 82).
in(55, 25).
in(55, 27).
in(55, 63).
in(55, 62).
in(55, 31).
in(56, 1).
in(56, 3).
in(56, 5).
in(56, 9).
in(56, 12).
in(56, 21).
in(56, 26).
in(56, 30).
in(56, 31).
in(56, 37).
in(56, 38).
in(56, 41).
in(56, 42).
in(56, 48).
in(56, 49).
in(56, 51).
in(56, 54).
in(56, 57).
in(56, 63).
in(56, 67).
in(56, 68).
in(56, 69).
in(56, 72).
in(56, 76).
in(56, 78).
in(56, 79).
in(56, 85).
in(57, 6).
in(57, 7).
in(57, 9).
in(57, 13).
in(57, 20).
in(57, 23).
in(57, 25).
in(57, 28).
in(57, 30).
in(57, 39).
in(57, 40).
in(57, 46).
in(57, 47).
in(57, 58).
in(57, 60).
in(57, 61).
in(57, 70).
in(57, 72).
in(57, 84).
in(58, 2).
in(58, 6).
in(58, 7).
in(58, 11).
in(58, 14).
in(58, 25).
in(58, 29).
in(58, 33).
in(58, 34).
in(58, 35).
in(58, 38).
in(58, 39).
in(58, 40).
in(58, 48).
in(58, 49).
in(58, 55).
in(58, 57).
in(58, 59).
in(58, 61).
in(58, 63).
in(58, 64).
in(58, 69).
in(58, 72).
in(58, 74).
in(58, 75).
in(58, 76).
in(58, 77).
in(58, 78).
in(59, 1).
in(59, 3).
in(59, 4).
in(59, 7).
in(59, 8).
in(59, 14).
in(59, 15).
in(59, 17).
in(59, 18).
in(59, 23).
in(59, 24).
in(59, 26).
in(59, 27).
in(59, 30).
in(59, 36).
in(59, 48).
in(59, 50).
in(59, 59).
in(59, 60).
in(59, 63).
in(59, 72).
in(59, 77).
in(59, 80).
in(59, 81).
in(60, 5).
in(60, 6).
in(60, 11).
in(60, 12).
in(60, 20).
in(60, 22).
in(60, 29).
in(60, 31).
in(60, 33).
in(60, 36).
in(60, 37).
in(60, 40).
in(60, 42).
in(60, 49).
in(60, 50).
in(60, 57).
in(60, 58).
in(60, 59).
in(60, 61).
in(60, 68).
in(60, 69).
in(60, 73).
in(60, 77).
in(60, 84).
in(61, 4).
in(61, 6).
in(61, 8).
in(61, 9).
in(61, 10).
in(61, 12).
in(61, 13).
in(61, 15).
in(61, 16).
in(61, 18).
in(61, 19).
in(61, 20).
in(61, 24).
in(61, 25).
in(61, 28).
in(61, 31).
in(61, 32).
in(61, 33).
in(61, 41).
in(61, 45).
in(61, 46).
in(61, 47).
in(61, 51).
in(61, 59).
in(61, 64).
in(61, 68).
in(61, 72).
in(61, 73).
in(61, 75).
in(61, 76).
in(61, 77).
in(61, 79).
in(61, 82).
in(62, 3).
in(62, 6).
in(62, 9).
in(62, 15).
in(62, 16).
in(62, 20).
in(62, 28).
in(62, 34).
in(62, 38).
in(62, 40).
in(62, 42).
in(62, 43).
in(62, 46).
in(62, 48).
in(62, 52).
in(62, 53).
in(62, 55).
in(62, 57).
in(62, 59).
in(62, 65).
in(62, 66).
in(62, 73).
in(62, 77).
in(62, 82).
in(62, 84).
in(63, 6).
in(63, 8).
in(63, 13).
in(63, 14).
in(63, 15).
in(63, 18).
in(63, 21).
in(63, 25).
in(63, 26).
in(63, 32).
in(63, 36).
in(63, 39).
in(63, 40).
in(63, 44).
in(63, 50).
in(63, 51).
in(63, 52).
in(63, 53).
in(63, 54).
in(63, 55).
in(63, 56).
in(63, 58).
in(63, 61).
in(63, 62).
in(63, 65).
in(63, 71).
in(63, 73).
in(63, 75).
in(63, 85).
in(64, 1).
in(64, 6).
in(64, 17).
in(64, 32).
in(64, 34).
in(64, 35).
in(64, 44).
in(64, 49).
in(64, 52).
in(64, 56).
in(64, 60).
in(64, 61).
in(64, 65).
in(64, 66).
in(64, 68).
in(64, 71).
in(64, 72).
in(64, 73).
in(64, 75).
in(64, 79).
in(64, 80).
in(64, 82).
in(64, 84).
in(65, 64).
in(65, 65).
in(65, 36).
in(65, 37).
in(65, 6).
in(65, 38).
in(65, 71).
in(65, 75).
in(65, 45).
in(65, 78).
in(65, 79).
in(65, 49).
in(65, 20).
in(65, 52).
in(65, 25).
in(65, 28).
in(66, 1).
in(66, 5).
in(66, 6).
in(66, 11).
in(66, 12).
in(66, 14).
in(66, 24).
in(66, 26).
in(66, 27).
in(66, 36).
in(66, 38).
in(66, 40).
in(66, 41).
in(66, 43).
in(66, 46).
in(66, 49).
in(66, 50).
in(66, 54).
in(66, 60).
in(66, 63).
in(66, 64).
in(66, 67).
in(66, 69).
in(66, 73).
in(66, 78).
in(66, 79).
in(66, 81).
in(66, 85).
in(67, 2).
in(67, 12).
in(67, 14).
in(67, 17).
in(67, 20).
in(67, 21).
in(67, 23).
in(67, 26).
in(67, 33).
in(67, 37).
in(67, 40).
in(67, 42).
in(67, 56).
in(67, 57).
in(67, 59).
in(67, 60).
in(67, 62).
in(67, 63).
in(67, 64).
in(67, 67).
in(67, 73).
in(67, 75).
in(67, 77).
in(67, 78).
in(68, 3).
in(68, 6).
in(68, 8).
in(68, 10).
in(68, 11).
in(68, 14).
in(68, 15).
in(68, 17).
in(68, 20).
in(68, 22).
in(68, 28).
in(68, 30).
in(68, 35).
in(68, 38).
in(68, 39).
in(68, 43).
in(68, 45).
in(68, 48).
in(68, 49).
in(68, 50).
in(68, 64).
in(68, 71).
in(68, 72).
in(68, 77).
in(68, 81).
in(68, 83).
in(68, 85).
in(69, 4).
in(69, 9).
in(69, 20).
in(69, 31).
in(69, 32).
in(69, 34).
in(69, 35).
in(69, 37).
in(69, 40).
in(69, 42).
in(69, 43).
in(69, 53).
in(69, 55).
in(69, 57).
in(69, 66).
in(69, 69).
in(69, 70).
in(69, 71).
in(69, 75).
in(69, 78).
in(69, 83).
in(70, 5).
in(70, 8).
in(70, 9).
in(70, 16).
in(70, 20).
in(70, 24).
in(70, 25).
in(70, 33).
in(70, 35).
in(70, 39).
in(70, 43).
in(70, 44).
in(70, 47).
in(70, 52).
in(70, 53).
in(70, 56).
in(70, 58).
in(70, 65).
in(70, 68).
in(70, 73).
in(70, 84).
in(71, 1).
in(71, 2).
in(71, 6).
in(71, 17).
in(71, 24).
in(71, 28).
in(71, 34).
in(71, 39).
in(71, 41).
in(71, 43).
in(71, 44).
in(71, 48).
in(71, 52).
in(71, 55).
in(71, 56).
in(71, 62).
in(71, 64).
in(71, 68).
in(71, 70).
in(71, 71).
in(71, 73).
in(71, 80).
in(71, 82).
in(71, 84).
in(72, 4).
in(72, 6).
in(72, 7).
in(72, 9).
in(72, 13).
in(72, 17).
in(72, 18).
in(72, 20).
in(72, 22).
in(72, 25).
in(72, 26).
in(72, 29).
in(72, 31).
in(72, 32).
in(72, 33).
in(72, 37).
in(72, 49).
in(72, 51).
in(72, 53).
in(72, 56).
in(72, 58).
in(72, 62).
in(72, 71).
in(72, 73).
in(72, 74).
in(73, 5).
in(73, 8).
in(73, 10).
in(73, 12).
in(73, 16).
in(73, 18).
in(73, 24).
in(73, 27).
in(73, 29).
in(73, 32).
in(73, 34).
in(73, 44).
in(73, 51).
in(73, 53).
in(73, 59).
in(73, 60).
in(73, 63).
in(73, 65).
in(73, 71).
in(73, 74).
in(73, 81).
in(73, 82).
in(73, 83).
in(74, 14).
in(74, 16).
in(74, 23).
in(74, 24).
in(74, 28).
in(74, 34).
in(74, 39).
in(74, 43).
in(74, 47).
in(74, 48).
in(74, 49).
in(74, 52).
in(74, 53).
in(74, 59).
in(74, 64).
in(74, 65).
in(74, 69).
in(74, 71).
in(74, 74).
in(74, 78).
in(74, 80).
in(74, 83).
in(75, 5).
in(75, 6).
in(75, 8).
in(75, 15).
in(75, 25).
in(75, 26).
in(75, 31).
in(75, 35).
in(75, 36).
in(75, 37).
in(75, 40).
in(75, 41).
in(75, 42).
in(75, 49).
in(75, 54).
in(75, 60).
in(75, 71).
in(75, 72).
in(75, 75).
in(75, 76).
in(75, 78).
in(75, 79).
in(75, 82).
in(75, 83).
in(76, 3).
in(76, 5).
in(76, 6).
in(76, 8).
in(76, 9).
in(76, 11).
in(76, 14).
in(76, 19).
in(76, 21).
in(76, 25).
in(76, 30).
in(76, 31).
in(76, 40).
in(76, 41).
in(76, 42).
in(76, 47).
in(76, 51).
in(76, 56).
in(76, 74).
in(76, 77).
in(76, 78).
in(76, 79).
in(76, 82).
in(76, 85).
in(77, 9).
in(77, 10).
in(77, 16).
in(77, 26).
in(77, 34).
in(77, 36).
in(77, 40).
in(77, 42).
in(77, 44).
in(77, 45).
in(77, 50).
in(77, 51).
in(77, 55).
in(77, 56).
in(77, 61).
in(77, 62).
in(77, 63).
in(77, 64).
in(77, 65).
in(77, 66).
in(77, 69).
in(77, 70).
in(77, 71).
in(77, 73).
in(77, 76).
in(77, 84).
in(78, 6).
in(78, 9).
in(78, 11).
in(78, 14).
in(78, 20).
in(78, 24).
in(78, 27).
in(78, 31).
in(78, 32).
in(78, 33).
in(78, 41).
in(78, 46).
in(78, 48).
in(78, 49).
in(78, 51).
in(78, 55).
in(78, 57).
in(78, 59).
in(78, 60).
in(78, 63).
in(78, 65).
in(78, 66).
in(78, 75).
in(78, 83).
in(78, 85).
in(79, 3).
in(79, 6).
in(79, 12).
in(79, 16).
in(79, 20).
in(79, 21).
in(79, 23).
in(79, 25).
in(79, 27).
in(79, 32).
in(79, 33).
in(79, 36).
in(79, 38).
in(79, 40).
in(79, 42).
in(79, 44).
in(79, 45).
in(79, 48).
in(79, 51).
in(79, 52).
in(79, 58).
in(79, 59).
in(79, 60).
in(79, 63).
in(79, 64).
in(79, 66).
in(79, 67).
in(79, 78).
in(79, 80).
in(79, 81).
in(80, 4).
in(80, 37).
in(80, 40).
in(80, 74).
in(80, 44).
in(80, 78).
in(80, 15).
in(80, 48).
in(80, 83).
in(80, 20).
in(80, 25).
in(80, 62).
in(80, 31).
in(81, 4).
in(81, 72).
in(81, 41).
in(81, 44).
in(81, 13).
in(81, 14).
in(81, 48).
in(81, 80).
in(81, 50).
in(81, 83).
in(81, 85).
in(81, 54).
in(81, 25).
in(81, 59).
in(81, 30).
in(81, 31).
in(82, 1).
in(82, 5).
in(82, 6).
in(82, 7).
in(82, 8).
in(82, 12).
in(82, 17).
in(82, 18).
in(82, 21).
in(82, 24).
in(82, 27).
in(82, 31).
in(82, 36).
in(82, 38).
in(82, 40).
in(82, 45).
in(82, 53).
in(82, 61).
in(82, 63).
in(82, 67).
in(82, 68).
in(82, 75).
in(82, 80).
in(82, 81).
in(83, 6).
in(83, 8).
in(83, 13).
in(83, 19).
in(83, 24).
in(83, 27).
in(83, 29).
in(83, 33).
in(83, 36).
in(83, 40).
in(83, 42).
in(83, 44).
in(83, 51).
in(83, 53).
in(83, 54).
in(83, 59).
in(83, 61).
in(83, 63).
in(83, 64).
in(83, 66).
in(83, 67).
in(83, 70).
in(83, 72).
in(83, 73).
in(83, 76).
in(83, 78).
in(83, 79).
in(83, 82).
in(83, 84).
in(84, 12).
in(84, 14).
in(84, 19).
in(84, 21).
in(84, 23).
in(84, 37).
in(84, 38).
in(84, 39).
in(84, 42).
in(84, 48).
in(84, 49).
in(84, 50).
in(84, 54).
in(84, 55).
in(84, 58).
in(84, 60).
in(84, 63).
in(84, 64).
in(84, 65).
in(84, 66).
in(84, 71).
in(84, 73).
in(84, 82).
in(85, 2).
in(85, 17).
in(85, 20).
in(85, 21).
in(85, 23).
in(85, 24).
in(85, 30).
in(85, 33).
in(85, 40).
in(85, 43).
in(85, 45).
in(85, 46).
in(85, 49).
in(85, 58).
in(85, 62).
in(85, 63).
in(85, 64).
in(85, 65).
in(85, 69).
in(85, 70).
in(85, 72).
in(85, 74).
in(85, 78).
in(85, 79).
in(85, 80).
in(85, 82).
in(85, 85).
in(86, 1).
in(86, 4).
in(86, 5).
in(86, 7).
in(86, 9).
in(86, 10).
in(86, 11).
in(86, 13).
in(86, 16).
in(86, 24).
in(86, 27).
in(86, 28).
in(86, 31).
in(86, 33).
in(86, 40).
in(86, 41).
in(86, 46).
in(86, 47).
in(86, 50).
in(86, 60).
in(86, 62).
in(86, 64).
in(86, 69).
in(86, 74).
in(86, 77).
in(86, 78).
in(87, 3).
in(87, 5).
in(87, 9).
in(87, 18).
in(87, 23).
in(87, 28).
in(87, 36).
in(87, 42).
in(87, 44).
in(87, 47).
in(87, 49).
in(87, 50).
in(87, 54).
in(87, 56).
in(87, 58).
in(87, 61).
in(87, 62).
in(87, 63).
in(87, 66).
in(87, 69).
in(87, 71).
in(87, 72).
in(87, 78).
in(87, 79).
in(87, 85).
in(88, 7).
in(88, 8).
in(88, 9).
in(88, 14).
in(88, 16).
in(88, 21).
in(88, 22).
in(88, 23).
in(88, 25).
in(88, 27).
in(88, 33).
in(88, 37).
in(88, 44).
in(88, 49).
in(88, 52).
in(88, 58).
in(88, 63).
in(88, 69).
in(88, 71).
in(88, 82).
in(88, 83).
in(88, 84).
in(89, 4).
in(89, 15).
in(89, 18).
in(89, 21).
in(89, 27).
in(89, 29).
in(89, 30).
in(89, 31).
in(89, 41).
in(89, 44).
in(89, 45).
in(89, 50).
in(89, 52).
in(89, 55).
in(89, 58).
in(89, 65).
in(89, 66).
in(89, 71).
in(89, 75).
in(89, 77).
in(89, 79).
in(89, 83).
in(90, 5).
in(90, 6).
in(90, 7).
in(90, 8).
in(90, 11).
in(90, 18).
in(90, 20).
in(90, 27).
in(90, 29).
in(90, 30).
in(90, 31).
in(90, 34).
in(90, 35).
in(90, 40).
in(90, 41).
in(90, 52).
in(90, 60).
in(90, 62).
in(90, 64).
in(90, 79).
in(91, 1).
in(91, 4).
in(91, 14).
in(91, 16).
in(91, 18).
in(91, 25).
in(91, 26).
in(91, 27).
in(91, 29).
in(91, 31).
in(91, 33).
in(91, 34).
in(91, 39).
in(91, 42).
in(91, 43).
in(91, 46).
in(91, 56).
in(91, 60).
in(91, 64).
in(91, 69).
in(91, 74).
in(91, 75).
in(91, 77).
in(91, 79).
in(91, 83).
in(92, 2).
in(92, 8).
in(92, 12).
in(92, 18).
in(92, 19).
in(92, 21).
in(92, 27).
in(92, 40).
in(92, 42).
in(92, 50).
in(92, 51).
in(92, 52).
in(92, 60).
in(92, 61).
in(92, 70).
in(92, 71).
in(92, 76).
in(92, 77).
in(92, 79).
in(93, 3).
in(93, 4).
in(93, 8).
in(93, 10).
in(93, 11).
in(93, 13).
in(93, 16).
in(93, 31).
in(93, 32).
in(93, 34).
in(93, 37).
in(93, 42).
in(93, 43).
in(93, 51).
in(93, 55).
in(93, 58).
in(93, 59).
in(93, 60).
in(93, 62).
in(93, 68).
in(93, 70).
in(93, 77).
in(93, 81).
in(94, 6).
in(94, 30).
in(94, 31).
in(94, 35).
in(94, 39).
in(94, 43).
in(94, 46).
in(94, 48).
in(94, 55).
in(94, 60).
in(94, 61).
in(94, 64).
in(94, 68).
in(94, 73).
in(94, 74).
in(94, 76).
in(94, 77).
in(94, 79).
in(94, 82).
in(95, 1).
in(95, 2).
in(95, 35).
in(95, 38).
in(95, 40).
in(95, 9).
in(95, 10).
in(95, 51).
in(95, 52).
in(95, 85).
in(95, 22).
in(95, 24).
in(95, 63).
in(96, 3).
in(96, 4).
in(96, 6).
in(96, 7).
in(96, 15).
in(96, 17).
in(96, 21).
in(96, 22).
in(96, 25).
in(96, 37).
in(96, 48).
in(96, 49).
in(96, 51).
in(96, 60).
in(96, 62).
in(96, 70).
in(96, 77).
in(96, 80).
in(96, 83).
in(97, 1).
in(97, 6).
in(97, 11).
in(97, 15).
in(97, 18).
in(97, 20).
in(97, 22).
in(97, 25).
in(97, 26).
in(97, 42).
in(97, 45).
in(97, 46).
in(97, 54).
in(97, 59).
in(97, 68).
in(97, 72).
in(97, 75).
in(97, 77).
in(97, 79).
in(97, 80).
in(97, 82).
in(97, 83).
in(97, 84).
in(98, 2).
in(98, 6).
in(98, 11).
in(98, 14).
in(98, 19).
in(98, 20).
in(98, 23).
in(98, 24).
in(98, 29).
in(98, 30).
in(98, 39).
in(98, 43).
in(98, 47).
in(98, 50).
in(98, 56).
in(98, 58).
in(98, 69).
in(98, 70).
in(98, 71).
in(98, 79).
in(99, 2).
in(99, 6).
in(99, 8).
in(99, 13).
in(99, 19).
in(99, 20).
in(99, 27).
in(99, 32).
in(99, 37).
in(99, 43).
in(99, 49).
in(99, 52).
in(99, 58).
in(99, 59).
in(99, 60).
in(99, 65).
in(99, 71).
in(99, 75).
in(99, 76).
in(99, 77).
in(99, 78).
in(99, 81).
in(99, 83).
in(100, 3).
in(100, 6).
in(100, 10).
in(100, 12).
in(100, 15).
in(100, 18).
in(100, 27).
in(100, 29).
in(100, 32).
in(100, 34).
in(100, 41).
in(100, 45).
in(100, 46).
in(100, 47).
in(100, 53).
in(100, 54).
in(100, 59).
in(100, 60).
in(100, 61).
in(100, 63).
in(100, 65).
in(100, 69).
in(100, 74).
in(100, 75).
in(100, 76).
in(100, 78).
in(100, 81).
in(101, 2).
in(101, 9).
in(101, 11).
in(101, 12).
in(101, 13).
in(101, 25).
in(101, 33).
in(101, 36).
in(101, 38).
in(101, 47).
in(101, 50).
in(101, 62).
in(101, 64).
in(101, 65).
in(101, 67).
in(101, 69).
in(101, 70).
in(101, 71).
in(101, 76).
in(101, 78).
in(101, 81).
in(101, 82).
in(101, 83).
in(101, 85).
in(102, 36).
in(102, 5).
in(102, 69).
in(102, 7).
in(102, 8).
in(102, 41).
in(102, 71).
in(102, 72).
in(102, 12).
in(102, 73).
in(102, 14).
in(102, 49).
in(102, 52).
in(102, 26).
in(102, 28).
in(102, 29).
in(102, 62).
in(103, 7).
in(103, 9).
in(103, 10).
in(103, 11).
in(103, 16).
in(103, 18).
in(103, 20).
in(103, 31).
in(103, 33).
in(103, 37).
in(103, 39).
in(103, 43).
in(103, 49).
in(103, 50).
in(103, 59).
in(103, 61).
in(103, 62).
in(103, 65).
in(103, 70).
in(103, 71).
in(103, 73).
in(103, 77).
in(103, 78).
in(104, 3).
in(104, 11).
in(104, 12).
in(104, 13).
in(104, 14).
in(104, 17).
in(104, 20).
in(104, 22).
in(104, 24).
in(104, 26).
in(104, 29).
in(104, 30).
in(104, 39).
in(104, 44).
in(104, 45).
in(104, 46).
in(104, 48).
in(104, 51).
in(104, 54).
in(104, 56).
in(104, 60).
in(104, 63).
in(104, 70).
in(104, 79).
in(105, 64).
in(105, 33).
in(105, 68).
in(105, 70).
in(105, 39).
in(105, 71).
in(105, 41).
in(105, 42).
in(105, 12).
in(105, 45).
in(105, 15).
in(105, 50).
in(105, 51).
in(105, 82).
in(105, 83).
in(105, 55).
in(105, 25).
in(106, 5).
in(106, 6).
in(106, 11).
in(106, 12).
in(106, 18).
in(106, 22).
in(106, 24).
in(106, 28).
in(106, 30).
in(106, 31).
in(106, 35).
in(106, 36).
in(106, 38).
in(106, 43).
in(106, 59).
in(106, 75).
in(106, 77).
in(106, 78).
in(106, 81).
in(106, 83).
in(107, 1).
in(107, 7).
in(107, 8).
in(107, 11).
in(107, 13).
in(107, 15).
in(107, 19).
in(107, 24).
in(107, 26).
in(107, 33).
in(107, 40).
in(107, 48).
in(107, 58).
in(107, 59).
in(107, 62).
in(107, 64).
in(107, 66).
in(107, 67).
in(107, 70).
in(107, 71).
in(107, 77).
in(107, 78).
in(108, 5).
in(108, 7).
in(108, 8).
in(108, 9).
in(108, 11).
in(108, 13).
in(108, 22).
in(108, 27).
in(108, 30).
in(108, 31).
in(108, 32).
in(108, 33).
in(108, 35).
in(108, 36).
in(108, 41).
in(108, 44).
in(108, 46).
in(108, 48).
in(108, 53).
in(108, 54).
in(108, 55).
in(108, 57).
in(108, 59).
in(108, 64).
in(108, 65).
in(108, 73).
in(108, 78).
in(108, 80).
in(108, 84).
in(109, 5).
in(109, 10).
in(109, 12).
in(109, 16).
in(109, 21).
in(109, 22).
in(109, 34).
in(109, 37).
in(109, 38).
in(109, 40).
in(109, 54).
in(109, 55).
in(109, 56).
in(109, 57).
in(109, 60).
in(109, 63).
in(109, 64).
in(109, 65).
in(109, 68).
in(109, 76).
in(109, 77).
in(109, 78).
in(109, 79).
in(109, 80).
in(109, 81).
in(109, 83).
in(110, 2).
in(110, 3).
in(110, 6).
in(110, 8).
in(110, 11).
in(110, 13).
in(110, 15).
in(110, 19).
in(110, 20).
in(110, 22).
in(110, 25).
in(110, 28).
in(110, 29).
in(110, 31).
in(110, 33).
in(110, 34).
in(110, 37).
in(110, 48).
in(110, 54).
in(110, 57).
in(110, 63).
in(110, 65).
in(110, 70).
in(110, 74).
in(110, 75).
in(110, 82).
in(110, 83).
in(111, 5).
in(111, 9).
in(111, 10).
in(111, 11).
in(111, 13).
in(111, 20).
in(111, 25).
in(111, 27).
in(111, 30).
in(111, 31).
in(111, 33).
in(111, 34).
in(111, 38).
in(111, 40).
in(111, 45).
in(111, 55).
in(111, 62).
in(111, 72).
in(111, 73).
in(111, 76).
in(111, 77).
in(111, 78).
in(112, 32).
in(112, 64).
in(112, 66).
in(112, 37).
in(112, 38).
in(112, 72).
in(112, 41).
in(112, 73).
in(112, 11).
in(112, 44).
in(112, 74).
in(112, 78).
in(112, 47).
in(112, 79).
in(112, 24).
in(112, 56).
in(112, 30).
in(112, 31).
in(113, 33).
in(113, 34).
in(113, 4).
in(113, 69).
in(113, 7).
in(113, 71).
in(113, 41).
in(113, 44).
in(113, 13).
in(113, 14).
in(113, 15).
in(113, 76).
in(113, 17).
in(113, 49).
in(113, 52).
in(113, 27).
in(114, 2).
in(114, 4).
in(114, 5).
in(114, 11).
in(114, 15).
in(114, 23).
in(114, 34).
in(114, 35).
in(114, 37).
in(114, 38).
in(114, 41).
in(114, 43).
in(114, 45).
in(114, 59).
in(114, 61).
in(114, 63).
in(114, 66).
in(114, 71).
in(114, 73).
in(114, 75).
in(114, 76).
in(114, 78).
in(115, 4).
in(115, 6).
in(115, 12).
in(115, 15).
in(115, 17).
in(115, 20).
in(115, 23).
in(115, 24).
in(115, 31).
in(115, 33).
in(115, 34).
in(115, 37).
in(115, 41).
in(115, 49).
in(115, 51).
in(115, 52).
in(115, 53).
in(115, 61).
in(115, 66).
in(115, 72).
in(115, 73).
in(115, 80).
in(115, 84).
in(115, 85).
in(116, 4).
in(116, 10).
in(116, 16).
in(116, 18).
in(116, 19).
in(116, 24).
in(116, 28).
in(116, 29).
in(116, 34).
in(116, 38).
in(116, 49).
in(116, 50).
in(116, 51).
in(116, 52).
in(116, 54).
in(116, 55).
in(116, 62).
in(116, 65).
in(116, 72).
in(116, 74).
in(116, 79).
in(116, 82).
in(116, 85).
in(117, 2).
in(117, 3).
in(117, 5).
in(117, 6).
in(117, 8).
in(117, 9).
in(117, 10).
in(117, 11).
in(117, 13).
in(117, 20).
in(117, 24).
in(117, 28).
in(117, 29).
in(117, 31).
in(117, 36).
in(117, 42).
in(117, 48).
in(117, 49).
in(117, 51).
in(117, 57).
in(117, 60).
in(117, 61).
in(117, 62).
in(117, 66).
in(117, 67).
in(117, 71).
in(117, 75).
in(117, 82).
in(118, 64).
in(118, 34).
in(118, 66).
in(118, 68).
in(118, 38).
in(118, 7).
in(118, 8).
in(118, 72).
in(118, 76).
in(118, 79).
in(118, 82).
in(118, 20).
in(118, 52).
in(118, 54).
in(118, 28).
in(119, 3).
in(119, 12).
in(119, 18).
in(119, 24).
in(119, 31).
in(119, 35).
in(119, 36).
in(119, 42).
in(119, 45).
in(119, 48).
in(119, 49).
in(119, 52).
in(119, 53).
in(119, 54).
in(119, 56).
in(119, 57).
in(119, 60).
in(119, 63).
in(119, 68).
in(119, 69).
in(119, 73).
in(119, 74).
in(119, 75).
in(119, 76).
in(119, 78).
in(119, 84).
in(120, 1).
in(120, 5).
in(120, 13).
in(120, 17).
in(120, 27).
in(120, 29).
in(120, 37).
in(120, 38).
in(120, 39).
in(120, 41).
in(120, 43).
in(120, 44).
in(120, 46).
in(120, 52).
in(120, 56).
in(120, 61).
in(120, 62).
in(120, 63).
in(120, 64).
in(120, 71).
in(120, 75).
in(120, 78).
in(120, 83).
in(121, 1).
in(121, 4).
in(121, 8).
in(121, 9).
in(121, 14).
in(121, 17).
in(121, 19).
in(121, 21).
in(121, 26).
in(121, 29).
in(121, 30).
in(121, 31).
in(121, 33).
in(121, 34).
in(121, 35).
in(121, 38).
in(121, 40).
in(121, 42).
in(121, 50).
in(121, 52).
in(121, 55).
in(121, 62).
in(121, 65).
in(121, 66).
in(121, 69).
in(121, 70).
in(121, 72).
in(121, 78).
in(121, 79).
in(122, 2).
in(122, 6).
in(122, 10).
in(122, 18).
in(122, 23).
in(122, 30).
in(122, 38).
in(122, 41).
in(122, 42).
in(122, 44).
in(122, 46).
in(122, 48).
in(122, 56).
in(122, 58).
in(122, 59).
in(122, 61).
in(122, 63).
in(122, 65).
in(122, 70).
in(122, 73).
in(122, 74).
in(122, 75).
in(122, 79).
in(122, 82).
in(122, 84).
in(123, 6).
in(123, 10).
in(123, 16).
in(123, 18).
in(123, 23).
in(123, 25).
in(123, 32).
in(123, 33).
in(123, 36).
in(123, 37).
in(123, 46).
in(123, 53).
in(123, 55).
in(123, 56).
in(123, 61).
in(123, 64).
in(123, 66).
in(123, 69).
in(123, 72).
in(123, 76).
in(124, 1).
in(124, 5).
in(124, 16).
in(124, 28).
in(124, 31).
in(124, 40).
in(124, 42).
in(124, 48).
in(124, 49).
in(124, 50).
in(124, 57).
in(124, 59).
in(124, 64).
in(124, 65).
in(124, 67).
in(124, 68).
in(124, 70).
in(124, 77).
in(124, 81).
in(125, 3).
in(125, 6).
in(125, 8).
in(125, 10).
in(125, 13).
in(125, 16).
in(125, 21).
in(125, 22).
in(125, 23).
in(125, 25).
in(125, 39).
in(125, 42).
in(125, 57).
in(125, 63).
in(125, 64).
in(125, 65).
in(125, 77).
in(125, 78).
in(125, 79).
in(125, 83).
in(125, 84).
in(126, 2).
in(126, 3).
in(126, 6).
in(126, 10).
in(126, 13).
in(126, 21).
in(126, 22).
in(126, 28).
in(126, 37).
in(126, 38).
in(126, 42).
in(126, 46).
in(126, 52).
in(126, 53).
in(126, 56).
in(126, 58).
in(126, 61).
in(126, 65).
in(126, 66).
in(126, 75).
in(126, 76).
in(126, 78).
in(126, 80).
in(126, 81).
in(126, 85).
in(127, 5).
in(127, 11).
in(127, 14).
in(127, 18).
in(127, 20).
in(127, 23).
in(127, 24).
in(127, 27).
in(127, 29).
in(127, 30).
in(127, 35).
in(127, 36).
in(127, 37).
in(127, 42).
in(127, 47).
in(127, 58).
in(127, 65).
in(127, 66).
in(127, 69).
in(127, 82).
in(127, 84).
in(128, 2).
in(128, 8).
in(128, 12).
in(128, 16).
in(128, 17).
in(128, 21).
in(128, 25).
in(128, 26).
in(128, 28).
in(128, 32).
in(128, 33).
in(128, 35).
in(128, 40).
in(128, 41).
in(128, 42).
in(128, 43).
in(128, 52).
in(128, 55).
in(128, 57).
in(128, 59).
in(128, 60).
in(128, 62).
in(128, 67).
in(128, 71).
in(128, 74).
in(128, 76).
in(128, 79).
in(128, 80).
in(128, 83).
in(129, 3).
in(129, 5).
in(129, 6).
in(129, 10).
in(129, 15).
in(129, 23).
in(129, 25).
in(129, 31).
in(129, 39).
in(129, 47).
in(129, 54).
in(129, 58).
in(129, 64).
in(129, 65).
in(129, 67).
in(129, 71).
in(129, 75).
in(129, 82).
in(129, 84).
in(130, 5).
in(130, 8).
in(130, 11).
in(130, 14).
in(130, 15).
in(130, 18).
in(130, 21).
in(130, 26).
in(130, 31).
in(130, 35).
in(130, 36).
in(130, 37).
in(130, 43).
in(130, 57).
in(130, 61).
in(130, 64).
in(130, 78).
in(130, 81).
in(130, 84).
in(131, 3).
in(131, 4).
in(131, 8).
in(131, 10).
in(131, 24).
in(131, 27).
in(131, 29).
in(131, 34).
in(131, 42).
in(131, 43).
in(131, 44).
in(131, 48).
in(131, 50).
in(131, 53).
in(131, 56).
in(131, 57).
in(131, 58).
in(131, 70).
in(131, 72).
in(131, 74).
weight(1, 6).
weight(2, 6).
weight(3, 6).
weight(4, 5).
weight(5, 3).
weight(6, 3).
weight(7, 5).
weight(8, 2).
weight(9, 3).
weight(10, 5).
weight(11, 7).
weight(12, 6).
weight(13, 4).
weight(14, 4).
weight(15, 5).
weight(16, 3).
weight(17, 5).
weight(18, 4).
weight(19, 5).
weight(20, 1).
weight(21, 3).
weight(22, 5).
weight(23, 4).
weight(24, 7).
weight(25, 7).
weight(26, 6).
weight(27, 1).
weight(28, 4).
weight(29, 7).
weight(30, 4).
weight(31, 3).
weight(32, 4).
weight(33, 7).
weight(34, 1).
weight(35, 6).
weight(36, 3).
weight(37, 3).
weight(38, 4).
weight(39, 2).
weight(40, 7).
weight(41, 1).
weight(42, 1).
weight(43, 6).
weight(44, 5).
weight(45, 3).
weight(46, 3).
weight(47, 1).
weight(48, 6).
weight(49, 7).
weight(50, 1).
weight(51, 3).
weight(52, 5).
weight(53, 6).
weight(54, 1).
weight(55, 4).
weight(56, 2).
weight(57, 2).
weight(58, 4).
weight(59, 1).
weight(60, 1).
weight(61, 3).
weight(62, 3).
weight(63, 6).
weight(64, 1).
weight(65, 3).
weight(66, 6).
weight(67, 6).
weight(68, 6).
weight(69, 1).
weight(70, 2).
weight(71, 5).
weight(72, 7).
weight(73, 7).
weight(74, 3).
weight(75, 6).
weight(76, 4).
weight(77, 2).
weight(78, 2).
weight(79, 3).
weight(80, 3).
weight(81, 7).
weight(82, 1).
weight(83, 6).
weight(84, 4).
weight(85, 2).
weight(86, 6).
weight(87, 1).
weight(88, 2).
weight(89, 6).
weight(90, 6).
weight(91, 2).
weight(92, 2).
weight(93, 7).
weight(94, 3).
weight(95, 6).
weight(96, 3).
weight(97, 5).
weight(98, 3).
weight(99, 1).
weight(100, 3).
weight(101, 4).
weight(102, 6).
weight(103, 7).
weight(104, 2).
weight(105, 1).
weight(106, 6).
weight(107, 7).
weight(108, 5).
weight(109, 2).
weight(110, 4).
weight(111, 4).
weight(112, 7).
weight(113, 4).
weight(114, 2).
weight(115, 1).
weight(116, 3).
weight(117, 1).
weight(118, 4).
weight(119, 5).
weight(120, 2).
weight(121, 2).
weight(122, 1).
weight(123, 3).
weight(124, 4).
weight(125, 7).
weight(126, 1).
weight(127, 4).
weight(128, 7).
weight(129, 5).
weight(130, 6).
weight(131, 4).

{ choose(S) } :- set(S).
:- choose(S1), choose(S2), S1 < S2, in(S1,E), in(S2,E).
:~ not choose(S), weight(S,W). [W@1,S]
