elem(1..71).
set(1..108).
in(1, 3).
in(1, 4).
in(1, 6).
in(1, 9).
in(1, 13).
in(1, 19).
in(1, 21).
in(1, 32).
in(1, 36).
in(1, 37).
in(1, 43).
in(1, 45).
in(1, 49).
in(1, 50).
in(1, 52).
in(1, 54).
in(1, 63).
in(1, 64).
in(1, 65).
in(2, 3).
in(2, 4).
in(2, 10).
in(2, 12).
in(2, 14).
in(2, 17).
in(2, 24).
in(2, 25).
in(2, 26).
in(2, 27).
in(2, 37).
in(2, 38).
in(2, 39).
in(2, 41).
in(2, 42).
in(2, 45).
in(2, 53).
in(2, 58).
in(2, 63).
in(2, 67).
in(2, 70).
in(3, 4).
in(3, 5).
in(3, 9).
in(3, 10).
in(3, 12).
in(3, 15).
in(3, 17).
in(3, 18).
in(3, 21).
in(3, 25).
in(3, 26).
in(3, 27).
in(3, 29).
in(3, 35).
in(3, 41).
in(3, 51).
in(3, 54).
in(3, 55).
in(3, 57).
in(3, 59).
in(3, 62).
in(3, 66).
in(3, 68).
in(4, 4).
in(4, 5).
in(4, 12).
in(4, 14).
in(4, 15).
in(4, 16).
in(4, 21).
in(4, 23).
in(4, 24).
in(4, 32).
in(4, 33).
in(4, 34).
in(4, 37).
in(4, 39).
in(4, 44).
in(4, 45).
in(4, 51).
in(4, 55).
in(4, 56).
in(4, 58).
in(4, 59).
in(4, 61).
in(4, 63).
in(4, 68).
in(5, 34).
in(5, 3).
in(5, 35).
in(5, 5).
in(5, 37).
in(5, 39).
in(5, 10).
in(5, 42).
in(5, 13).
in(5, 14).
in(5, 15).
in(5, 16).
in(5, 45).
in(5, 51).
in(5, 52).
in(5, 21).
in(5, 27).
in(5, 61).
in(6, 1).
in(6, 2).
in(6, 6).
in(6, 9).
in(6, 10).
in(6, 12).
in(6, 13).
in(6, 22).
in(6, 24).
in(6, 25).
in(6, 27).
in(6, 28).
in(6, 29).
in(6, 30).
in(6, 31).
in(6, 32).
in(6, 33).
in(6, 34).
in(6, 43).
in(6, 45).
in(6, 46).
in(6, 50).
in(6, 51).
in(6, 53).
in(6, 55).
in(6, 56).
in(6, 57).
in(6, 58).
in(6, 60).
in(6, 62).
in(6, 64).
in(6, 65).
in(6, 67).
in(6, 68).
in(7, 6).
in(7, 7).
in(7, 9).
in(7, 10).
in(7, 20).
in(7, 23).
in(7, 28).
in(7, 30).
in(7, 33).
in(7, 34).
in(7, 35).
in(7, 38).
in(7, 39).
in(7, 40).
in(7, 47).
in(7, 49).
in(7, 51).
in(7, 53).
in(7, 54).
in(7, 59).
in(7, 62).
in(7, 64).
in(7, 66).
in(7, 67).
in(7, 68).
in(7, 69).
in(7, 71).
in(8, 5).
in(8, 11).
in(8, 12).
in(8, 15).
in(8, 19).
in(8, 20).
in(8, 25).
in(8, 33).
in(8, 34).
in(8, 36).
in(8, 37).
in(8, 38).
in(8, 39).
in(8, 43).
in(8, 46).
in(8, 47).
in(8, 48).
in(8, 50).
in(8, 51).
in(8, 53).
in(8, 57).
in(8, 58).
in(8, 60).
in(8, 62).
in(8, 70).
in(9, 1).
in(9, 4).
in(9, 8).
in(9, 11).
in(9, 12).
in(9, 14).
in(9, 16).
in(9, 23).
in(9, 25).
in(9, 29).
in(9, 37).
in(9, 39).
in(9, 41).
in(9, 44).
in(9, 45).
in(9, 46).
in(9, 47).
in(9, 51).
in(9, 54).
in(9, 56).
in(9, 64).
in(9, 65).
in(9, 67).
in(9, 68).
in(9, 69).
in(9, 70).
in(10, 6).
in(10, 11).
in(10, 19).
in(10, 21).
in(10, 22).
in(10, 27).
in(10, 28).
in(10, 32).
in(10, 34).
in(10, 35).
in(10, 36).
in(10, 37).
in(10, 39).
in(10, 40).
in(10, 53).
in(10, 54).
in(10, 57).
in(10, 58).
in(10, 60).
in(10, 64).
in(10, 66).
in(10, 68).
in(10, 71).
in(11, 2).
in(11, 6).
in(11, 11).
in(11, 15).
in(11, 17).
in(11, 19).
in(11, 23).
in(11, 25).
in(11, 30).
in(11, 31).
in(11, 35).
in(11, 37).
in(11, 40).
in(11, 41).
in(11, 44).
in(11, 46).
in(11, 47).
in(11, 48).
in(11, 50).
in(11, 54).
in(11, 55).
in(11, 56).
in(11, 57).
in(11, 62).
in(11, 63).
in(11, 64).
in(11, 66).
in(12, 2).
in(12, 4).
in(12, 8).
in(12, 9).
in(12, 10).
in(12, 12).
in(12, 15).
in(12, 16).
in(12, 20).
in(12, 21).
in(12, 22).
in(12, 23).
in(12, 26).
in(12, 27).
in(12, 42).
in(12, 45).
in(12, 46).
in(12, 49).
in(12, 52).
in(12, 53).
in(12, 54).
in(12, 55).
in(12, 59).
in(12, 61).
in(12, 62).
in(12, 63).
in(12, 65).
in(12, 71).
in(13, 1).
in(13, 2).
in(13, 6).
in(13, 8).
in(13, 10).
in(13, 14).
in(13, 19).
in(13, 20).
in(13, 21).
in(13, 23).
in(13, 24).
in(13, 25).
in(13, 27).
in(13, 30).
in(13, 34).
in(13, 35).
in(13, 39).
in(13, 43).
in(13, 44).
in(13, 47).
in(13, 48).
in(13, 49).
in(13, 51).
in(13, 52).
in(13, 59).
in(13, 61).
in(13, 68).
in(13, 70).
in(14, 5).
in(14, 6).
in(14, 8).
in(14, 10).
in(14, 14).
in(14, 16).
in(14, 18).
in(14, 24).
in(14, 27).
in(14, 30).
in(14, 32).
in(14, 35).
in(14, 36).
in(14, 37).
in(14, 41).
in(14, 44).
in(14, 45).
in(14, 46).
in(14, 48).
in(14, 52).
in(14, 56).
in(14, 57).
in(14, 59).
in(14, 60).
in(14, 61).
in(15, 2).
in(15, 3).
in(15, 4).
in(15, 5).
in(15, 6).
in(15, 8).
in(15, 11).
in(15, 13).
in(15, 18).
in(15, 29).
in(15, 30).
in(15, 31).
in(15, 32).
in(15, 33).
in(15, 36).
in(15, 39).
in(15, 40).
in(15, 42).
in(15, 44).
in(15, 48).
in(15, 50).
in(15, 53).
in(15, 58).
in(15, 61).
in(15, 68).
in(16, 1).
in(16, 3).
in(16, 8).
in(16, 22).
in(16, 25).
in(16, 26).
in(16, 30).
in(16, 31).
in(16, 33).
in(16, 36).
in(16, 39).
in(16, 42).
in(16, 44).
in(16, 45).
in(16, 46).
in(16, 47).
in(16, 49).
in(16, 51).
in(16, 53).
in(16, 54).
in(16, 56).
in(16, 58).
in(16, 59).
in(16, 60).
in(16, 62).
in(16, 63).
in(16, 66).
in(16, 69).
in(16, 70).
in(17, 3).
in(17, 5).
in(17, 8).
in(17, 9).
in(17, 13).
in(17, 15).
in(17, 22).
in(17, 26).
in(17, 29).
in(17, 31).
in(17, 35).
in(17, 41).
in(17, 42).
in(17, 43).
in(17, 49).
in(17, 52).
in(17, 58).
in(17, 59).
in(17, 60).
in(17, 68).
in(17, 70).
in(18, 3).
in(18, 4).
in(18, 5).
in(18, 6).
in(18, 16).
in(18, 22).
in(18, 24).
in(18, 25).
in(18, 26).
in(18, 27).
in(18, 32).
in(18, 35).
in(18, 40).
in(18, 42).
in(18, 46).
in(18, 47).
in(18, 50).
in(18, 52).
in(18, 53).
in(18, 57).
in(18, 58).
in(18, 60).
in(18, 62).
in(18, 66).
in(18, 69).
in(19, 1).
in(19, 3).
in(19, 4).
in(19, 10).
in(19, 13).
in(19, 15).
in(19, 18).
in(19, 21).
in(19, 23).
in(19, 28).
in(19, 29).
in(19, 30).
in(19, 31).
in(19, 34).
in(19, 36).
in(19, 42).
in(19, 43).
in(19, 46).
in(19, 52).
in(19, 54).
in(19, 55).
in(19, 56).
in(19, 58).
in(19, 65).
in(19, 68).
in(20, 3).
in(20, 4).
in(20, 6).
in(20, 8).
in(20, 12).
in(20, 15).
in(20, 17).
in(20, 18).
in(20, 19).
in(20, 20).
in(20, 23).
in(20, 28).
in(20, 33).
in(20, 35).
in(20, 36).
in(20, 41).
in(20, 46).
in(20, 48).
in(20, 50).
in(20, 51).
in(20, 53).
in(20, 54).
in(20, 56).
in(20, 57).
in(20, 59).
in(20, 60).
in(20, 63).
in(20, 69).
in(21, 1).
in(21, 4).
in(21, 6).
in(21, 7).
in(21, 9).
in(21, 12).
in(21, 13).
in(21, 15).
in(21, 19).
in(21, 20).
in(21, 24).
in(21, 29).
in(21, 32).
in(21, 33).
in(21, 35).
in(21, 41).
in(21, 46).
in(21, 50).
in(21, 54).
in(21, 55).
in(21, 56).
in(21, 58).
in(21, 60).
in(21, 62).
in(21, 64).
in(21, 65).
in(21, 69).
in(22, 3).
in(22, 5).
in(22, 6).
in(22, 8).
in(22, 12).
in(22, 13).
in(22, 15).
in(22, 19).
in(22, 22).
in(22, 29).
in(22, 38).
in(22, 40).
in(22, 41).
in(22, 46).
in(22, 49).
in(22, 53).
in(22, 56).
in(22, 58).
in(22, 59).
in(22, 62).
in(22, 65).
in(22, 66).
in(22, 68).
in(22, 69).
in(23, 1).
in(23, 2).
in(23, 3).
in(23, 7).
in(23, 12).
in(23, 13).
in(23, 15).
in(23, 20).
in(23, 22).
in(23, 23).
in(23, 25).
in(23, 27).
in(23, 29).
in(23, 34).
in(23, 35).
in(23, 36).
in(23, 37).
in(23, 42).
in(23, 51).
in(23, 53).
in(23, 54).
in(23, 55).
in(23, 58).
in(23, 60).
in(23, 61).
in(23, 66).
in(23, 67).
in(23, 70).
in(24, 3).
in(24, 4).
in(24, 5).
in(24, 8).
in(24, 12).
in(24, 13).
in(24, 14).
in(24, 18).
in(24, 19).
in(24, 20).
in(24, 26).
in(24, 34).
in(24, 36).
in(24, 46).
in(24, 48).
in(24, 49).
in(24, 53).
in(24, 54).
in(24, 55).
in(24, 56).
in(24, 58).
in(24, 63).
in(24, 67).
in(25, 5).
in(25, 6).
in(25, 12).
in(25, 18).
in(25, 22).
in(25, 24).
in(25, 26).
in(25, 33).
in(25, 35).
in(25, 36).
in(25, 37).
in(25, 38).
in(25, 39).
in(25, 40).
in(25, 41).
in(25, 42).
in(25, 49).
in(25, 50).
in(25, 51).
in(25, 61).
in(25, 64).
in(25, 70).
in(25, 71).
in(26, 2).
in(26, 3).
in(26, 5).
in(26, 6).
in(26, 8).
in(26, 19).
in(26, 20).
in(26, 21).
in(26, 22).
in(26, 24).
in(26, 27).
in(26, 32).
in(26, 35).
in(26, 39).
in(26, 41).
in(26, 44).
in(26, 47).
in(26, 48).
in(26, 52).
in(26, 53).
in(26, 54).
in(26, 60).
in(26, 65).
in(26, 68).
in(26, 69).
in(26, 71).
in(27, 1).
in(27, 2).
in(27, 8).
in(27, 9).
in(27, 16).
in(27, 21).
in(27, 24).
in(27, 27).
in(27, 34).
in(27, 37).
in(27, 43).
in(27, 45).
in(27, 46).
in(27, 47).
in(27, 51).
in(27, 55).
in(27, 57).
in(27, 64).
in(27, 65).
in(27, 66).
in(28, 2).
in(28, 3).
in(28, 5).
in(28, 7).
in(28, 9).
in(28, 12).
in(28, 13).
in(28, 15).
in(28, 19).
in(28, 20).
in(28, 22).
in(28, 24).
in(28, 25).
in(28, 31).
in(28, 34).
in(28, 36).
in(28, 37).
in(28, 38).
in(28, 40).
in(28, 41).
in(28, 43).
in(28, 44).
in(28, 47).
in(28, 54).
in(28, 56).
in(28, 57).
in(28, 59).
in(28, 61).
in(28, 65).
in(28, 66).
in(28, 67).
in(29, 7).
in(29, 8).
in(29, 9).
in(29, 12).
in(29, 19).
in(29, 21).
in(29, 24).
in(29, 25).
in(29, 26).
in(29, 27).
in(29, 29).
in(29, 30).
in(29, 31).
in(29, 32).
in(29, 34).
in(29, 37).
in(29, 40).
in(29, 41).
in(29, 42).
in(29, 45).
in(29, 47).
in(29, 49).
in(29, 52).
in(29, 56).
in(29, 59).
in(29, 62).
in(29, 63).
in(29, 64).
in(29, 67).
in(29, 68).
in(30, 5).
in(30, 8).
in(30, 12).
in(30, 20).
in(30, 21).
in(30, 22).
in(30, 23).
in(30, 24).
in(30, 26).
in(30, 30).
in(30, 31).
in(30, 37).
in(30, 40).
in(30, 41).
in(30, 49).
in(30, 51).
in(30, 53).
in(30, 56).
in(30, 57).
in(30, 58).
in(30, 62).
in(30, 63).
in(30, 65).
in(30, 68).
in(30, 70).
in(31, 3).
in(31, 6).
in(31, 8).
in(31, 10).
in(31, 14).
in(31, 15).
in(31, 16).
in(31, 17).
in(31, 18).
in(31, 19).
in(31, 23).
in(31, 24).
in(31, 29).
in(31, 34).
in(31, 35).
in(31, 39).
in(31, 43).
in(31, 48).
in(31, 51).
in(31, 52).
in(31, 53).
in(31, 55).
in(31, 57).
in(31, 60).
in(31, 62).
in(31, 71).
in(32, 1).
in(32, 3).
in(32, 4).
in(32, 5).
in(32, 8).
in(32, 12).
in(32, 13).
in(32, 14).
in(32, 17).
in(32, 21).
in(32, 24).
in(32, 27).
in(32, 28).
in(32, 30).
in(32, 33).
in(32, 34).
in(32, 50).
in(32, 51).
in(32, 57).
in(32, 59).
in(32, 60).
in(32, 62).
in(32, 70).
in(33, 9).
in(33, 13).
in(33, 21).
in(33, 22).
in(33, 26).
in(33, 29).
in(33, 31).
in(33, 33).
in(33, 37).
in(33, 42).
in(33, 44).
in(33, 46).
in(33, 47).
in(33, 50).
in(33, 51).
in(33, 55).
in(33, 57).
in(33, 63).
in(33, 64).
in(33, 70).
in(33, 71).
in(34, 4).
in(34, 9).
in(34, 13).
in(34, 17).
in(34, 20).
in(34, 25).
in(34, 26).
in(34, 27).
in(34, 29).
in(34, 36).
in(34, 39).
in(34, 42).
in(34, 44).
in(34, 45).
in(34, 46).
in(34, 47).
in(34, 52).
in(34, 53).
in(34, 54).
in(34, 55).
in(34, 58).
in(34, 66).
in(34, 68).
in(34, 71).
in(35, 32).
in(35, 64).
in(35, 34).
in(35, 3).
in(35, 4).
in(35, 38).
in(35, 10).
in(35, 14).
in(35, 48).
in(35, 17).
in(35, 49).
in(35, 51).
in(35, 52).
in(35, 22).
in(35, 54).
in(35, 56).
in(35, 60).
in(35, 63).
in(36, 1).
in(36, 6).
in(36, 9).
in(36, 11).
in(36, 14).
in(36, 17).
in(36, 18).
in(36, 19).
in(36, 22).
in(36, 23).
in(36, 24).
in(36, 25).
in(36, 27).
in(36, 35).
in(36, 36).
in(36, 39).
in(36, 43).
in(36, 48).
in(36, 49).
in(36, 52).
in(36, 53).
in(36, 54).
in(36, 56).
in(36, 57).
in(36, 62).
in(36, 66).
in(36, 69).
in(37, 3).
in(37, 4).
in(37, 7).
in(37, 8).
in(37, 9).
in(37, 10).
in(37, 12).
in(37, 16).
in(37, 17).
in(37, 18).
in(37, 24).
in(37, 26).
in(37, 34).
in(37, 35).
in(37, 36).
in(37, 38).
in(37, 42).
in(37, 46).
in(37, 51).
in(37, 56).
in(37, 58).
in(37, 59).
in(37, 62).
in(37, 66).
in(37, 69).
in(38, 6).
in(38, 10).
in(38, 15).
in(38, 16).
in(38, 17).
in(38, 21).
in(38, 22).
in(38, 27).
in(38, 29).
in(38, 32).
in(38, 36).
in(38, 37).
in(38, 46).
in(38, 47).
in(38, 48).
in(38, 54).
in(38, 56).
in(38, 66).
in(38, 71).
in(39, 3).
in(39, 6).
in(39, 8).
in(39, 10).
in(39, 17).
in(39, 19).
in(39, 21).
in(39, 29).
in(39, 30).
in(39, 31).
in(39, 33).
in(39, 39).
in(39, 40).
in(39, 45).
in(39, 47).
in(39, 53).
in(39, 56).
in(39, 58).
in(39, 60).
in(39, 67).
in(39, 71).
in(40, 3).
in(40, 4).
in(40, 11).
in(40, 14).
in(40, 20).
in(40, 25).
in(40, 26).
in(40, 27).
in(40, 30).
in(40, 37).
in(40, 38).
in(40, 43).
in(40, 47).
in(40, 53).
in(40, 57).
in(40, 61).
in(40, 62).
in(40, 66).
in(40, 67).
in(40, 71).
in(41, 2).
in(41, 3).
in(41, 5).
in(41, 7).
in(41, 12).
in(41, 22).
in(41, 24).
in(41, 25).
in(41, 30).
in(41, 31).
in(41, 33).
in(41, 35).
in(41, 36).
in(41, 38).
in(41, 41).
in(41, 42).
in(41, 43).
in(41, 44).
in(41, 45).
in(41, 48).
in(41, 49).
in(41, 51).
in(41, 54).
in(41, 55).
in(41, 59).
in(41, 66).
in(41, 68).
in(41, 71).
in(42, 4).
in(42, 5).
in(42, 6).
in(42, 18).
in(42, 22).
in(42, 23).
in(42, 25).
in(42, 26).
in(42, 27).
in(42, 32).
in(42, 34).
in(42, 35).
in(42, 39).
in(42, 40).
in(42, 41).
in(42, 44).
in(42, 48).
in(42, 49).
in(42, 50).
in(42, 51).
in(42, 56).
in(42, 59).
in(42, 62).
in(42, 64).
in(42, 66).
in(42, 71).
in(43, 3).
in(43, 4).
in(43, 6).
in(43, 8).
in(43, 10).
in(43, 11).
in(43, 13).
in(43, 14).
in(43, 15).
in(43, 19).
in(43, 25).
in(43, 28).
in(43, 29).
in(43, 30).
in(43, 34).
in(43, 44).
in(43, 45).
in(43, 47).
in(43, 52).
in(43, 53).
in(43, 54).
in(43, 60).
in(43, 62).
in(43, 63).
in(43, 64).
in(43, 66).
in(44, 33).
in(44, 6).
in(44, 39).
in(44, 8).
in(44, 40).
in(44, 10).
in(44, 59).
in(44, 13).
in(44, 47).
in(44, 18).
in(44, 51).
in(44, 54).
in(44, 56).
in(44, 27).
in(44, 60).
in(44, 30).
in(45, 1).
in(45, 3).
in(45, 13).
in(45, 15).
in(45, 19).
in(45, 20).
in(45, 21).
in(45, 22).
in(45, 25).
in(45, 27).
in(45, 28).
in(45, 34).
in(45, 35).
in(45, 37).
in(45, 38).
in(45, 41).
in(45, 44).
in(45, 45).
in(45, 46).
in(45, 49).
in(45, 50).
in(45, 51).
in(45, 54).
in(45, 55).
in(45, 56).
in(45, 57).
in(45, 64).
in(45, 65).
in(45, 69).
in(46, 1).
in(46, 2).
in(46, 7).
in(46, 9).
in(46, 15).
in(46, 30).
in(46, 31).
in(46, 35).
in(46, 36).
in(46, 38).
in(46, 42).
in(46, 46).
in(46, 47).
in(46, 49).
in(46, 50).
in(46, 57).
in(46, 61).
in(46, 63).
in(46, 69).
in(47, 3).
in(47, 4).
in(47, 6).
in(47, 10).
in(47, 12).
in(47, 16).
in(47, 23).
in(47, 26).
in(47, 29).
in(47, 30).
in(47, 31).
in(47, 32).
in(47, 35).
in(47, 36).
in(47, 37).
in(47, 39).
in(47, 41).
in(47, 44).
in(47, 45).
in(47, 46).
in(47, 49).
in(47, 53).
in(47, 55).
in(47, 56).
in(47, 63).
in(47, 68).
in(48, 9).
in(48, 10).
in(48, 11).
in(48, 12).
in(48, 18).
in(48, 22).
in(48, 26).
in(48, 27).
in(48, 28).
in(48, 30).
in(48, 31).
in(48, 35).
in(48, 38).
in(48, 39).
in(48, 45).
in(48, 47).
in(48, 49).
in(48, 55).
in(48, 62).
in(48, 68).
in(48, 69).
in(48, 71).
in(49, 1).
in(49, 2).
in(49, 4).
in(49, 5).
in(49, 6).
in(49, 8).
in(49, 11).
in(49, 12).
in(49, 20).
in(49, 23).
in(49, 24).
in(49, 25).
in(49, 27).
in(49, 28).
in(49, 29).
in(49, 31).
in(49, 33).
in(49, 35).
in(49, 38).
in(49, 43).
in(49, 45).
in(49, 47).
in(49, 48).
in(49, 57).
in(49, 62).
in(49, 65).
in(49, 69).
in(49, 71).
in(50, 2).
in(50, 5).
in(50, 6).
in(50, 8).
in(50, 11).
in(50, 14).
in(50, 16).
in(50, 17).
in(50, 18).
in(50, 20).
in(50, 21).
in(50, 22).
in(50, 23).
in(50, 25).
in(50, 35).
in(50, 41).
in(50, 43).
in(50, 46).
in(50, 51).
in(50, 55).
in(50, 58).
in(50, 61).
in(50, 64).
in(50, 65).
in(50, 66).
in(51, 1).
in(51, 2).
in(51, 4).
in(51, 8).
in(51, 14).
in(51, 15).
in(51, 18).
in(51, 19).
in(51, 20).
in(51, 22).
in(51, 24).
in(51, 28).
in(51, 29).
in(51, 31).
in(51, 35).
in(51, 40).
in(51, 41).
in(51, 46).
in(51, 50).
in(51, 53).
in(51, 55).
in(51, 56).
in(51, 59).
in(51, 60).
in(51, 69).
in(51, 71).
in(52, 3).
in(52, 4).
in(52, 8).
in(52, 16).
in(52, 18).
in(52, 21).
in(52, 23).
in(52, 24).
in(52, 26).
in(52, 35).
in(52, 38).
in(52, 39).
in(52, 40).
in(52, 41).
in(52, 45).
in(52, 46).
in(52, 51).
in(52, 66).
in(52, 71).
in(53, 1).
in(53, 3).
in(53, 5).
in(53, 9).
in(53, 11).
in(53, 16).
in(53, 21).
in(53, 22).
in(53, 32).
in(53, 35).
in(53, 37).
in(53, 38).
in(53, 41).
in(53, 42).
in(53, 43).
in(53, 48).
in(53, 49).
in(53, 52).
in(53, 56).
in(53, 57).
in(53, 58).
in(53, 60).
in(53, 63).
in(53, 67).
in(53, 70).
in(53, 71).
in(54, 2).
in(54, 5).
in(54, 6).
in(54, 8).
in(54, 9).
in(54, 13).
in(54, 15).
in(54, 16).
in(54, 18).
in(54, 19).
in(54, 24).
in(54, 27).
in(54, 28).
in(54, 29).
in(54, 31).
in(54, 32).
in(54, 34).
in(54, 35).
in(54, 36).
in(54, 43).
in(54, 45).
in(54, 46).
in(54, 48).
in(54, 53).
in(54, 54).
in(54, 57).
in(54, 58).
in(54, 62).
in(54, 63).
in(54, 65).
in(54, 69).
in(55, 1).
in(55, 2).
in(55, 3).
in(55, 6).
in(55, 9).
in(55, 14).
in(55, 16).
in(55, 18).
in(55, 21).
in(55, 30).
in(55, 35).
in(55, 40).
in(55, 43).
in(55, 47).
in(55, 48).
in(55, 51).
in(55, 52).
in(55, 53).
in(55, 54).
in(55, 66).
in(55, 67).
in(55, 71).
in(56, 3).
in(56, 4).
in(56, 6).
in(56, 10).
in(56, 11).
in(56, 12).
in(56, 17).
in(56, 21).
in(56, 22).
in(56, 26).
in(56, 27).
in(56, 30).
in(56, 32).
in(56, 35).
in(56, 38).
in(56, 40).
in(56, 42).
in(56, 47).
in(56, 48).
in(56, 51).
in(56, 52).
in(56, 53).
in(56, 57).
in(56, 58).
in(56, 60).
in(56, 61).
in(56, 62).
in(56, 64).
in(56, 69).
in(56, 70).
in(56, 71).
in(57, 1).
in(57, 2).
in(57, 5).
in(57, 8).
in(57, 13).
in(57, 15).
in(57, 16).
in(57, 18).
in(57, 19).
in(57, 21).
in(57, 23).
in(57, 25).
in(57, 27).
in(57, 31).
in(57, 32).
in(57, 35).
in(57, 36).
in(57, 41).
in(57, 43).
in(57, 45).
in(57, 49).
in(57, 52).
in(57, 54).
in(57, 58).
in(57, 62).
in(57, 70).
in(58, 1).
in(58, 11).
in(58, 14).
in(58, 16).
in(58, 17).
in(58, 19).
in(58, 22).
in(58, 23).
in(58, 29).
in(58, 38).
in(58, 39).
in(58, 41).
in(58, 42).
in(58, 48).
in(58, 54).
in(58, 60).
in(58, 61).
in(58, 67).
in(58, 70).
in(59, 1).
in(59, 4).
in(59, 5).
in(59, 6).
in(59, 10).
in(59, 11).
in(59, 12).
in(59, 14).
in(59, 19).
in(59, 20).
in(59, 29).
in(59, 33).
in(59, 35).
in(59, 36).
in(59, 41).
in(59, 43).
in(59, 47).
in(59, 48).
in(59, 49).
in(59, 54).
in(59, 56).
in(59, 59).
in(59, 62).
in(59, 65).
in(59, 69).
in(60, 3).
in(60, 4).
in(60, 10).
in(60, 11).
in(60, 13).
in(60, 15).
in(60, 19).
in(60, 24).
in(60, 27).
in(60, 34).
in(60, 38).
in(60, 40).
in(60, 44).
in(60, 45).
in(60, 48).
in(60, 50).
in(60, 52).
in(60, 55).
in(60, 60).
in(60, 63).
in(61, 6).
in(61, 9).
in(61, 14).
in(61, 21).
in(61, 24).
in(61, 28).
in(61, 30).
in(61, 33).
in(61, 35).
in(61, 38).
in(61, 41).
in(61, 42).
in(61, 44).
in(61, 46).
in(61, 47).
in(61, 52).
in(61, 54).
in(61, 55).
in(61, 58).
in(61, 60).
in(61, 62).
in(61, 67).
in(61, 69).
in(62, 6).
in(62, 8).
in(62, 9).
in(62, 12).
in(62, 14).
in(62, 15).
in(62, 18).
in(62, 22).
in(62, 27).
in(62, 30).
in(62, 34).
in(62, 39).
in(62, 42).
in(62, 45).
in(62, 48).
in(62, 49).
in(62, 53).
in(62, 54).
in(62, 60).
in(62, 61).
in(62, 66).
in(62, 70).
in(62, 71).
in(63, 6).
in(63, 7).
in(63, 9).
in(63, 10).
in(63, 11).
in(63, 12).
in(63, 15).
in(63, 16).
in(63, 25).
in(63, 27).
in(63, 29).
in(63, 30).
in(63, 32).
in(63, 35).
in(63, 38).
in(63, 39).
in(63, 40).
in(63, 42).
in(63, 47).
in(63, 48).
in(63, 49).
in(63, 50).
in(63, 51).
in(63, 54).
in(63, 55).
in(63, 59).
in(63, 60).
in(63, 64).
in(63, 65).
in(63, 71).
in(64, 2).
in(64, 3).
in(64, 5).
in(64, 11).
in(64, 22).
in(64, 23).
in(64, 25).
in(64, 26).
in(64, 27).
in(64, 28).
in(64, 29).
in(64, 31).
in(64, 33).
in(64, 36).
in(64, 38).
in(64, 41).
in(64, 43).
in(64, 52).
in(64, 56).
in(64, 67).
in(64, 69).
in(64, 71).
in(65, 3).
in(65, 7).
in(65, 10).
in(65, 12).
in(65, 13).
in(65, 16).
in(65, 22).
in(65, 24).
in(65, 27).
in(65, 34).
in(65, 37).
in(65, 38).
in(65, 43).
in(65, 44).
in(65, 45).
in(65, 49).
in(65, 53).
in(65, 55).
in(65, 58).
in(65, 59).
in(65, 64).
in(65, 66).
in(65, 70).
in(66, 3).
in(66, 5).
in(66, 6).
in(66, 9).
in(66, 17).
in(66, 20).
in(66, 22).
in(66, 23).
in(66, 29).
in(66, 37).
in(66, 42).
in(66, 43).
in(66, 44).
in(66, 45).
in(66, 46).
in(66, 47).
in(66, 48).
in(66, 49).
in(66, 51).
in(66, 52).
in(66, 58).
in(66, 60).
in(66, 62).
in(66, 64).
in(66, 65).
in(66, 67).
in(66, 68).
in(67, 2).
in(67, 5).
in(67, 7).
in(67, 8).
in(67, 9).
in(67, 11).
in(67, 12).
in(67, 15).
in(67, 18).
in(67, 20).
in(67, 24).
in(67, 29).
in(67, 31).
in(67, 36).
in(67, 38).
in(67, 39).
in(67, 42).
in(67, 45).
in(67, 46).
in(67, 49).
in(67, 50).
in(67, 52).
in(67, 55).
in(67, 57).
in(67, 60).
in(67, 62).
in(67, 64).
in(67, 66).
in(67, 71).
in(68, 4).
in(68, 8).
in(68, 9).
in(68, 10).
in(68, 13).
in(68, 15).
in(68, 16).
in(68, 17).
in(68, 19).
in(68, 20).
in(68, 21).
in(68, 24).
in(68, 25).
in(68, 26).
in(68, 27).
in(68, 28).
in(68, 29).
in(68, 30).
in(68, 37).
in(68, 40).
in(68, 43).
in(68, 45).
in(68, 47).
in(68, 49).
in(68, 51).
in(68, 53).
in(68, 59).
in(68, 60).
in(68, 62).
in(68, 63).
in(68, 64).
in(68, 66).
in(68, 69).
in(68, 70).
in(69, 1).
in(69, 2).
in(69, 3).
in(69, 8).
in(69, 9).
in(69, 14).
in(69, 19).
in(69, 23).
in(69, 26).
in(69, 27).
in(69, 31).
in(69, 35).
in(69, 38).
in(69, 40).
in(69, 42).
in(69, 47).
in(69, 52).
in(69, 54).
in(69, 57).
in(69, 58).
in(69, 60).
in(69, 67).
in(70, 1).
in(70, 5).
in(70, 8).
in(70, 9).
in(70, 10).
in(70, 11).
in(70, 12).
in(70, 16).
in(70, 18).
in(70, 20).
in(70, 22).
in(70, 25).
in(70, 32).
in(70, 41).
in(70, 44).
in(70, 49).
in(70, 53).
in(70, 54).
in(70, 55).
in(70, 60).
in(70, 62).
in(70, 63).
in(70, 66).
in(70, 69).
in(70, 70).
in(71, 7).
in(71, 10).
in(71, 14).
in(71, 17).
in(71, 18).
in(71, 21).
in(71, 22).
in(71, 28).
in(71, 31).
in(71, 33).
in(71, 34).
in(71, 35).
in(71, 44).
in(71, 45).
in(71, 46).
in(71, 47).
in(71, 48).
in(71, 51).
in(71, 52).
in(71, 53).
in(71, 56).
in(71, 62).
in(71, 65).
in(71, 68).
in(72, 5).
in(72, 7).
in(72, 12).
in(72, 13).
in(72, 15).
in(72, 19).
in(72, 20).
in(72, 27).
in(72, 30).
in(72, 33).
in(72, 34).
in(72, 36).
in(72, 37).
in(72, 40).
in(72, 42).
in(72, 43).
in(72, 44).
in(72, 45).
in(72, 48).
in(72, 49).
in(72, 50).
in(72, 52).
in(72, 53).
in(72, 57).
in(72, 60).
in(72, 62).
in(72, 65).
in(72, 70).
in(72, 71).
in(73, 2).
in(73, 7).
in(73, 8).
in(73, 10).
in(73, 13).
in(73, 14).
in(73, 18).
in(73, 20).
in(73, 24).
in(73, 25).
in(73, 28).
in(73, 29).
in(73, 32).
in(73, 34).
in(73, 44).
in(73, 47).
in(73, 53).
in(73, 54).
in(73, 55).
in(73, 59).
in(73, 60).
in(73, 63).
in(73, 65).
in(73, 67).
in(73, 68).
in(73, 71).
in(74, 3).
in(74, 7).
in(74, 10).
in(74, 12).
in(74, 15).
in(74, 16).
in(74, 18).
in(74, 20).
in(74, 21).
in(74, 23).
in(74, 24).
in(74, 25).
in(74, 27).
in(74, 28).
in(74, 30).
in(74, 35).
in(74, 42).
in(74, 45).
in(74, 49).
in(74, 50).
in(74, 53).
in(74, 59).
in(74, 61).
in(74, 63).
in(74, 66).
in(74, 71).
in(75, 1).
in(75, 3).
in(75, 4).
in(75, 6).
in(75, 8).
in(75, 9).
in(75, 17).
in(75, 20).
in(75, 24).
in(75, 25).
in(75, 26).
in(75, 28).
in(75, 32).
in(75, 33).
in(75, 35).
in(75, 36).
in(75, 38).
in(75, 40).
in(75, 41).
in(75, 42).
in(75, 45).
in(75, 49).
in(75, 50).
in(75, 51).
in(75, 53).
in(75, 54).
in(75, 55).
in(75, 57).
in(75, 61).
in(75, 64).
in(75, 67).
in(75, 69).
in(76, 1).
in(76, 4).
in(76, 5).
in(76, 7).
in(76, 16).
in(76, 20).
in(76, 22).
in(76, 23).
in(76, 26).
in(76, 28).
in(76, 29).
in(76, 30).
in(76, 32).
in(76, 33).
in(76, 35).
in(76, 36).
in(76, 37).
in(76, 40).
in(76, 48).
in(76, 50).
in(76, 54).
in(76, 59).
in(76, 61).
in(76, 62).
in(76, 64).
in(76, 65).
in(76, 66).
in(76, 69).
in(77, 1).
in(77, 6).
in(77, 7).
in(77, 10).
in(77, 11).
in(77, 14).
in(77, 15).
in(77, 16).
in(77, 19).
in(77, 21).
in(77, 22).
in(77, 23).
in(77, 25).
in(77, 27).
in(77, 28).
in(77, 29).
in(77, 32).
in(77, 34).
in(77, 36).
in(77, 39).
in(77, 41).
in(77, 44).
in(77, 47).
in(77, 48).
in(77, 62).
in(77, 64).
in(77, 66).
in(77, 67).
in(77, 68).
in(77, 69).
in(78, 10).
in(78, 15).
in(78, 17).
in(78, 25).
in(78, 28).
in(78, 30).
in(78, 37).
in(78, 38).
in(78, 39).
in(78, 40).
in(78, 43).
in(78, 46).
in(78, 49).
in(78, 52).
in(78, 53).
in(78, 55).
in(78, 57).
in(78, 59).
in(78, 60).
in(78, 62).
in(78, 66).
in(78, 68).
in(78, 70).
in(79, 1).
in(79, 6).
in(79, 8).
in(79, 12).
in(79, 18).
in(79, 21).
in(79, 24).
in(79, 25).
in(79, 27).
in(79, 29).
in(79, 30).
in(79, 33).
in(79, 36).
in(79, 40).
in(79, 43).
in(79, 44).
in(79, 46).
in(79, 49).
in(79, 52).
in(79, 53).
in(79, 54).
in(79, 56).
in(79, 57).
in(79, 60).
in(79, 62).
in(80, 4).
in(80, 7).
in(80, 9).
in(80, 10).
in(80, 15).
in(80, 16).
in(80, 23).
in(80, 24).
in(80, 25).
in(80, 28).
in(80, 33).
in(80, 35).
in(80, 41).
in(80, 42).
in(80, 43).
in(80, 47).
in(80, 49).
in(80, 52).
in(80, 59).
in(80, 61).
in(80, 62).
in(80, 65).
in(80, 66).
in(80, 67).
in(81, 6).
in(81, 7).
in(81, 9).
in(81, 12).
in(81, 16).
in(81, 18).
in(81, 23).
in(81, 25).
in(81, 27).
in(81, 30).
in(81, 32).
in(81, 36).
in(81, 37).
in(81, 39).
in(81, 40).
in(81, 41).
in(81, 48).
in(81, 49).
in(81, 50).
in(81, 52).
in(81, 53).
in(81, 55).
in(81, 57).
in(81, 60).
in(81, 61).
in(81, 66).
in(81, 68).
in(82, 2).
in(82, 3).
in(82, 4).
in(82, 5).
in(82, 7).
in(82, 8).
in(82, 10).
in(82, 16).
in(82, 17).
in(82, 19).
in(82, 20).
in(82, 22).
in(82, 24).
in(82, 26).
in(82, 28).
in(82, 30).
in(82, 33).
in(82, 38).
in(82, 40).
in(82, 42).
in(82, 43).
in(82, 44).
in(82, 45).
in(82, 46).
in(82, 47).
in(82, 50).
in(82, 52).
in(82, 55).
in(82, 56).
in(82, 57).
in(82, 61).
in(82, 62).
in(82, 64).
in(82, 68).
in(82, 71).
in(83, 2).
in(83, 3).
in(83, 8).
in(83, 10).
in(83, 11).
in(83, 12).
in(83, 14).
in(83, 20).
in(83, 21).
in(83, 24).
in(83, 26).
in(83, 31).
in(83, 33).
in(83, 36).
in(83, 39).
in(83, 40).
in(83, 53).
in(83, 60).
in(83, 62).
in(83, 63).
in(83, 66).
in(83, 68).
in(83, 69).
in(84, 1).
in(84, 4).
in(84, 6).
in(84, 9).
in(84, 18).
in(84, 19).
in(84, 20).
in(84, 33).
in(84, 34).
in(84, 35).
in(84, 38).
in(84, 41).
in(84, 42).
in(84, 43).
in(84, 44).
in(84, 46).
in(84, 52).
in(84, 53).
in(84, 56).
in(84, 57).
in(84, 58).
in(84, 59).
in(84, 60).
in(84, 61).
in(84, 62).
in(84, 65).
in(84, 66).
in(84, 67).
in(84, 69).
in(84, 71).
in(85, 2).
in(85, 6).
in(85, 11).
in(85, 14).
in(85, 17).
in(85, 21).
in(85, 22).
in(85, 23).
in(85, 25).
in(85, 26).
in(85, 28).
in(85, 34).
in(85, 37).
in(85, 40).
in(85, 45).
in(85, 47).
in(85, 54).
in(85, 59).
in(85, 61).
in(85, 62).
in(85, 64).
in(85, 68).
in(86, 1).
in(86, 2).
in(86, 7).
in(86, 10).
in(86, 12).
in(86, 14).
in(86, 16).
in(86, 17).
in(86, 20).
in(86, 22).
in(86, 24).
in(86, 25).
in(86, 31).
in(86, 33).
in(86, 34).
in(86, 37).
in(86, 44).
in(86, 50).
in(86, 51).
in(86, 55).
in(86, 58).
in(86, 59).
in(86, 64).
in(86, 66).
in(86, 70).
in(86, 71).
in(87, 2).
in(87, 5).
in(87, 9).
in(87, 10).
in(87, 12).
in(87, 14).
in(87, 16).
in(87, 22).
in(87, 26).
in(87, 28).
in(87, 30).
in(87, 32).
in(87, 33).
in(87, 38).
in(87, 43).
in(87, 44).
in(87, 45).
in(87, 47).
in(87, 49).
in(87, 50).
in(87, 52).
in(87, 53).
in(87, 58).
in(87, 60).
in(87, 61).
in(87, 62).
in(87, 63).
in(87, 64).
in(87, 65).
in(87, 67).
in(87, 68).
in(87, 71).
in(88, 3).
in(88, 4).
in(88, 6).
in(88, 9).
in(88, 20).
in(88, 21).
in(88, 27).
in(88, 29).
in(88, 30).
in(88, 31).
in(88, 32).
in(88, 38).
in(88, 42).
in(88, 43).
in(88, 44).
in(88, 45).
in(88, 47).
in(88, 48).
in(88, 50).
in(88, 57).
in(88, 59).
in(88, 60).
in(88, 66).
in(88, 71).
in(89, 4).
in(89, 6).
in(89, 8).
in(89, 13).
in(89, 14).
in(89, 17).
in(89, 27).
in(89, 31).
in(89, 32).
in(89, 37).
in(89, 38).
in(89, 39).
in(89, 43).
in(89, 46).
in(89, 47).
in(89, 55).
in(89, 56).
in(89, 57).
in(89, 60).
in(89, 61).
in(89, 64).
in(89, 65).
in(89, 66).
in(89, 68).
in(89, 69).
in(90, 2).
in(90, 3).
in(90, 9).
in(90, 15).
in(90, 16).
in(90, 20).
in(90, 21).
in(90, 22).
in(90, 24).
in(90, 25).
in(90, 26).
in(90, 27).
in(90, 32).
in(90, 33).
in(90, 34).
in(90, 37).
in(90, 38).
in(90, 40).
in(90, 41).
in(90, 44).
in(90, 45).
in(90, 50).
in(90, 53).
in(90, 55).
in(90, 57).
in(90, 58).
in(90, 59).
in(90, 62).
in(90, 65).
in(90, 70).
in(91, 3).
in(91, 5).
in(91, 13).
in(91, 16).
in(91, 20).
in(91, 22).
in(91, 23).
in(91, 24).
in(91, 26).
in(91, 29).
in(91, 35).
in(91, 40).
in(91, 42).
in(91, 47).
in(91, 49).
in(91, 50).
in(91, 53).
in(91, 55).
in(91, 56).
in(91, 61).
in(91, 65).
in(91, 67).
in(91, 70).
in(91, 71).
in(92, 1).
in(92, 3).
in(92, 4).
in(92, 36).
in(92, 69).
in(92, 39).
in(92, 8).
in(92, 9).
in(92, 41).
in(92, 42).
in(92, 49).
in(92, 18).
in(92, 50).
in(92, 54).
in(92, 56).
in(92, 62).
in(92, 61).
in(92, 30).
in(93, 2).
in(93, 3).
in(93, 7).
in(93, 17).
in(93, 24).
in(93, 27).
in(93, 29).
in(93, 33).
in(93, 39).
in(93, 41).
in(93, 44).
in(93, 51).
in(93, 53).
in(93, 54).
in(93, 55).
in(93, 57).
in(93, 59).
in(93, 60).
in(93, 61).
in(93, 68).
in(93, 70).
in(94, 4).
in(94, 8).
in(94, 17).
in(94, 19).
in(94, 21).
in(94, 25).
in(94, 30).
in(94, 31).
in(94, 32).
in(94, 37).
in(94, 41).
in(94, 44).
in(94, 47).
in(94, 48).
in(94, 52).
in(94, 53).
in(94, 54).
in(94, 56).
in(94, 58).
in(94, 64).
in(94, 66).
in(94, 67).
in(94, 70).
in(94, 71).
in(95, 1).
in(95, 3).
in(95, 8).
in(95, 9).
in(95, 12).
in(95, 17).
in(95, 25).
in(95, 27).
in(95, 29).
in(95, 31).
in(95, 34).
in(95, 35).
in(95, 36).
in(95, 37).
in(95, 40).
in(95, 44).
in(95, 45).
in(95, 47).
in(95, 48).
in(95, 50).
in(95, 55).
in(95, 61).
in(95, 64).
in(95, 65).
in(95, 70).
in(96, 4).
in(96, 6).
in(96, 7).
in(96, 8).
in(96, 10).
in(96, 13).
in(96, 14).
in(96, 17).
in(96, 19).
in(96, 24).
in(96, 26).
in(96, 34).
in(96, 37).
in(96, 39).
in(96, 41).
in(96, 44).
in(96, 51).
in(96, 54).
in(96, 59).
in(96, 64).
in(96, 66).
in(96, 70).
in(97, 1).
in(97, 7).
in(97, 8).
in(97, 9).
in(97, 12).
in(97, 15).
in(97, 17).
in(97, 18).
in(97, 25).
in(97, 27).
in(97, 28).
in(97, 30).
in(97, 34).
in(97, 38).
in(97, 39).
in(97, 45).
in(97, 51).
in(97, 52).
in(97, 55).
in(97, 63).
in(97, 65).
in(97, 68).
in(97, 70).
in(98, 5).
in(98, 6).
in(98, 9).
in(98, 10).
in(98, 21).
in(98, 27).
in(98, 30).
in(98, 32).
in(98, 42).
in(98, 43).
in(98, 46).
in(98, 48).
in(98, 49).
in(98, 50).
in(98, 52).
in(98, 53).
in(98, 55).
in(98, 64).
in(98, 68).
in(98, 69).
in(98, 70).
in(99, 1).
in(99, 2).
in(99, 4).
in(99, 5).
in(99, 8).
in(99, 9).
in(99, 10).
in(99, 16).
in(99, 20).
in(99, 21).
in(99, 27).
in(99, 28).
in(99, 29).
in(99, 30).
in(99, 31).
in(99, 33).
in(99, 35).
in(99, 36).
in(99, 39).
in(99, 42).
in(99, 44).
in(99, 50).
in(99, 51).
in(99, 59).
in(99, 62).
in(99, 67).
in(99, 68).
in(100, 1).
in(100, 3).
in(100, 10).
in(100, 11).
in(100, 14).
in(100, 16).
in(100, 23).
in(100, 25).
in(100, 26).
in(100, 28).
in(100, 29).
in(100, 31).
in(100, 33).
in(100, 41).
in(100, 46).
in(100, 48).
in(100, 56).
in(100, 57).
in(100, 58).
in(100, 59).
in(100, 63).
in(100, 65).
in(100, 68).
in(100, 69).
in(101, 5).
in(101, 8).
in(101, 9).
in(101, 23).
in(101, 34).
in(101, 35).
in(101, 37).
in(101, 40).
in(101, 42).
in(101, 43).
in(101, 44).
in(101, 48).
in(101, 50).
in(101, 52).
in(101, 58).
in(101, 59).
in(101, 62).
in(101, 63).
in(101, 64).
in(101, 66).
in(101, 67).
in(101, 68).
in(101, 69).
in(102, 1).
in(102, 2).
in(102, 3).
in(102, 6).
in(102, 7).
in(102, 11).
in(102, 15).
in(102, 19).
in(102, 21).
in(102, 26).
in(102, 31).
in(102, 32).
in(102, 33).
in(102, 34).
in(102, 36).
in(102, 43).
in(102, 48).
in(102, 51).
in(102, 52).
in(102, 53).
in(102, 63).
in(102, 64).
in(102, 66).
in(102, 70).
in(102, 71).
in(103, 65).
in(103, 34).
in(103, 35).
in(103, 4).
in(103, 5).
in(103, 36).
in(103, 37).
in(103, 38).
in(103, 41).
in(103, 66).
in(103, 43).
in(103, 13).
in(103, 45).
in(103, 46).
in(103, 21).
in(103, 55).
in(103, 56).
in(103, 59).
in(104, 7).
in(104, 16).
in(104, 18).
in(104, 19).
in(104, 20).
in(104, 23).
in(104, 28).
in(104, 30).
in(104, 31).
in(104, 32).
in(104, 41).
in(104, 42).
in(104, 44).
in(104, 46).
in(104, 47).
in(104, 54).
in(104, 58).
in(104, 61).
in(104, 62).
in(104, 65).
in(104, 70).
in(105, 2).
in(105, 3).
in(105, 7).
in(105, 11).
in(105, 18).
in(105, 21).
in(105, 22).
in(105, 27).
in(105, 29).
in(105, 32).
in(105, 33).
in(105, 35).
in(105, 38).
in(105, 46).
in(105, 48).
in(105, 51).
in(105, 52).
in(105, 57).
in(105, 59).
in(105, 60).
in(105, 61).
in(105, 62).
in(105, 66).
in(105, 70).
in(106, 3).
in(106, 4).
in(106, 5).
in(106, 6).
in(106, 11).
in(106, 12).
in(106, 16).
in(106, 20).
in(106, 22).
in(106, 24).
in(106, 28).
in(106, 31).
in(106, 32).
in(106, 33).
in(106, 37).
in(106, 40).
in(106, 41).
in(106, 42).
in(106, 43).
in(106, 44).
in(106, 50).
in(106, 53).
in(106, 58).
in(106, 65).
in(106, 69).
in(107, 1).
in(107, 7).
in(107, 10).
in(107, 11).
in(107, 16).
in(107, 20).
in(107, 21).
in(107, 29).
in(107, 30).
in(107, 33).
in(107, 35).
in(107, 36).
in(107, 40).
in(107, 41).
in(107, 43).
in(107, 44).
in(107, 45).
in(107, 51).
in(107, 56).
in(107, 69).
in(108, 5).
in(108, 6).
in(108, 7).
in(108, 11).
in(108, 13).
in(108, 18).
in(108, 19).
in(108, 22).
in(108, 24).
in(108, 27).
in(108, 29).
in(108, 32).
in(108, 36).
in(108, 38).
in(108, 42).
in(108, 45).
in(108, 49).
in(108, 52).
in(108, 53).
in(108, 55).
in(108, 56).
in(108, 61).
in(108, 66).
in(108, 67).
in(108, 68).
weight(1, 2).
weight(2, 1).
weight(3, 2).
weight(4, 6).
weight(5, 4).
weight(6, 5).
weight(7, 2).
weight(8, 6).
weight(9, 2).
weight(10, 4).
weight(11, 1).
weight(12, 3).
weight(13, 6).
weight(14, 3).
weight(15, 2).
weight(16, 1).
weight(17, 4).
weight(18, 3).
weight(19, 6).
weight(20, 1).
weight(21, 5).
weight(22, 5).
weight(23, 5).
weight(24, 4).
weight(25, 6).
weight(26, 3).
weight(27, 2).
weight(28, 4).
weight(29, 2).
weight(30, 6).
weight(31, 4).
weight(32, 6).
weight(33, 5).
weight(34, 1).
weight(35, 3).
weight(36, 2).
weight(37, 2).
weight(38, 5).
weight(39, 2).
weight(40, 1).
weight(41, 5).
weight(42, 5).
weight(43, 3).
weight(44, 2).
weight(45, 3).
weight(46, 4).
weight(47, 5).
weight(48, 6).
weight(49, 3).
weight(50, 1).
weight(51, 5).
weight(52, 2).
weight(53, 5).
weight(54, 2).
weight(55, 1).
weight(56, 3).
weight(57, 5).
weight(58, 6).
weight(59, 4).
weight(60, 6).
weight(61, 4).
weight(62, 6).
weight(63, 2).
weight(64, 3).
weight(65, 3).
weight(66, 5).
weight(67, 6).
weight(68, 5).
weight(69, 1).
weight(70, 5).
weight(71, 3).
weight(72, 2).
weight(73, 6).
weight(74, 2).
weight(75, 6).
weight(76, 5).
weight(77, 4).
weight(78, 3).
weight(79, 1).
weight(80, 5).
weight(81, 4).
weight(82, 6).
weight(83, 5).
weight(84, 3).
weight(85, 2).
weight(86, 2).
weight(87, 2).
weight(88, 4).
weight(89, 4).
weight(90, 1).
weight(91, 3).
weight(92, 5).
weight(93, 5).
weight(94, 5).
weight(95, 4).
weight(96, 4).
weight(97, 2).
weight(98, 4).
weight(99, 5).
weight(100, 3).
weight(101, 1).
weight(102, 2).
weight(103, 4).
weight(104, 4).
weight(105, 6).
weight(106, 6).
weight(107, 1).
weight(108, 6).

{ choose(S) } :- set(S).
:- choose(S1), choose(S2), S1 < S2, in(S1,E), in(S2,E).
:~ not choose(S), weight(S,W). [W@1,S]
