elem(1..71).
set(1..107).
in(1, 3).
in(1, 4).
in(1, 6).
in(1, 7).
in(1, 8).
in(1, 9).
in(1, 11).
in(1, 12).
in(1, 13).
in(1, 14).
in(1, 23).
in(1, 25).
in(1, 26).
in(1, 27).
in(1, 30).
in(1, 34).
in(1, 36).
in(1, 37).
in(1, 38).
in(1, 39).
in(1, 43).
in(1, 45).
in(1, 51).
in(1, 52).
in(1, 57).
in(1, 58).
in(1, 59).
in(1, 60).
in(1, 62).
in(1, 63).
in(1, 66).
in(1, 67).
in(1, 68).
in(2, 4).
in(2, 6).
in(2, 13).
in(2, 15).
in(2, 16).
in(2, 17).
in(2, 25).
in(2, 26).
in(2, 28).
in(2, 30).
in(2, 31).
in(2, 35).
in(2, 38).
in(2, 39).
in(2, 43).
in(2, 52).
in(2, 53).
in(2, 56).
in(2, 61).
in(2, 64).
in(2, 65).
in(2, 66).
in(2, 68).
in(2, 71).
in(3, 5).
in(3, 7).
in(3, 10).
in(3, 12).
in(3, 17).
in(3, 21).
in(3, 27).
in(3, 28).
in(3, 29).
in(3, 36).
in(3, 38).
in(3, 40).
in(3, 41).
in(3, 42).
in(3, 48).
in(3, 50).
in(3, 56).
in(3, 57).
in(3, 59).
in(3, 69).
in(3, 70).
in(4, 1).
in(4, 2).
in(4, 4).
in(4, 5).
in(4, 15).
in(4, 17).
in(4, 20).
in(4, 24).
in(4, 25).
in(4, 26).
in(4, 27).
in(4, 29).
in(4, 30).
in(4, 34).
in(4, 35).
in(4, 36).
in(4, 37).
in(4, 45).
in(4, 48).
in(4, 50).
in(4, 51).
in(4, 52).
in(4, 53).
in(4, 55).
in(4, 61).
in(4, 64).
in(4, 65).
in(4, 66).
in(5, 4).
in(5, 6).
in(5, 7).
in(5, 13).
in(5, 17).
in(5, 20).
in(5, 24).
in(5, 25).
in(5, 28).
in(5, 29).
in(5, 32).
in(5, 34).
in(5, 37).
in(5, 38).
in(5, 43).
in(5, 47).
in(5, 48).
in(5, 54).
in(5, 57).
in(5, 59).
in(5, 65).
in(5, 67).
in(5, 69).
in(5, 71).
in(6, 5).
in(6, 8).
in(6, 9).
in(6, 18).
in(6, 19).
in(6, 22).
in(6, 23).
in(6, 24).
in(6, 28).
in(6, 31).
in(6, 32).
in(6, 35).
in(6, 38).
in(6, 41).
in(6, 46).
in(6, 49).
in(6, 53).
in(6, 57).
in(6, 59).
in(6, 61).
in(6, 63).
in(6, 66).
in(6, 71).
in(7, 5).
in(7, 7).
in(7, 9).
in(7, 15).
in(7, 16).
in(7, 24).
in(7, 26).
in(7, 27).
in(7, 29).
in(7, 36).
in(7, 37).
in(7, 43).
in(7, 45).
in(7, 46).
in(7, 51).
in(7, 55).
in(7, 57).
in(7, 59).
in(7, 62).
in(7, 65).
in(7, 67).
in(7, 70).
in(7, 71).
in(8, 4).
in(8, 5).
in(8, 10).
in(8, 11).
in(8, 13).
in(8, 17).
in(8, 22).
in(8, 28).
in(8, 29).
in(8, 31).
in(8, 33).
in(8, 38).
in(8, 39).
in(8, 41).
in(8, 42).
in(8, 43).
in(8, 48).
in(8, 49).
in(8, 56).
in(8, 59).
in(8, 61).
in(8, 62).
in(8, 66).
in(8, 67).
in(8, 69).
in(8, 70).
in(9, 6).
in(9, 8).
in(9, 11).
in(9, 21).
in(9, 25).
in(9, 29).
in(9, 30).
in(9, 32).
in(9, 40).
in(9, 46).
in(9, 47).
in(9, 49).
in(9, 50).
in(9, 53).
in(9, 56).
in(9, 57).
in(9, 59).
in(9, 64).
in(9, 67).
in(10, 4).
in(10, 5).
in(10, 9).
in(10, 10).
in(10, 11).
in(10, 16).
in(10, 20).
in(10, 26).
in(10, 27).
in(10, 28).
in(10, 30).
in(10, 31).
in(10, 34).
in(10, 36).
in(10, 38).
in(10, 39).
in(10, 41).
in(10, 42).
in(10, 47).
in(10, 50).
in(10, 54).
in(10, 55).
in(10, 57).
in(10, 58).
in(10, 63).
in(10, 64).
in(10, 66).
in(10, 69).
in(11, 1).
in(11, 4).
in(11, 9).
in(11, 11).
in(11, 13).
in(11, 20).
in(11, 21).
in(11, 27).
in(11, 30).
in(11, 35).
in(11, 36).
in(11, 39).
in(11, 40).
in(11, 46).
in(11, 50).
in(11, 54).
in(11, 56).
in(11, 58).
in(11, 59).
in(11, 63).
in(11, 67).
in(11, 69).
in(11, 70).
in(12, 2).
in(12, 5).
in(12, 13).
in(12, 15).
in(12, 19).
in(12, 22).
in(12, 24).
in(12, 25).
in(12, 26).
in(12, 34).
in(12, 37).
in(12, 39).
in(12, 45).
in(12, 48).
in(12, 52).
in(12, 54).
in(12, 57).
in(12, 60).
in(12, 70).
in(12, 71).
in(13, 6).
in(13, 7).
in(13, 9).
in(13, 13).
in(13, 14).
in(13, 16).
in(13, 18).
in(13, 20).
in(13, 25).
in(13, 26).
in(13, 28).
in(13, 32).
in(13, 38).
in(13, 39).
in(13, 41).
in(13, 43).
in(13, 49).
in(13, 51).
in(13, 52).
in(13, 55).
in(13, 58).
in(13, 61).
in(13, 63).
in(13, 64).
in(13, 71).
in(14, 1).
in(14, 7).
in(14, 8).
in(14, 13).
in(14, 17).
in(14, 20).
in(14, 25).
in(14, 26).
in(14, 28).
in(14, 29).
in(14, 31).
in(14, 32).
in(14, 37).
in(14, 39).
in(14, 43).
in(14, 45).
in(14, 50).
in(14, 53).
in(14, 55).
in(14, 56).
in(14, 57).
in(14, 64).
in(14, 65).
in(14, 71).
in(15, 3).
in(15, 5).
in(15, 8).
in(15, 10).
in(15, 11).
in(15, 14).
in(15, 15).
in(15, 16).
in(15, 17).
in(15, 18).
in(15, 21).
in(15, 24).
in(15, 26).
in(15, 27).
in(15, 28).
in(15, 31).
in(15, 34).
in(15, 36).
in(15, 37).
in(15, 39).
in(15, 42).
in(15, 43).
in(15, 44).
in(15, 46).
in(15, 48).
in(15, 57).
in(15, 59).
in(15, 60).
in(15, 62).
in(15, 64).
in(15, 71).
in(16, 4).
in(16, 8).
in(16, 10).
in(16, 11).
in(16, 13).
in(16, 19).
in(16, 21).
in(16, 25).
in(16, 29).
in(16, 31).
in(16, 39).
in(16, 43).
in(16, 47).
in(16, 48).
in(16, 49).
in(16, 50).
in(16, 51).
in(16, 55).
in(16, 60).
in(16, 63).
in(16, 64).
in(16, 66).
in(16, 70).
in(17, 2).
in(17, 3).
in(17, 5).
in(17, 8).
in(17, 17).
in(17, 18).
in(17, 20).
in(17, 21).
in(17, 22).
in(17, 24).
in(17, 26).
in(17, 27).
in(17, 28).
in(17, 30).
in(17, 31).
in(17, 32).
in(17, 33).
in(17, 44).
in(17, 46).
in(17, 47).
in(17, 48).
in(17, 54).
in(17, 60).
in(17, 62).
in(17, 65).
in(17, 67).
in(17, 69).
in(18, 3).
in(18, 11).
in(18, 20).
in(18, 21).
in(18, 26).
in(18, 27).
in(18, 29).
in(18, 33).
in(18, 35).
in(18, 40).
in(18, 43).
in(18, 44).
in(18, 45).
in(18, 49).
in(18, 50).
in(18, 51).
in(18, 53).
in(18, 55).
in(18, 61).
in(18, 69).
in(18, 71).
in(19, 1).
in(19, 5).
in(19, 7).
in(19, 12).
in(19, 13).
in(19, 14).
in(19, 15).
in(19, 17).
in(19, 19).
in(19, 20).
in(19, 24).
in(19, 28).
in(19, 30).
in(19, 31).
in(19, 33).
in(19, 34).
in(19, 37).
in(19, 39).
in(19, 40).
in(19, 42).
in(19, 45).
in(19, 46).
in(19, 47).
in(19, 48).
in(19, 49).
in(19, 54).
in(19, 56).
in(19, 60).
in(19, 61).
in(19, 62).
in(19, 66).
in(19, 69).
in(19, 70).
in(19, 71).
in(20, 2).
in(20, 6).
in(20, 8).
in(20, 10).
in(20, 15).
in(20, 24).
in(20, 28).
in(20, 30).
in(20, 33).
in(20, 37).
in(20, 38).
in(20, 45).
in(20, 49).
in(20, 52).
in(20, 54).
in(20, 58).
in(20, 59).
in(20, 60).
in(20, 63).
in(20, 64).
in(20, 68).
in(20, 69).
in(21, 1).
in(21, 4).
in(21, 10).
in(21, 11).
in(21, 17).
in(21, 19).
in(21, 20).
in(21, 25).
in(21, 26).
in(21, 28).
in(21, 31).
in(21, 37).
in(21, 40).
in(21, 43).
in(21, 45).
in(21, 46).
in(21, 48).
in(21, 49).
in(21, 59).
in(21, 62).
in(21, 64).
in(21, 66).
in(21, 69).
in(22, 32).
in(22, 64).
in(22, 3).
in(22, 35).
in(22, 6).
in(22, 7).
in(22, 42).
in(22, 45).
in(22, 14).
in(22, 60).
in(22, 17).
in(22, 21).
in(22, 55).
in(22, 23).
in(22, 28).
in(22, 61).
in(23, 1).
in(23, 3).
in(23, 5).
in(23, 7).
in(23, 11).
in(23, 12).
in(23, 14).
in(23, 16).
in(23, 17).
in(23, 20).
in(23, 24).
in(23, 26).
in(23, 29).
in(23, 33).
in(23, 35).
in(23, 36).
in(23, 41).
in(23, 42).
in(23, 49).
in(23, 50).
in(23, 54).
in(23, 58).
in(23, 60).
in(23, 64).
in(23, 66).
in(23, 67).
in(23, 68).
in(23, 70).
in(23, 71).
in(24, 2).
in(24, 3).
in(24, 5).
in(24, 8).
in(24, 12).
in(24, 15).
in(24, 17).
in(24, 18).
in(24, 19).
in(24, 29).
in(24, 30).
in(24, 33).
in(24, 35).
in(24, 36).
in(24, 37).
in(24, 39).
in(24, 41).
in(24, 46).
in(24, 50).
in(24, 51).
in(24, 52).
in(24, 53).
in(24, 54).
in(24, 55).
in(24, 56).
in(24, 57).
in(24, 58).
in(24, 59).
in(24, 69).
in(24, 70).
in(25, 2).
in(25, 5).
in(25, 8).
in(25, 9).
in(25, 10).
in(25, 11).
in(25, 22).
in(25, 23).
in(25, 24).
in(25, 25).
in(25, 26).
in(25, 27).
in(25, 28).
in(25, 33).
in(25, 36).
in(25, 41).
in(25, 43).
in(25, 51).
in(25, 53).
in(25, 57).
in(25, 58).
in(25, 60).
in(25, 62).
in(25, 67).
in(26, 3).
in(26, 7).
in(26, 11).
in(26, 12).
in(26, 22).
in(26, 24).
in(26, 25).
in(26, 26).
in(26, 28).
in(26, 29).
in(26, 34).
in(26, 37).
in(26, 39).
in(26, 40).
in(26, 43).
in(26, 44).
in(26, 45).
in(26, 47).
in(26, 48).
in(26, 51).
in(26, 57).
in(26, 58).
in(26, 59).
in(26, 63).
in(26, 64).
in(26, 68).
in(26, 69).
in(27, 3).
in(27, 5).
in(27, 6).
in(27, 7).
in(27, 9).
in(27, 14).
in(27, 18).
in(27, 21).
in(27, 25).
in(27, 27).
in(27, 29).
in(27, 32).
in(27, 33).
in(27, 39).
in(27, 40).
in(27, 44).
in(27, 47).
in(27, 48).
in(27, 49).
in(27, 53).
in(27, 54).
in(27, 56).
in(27, 60).
in(27, 62).
in(27, 64).
in(27, 66).
in(27, 71).
in(28, 4).
in(28, 9).
in(28, 10).
in(28, 12).
in(28, 14).
in(28, 17).
in(28, 24).
in(28, 33).
in(28, 34).
in(28, 35).
in(28, 36).
in(28, 44).
in(28, 48).
in(28, 49).
in(28, 51).
in(28, 53).
in(28, 58).
in(28, 61).
in(28, 62).
in(28, 64).
in(28, 65).
in(28, 68).
in(28, 69).
in(28, 70).
in(29, 1).
in(29, 4).
in(29, 6).
in(29, 11).
in(29, 12).
in(29, 16).
in(29, 17).
in(29, 18).
in(29, 21).
in(29, 22).
in(29, 27).
in(29, 30).
in(29, 32).
in(29, 33).
in(29, 34).
in(29, 36).
in(29, 42).
in(29, 47).
in(29, 49).
in(29, 55).
in(29, 60).
in(29, 63).
in(29, 66).
in(29, 67).
in(29, 69).
in(29, 70).
in(30, 1).
in(30, 5).
in(30, 11).
in(30, 14).
in(30, 15).
in(30, 17).
in(30, 22).
in(30, 27).
in(30, 29).
in(30, 30).
in(30, 33).
in(30, 37).
in(30, 38).
in(30, 40).
in(30, 41).
in(30, 42).
in(30, 43).
in(30, 44).
in(30, 54).
in(30, 60).
in(30, 63).
in(30, 66).
in(30, 70).
in(31, 6).
in(31, 7).
in(31, 19).
in(31, 23).
in(31, 24).
in(31, 30).
in(31, 34).
in(31, 38).
in(31, 39).
in(31, 42).
in(31, 45).
in(31, 48).
in(31, 49).
in(31, 51).
in(31, 53).
in(31, 54).
in(31, 55).
in(31, 56).
in(31, 60).
in(31, 64).
in(31, 70).
in(32, 2).
in(32, 5).
in(32, 7).
in(32, 10).
in(32, 15).
in(32, 20).
in(32, 22).
in(32, 23).
in(32, 24).
in(32, 33).
in(32, 34).
in(32, 36).
in(32, 39).
in(32, 42).
in(32, 43).
in(32, 47).
in(32, 48).
in(32, 50).
in(32, 53).
in(32, 54).
in(32, 55).
in(32, 59).
in(32, 64).
in(32, 68).
in(32, 71).
in(33, 1).
in(33, 4).
in(33, 5).
in(33, 13).
in(33, 15).
in(33, 16).
in(33, 17).
in(33, 23).
in(33, 24).
in(33, 25).
in(33, 27).
in(33, 28).
in(33, 33).
in(33, 44).
in(33, 49).
in(33, 50).
in(33, 53).
in(33, 54).
in(33, 55).
in(33, 58).
in(33, 60).
in(33, 62).
in(33, 65).
in(33, 68).
in(33, 70).
in(34, 3).
in(34, 4).
in(34, 7).
in(34, 17).
in(34, 18).
in(34, 21).
in(34, 23).
in(34, 26).
in(34, 29).
in(34, 31).
in(34, 36).
in(34, 40).
in(34, 42).
in(34, 43).
in(34, 48).
in(34, 55).
in(34, 63).
in(34, 67).
in(34, 68).
in(35, 3).
in(35, 6).
in(35, 10).
in(35, 12).
in(35, 17).
in(35, 18).
in(35, 19).
in(35, 22).
in(35, 23).
in(35, 27).
in(35, 28).
in(35, 32).
in(35, 35).
in(35, 36).
in(35, 39).
in(35, 40).
in(35, 41).
in(35, 43).
in(35, 44).
in(35, 48).
in(35, 56).
in(35, 57).
in(35, 69).
in(35, 70).
in(36, 8).
in(36, 9).
in(36, 11).
in(36, 12).
in(36, 14).
in(36, 17).
in(36, 18).
in(36, 20).
in(36, 22).
in(36, 23).
in(36, 27).
in(36, 36).
in(36, 37).
in(36, 39).
in(36, 41).
in(36, 42).
in(36, 55).
in(36, 58).
in(36, 62).
in(36, 63).
in(36, 68).
in(36, 71).
in(37, 3).
in(37, 6).
in(37, 8).
in(37, 10).
in(37, 11).
in(37, 13).
in(37, 17).
in(37, 18).
in(37, 20).
in(37, 24).
in(37, 29).
in(37, 30).
in(37, 35).
in(37, 36).
in(37, 40).
in(37, 42).
in(37, 43).
in(37, 44).
in(37, 50).
in(37, 60).
in(37, 62).
in(37, 64).
in(37, 70).
in(38, 1).
in(38, 4).
in(38, 14).
in(38, 19).
in(38, 21).
in(38, 23).
in(38, 24).
in(38, 27).
in(38, 30).
in(38, 32).
in(38, 36).
in(38, 38).
in(38, 39).
in(38, 41).
in(38, 43).
in(38, 46).
in(38, 47).
in(38, 55).
in(38, 56).
in(38, 62).
in(38, 65).
in(38, 66).
in(39, 2).
in(39, 5).
in(39, 7).
in(39, 9).
in(39, 12).
in(39, 14).
in(39, 18).
in(39, 26).
in(39, 30).
in(39, 31).
in(39, 33).
in(39, 35).
in(39, 45).
in(39, 49).
in(39, 50).
in(39, 52).
in(39, 58).
in(39, 59).
in(39, 61).
in(39, 62).
in(39, 64).
in(39, 68).
in(39, 70).
in(39, 71).
in(40, 3).
in(40, 5).
in(40, 6).
in(40, 7).
in(40, 9).
in(40, 10).
in(40, 11).
in(40, 25).
in(40, 27).
in(40, 29).
in(40, 30).
in(40, 31).
in(40, 32).
in(40, 34).
in(40, 38).
in(40, 41).
in(40, 45).
in(40, 54).
in(40, 55).
in(40, 57).
in(40, 58).
in(40, 59).
in(40, 66).
in(40, 68).
in(40, 70).
in(41, 2).
in(41, 4).
in(41, 5).
in(41, 11).
in(41, 12).
in(41, 13).
in(41, 15).
in(41, 20).
in(41, 23).
in(41, 24).
in(41, 25).
in(41, 27).
in(41, 30).
in(41, 35).
in(41, 36).
in(41, 42).
in(41, 45).
in(41, 46).
in(41, 54).
in(41, 56).
in(41, 57).
in(41, 59).
in(41, 60).
in(41, 62).
in(41, 63).
in(41, 64).
in(41, 70).
in(41, 71).
in(42, 1).
in(42, 5).
in(42, 6).
in(42, 7).
in(42, 9).
in(42, 12).
in(42, 13).
in(42, 14).
in(42, 15).
in(42, 20).
in(42, 21).
in(42, 23).
in(42, 26).
in(42, 27).
in(42, 28).
in(42, 30).
in(42, 34).
in(42, 37).
in(42, 39).
in(42, 42).
in(42, 47).
in(42, 52).
in(42, 54).
in(42, 57).
in(42, 58).
in(42, 60).
in(42, 62).
in(42, 68).
in(42, 71).
in(43, 1).
in(43, 2).
in(43, 6).
in(43, 8).
in(43, 10).
in(43, 15).
in(43, 16).
in(43, 17).
in(43, 23).
in(43, 26).
in(43, 27).
in(43, 28).
in(43, 34).
in(43, 40).
in(43, 43).
in(43, 46).
in(43, 47).
in(43, 48).
in(43, 49).
in(43, 50).
in(43, 51).
in(43, 52).
in(43, 54).
in(43, 56).
in(43, 62).
in(43, 65).
in(43, 70).
in(44, 3).
in(44, 6).
in(44, 7).
in(44, 8).
in(44, 11).
in(44, 12).
in(44, 13).
in(44, 14).
in(44, 16).
in(44, 18).
in(44, 20).
in(44, 25).
in(44, 28).
in(44, 29).
in(44, 30).
in(44, 31).
in(44, 34).
in(44, 35).
in(44, 37).
in(44, 38).
in(44, 39).
in(44, 45).
in(44, 46).
in(44, 56).
in(44, 59).
in(44, 60).
in(44, 63).
in(44, 64).
in(44, 66).
in(45, 5).
in(45, 6).
in(45, 7).
in(45, 8).
in(45, 10).
in(45, 13).
in(45, 15).
in(45, 16).
in(45, 29).
in(45, 31).
in(45, 32).
in(45, 33).
in(45, 34).
in(45, 36).
in(45, 37).
in(45, 39).
in(45, 43).
in(45, 44).
in(45, 48).
in(45, 53).
in(45, 54).
in(45, 60).
in(45, 61).
in(45, 62).
in(45, 64).
in(45, 65).
in(45, 66).
in(45, 71).
in(46, 4).
in(46, 7).
in(46, 8).
in(46, 10).
in(46, 12).
in(46, 17).
in(46, 18).
in(46, 22).
in(46, 25).
in(46, 27).
in(46, 28).
in(46, 30).
in(46, 31).
in(46, 32).
in(46, 36).
in(46, 37).
in(46, 42).
in(46, 43).
in(46, 44).
in(46, 46).
in(46, 49).
in(46, 53).
in(46, 59).
in(46, 61).
in(46, 62).
in(46, 63).
in(46, 65).
in(47, 32).
in(47, 65).
in(47, 35).
in(47, 68).
in(47, 37).
in(47, 38).
in(47, 41).
in(47, 10).
in(47, 11).
in(47, 45).
in(47, 50).
in(47, 54).
in(47, 62).
in(47, 26).
in(47, 28).
in(47, 63).
in(47, 30).
in(47, 31).
in(48, 1).
in(48, 3).
in(48, 5).
in(48, 9).
in(48, 10).
in(48, 12).
in(48, 13).
in(48, 14).
in(48, 17).
in(48, 20).
in(48, 21).
in(48, 25).
in(48, 29).
in(48, 32).
in(48, 33).
in(48, 41).
in(48, 42).
in(48, 45).
in(48, 52).
in(48, 53).
in(48, 55).
in(48, 56).
in(48, 57).
in(48, 58).
in(48, 59).
in(48, 60).
in(48, 62).
in(48, 65).
in(48, 70).
in(48, 71).
in(49, 3).
in(49, 8).
in(49, 10).
in(49, 19).
in(49, 24).
in(49, 25).
in(49, 26).
in(49, 31).
in(49, 33).
in(49, 34).
in(49, 35).
in(49, 44).
in(49, 48).
in(49, 49).
in(49, 56).
in(49, 57).
in(49, 61).
in(49, 64).
in(49, 66).
in(49, 68).
in(49, 70).
in(50, 2).
in(50, 3).
in(50, 5).
in(50, 9).
in(50, 10).
in(50, 11).
in(50, 12).
in(50, 19).
in(50, 20).
in(50, 21).
in(50, 24).
in(50, 30).
in(50, 35).
in(50, 38).
in(50, 39).
in(50, 45).
in(50, 47).
in(50, 51).
in(50, 52).
in(50, 57).
in(50, 60).
in(50, 61).
in(50, 63).
in(50, 65).
in(51, 1).
in(51, 5).
in(51, 6).
in(51, 9).
in(51, 10).
in(51, 11).
in(51, 13).
in(51, 16).
in(51, 17).
in(51, 18).
in(51, 24).
in(51, 26).
in(51, 27).
in(51, 29).
in(51, 32).
in(51, 39).
in(51, 41).
in(51, 45).
in(51, 46).
in(51, 49).
in(51, 51).
in(51, 53).
in(51, 55).
in(51, 61).
in(51, 62).
in(51, 63).
in(51, 71).
in(52, 1).
in(52, 2).
in(52, 4).
in(52, 5).
in(52, 7).
in(52, 13).
in(52, 14).
in(52, 17).
in(52, 19).
in(52, 23).
in(52, 24).
in(52, 29).
in(52, 33).
in(52, 35).
in(52, 36).
in(52, 37).
in(52, 42).
in(52, 43).
in(52, 44).
in(52, 47).
in(52, 55).
in(52, 56).
in(52, 57).
in(52, 60).
in(52, 62).
in(52, 63).
in(52, 66).
in(53, 2).
in(53, 3).
in(53, 7).
in(53, 11).
in(53, 13).
in(53, 14).
in(53, 15).
in(53, 16).
in(53, 18).
in(53, 20).
in(53, 23).
in(53, 25).
in(53, 27).
in(53, 36).
in(53, 40).
in(53, 41).
in(53, 42).
in(53, 43).
in(53, 47).
in(53, 53).
in(53, 55).
in(53, 61).
in(53, 62).
in(53, 67).
in(53, 68).
in(54, 1).
in(54, 3).
in(54, 4).
in(54, 5).
in(54, 8).
in(54, 13).
in(54, 14).
in(54, 15).
in(54, 16).
in(54, 18).
in(54, 20).
in(54, 21).
in(54, 29).
in(54, 34).
in(54, 35).
in(54, 38).
in(54, 41).
in(54, 43).
in(54, 44).
in(54, 46).
in(54, 50).
in(54, 53).
in(54, 54).
in(54, 68).
in(54, 71).
in(55, 2).
in(55, 3).
in(55, 5).
in(55, 7).
in(55, 8).
in(55, 10).
in(55, 11).
in(55, 12).
in(55, 16).
in(55, 24).
in(55, 27).
in(55, 28).
in(55, 31).
in(55, 34).
in(55, 35).
in(55, 41).
in(55, 44).
in(55, 46).
in(55, 48).
in(55, 50).
in(55, 52).
in(55, 54).
in(55, 57).
in(55, 60).
in(55, 65).
in(55, 66).
in(55, 68).
in(55, 70).
in(56, 32).
in(56, 33).
in(56, 34).
in(56, 66).
in(56, 68).
in(56, 69).
in(56, 39).
in(56, 11).
in(56, 44).
in(56, 13).
in(56, 15).
in(56, 50).
in(56, 19).
in(56, 51).
in(56, 53).
in(56, 55).
in(56, 26).
in(57, 1).
in(57, 5).
in(57, 10).
in(57, 11).
in(57, 14).
in(57, 20).
in(57, 21).
in(57, 25).
in(57, 27).
in(57, 29).
in(57, 30).
in(57, 31).
in(57, 35).
in(57, 36).
in(57, 37).
in(57, 50).
in(57, 56).
in(57, 59).
in(57, 62).
in(57, 64).
in(57, 66).
in(57, 69).
in(58, 9).
in(58, 11).
in(58, 13).
in(58, 18).
in(58, 22).
in(58, 23).
in(58, 27).
in(58, 28).
in(58, 32).
in(58, 33).
in(58, 34).
in(58, 35).
in(58, 36).
in(58, 42).
in(58, 44).
in(58, 49).
in(58, 50).
in(58, 52).
in(58, 54).
in(58, 55).
in(58, 56).
in(58, 58).
in(58, 65).
in(58, 66).
in(58, 67).
in(58, 70).
in(59, 2).
in(59, 4).
in(59, 5).
in(59, 9).
in(59, 13).
in(59, 21).
in(59, 27).
in(59, 32).
in(59, 34).
in(59, 36).
in(59, 40).
in(59, 43).
in(59, 44).
in(59, 46).
in(59, 48).
in(59, 49).
in(59, 50).
in(59, 52).
in(59, 53).
in(59, 56).
in(59, 60).
in(59, 62).
in(59, 65).
in(59, 67).
in(59, 70).
in(60, 5).
in(60, 10).
in(60, 11).
in(60, 13).
in(60, 19).
in(60, 20).
in(60, 22).
in(60, 23).
in(60, 29).
in(60, 37).
in(60, 38).
in(60, 39).
in(60, 42).
in(60, 46).
in(60, 48).
in(60, 50).
in(60, 51).
in(60, 52).
in(60, 55).
in(60, 56).
in(60, 58).
in(60, 60).
in(60, 62).
in(60, 68).
in(60, 69).
in(61, 1).
in(61, 2).
in(61, 4).
in(61, 5).
in(61, 10).
in(61, 14).
in(61, 19).
in(61, 20).
in(61, 21).
in(61, 22).
in(61, 30).
in(61, 32).
in(61, 36).
in(61, 48).
in(61, 50).
in(61, 51).
in(61, 52).
in(61, 54).
in(61, 56).
in(61, 58).
in(61, 60).
in(61, 67).
in(61, 71).
in(62, 1).
in(62, 3).
in(62, 7).
in(62, 11).
in(62, 13).
in(62, 21).
in(62, 23).
in(62, 24).
in(62, 27).
in(62, 29).
in(62, 30).
in(62, 34).
in(62, 37).
in(62, 39).
in(62, 41).
in(62, 48).
in(62, 50).
in(62, 52).
in(62, 54).
in(62, 55).
in(62, 63).
in(62, 64).
in(63, 2).
in(63, 10).
in(63, 11).
in(63, 12).
in(63, 13).
in(63, 15).
in(63, 17).
in(63, 19).
in(63, 23).
in(63, 25).
in(63, 28).
in(63, 29).
in(63, 35).
in(63, 36).
in(63, 47).
in(63, 53).
in(63, 56).
in(63, 57).
in(63, 63).
in(63, 65).
in(63, 67).
in(64, 3).
in(64, 7).
in(64, 8).
in(64, 9).
in(64, 11).
in(64, 14).
in(64, 15).
in(64, 18).
in(64, 21).
in(64, 27).
in(64, 31).
in(64, 34).
in(64, 35).
in(64, 39).
in(64, 45).
in(64, 47).
in(64, 48).
in(64, 49).
in(64, 50).
in(64, 52).
in(64, 54).
in(64, 56).
in(64, 57).
in(64, 63).
in(64, 65).
in(65, 1).
in(65, 17).
in(65, 18).
in(65, 21).
in(65, 25).
in(65, 33).
in(65, 34).
in(65, 35).
in(65, 36).
in(65, 38).
in(65, 40).
in(65, 42).
in(65, 45).
in(65, 46).
in(65, 48).
in(65, 49).
in(65, 50).
in(65, 55).
in(65, 67).
in(65, 69).
in(66, 5).
in(66, 8).
in(66, 9).
in(66, 13).
in(66, 14).
in(66, 15).
in(66, 20).
in(66, 21).
in(66, 23).
in(66, 25).
in(66, 30).
in(66, 33).
in(66, 40).
in(66, 45).
in(66, 49).
in(66, 51).
in(66, 53).
in(66, 55).
in(66, 56).
in(66, 57).
in(66, 62).
in(66, 65).
in(66, 68).
in(67, 1).
in(67, 2).
in(67, 3).
in(67, 6).
in(67, 8).
in(67, 12).
in(67, 13).
in(67, 14).
in(67, 15).
in(67, 17).
in(67, 19).
in(67, 21).
in(67, 23).
in(67, 25).
in(67, 26).
in(67, 34).
in(67, 37).
in(67, 38).
in(67, 39).
in(67, 40).
in(67, 41).
in(67, 46).
in(67, 50).
in(67, 51).
in(67, 52).
in(67, 54).
in(67, 58).
in(67, 60).
in(67, 68).
in(67, 69).
in(68, 4).
in(68, 11).
in(68, 17).
in(68, 19).
in(68, 20).
in(68, 23).
in(68, 27).
in(68, 33).
in(68, 34).
in(68, 35).
in(68, 42).
in(68, 43).
in(68, 45).
in(68, 46).
in(68, 49).
in(68, 52).
in(68, 59).
in(68, 60).
in(68, 63).
in(68, 68).
in(68, 69).
in(69, 1).
in(69, 3).
in(69, 6).
in(69, 15).
in(69, 16).
in(69, 18).
in(69, 21).
in(69, 22).
in(69, 23).
in(69, 25).
in(69, 30).
in(69, 32).
in(69, 36).
in(69, 38).
in(69, 41).
in(69, 43).
in(69, 46).
in(69, 47).
in(69, 49).
in(69, 50).
in(69, 52).
in(69, 60).
in(69, 62).
in(69, 69).
in(69, 71).
in(70, 1).
in(70, 4).
in(70, 8).
in(70, 9).
in(70, 11).
in(70, 12).
in(70, 13).
in(70, 27).
in(70, 28).
in(70, 29).
in(70, 34).
in(70, 35).
in(70, 36).
in(70, 37).
in(70, 39).
in(70, 44).
in(70, 46).
in(70, 50).
in(70, 51).
in(70, 58).
in(70, 62).
in(70, 64).
in(70, 68).
in(70, 69).
in(70, 70).
in(71, 4).
in(71, 14).
in(71, 15).
in(71, 16).
in(71, 20).
in(71, 24).
in(71, 27).
in(71, 30).
in(71, 33).
in(71, 42).
in(71, 45).
in(71, 46).
in(71, 47).
in(71, 48).
in(71, 50).
in(71, 51).
in(71, 58).
in(71, 62).
in(71, 63).
in(71, 64).
in(71, 67).
in(71, 68).
in(72, 2).
in(72, 6).
in(72, 10).
in(72, 12).
in(72, 15).
in(72, 16).
in(72, 19).
in(72, 20).
in(72, 28).
in(72, 30).
in(72, 31).
in(72, 34).
in(72, 35).
in(72, 40).
in(72, 41).
in(72, 44).
in(72, 46).
in(72, 47).
in(72, 58).
in(72, 59).
in(72, 60).
in(72, 63).
in(72, 64).
in(73, 2).
in(73, 7).
in(73, 8).
in(73, 9).
in(73, 12).
in(73, 13).
in(73, 14).
in(73, 15).
in(73, 21).
in(73, 25).
in(73, 31).
in(73, 34).
in(73, 36).
in(73, 39).
in(73, 42).
in(73, 43).
in(73, 47).
in(73, 53).
in(73, 54).
in(73, 56).
in(73, 59).
in(73, 62).
in(73, 64).
in(73, 66).
in(73, 67).
in(73, 69).
in(74, 2).
in(74, 4).
in(74, 10).
in(74, 12).
in(74, 13).
in(74, 17).
in(74, 21).
in(74, 24).
in(74, 25).
in(74, 28).
in(74, 29).
in(74, 34).
in(74, 36).
in(74, 37).
in(74, 39).
in(74, 41).
in(74, 47).
in(74, 48).
in(74, 49).
in(74, 51).
in(74, 55).
in(74, 58).
in(74, 59).
in(74, 61).
in(74, 69).
in(75, 2).
in(75, 5).
in(75, 7).
in(75, 8).
in(75, 10).
in(75, 14).
in(75, 16).
in(75, 18).
in(75, 35).
in(75, 36).
in(75, 40).
in(75, 41).
in(75, 44).
in(75, 50).
in(75, 57).
in(75, 61).
in(75, 62).
in(75, 63).
in(75, 66).
in(76, 1).
in(76, 5).
in(76, 6).
in(76, 8).
in(76, 13).
in(76, 14).
in(76, 16).
in(76, 19).
in(76, 23).
in(76, 24).
in(76, 32).
in(76, 33).
in(76, 35).
in(76, 37).
in(76, 39).
in(76, 40).
in(76, 44).
in(76, 45).
in(76, 47).
in(76, 48).
in(76, 49).
in(76, 51).
in(76, 56).
in(76, 57).
in(76, 59).
in(76, 60).
in(76, 61).
in(76, 62).
in(76, 63).
in(76, 65).
in(76, 66).
in(76, 67).
in(76, 68).
in(77, 64).
in(77, 1).
in(77, 34).
in(77, 36).
in(77, 68).
in(77, 38).
in(77, 7).
in(77, 41).
in(77, 42).
in(77, 44).
in(77, 48).
in(77, 19).
in(77, 52).
in(77, 25).
in(77, 30).
in(78, 2).
in(78, 8).
in(78, 9).
in(78, 13).
in(78, 14).
in(78, 16).
in(78, 17).
in(78, 19).
in(78, 21).
in(78, 24).
in(78, 27).
in(78, 29).
in(78, 31).
in(78, 32).
in(78, 36).
in(78, 39).
in(78, 40).
in(78, 46).
in(78, 50).
in(78, 54).
in(78, 56).
in(78, 57).
in(78, 62).
in(78, 71).
in(79, 4).
in(79, 8).
in(79, 11).
in(79, 12).
in(79, 15).
in(79, 17).
in(79, 20).
in(79, 22).
in(79, 25).
in(79, 33).
in(79, 35).
in(79, 36).
in(79, 49).
in(79, 51).
in(79, 56).
in(79, 60).
in(79, 63).
in(79, 65).
in(79, 70).
in(79, 71).
in(80, 2).
in(80, 3).
in(80, 6).
in(80, 8).
in(80, 10).
in(80, 14).
in(80, 21).
in(80, 26).
in(80, 28).
in(80, 34).
in(80, 35).
in(80, 37).
in(80, 38).
in(80, 43).
in(80, 44).
in(80, 46).
in(80, 52).
in(80, 53).
in(80, 54).
in(80, 60).
in(80, 61).
in(80, 62).
in(80, 63).
in(80, 65).
in(80, 67).
in(80, 68).
in(80, 70).
in(81, 2).
in(81, 3).
in(81, 4).
in(81, 7).
in(81, 10).
in(81, 13).
in(81, 17).
in(81, 20).
in(81, 24).
in(81, 28).
in(81, 31).
in(81, 33).
in(81, 34).
in(81, 35).
in(81, 36).
in(81, 39).
in(81, 43).
in(81, 44).
in(81, 46).
in(81, 47).
in(81, 56).
in(81, 59).
in(81, 60).
in(81, 61).
in(81, 64).
in(81, 66).
in(82, 1).
in(82, 6).
in(82, 9).
in(82, 11).
in(82, 20).
in(82, 24).
in(82, 29).
in(82, 35).
in(82, 39).
in(82, 43).
in(82, 44).
in(82, 45).
in(82, 59).
in(82, 60).
in(82, 65).
in(82, 67).
in(82, 69).
in(82, 70).
in(82, 71).
in(83, 10).
in(83, 12).
in(83, 13).
in(83, 16).
in(83, 18).
in(83, 19).
in(83, 20).
in(83, 22).
in(83, 25).
in(83, 26).
in(83, 30).
in(83, 34).
in(83, 36).
in(83, 41).
in(83, 49).
in(83, 51).
in(83, 55).
in(83, 57).
in(83, 61).
in(83, 63).
in(83, 71).
in(84, 3).
in(84, 11).
in(84, 13).
in(84, 16).
in(84, 19).
in(84, 24).
in(84, 25).
in(84, 26).
in(84, 28).
in(84, 29).
in(84, 33).
in(84, 45).
in(84, 51).
in(84, 54).
in(84, 60).
in(84, 61).
in(84, 62).
in(84, 63).
in(84, 65).
in(84, 69).
in(85, 6).
in(85, 7).
in(85, 9).
in(85, 10).
in(85, 11).
in(85, 14).
in(85, 16).
in(85, 19).
in(85, 20).
in(85, 23).
in(85, 24).
in(85, 26).
in(85, 27).
in(85, 29).
in(85, 30).
in(85, 31).
in(85, 32).
in(85, 47).
in(85, 51).
in(85, 53).
in(85, 63).
in(85, 66).
in(85, 68).
in(86, 3).
in(86, 4).
in(86, 5).
in(86, 9).
in(86, 11).
in(86, 14).
in(86, 15).
in(86, 25).
in(86, 26).
in(86, 31).
in(86, 32).
in(86, 34).
in(86, 36).
in(86, 38).
in(86, 40).
in(86, 41).
in(86, 43).
in(86, 45).
in(86, 46).
in(86, 48).
in(86, 50).
in(86, 52).
in(86, 54).
in(86, 55).
in(86, 59).
in(86, 62).
in(86, 63).
in(86, 64).
in(86, 65).
in(87, 3).
in(87, 5).
in(87, 6).
in(87, 7).
in(87, 8).
in(87, 14).
in(87, 16).
in(87, 32).
in(87, 34).
in(87, 35).
in(87, 36).
in(87, 37).
in(87, 40).
in(87, 41).
in(87, 44).
in(87, 49).
in(87, 53).
in(87, 54).
in(87, 59).
in(87, 63).
in(87, 66).
in(87, 71).
in(88, 2).
in(88, 3).
in(88, 12).
in(88, 13).
in(88, 14).
in(88, 15).
in(88, 18).
in(88, 26).
in(88, 28).
in(88, 29).
in(88, 30).
in(88, 33).
in(88, 34).
in(88, 35).
in(88, 38).
in(88, 39).
in(88, 45).
in(88, 47).
in(88, 54).
in(88, 60).
in(88, 68).
in(88, 71).
in(89, 5).
in(89, 7).
in(89, 8).
in(89, 10).
in(89, 12).
in(89, 13).
in(89, 15).
in(89, 23).
in(89, 27).
in(89, 29).
in(89, 31).
in(89, 32).
in(89, 33).
in(89, 36).
in(89, 37).
in(89, 42).
in(89, 44).
in(89, 49).
in(89, 53).
in(89, 56).
in(89, 60).
in(89, 62).
in(89, 66).
in(89, 71).
in(90, 1).
in(90, 6).
in(90, 9).
in(90, 16).
in(90, 18).
in(90, 20).
in(90, 27).
in(90, 28).
in(90, 30).
in(90, 31).
in(90, 33).
in(90, 34).
in(90, 35).
in(90, 41).
in(90, 45).
in(90, 46).
in(90, 47).
in(90, 49).
in(90, 50).
in(90, 52).
in(90, 54).
in(90, 57).
in(90, 59).
in(90, 62).
in(90, 63).
in(90, 66).
in(90, 68).
in(90, 70).
in(91, 9).
in(91, 10).
in(91, 11).
in(91, 13).
in(91, 16).
in(91, 17).
in(91, 21).
in(91, 24).
in(91, 29).
in(91, 33).
in(91, 38).
in(91, 39).
in(91, 43).
in(91, 53).
in(91, 57).
in(91, 61).
in(91, 63).
in(91, 67).
in(91, 70).
in(91, 71).
in(92, 6).
in(92, 9).
in(92, 14).
in(92, 18).
in(92, 20).
in(92, 22).
in(92, 23).
in(92, 24).
in(92, 30).
in(92, 32).
in(92, 35).
in(92, 47).
in(92, 48).
in(92, 49).
in(92, 50).
in(92, 52).
in(92, 53).
in(92, 58).
in(92, 67).
in(93, 5).
in(93, 8).
in(93, 11).
in(93, 17).
in(93, 19).
in(93, 21).
in(93, 24).
in(93, 26).
in(93, 34).
in(93, 35).
in(93, 37).
in(93, 39).
in(93, 42).
in(93, 43).
in(93, 46).
in(93, 51).
in(93, 56).
in(93, 57).
in(93, 58).
in(93, 59).
in(93, 60).
in(93, 62).
in(93, 65).
in(93, 67).
in(93, 68).
in(94, 4).
in(94, 5).
in(94, 6).
in(94, 7).
in(94, 13).
in(94, 14).
in(94, 18).
in(94, 23).
in(94, 31).
in(94, 34).
in(94, 37).
in(94, 38).
in(94, 39).
in(94, 42).
in(94, 53).
in(94, 54).
in(94, 55).
in(94, 56).
in(94, 57).
in(94, 59).
in(94, 62).
in(94, 64).
in(94, 68).
in(95, 6).
in(95, 7).
in(95, 8).
in(95, 10).
in(95, 22).
in(95, 24).
in(95, 32).
in(95, 36).
in(95, 41).
in(95, 45).
in(95, 46).
in(95, 47).
in(95, 50).
in(95, 53).
in(95, 54).
in(95, 57).
in(95, 58).
in(95, 59).
in(95, 68).
in(95, 69).
in(95, 70).
in(96, 1).
in(96, 3).
in(96, 4).
in(96, 8).
in(96, 12).
in(96, 14).
in(96, 16).
in(96, 19).
in(96, 20).
in(96, 23).
in(96, 24).
in(96, 25).
in(96, 27).
in(96, 28).
in(96, 29).
in(96, 31).
in(96, 35).
in(96, 38).
in(96, 43).
in(96, 45).
in(96, 47).
in(96, 48).
in(96, 50).
in(96, 51).
in(96, 57).
in(96, 58).
in(96, 63).
in(96, 66).
in(96, 68).
in(97, 6).
in(97, 7).
in(97, 13).
in(97, 16).
in(97, 17).
in(97, 19).
in(97, 22).
in(97, 24).
in(97, 31).
in(97, 33).
in(97, 36).
in(97, 42).
in(97, 46).
in(97, 47).
in(97, 53).
in(97, 57).
in(97, 59).
in(97, 60).
in(97, 67).
in(98, 5).
in(98, 11).
in(98, 13).
in(98, 15).
in(98, 16).
in(98, 17).
in(98, 18).
in(98, 20).
in(98, 27).
in(98, 31).
in(98, 32).
in(98, 33).
in(98, 37).
in(98, 38).
in(98, 40).
in(98, 44).
in(98, 45).
in(98, 47).
in(98, 50).
in(98, 52).
in(98, 53).
in(98, 54).
in(98, 61).
in(98, 64).
in(98, 70).
in(98, 71).
in(99, 5).
in(99, 13).
in(99, 19).
in(99, 20).
in(99, 21).
in(99, 26).
in(99, 28).
in(99, 35).
in(99, 36).
in(99, 37).
in(99, 45).
in(99, 52).
in(99, 53).
in(99, 54).
in(99, 55).
in(99, 56).
in(99, 59).
in(99, 60).
in(99, 62).
in(99, 65).
in(99, 69).
in(100, 3).
in(100, 10).
in(100, 11).
in(100, 15).
in(100, 16).
in(100, 18).
in(100, 19).
in(100, 23).
in(100, 37).
in(100, 40).
in(100, 41).
in(100, 42).
in(100, 43).
in(100, 47).
in(100, 49).
in(100, 50).
in(100, 52).
in(100, 54).
in(100, 59).
in(100, 60).
in(100, 61).
in(100, 62).
in(100, 65).
in(100, 66).
in(100, 67).
in(100, 68).
in(100, 69).
in(101, 3).
in(101, 6).
in(101, 10).
in(101, 11).
in(101, 13).
in(101, 16).
in(101, 17).
in(101, 19).
in(101, 20).
in(101, 21).
in(101, 24).
in(101, 26).
in(101, 27).
in(101, 31).
in(101, 32).
in(101, 35).
in(101, 37).
in(101, 38).
in(101, 41).
in(101, 43).
in(101, 49).
in(101, 54).
in(101, 59).
in(101, 61).
in(101, 62).
in(101, 67).
in(101, 71).
in(102, 2).
in(102, 36).
in(102, 37).
in(102, 8).
in(102, 45).
in(102, 14).
in(102, 48).
in(102, 19).
in(102, 51).
in(102, 21).
in(102, 53).
in(102, 24).
in(102, 25).
in(102, 58).
in(102, 27).
in(102, 63).
in(103, 2).
in(103, 3).
in(103, 4).
in(103, 5).
in(103, 6).
in(103, 7).
in(103, 8).
in(103, 10).
in(103, 11).
in(103, 13).
in(103, 14).
in(103, 16).
in(103, 17).
in(103, 19).
in(103, 20).
in(103, 24).
in(103, 25).
in(103, 33).
in(103, 34).
in(103, 36).
in(103, 37).
in(103, 38).
in(103, 40).
in(103, 42).
in(103, 48).
in(103, 50).
in(103, 53).
in(103, 59).
in(103, 62).
in(103, 63).
in(103, 65).
in(103, 66).
in(103, 69).
in(103, 70).
in(104, 33).
in(104, 66).
in(104, 67).
in(104, 69).
in(104, 70).
in(104, 41).
in(104, 42).
in(104, 11).
in(104, 43).
in(104, 48).
in(104, 17).
in(104, 49).
in(104, 51).
in(104, 20).
in(104, 53).
in(104, 56).
in(104, 29).
in(105, 2).
in(105, 4).
in(105, 7).
in(105, 9).
in(105, 12).
in(105, 16).
in(105, 18).
in(105, 23).
in(105, 26).
in(105, 27).
in(105, 29).
in(105, 32).
in(105, 33).
in(105, 34).
in(105, 36).
in(105, 37).
in(105, 41).
in(105, 45).
in(105, 46).
in(105, 47).
in(105, 50).
in(105, 52).
in(105, 56).
in(105, 59).
in(105, 62).
in(105, 63).
in(105, 64).
in(105, 65).
in(105, 69).
in(106, 2).
in(106, 4).
in(106, 6).
in(106, 9).
in(106, 15).
in(106, 17).
in(106, 18).
in(106, 20).
in(106, 21).
in(106, 32).
in(106, 33).
in(106, 40).
in(106, 41).
in(106, 44).
in(106, 47).
in(106, 48).
in(106, 50).
in(106, 54).
in(106, 56).
in(106, 58).
in(106, 59).
in(106, 60).
in(106, 63).
in(107, 3).
in(107, 5).
in(107, 9).
in(107, 13).
in(107, 14).
in(107, 15).
in(107, 16).
in(107, 17).
in(107, 21).
in(107, 22).
in(107, 25).
in(107, 26).
in(107, 27).
in(107, 28).
in(107, 30).
in(107, 33).
in(107, 36).
in(107, 41).
in(107, 44).
in(107, 49).
in(107, 50).
in(107, 57).
in(107, 61).
in(107, 69).
weight(1, 6).
weight(2, 5).
weight(3, 4).
weight(4, 3).
weight(5, 1).
weight(6, 5).
weight(7, 1).
weight(8, 2).
weight(9, 6).
weight(10, 1).
weight(11, 6).
weight(12, 1).
weight(13, 4).
weight(14, 4).
weight(15, 6).
weight(16, 6).
weight(17, 2).
weight(18, 6).
weight(19, 1).
weight(20, 5).
weight(21, 4).
weight(22, 2).
weight(23, 5).
weight(24, 4).
weight(25, 4).
weight(26, 6).
weight(27, 1).
weight(28, 6).
weight(29, 5).
weight(30, 5).
weight(31, 2).
weight(32, 5).
weight(33, 6).
weight(34, 2).
weight(35, 5).
weight(36, 4).
weight(37, 1).
weight(38, 6).
weight(39, 6).
weight(40, 1).
weight(41, 6).
weight(42, 1).
weight(43, 3).
weight(44, 2).
weight(45, 3).
weight(46, 5).
weight(47, 5).
weight(48, 4).
weight(49, 3).
weight(50, 6).
weight(51, 3).
weight(52, 2).
weight(53, 6).
weight(54, 6).
weight(55, 1).
weight(56, 4).
weight(57, 2).
weight(58, 3).
weight(59, 1).
weight(60, 2).
weight(61, 4).
weight(62, 2).
weight(63, 5).
weight(64, 5).
weight(65, 1).
weight(66, 1).
weight(67, 6).
weight(68, 4).
weight(69, 4).
weight(70, 4).
weight(71, 2).
weight(72, 3).
weight(73, 2).
weight(74, 2).
weight(75, 2).
weight(76, 6).
weight(77, 2).
weight(78, 2).
weight(79, 6).
weight(80, 6).
weight(81, 1).
weight(82, 5).
weight(83, 1).
weight(84, 5).
weight(85, 1).
weight(86, 2).
weight(87, 5).
weight(88, 3).
weight(89, 5).
weight(90, 3).
weight(91, 6).
weight(92, 6).
weight(93, 6).
weight(94, 6).
weight(95, 4).
weight(96, 1).
weight(97, 6).
weight(98, 5).
weight(99, 5).
weight(100, 3).
weight(101, 1).
weight(102, 2).
weight(103, 1).
weight(104, 4).
weight(105, 1).
weight(106, 4).
weight(107, 5).

{ choose(S) } :- set(S).
:- choose(S1), choose(S2), S1 < S2, in(S1,E), in(S2,E).
:~ not choose(S), weight(S,W). [W@1,S]
