elem(1..108).
set(1..167).
in(1, 1).
in(1, 2).
in(1, 3).
in(1, 4).
in(1, 5).
in(1, 6).
in(1, 11).
in(1, 13).
in(1, 15).
in(1, 27).
in(1, 28).
in(1, 30).
in(1, 32).
in(1, 34).
in(1, 35).
in(1, 36).
in(1, 38).
in(1, 48).
in(1, 49).
in(1, 50).
in(1, 54).
in(1, 55).
in(1, 56).
in(1, 57).
in(1, 58).
in(1, 59).
in(1, 61).
in(1, 63).
in(1, 66).
in(1, 69).
in(1, 72).
in(1, 75).
in(1, 77).
in(1, 82).
in(1, 83).
in(1, 84).
in(1, 85).
in(1, 86).
in(1, 89).
in(1, 91).
in(1, 92).
in(1, 93).
in(1, 94).
in(1, 102).
in(1, 104).
in(2, 2).
in(2, 4).
in(2, 5).
in(2, 8).
in(2, 9).
in(2, 10).
in(2, 14).
in(2, 16).
in(2, 17).
in(2, 18).
in(2, 19).
in(2, 24).
in(2, 26).
in(2, 30).
in(2, 36).
in(2, 38).
in(2, 39).
in(2, 40).
in(2, 43).
in(2, 46).
in(2, 48).
in(2, 49).
in(2, 51).
in(2, 53).
in(2, 54).
in(2, 60).
in(2, 68).
in(2, 71).
in(2, 77).
in(2, 78).
in(2, 80).
in(2, 81).
in(2, 83).
in(2, 89).
in(2, 90).
in(2, 91).
in(2, 93).
in(2, 94).
in(2, 97).
in(2, 98).
in(2, 99).
in(2, 103).
in(2, 104).
in(3, 7).
in(3, 8).
in(3, 9).
in(3, 10).
in(3, 14).
in(3, 15).
in(3, 18).
in(3, 19).
in(3, 21).
in(3, 23).
in(3, 24).
in(3, 25).
in(3, 27).
in(3, 29).
in(3, 31).
in(3, 32).
in(3, 33).
in(3, 34).
in(3, 35).
in(3, 39).
in(3, 42).
in(3, 45).
in(3, 51).
in(3, 53).
in(3, 59).
in(3, 63).
in(3, 71).
in(3, 74).
in(3, 76).
in(3, 77).
in(3, 78).
in(3, 80).
in(3, 97).
in(3, 101).
in(4, 2).
in(4, 3).
in(4, 6).
in(4, 15).
in(4, 17).
in(4, 21).
in(4, 25).
in(4, 26).
in(4, 29).
in(4, 31).
in(4, 34).
in(4, 36).
in(4, 38).
in(4, 39).
in(4, 46).
in(4, 47).
in(4, 48).
in(4, 50).
in(4, 51).
in(4, 52).
in(4, 54).
in(4, 58).
in(4, 60).
in(4, 63).
in(4, 68).
in(4, 74).
in(4, 78).
in(4, 79).
in(4, 83).
in(4, 84).
in(4, 94).
in(4, 98).
in(4, 99).
in(4, 102).
in(4, 103).
in(5, 2).
in(5, 6).
in(5, 7).
in(5, 9).
in(5, 14).
in(5, 15).
in(5, 16).
in(5, 20).
in(5, 21).
in(5, 30).
in(5, 31).
in(5, 32).
in(5, 33).
in(5, 37).
in(5, 39).
in(5, 44).
in(5, 46).
in(5, 48).
in(5, 49).
in(5, 50).
in(5, 54).
in(5, 59).
in(5, 62).
in(5, 63).
in(5, 64).
in(5, 65).
in(5, 66).
in(5, 67).
in(5, 68).
in(5, 69).
in(5, 70).
in(5, 71).
in(5, 76).
in(5, 82).
in(5, 83).
in(5, 85).
in(5, 89).
in(5, 90).
in(5, 93).
in(5, 94).
in(5, 95).
in(5, 99).
in(5, 100).
in(5, 102).
in(5, 103).
in(5, 105).
in(6, 1).
in(6, 3).
in(6, 7).
in(6, 8).
in(6, 11).
in(6, 12).
in(6, 14).
in(6, 17).
in(6, 20).
in(6, 31).
in(6, 37).
in(6, 41).
in(6, 43).
in(6, 52).
in(6, 53).
in(6, 54).
in(6, 56).
in(6, 63).
in(6, 64).
in(6, 65).
in(6, 68).
in(6, 70).
in(6, 71).
in(6, 76).
in(6, 77).
in(6, 85).
in(6, 90).
in(6, 92).
in(6, 93).
in(6, 96).
in(6, 97).
in(6, 101).
in(6, 106).
in(6, 107).
in(6, 108).
in(7, 6).
in(7, 10).
in(7, 17).
in(7, 23).
in(7, 25).
in(7, 27).
in(7, 29).
in(7, 31).
in(7, 33).
in(7, 38).
in(7, 40).
in(7, 45).
in(7, 46).
in(7, 54).
in(7, 57).
in(7, 58).
in(7, 64).
in(7, 65).
in(7, 70).
in(7, 76).
in(7, 82).
in(7, 83).
in(7, 84).
in(7, 85).
in(7, 94).
in(7, 95).
in(7, 97).
in(7, 98).
in(7, 99).
in(7, 103).
in(7, 107).
in(8, 1).
in(8, 2).
in(8, 4).
in(8, 5).
in(8, 15).
in(8, 16).
in(8, 18).
in(8, 20).
in(8, 21).
in(8, 29).
in(8, 31).
in(8, 34).
in(8, 35).
in(8, 36).
in(8, 38).
in(8, 39).
in(8, 41).
in(8, 42).
in(8, 43).
in(8, 44).
in(8, 46).
in(8, 47).
in(8, 48).
in(8, 50).
in(8, 57).
in(8, 69).
in(8, 75).
in(8, 79).
in(8, 80).
in(8, 83).
in(8, 88).
in(8, 94).
in(8, 102).
in(8, 108).
in(9, 1).
in(9, 3).
in(9, 7).
in(9, 10).
in(9, 11).
in(9, 16).
in(9, 20).
in(9, 21).
in(9, 24).
in(9, 27).
in(9, 28).
in(9, 30).
in(9, 33).
in(9, 34).
in(9, 38).
in(9, 46).
in(9, 49).
in(9, 50).
in(9, 54).
in(9, 59).
in(9, 60).
in(9, 73).
in(9, 75).
in(9, 77).
in(9, 78).
in(9, 86).
in(9, 96).
in(9, 97).
in(9, 98).
in(9, 99).
in(9, 101).
in(9, 102).
in(9, 107).
in(10, 1).
in(10, 8).
in(10, 11).
in(10, 17).
in(10, 23).
in(10, 27).
in(10, 28).
in(10, 30).
in(10, 31).
in(10, 37).
in(10, 39).
in(10, 48).
in(10, 49).
in(10, 51).
in(10, 57).
in(10, 59).
in(10, 71).
in(10, 73).
in(10, 74).
in(10, 76).
in(10, 81).
in(10, 86).
in(10, 89).
in(10, 96).
in(10, 100).
in(10, 101).
in(10, 102).
in(10, 104).
in(11, 1).
in(11, 2).
in(11, 4).
in(11, 7).
in(11, 8).
in(11, 11).
in(11, 13).
in(11, 16).
in(11, 18).
in(11, 19).
in(11, 22).
in(11, 25).
in(11, 26).
in(11, 30).
in(11, 34).
in(11, 35).
in(11, 37).
in(11, 38).
in(11, 44).
in(11, 46).
in(11, 47).
in(11, 49).
in(11, 50).
in(11, 53).
in(11, 55).
in(11, 56).
in(11, 58).
in(11, 61).
in(11, 62).
in(11, 67).
in(11, 72).
in(11, 73).
in(11, 79).
in(11, 80).
in(11, 81).
in(11, 85).
in(11, 87).
in(11, 88).
in(11, 91).
in(11, 92).
in(11, 93).
in(11, 95).
in(11, 102).
in(11, 105).
in(12, 1).
in(12, 5).
in(12, 7).
in(12, 9).
in(12, 11).
in(12, 20).
in(12, 23).
in(12, 31).
in(12, 34).
in(12, 35).
in(12, 36).
in(12, 43).
in(12, 47).
in(12, 48).
in(12, 52).
in(12, 60).
in(12, 61).
in(12, 65).
in(12, 66).
in(12, 68).
in(12, 69).
in(12, 76).
in(12, 85).
in(12, 86).
in(12, 92).
in(12, 95).
in(12, 97).
in(12, 98).
in(12, 100).
in(12, 104).
in(12, 105).
in(12, 107).
in(13, 2).
in(13, 4).
in(13, 16).
in(13, 18).
in(13, 20).
in(13, 22).
in(13, 31).
in(13, 37).
in(13, 40).
in(13, 43).
in(13, 46).
in(13, 49).
in(13, 51).
in(13, 53).
in(13, 62).
in(13, 66).
in(13, 71).
in(13, 74).
in(13, 78).
in(13, 81).
in(13, 83).
in(13, 84).
in(13, 86).
in(13, 92).
in(13, 93).
in(13, 97).
in(13, 98).
in(13, 99).
in(13, 101).
in(13, 103).
in(13, 104).
in(13, 107).
in(13, 108).
in(14, 2).
in(14, 5).
in(14, 6).
in(14, 7).
in(14, 11).
in(14, 14).
in(14, 16).
in(14, 24).
in(14, 27).
in(14, 28).
in(14, 29).
in(14, 38).
in(14, 40).
in(14, 41).
in(14, 42).
in(14, 45).
in(14, 48).
in(14, 50).
in(14, 54).
in(14, 61).
in(14, 65).
in(14, 73).
in(14, 74).
in(14, 75).
in(14, 76).
in(14, 78).
in(14, 82).
in(14, 90).
in(14, 97).
in(14, 99).
in(15, 1).
in(15, 5).
in(15, 12).
in(15, 13).
in(15, 17).
in(15, 20).
in(15, 22).
in(15, 25).
in(15, 27).
in(15, 31).
in(15, 33).
in(15, 34).
in(15, 39).
in(15, 43).
in(15, 44).
in(15, 46).
in(15, 47).
in(15, 50).
in(15, 51).
in(15, 55).
in(15, 56).
in(15, 59).
in(15, 61).
in(15, 71).
in(15, 73).
in(15, 74).
in(15, 87).
in(15, 93).
in(15, 95).
in(16, 3).
in(16, 6).
in(16, 8).
in(16, 11).
in(16, 12).
in(16, 13).
in(16, 16).
in(16, 17).
in(16, 24).
in(16, 25).
in(16, 29).
in(16, 31).
in(16, 34).
in(16, 35).
in(16, 36).
in(16, 37).
in(16, 42).
in(16, 46).
in(16, 49).
in(16, 51).
in(16, 52).
in(16, 53).
in(16, 55).
in(16, 56).
in(16, 57).
in(16, 61).
in(16, 64).
in(16, 69).
in(16, 74).
in(16, 75).
in(16, 77).
in(16, 83).
in(16, 84).
in(16, 86).
in(16, 87).
in(16, 89).
in(16, 95).
in(16, 96).
in(16, 97).
in(16, 100).
in(16, 102).
in(16, 107).
in(17, 3).
in(17, 7).
in(17, 9).
in(17, 10).
in(17, 11).
in(17, 14).
in(17, 30).
in(17, 31).
in(17, 32).
in(17, 37).
in(17, 38).
in(17, 44).
in(17, 45).
in(17, 48).
in(17, 51).
in(17, 52).
in(17, 53).
in(17, 56).
in(17, 57).
in(17, 60).
in(17, 62).
in(17, 63).
in(17, 72).
in(17, 79).
in(17, 85).
in(17, 90).
in(17, 91).
in(17, 93).
in(17, 99).
in(17, 103).
in(17, 106).
in(17, 108).
in(18, 1).
in(18, 2).
in(18, 4).
in(18, 8).
in(18, 12).
in(18, 15).
in(18, 16).
in(18, 17).
in(18, 20).
in(18, 25).
in(18, 26).
in(18, 29).
in(18, 41).
in(18, 42).
in(18, 45).
in(18, 46).
in(18, 47).
in(18, 50).
in(18, 53).
in(18, 60).
in(18, 67).
in(18, 69).
in(18, 73).
in(18, 74).
in(18, 75).
in(18, 76).
in(18, 78).
in(18, 80).
in(18, 81).
in(18, 83).
in(18, 84).
in(18, 86).
in(18, 88).
in(18, 92).
in(18, 93).
in(18, 96).
in(18, 101).
in(18, 106).
in(18, 107).
in(18, 108).
in(19, 4).
in(19, 6).
in(19, 8).
in(19, 10).
in(19, 12).
in(19, 16).
in(19, 17).
in(19, 18).
in(19, 19).
in(19, 20).
in(19, 21).
in(19, 22).
in(19, 33).
in(19, 35).
in(19, 46).
in(19, 47).
in(19, 48).
in(19, 52).
in(19, 54).
in(19, 63).
in(19, 72).
in(19, 73).
in(19, 77).
in(19, 81).
in(19, 82).
in(19, 83).
in(19, 88).
in(19, 89).
in(19, 91).
in(19, 92).
in(19, 93).
in(19, 95).
in(19, 96).
in(19, 98).
in(19, 101).
in(19, 102).
in(20, 3).
in(20, 5).
in(20, 9).
in(20, 11).
in(20, 26).
in(20, 27).
in(20, 39).
in(20, 41).
in(20, 42).
in(20, 43).
in(20, 45).
in(20, 46).
in(20, 48).
in(20, 51).
in(20, 52).
in(20, 56).
in(20, 64).
in(20, 65).
in(20, 70).
in(20, 76).
in(20, 82).
in(20, 83).
in(20, 84).
in(20, 87).
in(20, 89).
in(20, 91).
in(20, 95).
in(20, 98).
in(20, 103).
in(20, 104).
in(20, 105).
in(20, 106).
in(20, 107).
in(21, 1).
in(21, 2).
in(21, 5).
in(21, 6).
in(21, 10).
in(21, 13).
in(21, 14).
in(21, 23).
in(21, 24).
in(21, 27).
in(21, 32).
in(21, 37).
in(21, 39).
in(21, 41).
in(21, 48).
in(21, 49).
in(21, 52).
in(21, 59).
in(21, 63).
in(21, 65).
in(21, 66).
in(21, 67).
in(21, 70).
in(21, 72).
in(21, 73).
in(21, 74).
in(21, 75).
in(21, 76).
in(21, 79).
in(21, 81).
in(21, 84).
in(21, 88).
in(21, 90).
in(21, 96).
in(21, 99).
in(21, 103).
in(21, 107).
in(22, 1).
in(22, 2).
in(22, 10).
in(22, 12).
in(22, 15).
in(22, 19).
in(22, 25).
in(22, 27).
in(22, 30).
in(22, 31).
in(22, 34).
in(22, 36).
in(22, 40).
in(22, 43).
in(22, 46).
in(22, 47).
in(22, 48).
in(22, 49).
in(22, 51).
in(22, 52).
in(22, 54).
in(22, 56).
in(22, 58).
in(22, 61).
in(22, 66).
in(22, 67).
in(22, 69).
in(22, 73).
in(22, 76).
in(22, 77).
in(22, 83).
in(22, 87).
in(22, 89).
in(22, 91).
in(22, 92).
in(22, 96).
in(22, 99).
in(22, 100).
in(22, 102).
in(23, 2).
in(23, 4).
in(23, 17).
in(23, 32).
in(23, 39).
in(23, 42).
in(23, 45).
in(23, 48).
in(23, 49).
in(23, 52).
in(23, 61).
in(23, 63).
in(23, 68).
in(23, 72).
in(23, 77).
in(23, 79).
in(23, 81).
in(23, 82).
in(23, 90).
in(23, 98).
in(23, 103).
in(23, 104).
in(23, 105).
in(23, 107).
in(24, 2).
in(24, 5).
in(24, 6).
in(24, 8).
in(24, 11).
in(24, 14).
in(24, 15).
in(24, 20).
in(24, 23).
in(24, 24).
in(24, 35).
in(24, 36).
in(24, 39).
in(24, 43).
in(24, 45).
in(24, 46).
in(24, 54).
in(24, 58).
in(24, 63).
in(24, 64).
in(24, 66).
in(24, 70).
in(24, 71).
in(24, 75).
in(24, 77).
in(24, 78).
in(24, 79).
in(24, 81).
in(24, 82).
in(24, 85).
in(24, 94).
in(24, 103).
in(24, 105).
in(24, 106).
in(25, 3).
in(25, 7).
in(25, 12).
in(25, 14).
in(25, 20).
in(25, 23).
in(25, 24).
in(25, 27).
in(25, 32).
in(25, 34).
in(25, 37).
in(25, 38).
in(25, 47).
in(25, 48).
in(25, 49).
in(25, 52).
in(25, 56).
in(25, 57).
in(25, 58).
in(25, 59).
in(25, 61).
in(25, 64).
in(25, 66).
in(25, 68).
in(25, 71).
in(25, 77).
in(25, 78).
in(25, 79).
in(25, 84).
in(25, 85).
in(25, 90).
in(25, 91).
in(25, 92).
in(25, 93).
in(25, 100).
in(25, 108).
in(26, 1).
in(26, 4).
in(26, 6).
in(26, 14).
in(26, 15).
in(26, 16).
in(26, 17).
in(26, 20).
in(26, 23).
in(26, 27).
in(26, 32).
in(26, 35).
in(26, 36).
in(26, 37).
in(26, 38).
in(26, 39).
in(26, 40).
in(26, 43).
in(26, 50).
in(26, 51).
in(26, 52).
in(26, 55).
in(26, 57).
in(26, 62).
in(26, 66).
in(26, 67).
in(26, 68).
in(26, 71).
in(26, 78).
in(26, 83).
in(26, 89).
in(26, 92).
in(26, 93).
in(26, 97).
in(26, 100).
in(26, 104).
in(27, 4).
in(27, 5).
in(27, 6).
in(27, 8).
in(27, 10).
in(27, 12).
in(27, 13).
in(27, 20).
in(27, 22).
in(27, 23).
in(27, 26).
in(27, 27).
in(27, 29).
in(27, 30).
in(27, 36).
in(27, 42).
in(27, 46).
in(27, 49).
in(27, 56).
in(27, 59).
in(27, 64).
in(27, 69).
in(27, 70).
in(27, 72).
in(27, 77).
in(27, 80).
in(27, 83).
in(27, 85).
in(27, 86).
in(27, 87).
in(27, 88).
in(27, 91).
in(27, 94).
in(27, 97).
in(27, 101).
in(27, 102).
in(28, 2).
in(28, 8).
in(28, 9).
in(28, 11).
in(28, 12).
in(28, 14).
in(28, 18).
in(28, 19).
in(28, 21).
in(28, 23).
in(28, 28).
in(28, 32).
in(28, 35).
in(28, 43).
in(28, 45).
in(28, 47).
in(28, 49).
in(28, 57).
in(28, 67).
in(28, 71).
in(28, 82).
in(28, 86).
in(28, 87).
in(28, 88).
in(28, 91).
in(28, 96).
in(28, 97).
in(28, 103).
in(28, 104).
in(28, 105).
in(28, 108).
in(29, 3).
in(29, 9).
in(29, 10).
in(29, 15).
in(29, 17).
in(29, 18).
in(29, 21).
in(29, 22).
in(29, 26).
in(29, 27).
in(29, 29).
in(29, 32).
in(29, 38).
in(29, 40).
in(29, 41).
in(29, 45).
in(29, 55).
in(29, 59).
in(29, 60).
in(29, 65).
in(29, 68).
in(29, 72).
in(29, 80).
in(29, 84).
in(29, 88).
in(29, 93).
in(29, 95).
in(29, 97).
in(29, 101).
in(29, 104).
in(30, 3).
in(30, 5).
in(30, 8).
in(30, 10).
in(30, 19).
in(30, 22).
in(30, 25).
in(30, 39).
in(30, 46).
in(30, 47).
in(30, 54).
in(30, 57).
in(30, 58).
in(30, 60).
in(30, 61).
in(30, 63).
in(30, 65).
in(30, 67).
in(30, 70).
in(30, 72).
in(30, 73).
in(30, 76).
in(30, 80).
in(30, 82).
in(30, 84).
in(30, 89).
in(30, 91).
in(30, 92).
in(30, 96).
in(30, 97).
in(30, 98).
in(30, 102).
in(30, 104).
in(30, 107).
in(30, 108).
in(31, 2).
in(31, 6).
in(31, 7).
in(31, 8).
in(31, 14).
in(31, 15).
in(31, 16).
in(31, 20).
in(31, 26).
in(31, 28).
in(31, 29).
in(31, 30).
in(31, 32).
in(31, 35).
in(31, 37).
in(31, 42).
in(31, 46).
in(31, 49).
in(31, 52).
in(31, 55).
in(31, 59).
in(31, 63).
in(31, 69).
in(31, 72).
in(31, 75).
in(31, 76).
in(31, 78).
in(31, 79).
in(31, 81).
in(31, 83).
in(31, 84).
in(31, 88).
in(31, 93).
in(31, 95).
in(31, 99).
in(31, 103).
in(31, 106).
in(32, 6).
in(32, 7).
in(32, 9).
in(32, 11).
in(32, 12).
in(32, 13).
in(32, 18).
in(32, 19).
in(32, 23).
in(32, 24).
in(32, 26).
in(32, 27).
in(32, 31).
in(32, 35).
in(32, 36).
in(32, 37).
in(32, 39).
in(32, 41).
in(32, 43).
in(32, 48).
in(32, 50).
in(32, 52).
in(32, 56).
in(32, 61).
in(32, 62).
in(32, 73).
in(32, 78).
in(32, 79).
in(32, 85).
in(32, 86).
in(32, 93).
in(32, 97).
in(32, 100).
in(32, 101).
in(32, 102).
in(32, 106).
in(32, 107).
in(33, 1).
in(33, 2).
in(33, 3).
in(33, 12).
in(33, 14).
in(33, 20).
in(33, 25).
in(33, 26).
in(33, 28).
in(33, 40).
in(33, 43).
in(33, 44).
in(33, 45).
in(33, 47).
in(33, 50).
in(33, 51).
in(33, 53).
in(33, 56).
in(33, 65).
in(33, 66).
in(33, 68).
in(33, 71).
in(33, 78).
in(33, 90).
in(33, 91).
in(33, 93).
in(33, 97).
in(33, 104).
in(33, 105).
in(33, 106).
in(34, 2).
in(34, 3).
in(34, 5).
in(34, 6).
in(34, 10).
in(34, 11).
in(34, 12).
in(34, 18).
in(34, 19).
in(34, 27).
in(34, 35).
in(34, 38).
in(34, 39).
in(34, 40).
in(34, 42).
in(34, 43).
in(34, 47).
in(34, 48).
in(34, 49).
in(34, 55).
in(34, 60).
in(34, 62).
in(34, 65).
in(34, 66).
in(34, 73).
in(34, 78).
in(34, 80).
in(34, 81).
in(34, 82).
in(34, 83).
in(34, 84).
in(34, 87).
in(34, 89).
in(34, 92).
in(34, 98).
in(34, 99).
in(34, 103).
in(34, 108).
in(35, 1).
in(35, 2).
in(35, 6).
in(35, 7).
in(35, 13).
in(35, 15).
in(35, 16).
in(35, 18).
in(35, 19).
in(35, 22).
in(35, 25).
in(35, 27).
in(35, 29).
in(35, 34).
in(35, 44).
in(35, 45).
in(35, 46).
in(35, 48).
in(35, 50).
in(35, 52).
in(35, 54).
in(35, 56).
in(35, 57).
in(35, 71).
in(35, 73).
in(35, 80).
in(35, 81).
in(35, 83).
in(35, 84).
in(35, 86).
in(35, 87).
in(35, 93).
in(35, 97).
in(35, 98).
in(35, 108).
in(36, 4).
in(36, 6).
in(36, 8).
in(36, 12).
in(36, 13).
in(36, 14).
in(36, 26).
in(36, 27).
in(36, 29).
in(36, 31).
in(36, 32).
in(36, 41).
in(36, 42).
in(36, 44).
in(36, 51).
in(36, 58).
in(36, 62).
in(36, 68).
in(36, 73).
in(36, 74).
in(36, 76).
in(36, 79).
in(36, 82).
in(36, 88).
in(36, 93).
in(36, 99).
in(36, 100).
in(36, 101).
in(36, 104).
in(36, 108).
in(37, 5).
in(37, 12).
in(37, 15).
in(37, 17).
in(37, 19).
in(37, 22).
in(37, 26).
in(37, 27).
in(37, 28).
in(37, 31).
in(37, 33).
in(37, 41).
in(37, 43).
in(37, 45).
in(37, 47).
in(37, 49).
in(37, 52).
in(37, 55).
in(37, 57).
in(37, 71).
in(37, 72).
in(37, 73).
in(37, 78).
in(37, 80).
in(37, 82).
in(37, 83).
in(37, 85).
in(37, 87).
in(37, 89).
in(37, 92).
in(37, 94).
in(37, 104).
in(37, 105).
in(37, 107).
in(37, 108).
in(38, 2).
in(38, 3).
in(38, 4).
in(38, 8).
in(38, 9).
in(38, 13).
in(38, 16).
in(38, 17).
in(38, 19).
in(38, 24).
in(38, 25).
in(38, 27).
in(38, 34).
in(38, 39).
in(38, 42).
in(38, 43).
in(38, 45).
in(38, 49).
in(38, 53).
in(38, 57).
in(38, 62).
in(38, 65).
in(38, 67).
in(38, 68).
in(38, 71).
in(38, 76).
in(38, 78).
in(38, 81).
in(38, 83).
in(38, 85).
in(38, 88).
in(38, 90).
in(38, 91).
in(38, 99).
in(38, 102).
in(38, 107).
in(39, 9).
in(39, 10).
in(39, 13).
in(39, 18).
in(39, 19).
in(39, 21).
in(39, 22).
in(39, 26).
in(39, 30).
in(39, 34).
in(39, 37).
in(39, 39).
in(39, 44).
in(39, 46).
in(39, 50).
in(39, 56).
in(39, 59).
in(39, 61).
in(39, 66).
in(39, 67).
in(39, 71).
in(39, 73).
in(39, 74).
in(39, 75).
in(39, 77).
in(39, 79).
in(39, 82).
in(39, 84).
in(39, 86).
in(39, 90).
in(39, 92).
in(39, 104).
in(39, 106).
in(40, 3).
in(40, 5).
in(40, 8).
in(40, 9).
in(40, 11).
in(40, 13).
in(40, 14).
in(40, 16).
in(40, 22).
in(40, 24).
in(40, 27).
in(40, 31).
in(40, 37).
in(40, 38).
in(40, 39).
in(40, 47).
in(40, 65).
in(40, 66).
in(40, 67).
in(40, 71).
in(40, 73).
in(40, 74).
in(40, 87).
in(40, 90).
in(40, 96).
in(40, 99).
in(40, 104).
in(40, 105).
in(41, 3).
in(41, 6).
in(41, 9).
in(41, 12).
in(41, 13).
in(41, 20).
in(41, 29).
in(41, 31).
in(41, 37).
in(41, 38).
in(41, 41).
in(41, 46).
in(41, 47).
in(41, 50).
in(41, 54).
in(41, 57).
in(41, 59).
in(41, 60).
in(41, 62).
in(41, 63).
in(41, 66).
in(41, 67).
in(41, 68).
in(41, 76).
in(41, 77).
in(41, 79).
in(41, 81).
in(41, 87).
in(41, 90).
in(41, 92).
in(41, 93).
in(41, 94).
in(41, 97).
in(41, 100).
in(41, 103).
in(42, 2).
in(42, 3).
in(42, 13).
in(42, 15).
in(42, 17).
in(42, 20).
in(42, 21).
in(42, 23).
in(42, 26).
in(42, 30).
in(42, 32).
in(42, 34).
in(42, 35).
in(42, 38).
in(42, 40).
in(42, 41).
in(42, 45).
in(42, 48).
in(42, 50).
in(42, 53).
in(42, 54).
in(42, 56).
in(42, 57).
in(42, 60).
in(42, 64).
in(42, 67).
in(42, 68).
in(42, 70).
in(42, 71).
in(42, 75).
in(42, 78).
in(42, 81).
in(42, 83).
in(42, 88).
in(42, 92).
in(42, 96).
in(42, 99).
in(42, 103).
in(42, 105).
in(42, 106).
in(42, 108).
in(43, 10).
in(43, 12).
in(43, 13).
in(43, 17).
in(43, 19).
in(43, 22).
in(43, 23).
in(43, 24).
in(43, 28).
in(43, 34).
in(43, 37).
in(43, 38).
in(43, 44).
in(43, 56).
in(43, 61).
in(43, 65).
in(43, 69).
in(43, 74).
in(43, 76).
in(43, 78).
in(43, 83).
in(43, 87).
in(43, 88).
in(43, 89).
in(43, 90).
in(43, 91).
in(43, 92).
in(43, 96).
in(43, 108).
in(44, 7).
in(44, 13).
in(44, 19).
in(44, 21).
in(44, 22).
in(44, 23).
in(44, 26).
in(44, 27).
in(44, 29).
in(44, 32).
in(44, 33).
in(44, 35).
in(44, 36).
in(44, 38).
in(44, 39).
in(44, 44).
in(44, 48).
in(44, 49).
in(44, 50).
in(44, 51).
in(44, 52).
in(44, 54).
in(44, 56).
in(44, 60).
in(44, 65).
in(44, 70).
in(44, 72).
in(44, 74).
in(44, 79).
in(44, 84).
in(44, 85).
in(44, 94).
in(44, 95).
in(44, 96).
in(44, 98).
in(44, 103).
in(44, 108).
in(45, 2).
in(45, 4).
in(45, 5).
in(45, 8).
in(45, 10).
in(45, 16).
in(45, 17).
in(45, 18).
in(45, 21).
in(45, 27).
in(45, 29).
in(45, 30).
in(45, 32).
in(45, 41).
in(45, 47).
in(45, 48).
in(45, 53).
in(45, 60).
in(45, 61).
in(45, 64).
in(45, 68).
in(45, 70).
in(45, 73).
in(45, 80).
in(45, 90).
in(45, 91).
in(45, 95).
in(45, 96).
in(45, 101).
in(45, 103).
in(45, 104).
in(46, 1).
in(46, 3).
in(46, 8).
in(46, 9).
in(46, 10).
in(46, 26).
in(46, 27).
in(46, 32).
in(46, 34).
in(46, 35).
in(46, 36).
in(46, 43).
in(46, 44).
in(46, 48).
in(46, 57).
in(46, 58).
in(46, 68).
in(46, 71).
in(46, 76).
in(46, 77).
in(46, 78).
in(46, 81).
in(46, 83).
in(46, 89).
in(46, 90).
in(46, 91).
in(46, 92).
in(46, 93).
in(46, 96).
in(46, 100).
in(46, 105).
in(46, 108).
in(47, 1).
in(47, 6).
in(47, 13).
in(47, 15).
in(47, 16).
in(47, 17).
in(47, 23).
in(47, 24).
in(47, 28).
in(47, 29).
in(47, 37).
in(47, 38).
in(47, 43).
in(47, 45).
in(47, 46).
in(47, 47).
in(47, 50).
in(47, 51).
in(47, 58).
in(47, 60).
in(47, 66).
in(47, 68).
in(47, 70).
in(47, 71).
in(47, 73).
in(47, 86).
in(47, 92).
in(47, 95).
in(47, 97).
in(47, 98).
in(47, 99).
in(47, 102).
in(48, 2).
in(48, 4).
in(48, 5).
in(48, 6).
in(48, 8).
in(48, 11).
in(48, 14).
in(48, 15).
in(48, 19).
in(48, 23).
in(48, 24).
in(48, 28).
in(48, 33).
in(48, 34).
in(48, 35).
in(48, 37).
in(48, 39).
in(48, 41).
in(48, 47).
in(48, 50).
in(48, 52).
in(48, 53).
in(48, 61).
in(48, 63).
in(48, 67).
in(48, 68).
in(48, 79).
in(48, 82).
in(48, 83).
in(48, 84).
in(48, 90).
in(48, 95).
in(48, 97).
in(48, 102).
in(48, 107).
in(49, 1).
in(49, 3).
in(49, 4).
in(49, 5).
in(49, 10).
in(49, 14).
in(49, 24).
in(49, 25).
in(49, 28).
in(49, 30).
in(49, 38).
in(49, 40).
in(49, 45).
in(49, 47).
in(49, 51).
in(49, 52).
in(49, 54).
in(49, 58).
in(49, 59).
in(49, 66).
in(49, 70).
in(49, 71).
in(49, 74).
in(49, 77).
in(49, 78).
in(49, 79).
in(49, 81).
in(49, 82).
in(49, 87).
in(49, 91).
in(49, 94).
in(49, 102).
in(50, 1).
in(50, 9).
in(50, 14).
in(50, 18).
in(50, 25).
in(50, 27).
in(50, 30).
in(50, 33).
in(50, 42).
in(50, 43).
in(50, 45).
in(50, 51).
in(50, 53).
in(50, 54).
in(50, 55).
in(50, 56).
in(50, 68).
in(50, 72).
in(50, 75).
in(50, 76).
in(50, 77).
in(50, 88).
in(50, 93).
in(50, 95).
in(50, 96).
in(50, 97).
in(50, 98).
in(50, 99).
in(50, 101).
in(50, 105).
in(50, 107).
in(50, 108).
in(51, 2).
in(51, 6).
in(51, 7).
in(51, 9).
in(51, 10).
in(51, 11).
in(51, 13).
in(51, 19).
in(51, 22).
in(51, 25).
in(51, 27).
in(51, 29).
in(51, 32).
in(51, 33).
in(51, 37).
in(51, 39).
in(51, 41).
in(51, 42).
in(51, 43).
in(51, 48).
in(51, 50).
in(51, 51).
in(51, 53).
in(51, 54).
in(51, 56).
in(51, 64).
in(51, 66).
in(51, 69).
in(51, 71).
in(51, 74).
in(51, 76).
in(51, 83).
in(51, 84).
in(51, 90).
in(51, 91).
in(51, 99).
in(51, 100).
in(51, 102).
in(51, 105).
in(51, 107).
in(52, 5).
in(52, 7).
in(52, 8).
in(52, 9).
in(52, 15).
in(52, 17).
in(52, 19).
in(52, 22).
in(52, 24).
in(52, 31).
in(52, 32).
in(52, 36).
in(52, 41).
in(52, 42).
in(52, 43).
in(52, 45).
in(52, 46).
in(52, 48).
in(52, 51).
in(52, 58).
in(52, 60).
in(52, 61).
in(52, 68).
in(52, 72).
in(52, 73).
in(52, 76).
in(52, 78).
in(52, 79).
in(52, 85).
in(52, 91).
in(52, 95).
in(52, 98).
in(52, 101).
in(52, 103).
in(52, 105).
in(52, 106).
in(52, 107).
in(52, 108).
in(53, 4).
in(53, 5).
in(53, 13).
in(53, 15).
in(53, 21).
in(53, 27).
in(53, 31).
in(53, 36).
in(53, 37).
in(53, 38).
in(53, 40).
in(53, 41).
in(53, 45).
in(53, 48).
in(53, 58).
in(53, 64).
in(53, 65).
in(53, 68).
in(53, 69).
in(53, 72).
in(53, 74).
in(53, 76).
in(53, 81).
in(53, 84).
in(53, 85).
in(53, 86).
in(53, 88).
in(53, 91).
in(53, 102).
in(53, 103).
in(53, 104).
in(54, 1).
in(54, 3).
in(54, 5).
in(54, 6).
in(54, 11).
in(54, 12).
in(54, 14).
in(54, 20).
in(54, 22).
in(54, 27).
in(54, 29).
in(54, 33).
in(54, 40).
in(54, 43).
in(54, 45).
in(54, 48).
in(54, 49).
in(54, 62).
in(54, 63).
in(54, 65).
in(54, 69).
in(54, 70).
in(54, 71).
in(54, 72).
in(54, 73).
in(54, 76).
in(54, 87).
in(54, 88).
in(54, 91).
in(54, 92).
in(54, 94).
in(54, 95).
in(54, 96).
in(54, 97).
in(54, 98).
in(54, 99).
in(54, 101).
in(54, 102).
in(54, 104).
in(55, 4).
in(55, 5).
in(55, 6).
in(55, 9).
in(55, 11).
in(55, 13).
in(55, 14).
in(55, 16).
in(55, 19).
in(55, 23).
in(55, 28).
in(55, 36).
in(55, 37).
in(55, 48).
in(55, 50).
in(55, 51).
in(55, 55).
in(55, 61).
in(55, 62).
in(55, 65).
in(55, 66).
in(55, 68).
in(55, 69).
in(55, 70).
in(55, 74).
in(55, 76).
in(55, 77).
in(55, 81).
in(55, 87).
in(55, 90).
in(55, 95).
in(55, 98).
in(55, 104).
in(55, 107).
in(56, 4).
in(56, 6).
in(56, 11).
in(56, 12).
in(56, 15).
in(56, 23).
in(56, 27).
in(56, 28).
in(56, 30).
in(56, 31).
in(56, 32).
in(56, 36).
in(56, 41).
in(56, 43).
in(56, 45).
in(56, 47).
in(56, 49).
in(56, 51).
in(56, 58).
in(56, 60).
in(56, 61).
in(56, 63).
in(56, 64).
in(56, 69).
in(56, 73).
in(56, 76).
in(56, 80).
in(56, 84).
in(56, 85).
in(56, 86).
in(56, 90).
in(56, 92).
in(56, 96).
in(56, 100).
in(57, 2).
in(57, 4).
in(57, 6).
in(57, 13).
in(57, 16).
in(57, 17).
in(57, 18).
in(57, 20).
in(57, 31).
in(57, 32).
in(57, 40).
in(57, 47).
in(57, 52).
in(57, 53).
in(57, 56).
in(57, 57).
in(57, 61).
in(57, 76).
in(57, 78).
in(57, 81).
in(57, 82).
in(57, 84).
in(57, 85).
in(57, 91).
in(57, 93).
in(57, 94).
in(57, 95).
in(57, 96).
in(57, 97).
in(57, 100).
in(57, 102).
in(57, 108).
in(58, 1).
in(58, 2).
in(58, 3).
in(58, 5).
in(58, 7).
in(58, 10).
in(58, 15).
in(58, 16).
in(58, 20).
in(58, 23).
in(58, 24).
in(58, 26).
in(58, 27).
in(58, 32).
in(58, 33).
in(58, 37).
in(58, 41).
in(58, 42).
in(58, 48).
in(58, 49).
in(58, 54).
in(58, 55).
in(58, 61).
in(58, 62).
in(58, 64).
in(58, 65).
in(58, 67).
in(58, 70).
in(58, 72).
in(58, 74).
in(58, 76).
in(58, 79).
in(58, 84).
in(58, 85).
in(58, 89).
in(58, 91).
in(58, 92).
in(58, 96).
in(58, 97).
in(58, 98).
in(58, 100).
in(58, 101).
in(59, 5).
in(59, 8).
in(59, 15).
in(59, 20).
in(59, 24).
in(59, 25).
in(59, 27).
in(59, 31).
in(59, 32).
in(59, 34).
in(59, 39).
in(59, 43).
in(59, 44).
in(59, 55).
in(59, 56).
in(59, 58).
in(59, 62).
in(59, 64).
in(59, 69).
in(59, 71).
in(59, 74).
in(59, 75).
in(59, 76).
in(59, 78).
in(59, 79).
in(59, 83).
in(59, 86).
in(59, 89).
in(59, 91).
in(59, 93).
in(59, 95).
in(59, 97).
in(59, 98).
in(59, 99).
in(59, 107).
in(60, 6).
in(60, 9).
in(60, 10).
in(60, 12).
in(60, 13).
in(60, 16).
in(60, 19).
in(60, 21).
in(60, 25).
in(60, 32).
in(60, 40).
in(60, 42).
in(60, 43).
in(60, 48).
in(60, 51).
in(60, 57).
in(60, 59).
in(60, 61).
in(60, 62).
in(60, 64).
in(60, 67).
in(60, 68).
in(60, 77).
in(60, 80).
in(60, 82).
in(60, 83).
in(60, 94).
in(60, 101).
in(60, 105).
in(60, 108).
in(61, 4).
in(61, 6).
in(61, 8).
in(61, 14).
in(61, 19).
in(61, 20).
in(61, 21).
in(61, 23).
in(61, 24).
in(61, 30).
in(61, 31).
in(61, 33).
in(61, 39).
in(61, 42).
in(61, 47).
in(61, 48).
in(61, 49).
in(61, 50).
in(61, 55).
in(61, 56).
in(61, 61).
in(61, 62).
in(61, 63).
in(61, 64).
in(61, 65).
in(61, 71).
in(61, 78).
in(61, 83).
in(61, 84).
in(61, 87).
in(61, 93).
in(61, 94).
in(61, 97).
in(61, 102).
in(61, 104).
in(61, 106).
in(62, 6).
in(62, 7).
in(62, 10).
in(62, 12).
in(62, 23).
in(62, 27).
in(62, 29).
in(62, 35).
in(62, 37).
in(62, 39).
in(62, 41).
in(62, 49).
in(62, 50).
in(62, 53).
in(62, 55).
in(62, 57).
in(62, 59).
in(62, 61).
in(62, 68).
in(62, 69).
in(62, 71).
in(62, 75).
in(62, 79).
in(62, 80).
in(62, 82).
in(62, 83).
in(62, 85).
in(62, 88).
in(62, 93).
in(62, 97).
in(62, 103).
in(62, 105).
in(63, 2).
in(63, 3).
in(63, 14).
in(63, 17).
in(63, 18).
in(63, 22).
in(63, 24).
in(63, 34).
in(63, 35).
in(63, 38).
in(63, 39).
in(63, 42).
in(63, 43).
in(63, 45).
in(63, 50).
in(63, 64).
in(63, 68).
in(63, 70).
in(63, 74).
in(63, 81).
in(63, 84).
in(63, 86).
in(63, 91).
in(63, 95).
in(63, 100).
in(63, 103).
in(63, 107).
in(64, 1).
in(64, 2).
in(64, 3).
in(64, 6).
in(64, 7).
in(64, 10).
in(64, 11).
in(64, 18).
in(64, 19).
in(64, 20).
in(64, 25).
in(64, 27).
in(64, 28).
in(64, 29).
in(64, 34).
in(64, 37).
in(64, 40).
in(64, 42).
in(64, 43).
in(64, 46).
in(64, 49).
in(64, 52).
in(64, 55).
in(64, 59).
in(64, 61).
in(64, 62).
in(64, 65).
in(64, 72).
in(64, 74).
in(64, 76).
in(64, 79).
in(64, 85).
in(64, 86).
in(64, 88).
in(64, 92).
in(64, 94).
in(64, 101).
in(64, 104).
in(64, 107).
in(65, 1).
in(65, 6).
in(65, 10).
in(65, 17).
in(65, 21).
in(65, 22).
in(65, 26).
in(65, 29).
in(65, 30).
in(65, 31).
in(65, 41).
in(65, 42).
in(65, 44).
in(65, 46).
in(65, 48).
in(65, 49).
in(65, 55).
in(65, 56).
in(65, 63).
in(65, 64).
in(65, 65).
in(65, 67).
in(65, 70).
in(65, 74).
in(65, 75).
in(65, 76).
in(65, 77).
in(65, 78).
in(65, 80).
in(65, 81).
in(65, 83).
in(65, 84).
in(65, 88).
in(65, 93).
in(65, 94).
in(65, 96).
in(65, 99).
in(65, 103).
in(65, 104).
in(65, 106).
in(65, 107).
in(65, 108).
in(66, 1).
in(66, 4).
in(66, 10).
in(66, 11).
in(66, 12).
in(66, 14).
in(66, 17).
in(66, 20).
in(66, 21).
in(66, 29).
in(66, 34).
in(66, 37).
in(66, 39).
in(66, 42).
in(66, 45).
in(66, 46).
in(66, 47).
in(66, 49).
in(66, 50).
in(66, 51).
in(66, 53).
in(66, 55).
in(66, 59).
in(66, 66).
in(66, 70).
in(66, 73).
in(66, 76).
in(66, 77).
in(66, 78).
in(66, 79).
in(66, 81).
in(66, 88).
in(66, 101).
in(66, 105).
in(67, 2).
in(67, 3).
in(67, 5).
in(67, 9).
in(67, 11).
in(67, 13).
in(67, 16).
in(67, 18).
in(67, 21).
in(67, 29).
in(67, 30).
in(67, 32).
in(67, 35).
in(67, 36).
in(67, 41).
in(67, 46).
in(67, 47).
in(67, 48).
in(67, 52).
in(67, 53).
in(67, 54).
in(67, 60).
in(67, 70).
in(67, 75).
in(67, 77).
in(67, 80).
in(67, 89).
in(67, 94).
in(67, 104).
in(67, 107).
in(67, 108).
in(68, 1).
in(68, 17).
in(68, 23).
in(68, 24).
in(68, 25).
in(68, 26).
in(68, 30).
in(68, 31).
in(68, 35).
in(68, 39).
in(68, 42).
in(68, 44).
in(68, 48).
in(68, 55).
in(68, 58).
in(68, 59).
in(68, 60).
in(68, 65).
in(68, 70).
in(68, 71).
in(68, 80).
in(68, 81).
in(68, 85).
in(68, 88).
in(68, 89).
in(68, 92).
in(68, 97).
in(68, 104).
in(68, 106).
in(69, 3).
in(69, 5).
in(69, 6).
in(69, 10).
in(69, 13).
in(69, 15).
in(69, 20).
in(69, 24).
in(69, 27).
in(69, 30).
in(69, 33).
in(69, 35).
in(69, 37).
in(69, 38).
in(69, 39).
in(69, 41).
in(69, 50).
in(69, 53).
in(69, 56).
in(69, 59).
in(69, 60).
in(69, 62).
in(69, 65).
in(69, 67).
in(69, 70).
in(69, 73).
in(69, 74).
in(69, 81).
in(69, 90).
in(69, 91).
in(69, 94).
in(69, 95).
in(69, 106).
in(69, 107).
in(70, 2).
in(70, 4).
in(70, 8).
in(70, 10).
in(70, 12).
in(70, 14).
in(70, 17).
in(70, 19).
in(70, 23).
in(70, 25).
in(70, 29).
in(70, 30).
in(70, 32).
in(70, 33).
in(70, 34).
in(70, 37).
in(70, 38).
in(70, 41).
in(70, 43).
in(70, 44).
in(70, 48).
in(70, 49).
in(70, 50).
in(70, 52).
in(70, 55).
in(70, 56).
in(70, 59).
in(70, 60).
in(70, 62).
in(70, 64).
in(70, 66).
in(70, 71).
in(70, 74).
in(70, 77).
in(70, 78).
in(70, 83).
in(70, 88).
in(70, 91).
in(70, 92).
in(70, 93).
in(70, 101).
in(71, 2).
in(71, 5).
in(71, 7).
in(71, 8).
in(71, 13).
in(71, 16).
in(71, 20).
in(71, 25).
in(71, 29).
in(71, 33).
in(71, 34).
in(71, 36).
in(71, 42).
in(71, 43).
in(71, 52).
in(71, 55).
in(71, 56).
in(71, 57).
in(71, 59).
in(71, 61).
in(71, 67).
in(71, 69).
in(71, 72).
in(71, 74).
in(71, 78).
in(71, 80).
in(71, 84).
in(71, 86).
in(71, 87).
in(71, 88).
in(71, 90).
in(71, 101).
in(71, 105).
in(72, 6).
in(72, 9).
in(72, 18).
in(72, 20).
in(72, 27).
in(72, 28).
in(72, 32).
in(72, 33).
in(72, 38).
in(72, 39).
in(72, 40).
in(72, 42).
in(72, 44).
in(72, 45).
in(72, 47).
in(72, 49).
in(72, 50).
in(72, 51).
in(72, 55).
in(72, 64).
in(72, 65).
in(72, 67).
in(72, 69).
in(72, 71).
in(72, 73).
in(72, 85).
in(72, 87).
in(72, 93).
in(72, 96).
in(72, 101).
in(72, 104).
in(72, 105).
in(72, 108).
in(73, 1).
in(73, 7).
in(73, 8).
in(73, 14).
in(73, 15).
in(73, 17).
in(73, 18).
in(73, 22).
in(73, 26).
in(73, 30).
in(73, 31).
in(73, 32).
in(73, 35).
in(73, 38).
in(73, 41).
in(73, 42).
in(73, 47).
in(73, 51).
in(73, 52).
in(73, 61).
in(73, 64).
in(73, 67).
in(73, 68).
in(73, 69).
in(73, 75).
in(73, 77).
in(73, 79).
in(73, 82).
in(73, 83).
in(73, 88).
in(73, 91).
in(73, 101).
in(73, 107).
in(74, 6).
in(74, 7).
in(74, 12).
in(74, 15).
in(74, 20).
in(74, 23).
in(74, 24).
in(74, 28).
in(74, 30).
in(74, 33).
in(74, 35).
in(74, 40).
in(74, 43).
in(74, 44).
in(74, 45).
in(74, 56).
in(74, 60).
in(74, 61).
in(74, 63).
in(74, 64).
in(74, 65).
in(74, 68).
in(74, 69).
in(74, 70).
in(74, 73).
in(74, 78).
in(74, 81).
in(74, 83).
in(74, 92).
in(74, 97).
in(74, 99).
in(74, 100).
in(74, 104).
in(74, 105).
in(74, 106).
in(75, 1).
in(75, 4).
in(75, 8).
in(75, 9).
in(75, 11).
in(75, 16).
in(75, 22).
in(75, 24).
in(75, 26).
in(75, 29).
in(75, 30).
in(75, 34).
in(75, 35).
in(75, 38).
in(75, 42).
in(75, 43).
in(75, 44).
in(75, 46).
in(75, 48).
in(75, 56).
in(75, 60).
in(75, 64).
in(75, 65).
in(75, 68).
in(75, 69).
in(75, 72).
in(75, 79).
in(75, 82).
in(75, 84).
in(75, 87).
in(75, 89).
in(75, 91).
in(75, 97).
in(75, 98).
in(75, 106).
in(76, 9).
in(76, 12).
in(76, 13).
in(76, 15).
in(76, 16).
in(76, 17).
in(76, 22).
in(76, 23).
in(76, 28).
in(76, 32).
in(76, 38).
in(76, 41).
in(76, 47).
in(76, 48).
in(76, 50).
in(76, 54).
in(76, 63).
in(76, 64).
in(76, 68).
in(76, 71).
in(76, 72).
in(76, 75).
in(76, 77).
in(76, 82).
in(76, 85).
in(76, 86).
in(76, 87).
in(76, 88).
in(76, 93).
in(76, 95).
in(76, 96).
in(76, 98).
in(76, 99).
in(76, 103).
in(76, 108).
in(77, 2).
in(77, 3).
in(77, 6).
in(77, 7).
in(77, 10).
in(77, 14).
in(77, 20).
in(77, 22).
in(77, 23).
in(77, 24).
in(77, 25).
in(77, 30).
in(77, 35).
in(77, 40).
in(77, 41).
in(77, 42).
in(77, 44).
in(77, 49).
in(77, 63).
in(77, 67).
in(77, 68).
in(77, 69).
in(77, 70).
in(77, 72).
in(77, 76).
in(77, 77).
in(77, 79).
in(77, 81).
in(77, 83).
in(77, 86).
in(77, 93).
in(77, 100).
in(77, 102).
in(77, 105).
in(78, 8).
in(78, 10).
in(78, 16).
in(78, 18).
in(78, 19).
in(78, 20).
in(78, 21).
in(78, 22).
in(78, 26).
in(78, 29).
in(78, 30).
in(78, 31).
in(78, 34).
in(78, 38).
in(78, 41).
in(78, 44).
in(78, 46).
in(78, 47).
in(78, 50).
in(78, 53).
in(78, 54).
in(78, 61).
in(78, 66).
in(78, 69).
in(78, 70).
in(78, 71).
in(78, 72).
in(78, 75).
in(78, 79).
in(78, 80).
in(78, 82).
in(78, 83).
in(78, 86).
in(78, 89).
in(78, 92).
in(78, 94).
in(78, 96).
in(78, 103).
in(78, 104).
in(78, 107).
in(79, 1).
in(79, 3).
in(79, 5).
in(79, 6).
in(79, 7).
in(79, 8).
in(79, 11).
in(79, 16).
in(79, 17).
in(79, 23).
in(79, 24).
in(79, 25).
in(79, 28).
in(79, 29).
in(79, 32).
in(79, 34).
in(79, 35).
in(79, 45).
in(79, 46).
in(79, 49).
in(79, 50).
in(79, 52).
in(79, 54).
in(79, 58).
in(79, 61).
in(79, 63).
in(79, 69).
in(79, 70).
in(79, 73).
in(79, 75).
in(79, 80).
in(79, 82).
in(79, 86).
in(79, 87).
in(79, 96).
in(79, 98).
in(79, 102).
in(79, 104).
in(79, 108).
in(80, 1).
in(80, 5).
in(80, 8).
in(80, 13).
in(80, 17).
in(80, 19).
in(80, 23).
in(80, 27).
in(80, 29).
in(80, 30).
in(80, 31).
in(80, 32).
in(80, 34).
in(80, 39).
in(80, 40).
in(80, 43).
in(80, 44).
in(80, 49).
in(80, 50).
in(80, 54).
in(80, 56).
in(80, 57).
in(80, 59).
in(80, 60).
in(80, 65).
in(80, 70).
in(80, 73).
in(80, 80).
in(80, 85).
in(80, 87).
in(80, 88).
in(80, 89).
in(80, 92).
in(80, 93).
in(80, 95).
in(80, 99).
in(80, 102).
in(80, 105).
in(80, 106).
in(81, 1).
in(81, 7).
in(81, 8).
in(81, 11).
in(81, 15).
in(81, 16).
in(81, 20).
in(81, 22).
in(81, 23).
in(81, 24).
in(81, 25).
in(81, 26).
in(81, 28).
in(81, 31).
in(81, 35).
in(81, 39).
in(81, 41).
in(81, 42).
in(81, 45).
in(81, 46).
in(81, 47).
in(81, 49).
in(81, 50).
in(81, 55).
in(81, 61).
in(81, 64).
in(81, 65).
in(81, 70).
in(81, 71).
in(81, 72).
in(81, 75).
in(81, 77).
in(81, 80).
in(81, 81).
in(81, 88).
in(81, 90).
in(81, 94).
in(81, 95).
in(81, 99).
in(81, 101).
in(81, 106).
in(82, 1).
in(82, 3).
in(82, 6).
in(82, 12).
in(82, 21).
in(82, 26).
in(82, 32).
in(82, 33).
in(82, 38).
in(82, 41).
in(82, 43).
in(82, 49).
in(82, 54).
in(82, 55).
in(82, 56).
in(82, 60).
in(82, 61).
in(82, 75).
in(82, 76).
in(82, 78).
in(82, 81).
in(82, 85).
in(82, 86).
in(82, 87).
in(82, 88).
in(82, 89).
in(82, 92).
in(82, 99).
in(82, 107).
in(83, 2).
in(83, 5).
in(83, 10).
in(83, 13).
in(83, 17).
in(83, 27).
in(83, 29).
in(83, 32).
in(83, 37).
in(83, 40).
in(83, 42).
in(83, 43).
in(83, 49).
in(83, 50).
in(83, 52).
in(83, 57).
in(83, 64).
in(83, 68).
in(83, 72).
in(83, 73).
in(83, 75).
in(83, 79).
in(83, 84).
in(83, 87).
in(83, 88).
in(83, 93).
in(83, 101).
in(83, 105).
in(83, 106).
in(84, 1).
in(84, 6).
in(84, 9).
in(84, 12).
in(84, 14).
in(84, 15).
in(84, 18).
in(84, 19).
in(84, 22).
in(84, 24).
in(84, 26).
in(84, 28).
in(84, 29).
in(84, 32).
in(84, 37).
in(84, 40).
in(84, 41).
in(84, 49).
in(84, 55).
in(84, 58).
in(84, 60).
in(84, 63).
in(84, 65).
in(84, 68).
in(84, 71).
in(84, 75).
in(84, 77).
in(84, 83).
in(84, 84).
in(84, 88).
in(84, 91).
in(84, 92).
in(84, 94).
in(84, 96).
in(84, 103).
in(84, 104).
in(84, 107).
in(84, 108).
in(85, 4).
in(85, 18).
in(85, 19).
in(85, 20).
in(85, 21).
in(85, 24).
in(85, 31).
in(85, 32).
in(85, 35).
in(85, 38).
in(85, 41).
in(85, 43).
in(85, 45).
in(85, 48).
in(85, 50).
in(85, 52).
in(85, 57).
in(85, 58).
in(85, 60).
in(85, 64).
in(85, 67).
in(85, 72).
in(85, 75).
in(85, 80).
in(85, 82).
in(85, 83).
in(85, 84).
in(85, 85).
in(85, 88).
in(85, 94).
in(85, 95).
in(85, 98).
in(85, 99).
in(85, 106).
in(85, 108).
in(86, 2).
in(86, 9).
in(86, 10).
in(86, 19).
in(86, 23).
in(86, 31).
in(86, 34).
in(86, 41).
in(86, 43).
in(86, 44).
in(86, 45).
in(86, 51).
in(86, 52).
in(86, 55).
in(86, 56).
in(86, 58).
in(86, 62).
in(86, 66).
in(86, 68).
in(86, 74).
in(86, 79).
in(86, 84).
in(86, 85).
in(86, 87).
in(86, 90).
in(86, 99).
in(86, 104).
in(86, 105).
in(86, 106).
in(86, 107).
in(86, 108).
in(87, 1).
in(87, 11).
in(87, 12).
in(87, 14).
in(87, 16).
in(87, 17).
in(87, 22).
in(87, 28).
in(87, 29).
in(87, 30).
in(87, 32).
in(87, 37).
in(87, 39).
in(87, 41).
in(87, 42).
in(87, 45).
in(87, 46).
in(87, 49).
in(87, 53).
in(87, 54).
in(87, 58).
in(87, 61).
in(87, 66).
in(87, 67).
in(87, 72).
in(87, 75).
in(87, 76).
in(87, 78).
in(87, 85).
in(87, 94).
in(87, 95).
in(87, 104).
in(87, 105).
in(87, 106).
in(88, 7).
in(88, 8).
in(88, 9).
in(88, 10).
in(88, 13).
in(88, 15).
in(88, 16).
in(88, 28).
in(88, 29).
in(88, 35).
in(88, 37).
in(88, 40).
in(88, 42).
in(88, 45).
in(88, 52).
in(88, 53).
in(88, 59).
in(88, 60).
in(88, 61).
in(88, 77).
in(88, 82).
in(88, 83).
in(88, 88).
in(88, 103).
in(88, 104).
in(88, 105).
in(88, 107).
in(89, 5).
in(89, 6).
in(89, 7).
in(89, 8).
in(89, 9).
in(89, 10).
in(89, 11).
in(89, 13).
in(89, 19).
in(89, 20).
in(89, 23).
in(89, 24).
in(89, 25).
in(89, 26).
in(89, 34).
in(89, 40).
in(89, 43).
in(89, 48).
in(89, 51).
in(89, 53).
in(89, 58).
in(89, 62).
in(89, 70).
in(89, 74).
in(89, 80).
in(89, 82).
in(89, 83).
in(89, 84).
in(89, 87).
in(89, 94).
in(89, 95).
in(89, 96).
in(89, 99).
in(89, 101).
in(89, 102).
in(89, 108).
in(90, 4).
in(90, 6).
in(90, 11).
in(90, 13).
in(90, 14).
in(90, 16).
in(90, 18).
in(90, 19).
in(90, 22).
in(90, 24).
in(90, 34).
in(90, 36).
in(90, 37).
in(90, 41).
in(90, 42).
in(90, 46).
in(90, 48).
in(90, 52).
in(90, 54).
in(90, 59).
in(90, 64).
in(90, 65).
in(90, 68).
in(90, 73).
in(90, 75).
in(90, 76).
in(90, 77).
in(90, 78).
in(90, 83).
in(90, 92).
in(90, 93).
in(90, 98).
in(90, 101).
in(90, 104).
in(90, 105).
in(90, 106).
in(90, 107).
in(91, 2).
in(91, 3).
in(91, 15).
in(91, 17).
in(91, 18).
in(91, 19).
in(91, 20).
in(91, 21).
in(91, 24).
in(91, 29).
in(91, 30).
in(91, 32).
in(91, 33).
in(91, 34).
in(91, 35).
in(91, 38).
in(91, 47).
in(91, 48).
in(91, 55).
in(91, 60).
in(91, 62).
in(91, 63).
in(91, 64).
in(91, 66).
in(91, 72).
in(91, 74).
in(91, 75).
in(91, 78).
in(91, 79).
in(91, 81).
in(91, 84).
in(91, 89).
in(91, 90).
in(91, 93).
in(91, 102).
in(91, 107).
in(92, 3).
in(92, 8).
in(92, 9).
in(92, 10).
in(92, 14).
in(92, 19).
in(92, 21).
in(92, 23).
in(92, 25).
in(92, 32).
in(92, 48).
in(92, 50).
in(92, 51).
in(92, 53).
in(92, 57).
in(92, 59).
in(92, 69).
in(92, 76).
in(92, 77).
in(92, 78).
in(92, 86).
in(92, 91).
in(92, 100).
in(92, 101).
in(92, 107).
in(93, 7).
in(93, 13).
in(93, 21).
in(93, 22).
in(93, 23).
in(93, 24).
in(93, 25).
in(93, 39).
in(93, 48).
in(93, 55).
in(93, 57).
in(93, 58).
in(93, 60).
in(93, 63).
in(93, 65).
in(93, 67).
in(93, 68).
in(93, 72).
in(93, 74).
in(93, 77).
in(93, 78).
in(93, 79).
in(93, 80).
in(93, 85).
in(93, 86).
in(93, 87).
in(93, 92).
in(93, 95).
in(93, 99).
in(93, 103).
in(93, 107).
in(94, 1).
in(94, 2).
in(94, 5).
in(94, 7).
in(94, 12).
in(94, 14).
in(94, 17).
in(94, 19).
in(94, 22).
in(94, 23).
in(94, 30).
in(94, 31).
in(94, 40).
in(94, 46).
in(94, 47).
in(94, 48).
in(94, 50).
in(94, 60).
in(94, 64).
in(94, 65).
in(94, 67).
in(94, 68).
in(94, 71).
in(94, 76).
in(94, 77).
in(94, 80).
in(94, 83).
in(94, 84).
in(94, 88).
in(94, 91).
in(94, 94).
in(94, 95).
in(94, 96).
in(94, 98).
in(94, 104).
in(94, 108).
in(95, 2).
in(95, 5).
in(95, 10).
in(95, 11).
in(95, 14).
in(95, 16).
in(95, 17).
in(95, 18).
in(95, 19).
in(95, 23).
in(95, 24).
in(95, 25).
in(95, 26).
in(95, 29).
in(95, 32).
in(95, 38).
in(95, 45).
in(95, 50).
in(95, 53).
in(95, 54).
in(95, 58).
in(95, 60).
in(95, 61).
in(95, 65).
in(95, 69).
in(95, 70).
in(95, 74).
in(95, 77).
in(95, 79).
in(95, 80).
in(95, 82).
in(95, 93).
in(95, 98).
in(95, 102).
in(95, 103).
in(95, 104).
in(96, 3).
in(96, 8).
in(96, 11).
in(96, 14).
in(96, 16).
in(96, 19).
in(96, 24).
in(96, 25).
in(96, 26).
in(96, 27).
in(96, 31).
in(96, 32).
in(96, 34).
in(96, 37).
in(96, 38).
in(96, 41).
in(96, 42).
in(96, 43).
in(96, 45).
in(96, 47).
in(96, 53).
in(96, 56).
in(96, 58).
in(96, 61).
in(96, 70).
in(96, 71).
in(96, 80).
in(96, 82).
in(96, 86).
in(96, 93).
in(96, 100).
in(96, 101).
in(96, 104).
in(96, 106).
in(97, 4).
in(97, 5).
in(97, 12).
in(97, 13).
in(97, 17).
in(97, 19).
in(97, 20).
in(97, 21).
in(97, 23).
in(97, 25).
in(97, 31).
in(97, 32).
in(97, 36).
in(97, 40).
in(97, 41).
in(97, 42).
in(97, 44).
in(97, 50).
in(97, 53).
in(97, 56).
in(97, 59).
in(97, 62).
in(97, 67).
in(97, 69).
in(97, 70).
in(97, 71).
in(97, 76).
in(97, 78).
in(97, 79).
in(97, 89).
in(97, 90).
in(97, 92).
in(97, 94).
in(97, 96).
in(97, 100).
in(97, 101).
in(97, 102).
in(97, 105).
in(98, 6).
in(98, 8).
in(98, 15).
in(98, 20).
in(98, 23).
in(98, 27).
in(98, 29).
in(98, 32).
in(98, 34).
in(98, 37).
in(98, 43).
in(98, 44).
in(98, 45).
in(98, 49).
in(98, 50).
in(98, 53).
in(98, 55).
in(98, 59).
in(98, 67).
in(98, 68).
in(98, 70).
in(98, 71).
in(98, 72).
in(98, 77).
in(98, 79).
in(98, 81).
in(98, 86).
in(98, 87).
in(98, 89).
in(98, 91).
in(98, 93).
in(98, 97).
in(98, 99).
in(98, 102).
in(98, 103).
in(98, 104).
in(98, 106).
in(99, 1).
in(99, 4).
in(99, 5).
in(99, 8).
in(99, 14).
in(99, 18).
in(99, 26).
in(99, 32).
in(99, 36).
in(99, 37).
in(99, 38).
in(99, 39).
in(99, 41).
in(99, 43).
in(99, 49).
in(99, 50).
in(99, 52).
in(99, 68).
in(99, 70).
in(99, 73).
in(99, 77).
in(99, 79).
in(99, 83).
in(99, 85).
in(99, 86).
in(99, 87).
in(99, 90).
in(99, 91).
in(99, 93).
in(99, 95).
in(99, 99).
in(99, 101).
in(99, 102).
in(99, 105).
in(99, 107).
in(100, 1).
in(100, 2).
in(100, 4).
in(100, 11).
in(100, 12).
in(100, 17).
in(100, 21).
in(100, 24).
in(100, 30).
in(100, 35).
in(100, 37).
in(100, 38).
in(100, 41).
in(100, 42).
in(100, 49).
in(100, 50).
in(100, 51).
in(100, 52).
in(100, 56).
in(100, 57).
in(100, 58).
in(100, 60).
in(100, 62).
in(100, 68).
in(100, 73).
in(100, 75).
in(100, 78).
in(100, 80).
in(100, 81).
in(100, 84).
in(100, 85).
in(100, 86).
in(100, 87).
in(100, 96).
in(100, 99).
in(100, 100).
in(100, 108).
in(101, 1).
in(101, 2).
in(101, 3).
in(101, 7).
in(101, 14).
in(101, 16).
in(101, 17).
in(101, 20).
in(101, 22).
in(101, 23).
in(101, 26).
in(101, 28).
in(101, 29).
in(101, 30).
in(101, 37).
in(101, 40).
in(101, 45).
in(101, 46).
in(101, 47).
in(101, 49).
in(101, 55).
in(101, 56).
in(101, 58).
in(101, 59).
in(101, 61).
in(101, 64).
in(101, 65).
in(101, 67).
in(101, 68).
in(101, 72).
in(101, 77).
in(101, 82).
in(101, 86).
in(101, 89).
in(101, 91).
in(101, 92).
in(101, 95).
in(101, 96).
in(101, 100).
in(101, 101).
in(101, 103).
in(101, 107).
in(102, 2).
in(102, 4).
in(102, 7).
in(102, 9).
in(102, 16).
in(102, 18).
in(102, 27).
in(102, 28).
in(102, 31).
in(102, 34).
in(102, 35).
in(102, 36).
in(102, 37).
in(102, 39).
in(102, 42).
in(102, 43).
in(102, 44).
in(102, 49).
in(102, 50).
in(102, 53).
in(102, 55).
in(102, 56).
in(102, 59).
in(102, 60).
in(102, 61).
in(102, 65).
in(102, 66).
in(102, 67).
in(102, 72).
in(102, 74).
in(102, 83).
in(102, 84).
in(102, 86).
in(102, 88).
in(102, 92).
in(102, 99).
in(102, 101).
in(102, 105).
in(103, 1).
in(103, 4).
in(103, 6).
in(103, 10).
in(103, 17).
in(103, 18).
in(103, 19).
in(103, 21).
in(103, 22).
in(103, 24).
in(103, 26).
in(103, 30).
in(103, 31).
in(103, 37).
in(103, 38).
in(103, 39).
in(103, 41).
in(103, 44).
in(103, 45).
in(103, 48).
in(103, 49).
in(103, 54).
in(103, 55).
in(103, 60).
in(103, 61).
in(103, 62).
in(103, 72).
in(103, 73).
in(103, 76).
in(103, 78).
in(103, 79).
in(103, 82).
in(103, 83).
in(103, 84).
in(103, 87).
in(103, 89).
in(103, 95).
in(103, 104).
in(103, 106).
in(103, 108).
in(104, 1).
in(104, 3).
in(104, 5).
in(104, 8).
in(104, 11).
in(104, 12).
in(104, 17).
in(104, 21).
in(104, 24).
in(104, 26).
in(104, 27).
in(104, 35).
in(104, 41).
in(104, 43).
in(104, 44).
in(104, 49).
in(104, 53).
in(104, 54).
in(104, 60).
in(104, 61).
in(104, 62).
in(104, 63).
in(104, 68).
in(104, 77).
in(104, 78).
in(104, 82).
in(104, 87).
in(104, 88).
in(104, 92).
in(104, 94).
in(104, 95).
in(104, 96).
in(104, 97).
in(104, 99).
in(105, 2).
in(105, 3).
in(105, 9).
in(105, 13).
in(105, 18).
in(105, 23).
in(105, 24).
in(105, 26).
in(105, 27).
in(105, 28).
in(105, 32).
in(105, 34).
in(105, 35).
in(105, 36).
in(105, 37).
in(105, 38).
in(105, 39).
in(105, 42).
in(105, 44).
in(105, 45).
in(105, 48).
in(105, 49).
in(105, 52).
in(105, 53).
in(105, 54).
in(105, 61).
in(105, 66).
in(105, 75).
in(105, 79).
in(105, 84).
in(105, 85).
in(105, 88).
in(105, 89).
in(105, 91).
in(105, 96).
in(105, 99).
in(105, 100).
in(105, 101).
in(105, 102).
in(105, 103).
in(105, 105).
in(106, 3).
in(106, 11).
in(106, 12).
in(106, 13).
in(106, 14).
in(106, 17).
in(106, 19).
in(106, 27).
in(106, 29).
in(106, 32).
in(106, 34).
in(106, 45).
in(106, 49).
in(106, 50).
in(106, 51).
in(106, 52).
in(106, 54).
in(106, 56).
in(106, 59).
in(106, 60).
in(106, 69).
in(106, 74).
in(106, 78).
in(106, 79).
in(106, 80).
in(106, 82).
in(106, 83).
in(106, 84).
in(106, 86).
in(106, 87).
in(106, 90).
in(106, 94).
in(106, 98).
in(106, 103).
in(106, 104).
in(106, 108).
in(107, 2).
in(107, 5).
in(107, 8).
in(107, 15).
in(107, 16).
in(107, 19).
in(107, 20).
in(107, 21).
in(107, 27).
in(107, 31).
in(107, 33).
in(107, 34).
in(107, 35).
in(107, 36).
in(107, 37).
in(107, 38).
in(107, 39).
in(107, 40).
in(107, 45).
in(107, 46).
in(107, 47).
in(107, 49).
in(107, 50).
in(107, 51).
in(107, 52).
in(107, 53).
in(107, 60).
in(107, 63).
in(107, 64).
in(107, 65).
in(107, 74).
in(107, 77).
in(107, 78).
in(107, 81).
in(107, 83).
in(107, 84).
in(107, 85).
in(107, 92).
in(107, 94).
in(107, 95).
in(107, 99).
in(108, 2).
in(108, 4).
in(108, 5).
in(108, 8).
in(108, 17).
in(108, 21).
in(108, 22).
in(108, 23).
in(108, 24).
in(108, 26).
in(108, 31).
in(108, 32).
in(108, 36).
in(108, 38).
in(108, 40).
in(108, 41).
in(108, 48).
in(108, 51).
in(108, 55).
in(108, 59).
in(108, 60).
in(108, 64).
in(108, 66).
in(108, 67).
in(108, 68).
in(108, 73).
in(108, 74).
in(108, 75).
in(108, 80).
in(108, 82).
in(108, 84).
in(108, 88).
in(108, 98).
in(108, 106).
in(108, 107).
in(109, 2).
in(109, 3).
in(109, 4).
in(109, 9).
in(109, 10).
in(109, 13).
in(109, 15).
in(109, 19).
in(109, 25).
in(109, 30).
in(109, 34).
in(109, 36).
in(109, 37).
in(109, 40).
in(109, 43).
in(109, 44).
in(109, 46).
in(109, 51).
in(109, 53).
in(109, 54).
in(109, 55).
in(109, 56).
in(109, 59).
in(109, 61).
in(109, 64).
in(109, 66).
in(109, 70).
in(109, 76).
in(109, 82).
in(109, 91).
in(109, 94).
in(109, 95).
in(109, 96).
in(109, 104).
in(109, 106).
in(109, 108).
in(110, 2).
in(110, 3).
in(110, 8).
in(110, 14).
in(110, 18).
in(110, 20).
in(110, 23).
in(110, 24).
in(110, 30).
in(110, 31).
in(110, 35).
in(110, 36).
in(110, 39).
in(110, 44).
in(110, 53).
in(110, 54).
in(110, 58).
in(110, 63).
in(110, 65).
in(110, 67).
in(110, 68).
in(110, 69).
in(110, 74).
in(110, 79).
in(110, 80).
in(110, 81).
in(110, 82).
in(110, 83).
in(110, 90).
in(110, 93).
in(110, 94).
in(110, 96).
in(110, 103).
in(110, 104).
in(110, 108).
in(111, 1).
in(111, 5).
in(111, 8).
in(111, 11).
in(111, 12).
in(111, 14).
in(111, 18).
in(111, 21).
in(111, 25).
in(111, 33).
in(111, 35).
in(111, 39).
in(111, 40).
in(111, 41).
in(111, 44).
in(111, 45).
in(111, 46).
in(111, 50).
in(111, 52).
in(111, 54).
in(111, 59).
in(111, 61).
in(111, 63).
in(111, 64).
in(111, 65).
in(111, 70).
in(111, 71).
in(111, 73).
in(111, 75).
in(111, 80).
in(111, 81).
in(111, 82).
in(111, 83).
in(111, 90).
in(111, 91).
in(111, 92).
in(111, 93).
in(111, 94).
in(111, 99).
in(111, 100).
in(111, 106).
in(111, 107).
in(112, 2).
in(112, 7).
in(112, 8).
in(112, 10).
in(112, 13).
in(112, 14).
in(112, 17).
in(112, 18).
in(112, 23).
in(112, 26).
in(112, 27).
in(112, 29).
in(112, 32).
in(112, 35).
in(112, 37).
in(112, 39).
in(112, 47).
in(112, 48).
in(112, 56).
in(112, 60).
in(112, 62).
in(112, 63).
in(112, 65).
in(112, 66).
in(112, 67).
in(112, 69).
in(112, 71).
in(112, 78).
in(112, 80).
in(112, 82).
in(112, 83).
in(112, 85).
in(112, 89).
in(112, 91).
in(112, 97).
in(112, 98).
in(112, 99).
in(112, 104).
in(112, 105).
in(113, 2).
in(113, 4).
in(113, 6).
in(113, 7).
in(113, 9).
in(113, 10).
in(113, 11).
in(113, 12).
in(113, 15).
in(113, 22).
in(113, 24).
in(113, 25).
in(113, 28).
in(113, 29).
in(113, 31).
in(113, 33).
in(113, 37).
in(113, 39).
in(113, 40).
in(113, 42).
in(113, 45).
in(113, 46).
in(113, 47).
in(113, 48).
in(113, 51).
in(113, 53).
in(113, 56).
in(113, 60).
in(113, 61).
in(113, 62).
in(113, 64).
in(113, 66).
in(113, 67).
in(113, 68).
in(113, 69).
in(113, 71).
in(113, 72).
in(113, 74).
in(113, 81).
in(113, 89).
in(113, 93).
in(113, 94).
in(113, 95).
in(113, 98).
in(113, 99).
in(113, 100).
in(113, 103).
in(113, 104).
in(113, 106).
in(114, 2).
in(114, 3).
in(114, 10).
in(114, 13).
in(114, 14).
in(114, 17).
in(114, 18).
in(114, 19).
in(114, 21).
in(114, 22).
in(114, 23).
in(114, 27).
in(114, 28).
in(114, 32).
in(114, 36).
in(114, 40).
in(114, 44).
in(114, 45).
in(114, 46).
in(114, 47).
in(114, 49).
in(114, 59).
in(114, 62).
in(114, 64).
in(114, 68).
in(114, 69).
in(114, 72).
in(114, 75).
in(114, 79).
in(114, 80).
in(114, 81).
in(114, 84).
in(114, 85).
in(114, 96).
in(114, 97).
in(114, 98).
in(114, 99).
in(114, 108).
in(115, 1).
in(115, 5).
in(115, 6).
in(115, 7).
in(115, 16).
in(115, 17).
in(115, 18).
in(115, 22).
in(115, 24).
in(115, 26).
in(115, 27).
in(115, 31).
in(115, 32).
in(115, 34).
in(115, 44).
in(115, 49).
in(115, 50).
in(115, 51).
in(115, 57).
in(115, 58).
in(115, 61).
in(115, 62).
in(115, 63).
in(115, 68).
in(115, 72).
in(115, 74).
in(115, 75).
in(115, 79).
in(115, 81).
in(115, 82).
in(115, 89).
in(115, 91).
in(115, 95).
in(115, 97).
in(115, 98).
in(115, 103).
in(116, 5).
in(116, 6).
in(116, 10).
in(116, 13).
in(116, 15).
in(116, 17).
in(116, 18).
in(116, 19).
in(116, 21).
in(116, 23).
in(116, 28).
in(116, 29).
in(116, 30).
in(116, 32).
in(116, 34).
in(116, 35).
in(116, 36).
in(116, 37).
in(116, 41).
in(116, 42).
in(116, 44).
in(116, 46).
in(116, 48).
in(116, 49).
in(116, 52).
in(116, 53).
in(116, 54).
in(116, 58).
in(116, 61).
in(116, 63).
in(116, 64).
in(116, 72).
in(116, 77).
in(116, 79).
in(116, 85).
in(116, 87).
in(116, 88).
in(116, 91).
in(116, 92).
in(116, 98).
in(116, 99).
in(116, 102).
in(117, 2).
in(117, 3).
in(117, 4).
in(117, 10).
in(117, 13).
in(117, 17).
in(117, 18).
in(117, 20).
in(117, 21).
in(117, 22).
in(117, 23).
in(117, 25).
in(117, 28).
in(117, 30).
in(117, 31).
in(117, 33).
in(117, 38).
in(117, 45).
in(117, 47).
in(117, 48).
in(117, 51).
in(117, 53).
in(117, 55).
in(117, 58).
in(117, 61).
in(117, 65).
in(117, 68).
in(117, 73).
in(117, 76).
in(117, 77).
in(117, 79).
in(117, 80).
in(117, 82).
in(117, 95).
in(117, 104).
in(117, 106).
in(117, 107).
in(118, 5).
in(118, 7).
in(118, 11).
in(118, 16).
in(118, 19).
in(118, 20).
in(118, 22).
in(118, 23).
in(118, 27).
in(118, 28).
in(118, 29).
in(118, 30).
in(118, 31).
in(118, 32).
in(118, 37).
in(118, 42).
in(118, 44).
in(118, 45).
in(118, 46).
in(118, 49).
in(118, 51).
in(118, 63).
in(118, 67).
in(118, 72).
in(118, 73).
in(118, 74).
in(118, 79).
in(118, 81).
in(118, 86).
in(118, 88).
in(118, 90).
in(118, 91).
in(118, 96).
in(118, 103).
in(118, 105).
in(118, 108).
in(119, 3).
in(119, 4).
in(119, 7).
in(119, 15).
in(119, 16).
in(119, 18).
in(119, 20).
in(119, 22).
in(119, 23).
in(119, 27).
in(119, 30).
in(119, 34).
in(119, 39).
in(119, 41).
in(119, 45).
in(119, 51).
in(119, 57).
in(119, 60).
in(119, 61).
in(119, 68).
in(119, 70).
in(119, 72).
in(119, 73).
in(119, 78).
in(119, 79).
in(119, 89).
in(119, 90).
in(119, 91).
in(119, 92).
in(119, 94).
in(119, 98).
in(119, 100).
in(120, 2).
in(120, 3).
in(120, 5).
in(120, 7).
in(120, 8).
in(120, 12).
in(120, 15).
in(120, 19).
in(120, 20).
in(120, 22).
in(120, 23).
in(120, 25).
in(120, 28).
in(120, 29).
in(120, 30).
in(120, 32).
in(120, 33).
in(120, 36).
in(120, 39).
in(120, 42).
in(120, 45).
in(120, 46).
in(120, 47).
in(120, 54).
in(120, 55).
in(120, 56).
in(120, 57).
in(120, 58).
in(120, 59).
in(120, 62).
in(120, 63).
in(120, 65).
in(120, 70).
in(120, 71).
in(120, 75).
in(120, 77).
in(120, 79).
in(120, 80).
in(120, 82).
in(120, 83).
in(120, 85).
in(120, 87).
in(120, 89).
in(120, 90).
in(120, 91).
in(120, 104).
in(121, 1).
in(121, 5).
in(121, 7).
in(121, 13).
in(121, 14).
in(121, 16).
in(121, 17).
in(121, 18).
in(121, 19).
in(121, 22).
in(121, 26).
in(121, 33).
in(121, 34).
in(121, 35).
in(121, 46).
in(121, 47).
in(121, 52).
in(121, 59).
in(121, 62).
in(121, 63).
in(121, 67).
in(121, 69).
in(121, 70).
in(121, 76).
in(121, 82).
in(121, 85).
in(121, 86).
in(121, 90).
in(121, 99).
in(121, 103).
in(122, 3).
in(122, 15).
in(122, 16).
in(122, 19).
in(122, 20).
in(122, 23).
in(122, 30).
in(122, 32).
in(122, 36).
in(122, 37).
in(122, 38).
in(122, 39).
in(122, 41).
in(122, 42).
in(122, 43).
in(122, 47).
in(122, 49).
in(122, 50).
in(122, 51).
in(122, 58).
in(122, 60).
in(122, 62).
in(122, 65).
in(122, 70).
in(122, 74).
in(122, 75).
in(122, 84).
in(122, 85).
in(122, 89).
in(122, 91).
in(122, 103).
in(122, 106).
in(123, 3).
in(123, 8).
in(123, 9).
in(123, 11).
in(123, 12).
in(123, 14).
in(123, 15).
in(123, 16).
in(123, 22).
in(123, 23).
in(123, 24).
in(123, 27).
in(123, 31).
in(123, 37).
in(123, 38).
in(123, 39).
in(123, 43).
in(123, 52).
in(123, 53).
in(123, 59).
in(123, 61).
in(123, 63).
in(123, 64).
in(123, 74).
in(123, 78).
in(123, 81).
in(123, 82).
in(123, 83).
in(123, 88).
in(123, 98).
in(123, 103).
in(124, 1).
in(124, 3).
in(124, 5).
in(124, 8).
in(124, 24).
in(124, 25).
in(124, 32).
in(124, 37).
in(124, 49).
in(124, 55).
in(124, 60).
in(124, 72).
in(124, 73).
in(124, 80).
in(124, 82).
in(124, 84).
in(124, 85).
in(124, 87).
in(124, 88).
in(124, 91).
in(124, 92).
in(124, 96).
in(124, 102).
in(124, 103).
in(124, 105).
in(125, 4).
in(125, 7).
in(125, 8).
in(125, 11).
in(125, 15).
in(125, 21).
in(125, 23).
in(125, 30).
in(125, 34).
in(125, 36).
in(125, 41).
in(125, 45).
in(125, 48).
in(125, 49).
in(125, 51).
in(125, 54).
in(125, 57).
in(125, 58).
in(125, 64).
in(125, 66).
in(125, 68).
in(125, 71).
in(125, 73).
in(125, 87).
in(125, 91).
in(125, 99).
in(125, 101).
in(125, 103).
in(125, 107).
in(126, 6).
in(126, 15).
in(126, 16).
in(126, 17).
in(126, 18).
in(126, 20).
in(126, 21).
in(126, 23).
in(126, 25).
in(126, 26).
in(126, 27).
in(126, 39).
in(126, 40).
in(126, 41).
in(126, 42).
in(126, 44).
in(126, 53).
in(126, 54).
in(126, 58).
in(126, 60).
in(126, 62).
in(126, 66).
in(126, 73).
in(126, 81).
in(126, 82).
in(126, 87).
in(126, 92).
in(126, 93).
in(126, 95).
in(126, 101).
in(126, 105).
in(126, 108).
in(127, 2).
in(127, 6).
in(127, 8).
in(127, 9).
in(127, 11).
in(127, 17).
in(127, 23).
in(127, 26).
in(127, 27).
in(127, 28).
in(127, 31).
in(127, 33).
in(127, 35).
in(127, 36).
in(127, 39).
in(127, 43).
in(127, 46).
in(127, 51).
in(127, 53).
in(127, 56).
in(127, 58).
in(127, 63).
in(127, 64).
in(127, 66).
in(127, 71).
in(127, 79).
in(127, 80).
in(127, 87).
in(127, 89).
in(127, 90).
in(127, 95).
in(127, 96).
in(127, 102).
in(127, 106).
in(127, 107).
in(128, 3).
in(128, 4).
in(128, 9).
in(128, 10).
in(128, 15).
in(128, 21).
in(128, 22).
in(128, 23).
in(128, 25).
in(128, 31).
in(128, 35).
in(128, 36).
in(128, 38).
in(128, 49).
in(128, 55).
in(128, 60).
in(128, 61).
in(128, 63).
in(128, 64).
in(128, 69).
in(128, 72).
in(128, 77).
in(128, 80).
in(128, 87).
in(128, 96).
in(128, 101).
in(128, 105).
in(128, 108).
in(129, 2).
in(129, 3).
in(129, 5).
in(129, 8).
in(129, 12).
in(129, 13).
in(129, 14).
in(129, 15).
in(129, 16).
in(129, 17).
in(129, 18).
in(129, 25).
in(129, 26).
in(129, 28).
in(129, 43).
in(129, 44).
in(129, 45).
in(129, 48).
in(129, 49).
in(129, 52).
in(129, 56).
in(129, 58).
in(129, 62).
in(129, 64).
in(129, 66).
in(129, 67).
in(129, 77).
in(129, 78).
in(129, 79).
in(129, 89).
in(129, 90).
in(129, 91).
in(129, 93).
in(129, 103).
in(130, 2).
in(130, 6).
in(130, 8).
in(130, 9).
in(130, 10).
in(130, 15).
in(130, 19).
in(130, 20).
in(130, 23).
in(130, 24).
in(130, 30).
in(130, 31).
in(130, 32).
in(130, 37).
in(130, 38).
in(130, 39).
in(130, 41).
in(130, 43).
in(130, 47).
in(130, 54).
in(130, 56).
in(130, 61).
in(130, 63).
in(130, 74).
in(130, 77).
in(130, 79).
in(130, 80).
in(130, 81).
in(130, 84).
in(130, 87).
in(130, 95).
in(130, 97).
in(130, 99).
in(130, 102).
in(130, 105).
in(130, 108).
in(131, 3).
in(131, 5).
in(131, 6).
in(131, 20).
in(131, 34).
in(131, 37).
in(131, 38).
in(131, 43).
in(131, 47).
in(131, 50).
in(131, 51).
in(131, 57).
in(131, 59).
in(131, 67).
in(131, 72).
in(131, 75).
in(131, 79).
in(131, 85).
in(131, 87).
in(131, 92).
in(131, 97).
in(131, 103).
in(131, 107).
in(132, 2).
in(132, 3).
in(132, 12).
in(132, 13).
in(132, 15).
in(132, 17).
in(132, 21).
in(132, 26).
in(132, 34).
in(132, 44).
in(132, 45).
in(132, 48).
in(132, 57).
in(132, 63).
in(132, 65).
in(132, 68).
in(132, 69).
in(132, 72).
in(132, 74).
in(132, 78).
in(132, 86).
in(132, 88).
in(132, 89).
in(132, 90).
in(132, 92).
in(132, 95).
in(132, 100).
in(132, 102).
in(132, 105).
in(132, 107).
in(133, 9).
in(133, 11).
in(133, 12).
in(133, 14).
in(133, 18).
in(133, 21).
in(133, 23).
in(133, 25).
in(133, 31).
in(133, 42).
in(133, 47).
in(133, 53).
in(133, 56).
in(133, 57).
in(133, 59).
in(133, 60).
in(133, 64).
in(133, 71).
in(133, 76).
in(133, 80).
in(133, 81).
in(133, 84).
in(133, 89).
in(133, 91).
in(133, 92).
in(133, 93).
in(133, 96).
in(133, 97).
in(133, 98).
in(133, 100).
in(134, 7).
in(134, 15).
in(134, 19).
in(134, 20).
in(134, 26).
in(134, 30).
in(134, 32).
in(134, 38).
in(134, 42).
in(134, 48).
in(134, 54).
in(134, 62).
in(134, 65).
in(134, 67).
in(134, 68).
in(134, 71).
in(134, 78).
in(134, 85).
in(134, 91).
in(134, 93).
in(134, 97).
in(134, 100).
in(134, 101).
in(134, 102).
in(134, 106).
in(135, 4).
in(135, 5).
in(135, 9).
in(135, 11).
in(135, 14).
in(135, 21).
in(135, 22).
in(135, 30).
in(135, 31).
in(135, 41).
in(135, 44).
in(135, 46).
in(135, 47).
in(135, 48).
in(135, 49).
in(135, 56).
in(135, 66).
in(135, 68).
in(135, 72).
in(135, 76).
in(135, 88).
in(135, 89).
in(135, 94).
in(135, 103).
in(135, 107).
in(136, 2).
in(136, 3).
in(136, 7).
in(136, 9).
in(136, 10).
in(136, 11).
in(136, 14).
in(136, 16).
in(136, 18).
in(136, 20).
in(136, 21).
in(136, 22).
in(136, 24).
in(136, 29).
in(136, 31).
in(136, 36).
in(136, 37).
in(136, 39).
in(136, 46).
in(136, 49).
in(136, 54).
in(136, 56).
in(136, 57).
in(136, 58).
in(136, 64).
in(136, 66).
in(136, 71).
in(136, 75).
in(136, 77).
in(136, 79).
in(136, 82).
in(136, 84).
in(136, 85).
in(136, 93).
in(136, 97).
in(136, 103).
in(136, 104).
in(136, 106).
in(136, 107).
in(136, 108).
in(137, 3).
in(137, 4).
in(137, 5).
in(137, 9).
in(137, 12).
in(137, 13).
in(137, 19).
in(137, 20).
in(137, 24).
in(137, 25).
in(137, 27).
in(137, 31).
in(137, 39).
in(137, 42).
in(137, 45).
in(137, 48).
in(137, 49).
in(137, 50).
in(137, 51).
in(137, 54).
in(137, 56).
in(137, 57).
in(137, 58).
in(137, 59).
in(137, 62).
in(137, 64).
in(137, 65).
in(137, 67).
in(137, 70).
in(137, 72).
in(137, 75).
in(137, 78).
in(137, 81).
in(137, 86).
in(137, 93).
in(137, 94).
in(137, 95).
in(137, 99).
in(137, 101).
in(137, 102).
in(137, 104).
in(137, 106).
in(137, 107).
in(138, 1).
in(138, 3).
in(138, 7).
in(138, 14).
in(138, 21).
in(138, 24).
in(138, 26).
in(138, 29).
in(138, 30).
in(138, 35).
in(138, 37).
in(138, 38).
in(138, 42).
in(138, 45).
in(138, 48).
in(138, 49).
in(138, 50).
in(138, 60).
in(138, 61).
in(138, 68).
in(138, 69).
in(138, 72).
in(138, 79).
in(138, 80).
in(138, 81).
in(138, 83).
in(138, 85).
in(138, 87).
in(138, 91).
in(138, 95).
in(138, 96).
in(138, 97).
in(138, 99).
in(138, 102).
in(138, 108).
in(139, 4).
in(139, 8).
in(139, 9).
in(139, 11).
in(139, 13).
in(139, 14).
in(139, 18).
in(139, 20).
in(139, 25).
in(139, 26).
in(139, 27).
in(139, 32).
in(139, 37).
in(139, 41).
in(139, 42).
in(139, 43).
in(139, 48).
in(139, 50).
in(139, 52).
in(139, 53).
in(139, 57).
in(139, 59).
in(139, 62).
in(139, 75).
in(139, 76).
in(139, 78).
in(139, 79).
in(139, 84).
in(139, 87).
in(139, 89).
in(139, 92).
in(139, 93).
in(139, 95).
in(139, 97).
in(139, 101).
in(139, 102).
in(139, 106).
in(139, 108).
in(140, 2).
in(140, 11).
in(140, 13).
in(140, 14).
in(140, 17).
in(140, 18).
in(140, 19).
in(140, 21).
in(140, 25).
in(140, 26).
in(140, 27).
in(140, 29).
in(140, 36).
in(140, 37).
in(140, 47).
in(140, 57).
in(140, 60).
in(140, 64).
in(140, 65).
in(140, 66).
in(140, 69).
in(140, 72).
in(140, 73).
in(140, 75).
in(140, 76).
in(140, 82).
in(140, 85).
in(140, 88).
in(140, 89).
in(140, 104).
in(140, 105).
in(140, 106).
in(141, 5).
in(141, 18).
in(141, 20).
in(141, 23).
in(141, 30).
in(141, 35).
in(141, 36).
in(141, 37).
in(141, 41).
in(141, 43).
in(141, 46).
in(141, 47).
in(141, 49).
in(141, 52).
in(141, 53).
in(141, 54).
in(141, 58).
in(141, 62).
in(141, 64).
in(141, 65).
in(141, 66).
in(141, 67).
in(141, 72).
in(141, 73).
in(141, 79).
in(141, 87).
in(141, 92).
in(141, 94).
in(141, 96).
in(141, 97).
in(141, 98).
in(141, 99).
in(141, 104).
in(141, 106).
in(142, 3).
in(142, 10).
in(142, 12).
in(142, 13).
in(142, 21).
in(142, 29).
in(142, 30).
in(142, 31).
in(142, 34).
in(142, 37).
in(142, 46).
in(142, 47).
in(142, 52).
in(142, 54).
in(142, 55).
in(142, 57).
in(142, 58).
in(142, 63).
in(142, 65).
in(142, 66).
in(142, 67).
in(142, 68).
in(142, 71).
in(142, 73).
in(142, 75).
in(142, 80).
in(142, 83).
in(142, 84).
in(142, 88).
in(142, 92).
in(142, 96).
in(142, 99).
in(142, 107).
in(142, 108).
in(143, 2).
in(143, 6).
in(143, 7).
in(143, 9).
in(143, 15).
in(143, 18).
in(143, 21).
in(143, 28).
in(143, 30).
in(143, 32).
in(143, 33).
in(143, 35).
in(143, 37).
in(143, 39).
in(143, 40).
in(143, 49).
in(143, 52).
in(143, 57).
in(143, 61).
in(143, 63).
in(143, 65).
in(143, 68).
in(143, 69).
in(143, 71).
in(143, 81).
in(143, 84).
in(143, 86).
in(143, 87).
in(143, 90).
in(143, 92).
in(143, 93).
in(143, 97).
in(143, 98).
in(143, 99).
in(143, 100).
in(143, 102).
in(143, 108).
in(144, 5).
in(144, 6).
in(144, 9).
in(144, 13).
in(144, 15).
in(144, 19).
in(144, 20).
in(144, 21).
in(144, 32).
in(144, 33).
in(144, 39).
in(144, 40).
in(144, 42).
in(144, 43).
in(144, 44).
in(144, 49).
in(144, 55).
in(144, 57).
in(144, 59).
in(144, 60).
in(144, 63).
in(144, 64).
in(144, 65).
in(144, 73).
in(144, 74).
in(144, 76).
in(144, 81).
in(144, 82).
in(144, 86).
in(144, 87).
in(144, 88).
in(144, 90).
in(144, 92).
in(144, 93).
in(144, 94).
in(144, 95).
in(144, 98).
in(144, 102).
in(144, 103).
in(144, 104).
in(144, 107).
in(145, 2).
in(145, 8).
in(145, 9).
in(145, 12).
in(145, 13).
in(145, 14).
in(145, 15).
in(145, 17).
in(145, 20).
in(145, 22).
in(145, 23).
in(145, 25).
in(145, 26).
in(145, 28).
in(145, 31).
in(145, 38).
in(145, 41).
in(145, 43).
in(145, 45).
in(145, 47).
in(145, 50).
in(145, 52).
in(145, 55).
in(145, 56).
in(145, 66).
in(145, 67).
in(145, 69).
in(145, 71).
in(145, 75).
in(145, 83).
in(145, 84).
in(145, 86).
in(145, 87).
in(145, 89).
in(145, 93).
in(145, 96).
in(145, 97).
in(145, 103).
in(145, 108).
in(146, 2).
in(146, 9).
in(146, 10).
in(146, 11).
in(146, 14).
in(146, 17).
in(146, 18).
in(146, 19).
in(146, 26).
in(146, 28).
in(146, 29).
in(146, 34).
in(146, 35).
in(146, 42).
in(146, 45).
in(146, 47).
in(146, 48).
in(146, 59).
in(146, 61).
in(146, 64).
in(146, 65).
in(146, 67).
in(146, 70).
in(146, 72).
in(146, 77).
in(146, 78).
in(146, 87).
in(146, 88).
in(146, 89).
in(146, 90).
in(146, 94).
in(146, 96).
in(146, 99).
in(146, 103).
in(146, 106).
in(146, 107).
in(146, 108).
in(147, 3).
in(147, 10).
in(147, 17).
in(147, 20).
in(147, 21).
in(147, 25).
in(147, 27).
in(147, 32).
in(147, 33).
in(147, 38).
in(147, 39).
in(147, 46).
in(147, 47).
in(147, 51).
in(147, 52).
in(147, 54).
in(147, 58).
in(147, 59).
in(147, 61).
in(147, 63).
in(147, 64).
in(147, 75).
in(147, 79).
in(147, 81).
in(147, 88).
in(147, 92).
in(147, 93).
in(147, 94).
in(147, 97).
in(147, 101).
in(147, 103).
in(148, 1).
in(148, 3).
in(148, 4).
in(148, 8).
in(148, 10).
in(148, 21).
in(148, 22).
in(148, 23).
in(148, 26).
in(148, 27).
in(148, 28).
in(148, 29).
in(148, 30).
in(148, 32).
in(148, 35).
in(148, 42).
in(148, 44).
in(148, 45).
in(148, 48).
in(148, 51).
in(148, 55).
in(148, 62).
in(148, 63).
in(148, 65).
in(148, 67).
in(148, 70).
in(148, 71).
in(148, 75).
in(148, 77).
in(148, 83).
in(148, 84).
in(148, 85).
in(148, 87).
in(148, 88).
in(148, 90).
in(148, 95).
in(148, 96).
in(148, 98).
in(148, 100).
in(148, 102).
in(148, 103).
in(148, 104).
in(148, 106).
in(149, 4).
in(149, 6).
in(149, 9).
in(149, 14).
in(149, 16).
in(149, 18).
in(149, 21).
in(149, 22).
in(149, 26).
in(149, 28).
in(149, 29).
in(149, 31).
in(149, 35).
in(149, 37).
in(149, 40).
in(149, 42).
in(149, 44).
in(149, 46).
in(149, 52).
in(149, 56).
in(149, 58).
in(149, 60).
in(149, 63).
in(149, 65).
in(149, 69).
in(149, 70).
in(149, 71).
in(149, 76).
in(149, 77).
in(149, 81).
in(149, 82).
in(149, 86).
in(149, 90).
in(149, 91).
in(149, 97).
in(149, 98).
in(149, 99).
in(149, 100).
in(149, 101).
in(149, 102).
in(149, 105).
in(150, 9).
in(150, 13).
in(150, 19).
in(150, 23).
in(150, 27).
in(150, 28).
in(150, 29).
in(150, 31).
in(150, 38).
in(150, 47).
in(150, 50).
in(150, 51).
in(150, 53).
in(150, 55).
in(150, 56).
in(150, 58).
in(150, 64).
in(150, 67).
in(150, 69).
in(150, 71).
in(150, 75).
in(150, 76).
in(150, 77).
in(150, 80).
in(150, 83).
in(150, 92).
in(150, 99).
in(150, 102).
in(150, 105).
in(150, 106).
in(151, 9).
in(151, 12).
in(151, 15).
in(151, 18).
in(151, 21).
in(151, 22).
in(151, 28).
in(151, 29).
in(151, 31).
in(151, 34).
in(151, 39).
in(151, 43).
in(151, 49).
in(151, 51).
in(151, 52).
in(151, 55).
in(151, 56).
in(151, 59).
in(151, 61).
in(151, 64).
in(151, 68).
in(151, 69).
in(151, 71).
in(151, 72).
in(151, 73).
in(151, 76).
in(151, 78).
in(151, 79).
in(151, 83).
in(151, 84).
in(151, 85).
in(151, 86).
in(151, 91).
in(151, 102).
in(152, 12).
in(152, 13).
in(152, 19).
in(152, 20).
in(152, 21).
in(152, 23).
in(152, 26).
in(152, 35).
in(152, 37).
in(152, 44).
in(152, 46).
in(152, 52).
in(152, 56).
in(152, 57).
in(152, 59).
in(152, 62).
in(152, 63).
in(152, 69).
in(152, 80).
in(152, 84).
in(152, 86).
in(152, 92).
in(152, 95).
in(152, 100).
in(152, 105).
in(152, 108).
in(153, 2).
in(153, 6).
in(153, 8).
in(153, 9).
in(153, 13).
in(153, 14).
in(153, 18).
in(153, 21).
in(153, 24).
in(153, 25).
in(153, 29).
in(153, 34).
in(153, 35).
in(153, 38).
in(153, 41).
in(153, 48).
in(153, 50).
in(153, 51).
in(153, 52).
in(153, 53).
in(153, 54).
in(153, 56).
in(153, 59).
in(153, 63).
in(153, 65).
in(153, 67).
in(153, 69).
in(153, 74).
in(153, 77).
in(153, 78).
in(153, 81).
in(153, 84).
in(153, 89).
in(153, 90).
in(153, 93).
in(153, 102).
in(153, 108).
in(154, 1).
in(154, 6).
in(154, 12).
in(154, 16).
in(154, 18).
in(154, 24).
in(154, 30).
in(154, 34).
in(154, 35).
in(154, 37).
in(154, 38).
in(154, 43).
in(154, 44).
in(154, 47).
in(154, 48).
in(154, 49).
in(154, 50).
in(154, 54).
in(154, 55).
in(154, 61).
in(154, 64).
in(154, 67).
in(154, 70).
in(154, 71).
in(154, 72).
in(154, 75).
in(154, 79).
in(154, 80).
in(154, 92).
in(154, 94).
in(154, 95).
in(154, 98).
in(154, 102).
in(154, 103).
in(154, 105).
in(155, 1).
in(155, 6).
in(155, 9).
in(155, 13).
in(155, 14).
in(155, 16).
in(155, 18).
in(155, 30).
in(155, 35).
in(155, 38).
in(155, 39).
in(155, 42).
in(155, 43).
in(155, 48).
in(155, 49).
in(155, 51).
in(155, 53).
in(155, 55).
in(155, 63).
in(155, 64).
in(155, 65).
in(155, 69).
in(155, 70).
in(155, 78).
in(155, 81).
in(155, 82).
in(155, 83).
in(155, 86).
in(155, 92).
in(155, 94).
in(155, 99).
in(155, 100).
in(155, 104).
in(155, 106).
in(156, 3).
in(156, 6).
in(156, 8).
in(156, 9).
in(156, 11).
in(156, 13).
in(156, 14).
in(156, 15).
in(156, 19).
in(156, 21).
in(156, 24).
in(156, 25).
in(156, 26).
in(156, 27).
in(156, 31).
in(156, 32).
in(156, 33).
in(156, 35).
in(156, 38).
in(156, 41).
in(156, 42).
in(156, 43).
in(156, 44).
in(156, 48).
in(156, 52).
in(156, 54).
in(156, 58).
in(156, 63).
in(156, 65).
in(156, 67).
in(156, 69).
in(156, 70).
in(156, 72).
in(156, 73).
in(156, 81).
in(156, 82).
in(156, 83).
in(156, 86).
in(156, 91).
in(156, 93).
in(156, 96).
in(156, 100).
in(156, 107).
in(157, 1).
in(157, 6).
in(157, 9).
in(157, 12).
in(157, 14).
in(157, 18).
in(157, 27).
in(157, 30).
in(157, 32).
in(157, 38).
in(157, 40).
in(157, 42).
in(157, 48).
in(157, 54).
in(157, 59).
in(157, 61).
in(157, 67).
in(157, 71).
in(157, 72).
in(157, 75).
in(157, 76).
in(157, 77).
in(157, 78).
in(157, 80).
in(157, 83).
in(157, 85).
in(157, 91).
in(157, 98).
in(157, 102).
in(157, 103).
in(157, 107).
in(157, 108).
in(158, 1).
in(158, 8).
in(158, 13).
in(158, 14).
in(158, 25).
in(158, 26).
in(158, 30).
in(158, 33).
in(158, 36).
in(158, 37).
in(158, 38).
in(158, 41).
in(158, 42).
in(158, 43).
in(158, 46).
in(158, 54).
in(158, 60).
in(158, 61).
in(158, 62).
in(158, 64).
in(158, 67).
in(158, 68).
in(158, 70).
in(158, 73).
in(158, 74).
in(158, 75).
in(158, 77).
in(158, 86).
in(158, 91).
in(158, 92).
in(158, 96).
in(158, 97).
in(158, 100).
in(158, 101).
in(158, 105).
in(158, 107).
in(159, 6).
in(159, 8).
in(159, 13).
in(159, 14).
in(159, 17).
in(159, 20).
in(159, 21).
in(159, 22).
in(159, 30).
in(159, 35).
in(159, 37).
in(159, 38).
in(159, 39).
in(159, 41).
in(159, 44).
in(159, 46).
in(159, 49).
in(159, 56).
in(159, 61).
in(159, 62).
in(159, 63).
in(159, 66).
in(159, 67).
in(159, 68).
in(159, 73).
in(159, 74).
in(159, 75).
in(159, 76).
in(159, 77).
in(159, 78).
in(159, 80).
in(159, 81).
in(159, 84).
in(159, 91).
in(159, 93).
in(159, 95).
in(159, 96).
in(159, 103).
in(159, 105).
in(159, 108).
in(160, 6).
in(160, 7).
in(160, 8).
in(160, 12).
in(160, 19).
in(160, 23).
in(160, 27).
in(160, 28).
in(160, 30).
in(160, 31).
in(160, 33).
in(160, 35).
in(160, 37).
in(160, 38).
in(160, 39).
in(160, 41).
in(160, 52).
in(160, 53).
in(160, 56).
in(160, 58).
in(160, 61).
in(160, 73).
in(160, 74).
in(160, 75).
in(160, 77).
in(160, 78).
in(160, 82).
in(160, 83).
in(160, 84).
in(160, 85).
in(160, 89).
in(160, 90).
in(160, 91).
in(160, 95).
in(160, 101).
in(160, 105).
in(160, 108).
in(161, 4).
in(161, 5).
in(161, 6).
in(161, 9).
in(161, 10).
in(161, 13).
in(161, 18).
in(161, 20).
in(161, 23).
in(161, 30).
in(161, 31).
in(161, 37).
in(161, 38).
in(161, 39).
in(161, 42).
in(161, 44).
in(161, 48).
in(161, 54).
in(161, 60).
in(161, 62).
in(161, 74).
in(161, 81).
in(161, 84).
in(161, 85).
in(161, 88).
in(161, 92).
in(161, 95).
in(161, 99).
in(161, 101).
in(161, 107).
in(162, 2).
in(162, 8).
in(162, 10).
in(162, 11).
in(162, 13).
in(162, 14).
in(162, 16).
in(162, 17).
in(162, 20).
in(162, 23).
in(162, 25).
in(162, 26).
in(162, 31).
in(162, 32).
in(162, 33).
in(162, 34).
in(162, 36).
in(162, 41).
in(162, 43).
in(162, 48).
in(162, 52).
in(162, 53).
in(162, 56).
in(162, 62).
in(162, 67).
in(162, 74).
in(162, 75).
in(162, 76).
in(162, 78).
in(162, 79).
in(162, 81).
in(162, 83).
in(162, 84).
in(162, 93).
in(162, 94).
in(162, 98).
in(162, 100).
in(162, 101).
in(162, 103).
in(162, 104).
in(162, 105).
in(162, 106).
in(163, 1).
in(163, 3).
in(163, 5).
in(163, 14).
in(163, 18).
in(163, 23).
in(163, 24).
in(163, 25).
in(163, 28).
in(163, 32).
in(163, 34).
in(163, 40).
in(163, 42).
in(163, 45).
in(163, 49).
in(163, 50).
in(163, 51).
in(163, 55).
in(163, 57).
in(163, 58).
in(163, 60).
in(163, 61).
in(163, 62).
in(163, 63).
in(163, 66).
in(163, 68).
in(163, 69).
in(163, 71).
in(163, 73).
in(163, 75).
in(163, 86).
in(163, 88).
in(163, 89).
in(163, 90).
in(163, 95).
in(163, 96).
in(163, 97).
in(163, 102).
in(163, 103).
in(163, 104).
in(163, 106).
in(163, 107).
in(163, 108).
in(164, 4).
in(164, 6).
in(164, 7).
in(164, 9).
in(164, 10).
in(164, 12).
in(164, 15).
in(164, 17).
in(164, 18).
in(164, 21).
in(164, 22).
in(164, 26).
in(164, 31).
in(164, 33).
in(164, 38).
in(164, 39).
in(164, 41).
in(164, 42).
in(164, 50).
in(164, 56).
in(164, 57).
in(164, 58).
in(164, 62).
in(164, 63).
in(164, 66).
in(164, 71).
in(164, 72).
in(164, 74).
in(164, 78).
in(164, 79).
in(164, 80).
in(164, 81).
in(164, 85).
in(164, 91).
in(164, 93).
in(164, 95).
in(164, 97).
in(164, 101).
in(164, 104).
in(165, 12).
in(165, 15).
in(165, 17).
in(165, 18).
in(165, 21).
in(165, 22).
in(165, 24).
in(165, 27).
in(165, 30).
in(165, 39).
in(165, 40).
in(165, 42).
in(165, 46).
in(165, 47).
in(165, 48).
in(165, 51).
in(165, 52).
in(165, 53).
in(165, 56).
in(165, 58).
in(165, 59).
in(165, 60).
in(165, 61).
in(165, 64).
in(165, 65).
in(165, 66).
in(165, 67).
in(165, 72).
in(165, 76).
in(165, 78).
in(165, 83).
in(165, 89).
in(165, 93).
in(165, 94).
in(165, 97).
in(165, 100).
in(165, 104).
in(165, 105).
in(165, 107).
in(166, 1).
in(166, 4).
in(166, 6).
in(166, 10).
in(166, 18).
in(166, 21).
in(166, 23).
in(166, 24).
in(166, 27).
in(166, 33).
in(166, 34).
in(166, 42).
in(166, 46).
in(166, 47).
in(166, 50).
in(166, 53).
in(166, 60).
in(166, 61).
in(166, 62).
in(166, 63).
in(166, 64).
in(166, 69).
in(166, 70).
in(166, 77).
in(166, 79).
in(166, 85).
in(166, 88).
in(166, 89).
in(166, 91).
in(166, 93).
in(166, 94).
in(166, 95).
in(166, 102).
in(166, 106).
in(167, 2).
in(167, 8).
in(167, 9).
in(167, 12).
in(167, 13).
in(167, 16).
in(167, 17).
in(167, 20).
in(167, 26).
in(167, 27).
in(167, 30).
in(167, 31).
in(167, 35).
in(167, 38).
in(167, 39).
in(167, 41).
in(167, 43).
in(167, 44).
in(167, 48).
in(167, 49).
in(167, 52).
in(167, 54).
in(167, 55).
in(167, 62).
in(167, 63).
in(167, 64).
in(167, 69).
in(167, 73).
in(167, 76).
in(167, 79).
in(167, 80).
in(167, 81).
in(167, 87).
in(167, 91).
in(167, 94).
in(167, 95).
in(167, 96).
in(167, 98).
in(167, 103).
in(167, 106).
in(167, 107).
in(167, 108).
weight(1, 2).
weight(2, 8).
weight(3, 5).
weight(4, 5).
weight(5, 1).
weight(6, 6).
weight(7, 2).
weight(8, 1).
weight(9, 2).
weight(10, 3).
weight(11, 3).
weight(12, 8).
weight(13, 6).
weight(14, 7).
weight(15, 2).
weight(16, 9).
weight(17, 5).
weight(18, 8).
weight(19, 6).
weight(20, 1).
weight(21, 1).
weight(22, 4).
weight(23, 5).
weight(24, 3).
weight(25, 9).
weight(26, 6).
weight(27, 1).
weight(28, 4).
weight(29, 7).
weight(30, 8).
weight(31, 6).
weight(32, 8).
weight(33, 8).
weight(34, 8).
weight(35, 2).
weight(36, 1).
weight(37, 7).
weight(38, 5).
weight(39, 1).
weight(40, 2).
weight(41, 2).
weight(42, 1).
weight(43, 4).
weight(44, 4).
weight(45, 9).
weight(46, 4).
weight(47, 6).
weight(48, 1).
weight(49, 4).
weight(50, 5).
weight(51, 9).
weight(52, 7).
weight(53, 5).
weight(54, 9).
weight(55, 9).
weight(56, 8).
weight(57, 9).
weight(58, 3).
weight(59, 2).
weight(60, 6).
weight(61, 3).
weight(62, 7).
weight(63, 6).
weight(64, 7).
weight(65, 7).
weight(66, 8).
weight(67, 9).
weight(68, 1).
weight(69, 9).
weight(70, 8).
weight(71, 6).
weight(72, 6).
weight(73, 9).
weight(74, 2).
weight(75, 9).
weight(76, 9).
weight(77, 9).
weight(78, 3).
weight(79, 5).
weight(80, 2).
weight(81, 6).
weight(82, 5).
weight(83, 6).
weight(84, 3).
weight(85, 4).
weight(86, 4).
weight(87, 3).
weight(88, 1).
weight(89, 3).
weight(90, 7).
weight(91, 5).
weight(92, 5).
weight(93, 8).
weight(94, 5).
weight(95, 6).
weight(96, 4).
weight(97, 3).
weight(98, 7).
weight(99, 6).
weight(100, 5).
weight(101, 6).
weight(102, 1).
weight(103, 1).
weight(104, 7).
weight(105, 5).
weight(106, 3).
weight(107, 3).
weight(108, 8).
weight(109, 7).
weight(110, 3).
weight(111, 7).
weight(112, 4).
weight(113, 5).
weight(114, 3).
weight(115, 7).
weight(116, 4).
weight(117, 6).
weight(118, 7).
weight(119, 2).
weight(120, 5).
weight(121, 3).
weight(122, 6).
weight(123, 3).
weight(124, 2).
weight(125, 4).
weight(126, 2).
weight(127, 6).
weight(128, 5).
weight(129, 4).
weight(130, 5).
weight(131, 4).
weight(132, 7).
weight(133, 1).
weight(134, 5).
weight(135, 7).
weight(136, 3).
weight(137, 5).
weight(138, 5).
weight(139, 4).
weight(140, 2).
weight(141, 2).
weight(142, 9).
weight(143, 5).
weight(144, 6).
weight(145, 2).
weight(146, 6).
weight(147, 7).
weight(148, 8).
weight(149, 2).
weight(150, 2).
weight(151, 5).
weight(152, 8).
weight(153, 9).
weight(154, 2).
weight(155, 3).
weight(156, 3).
weight(157, 8).
weight(158, 1).
weight(159, 5).
weight(160, 9).
weight(161, 8).
weight(162, 9).
weight(163, 1).
weight(164, 7).
weight(165, 9).
weight(166, 2).
weight(167, 4).

{ choose(S) } :- set(S).
:- choose(S1), choose(S2), S1 < S2, in(S1,E), in(S2,E).
:~ not choose(S), weight(S,W). [W@1,S]
