elem(1..108).
set(1..168).
in(1, 2).
in(1, 4).
in(1, 5).
in(1, 6).
in(1, 7).
in(1, 10).
in(1, 15).
in(1, 16).
in(1, 18).
in(1, 21).
in(1, 28).
in(1, 30).
in(1, 31).
in(1, 37).
in(1, 39).
in(1, 40).
in(1, 44).
in(1, 51).
in(1, 53).
in(1, 54).
in(1, 57).
in(1, 58).
in(1, 61).
in(1, 65).
in(1, 69).
in(1, 70).
in(1, 76).
in(1, 79).
in(1, 90).
in(1, 91).
in(1, 94).
in(1, 95).
in(1, 96).
in(1, 101).
in(1, 104).
in(1, 106).
in(2, 4).
in(2, 10).
in(2, 14).
in(2, 15).
in(2, 16).
in(2, 17).
in(2, 22).
in(2, 23).
in(2, 37).
in(2, 40).
in(2, 42).
in(2, 43).
in(2, 45).
in(2, 49).
in(2, 50).
in(2, 53).
in(2, 54).
in(2, 55).
in(2, 58).
in(2, 59).
in(2, 60).
in(2, 61).
in(2, 63).
in(2, 66).
in(2, 67).
in(2, 72).
in(2, 81).
in(2, 85).
in(2, 86).
in(2, 88).
in(2, 90).
in(2, 93).
in(2, 95).
in(2, 98).
in(2, 99).
in(2, 101).
in(2, 103).
in(2, 104).
in(2, 108).
in(3, 1).
in(3, 2).
in(3, 10).
in(3, 14).
in(3, 15).
in(3, 17).
in(3, 19).
in(3, 20).
in(3, 27).
in(3, 29).
in(3, 30).
in(3, 31).
in(3, 33).
in(3, 34).
in(3, 36).
in(3, 38).
in(3, 41).
in(3, 42).
in(3, 47).
in(3, 49).
in(3, 51).
in(3, 52).
in(3, 56).
in(3, 57).
in(3, 58).
in(3, 59).
in(3, 61).
in(3, 63).
in(3, 70).
in(3, 76).
in(3, 78).
in(3, 83).
in(3, 84).
in(3, 85).
in(3, 89).
in(3, 90).
in(3, 95).
in(3, 101).
in(3, 102).
in(3, 106).
in(4, 1).
in(4, 4).
in(4, 5).
in(4, 6).
in(4, 7).
in(4, 8).
in(4, 11).
in(4, 12).
in(4, 20).
in(4, 21).
in(4, 25).
in(4, 28).
in(4, 29).
in(4, 33).
in(4, 40).
in(4, 43).
in(4, 49).
in(4, 52).
in(4, 55).
in(4, 56).
in(4, 60).
in(4, 61).
in(4, 64).
in(4, 73).
in(4, 74).
in(4, 75).
in(4, 79).
in(4, 84).
in(4, 85).
in(4, 86).
in(4, 87).
in(4, 89).
in(4, 91).
in(4, 93).
in(4, 95).
in(4, 96).
in(4, 97).
in(4, 101).
in(4, 107).
in(5, 3).
in(5, 7).
in(5, 8).
in(5, 11).
in(5, 12).
in(5, 15).
in(5, 20).
in(5, 21).
in(5, 25).
in(5, 32).
in(5, 34).
in(5, 43).
in(5, 46).
in(5, 47).
in(5, 54).
in(5, 59).
in(5, 60).
in(5, 62).
in(5, 66).
in(5, 69).
in(5, 72).
in(5, 74).
in(5, 79).
in(5, 81).
in(5, 83).
in(5, 84).
in(5, 93).
in(5, 94).
in(5, 104).
in(5, 105).
in(5, 107).
in(6, 1).
in(6, 7).
in(6, 9).
in(6, 12).
in(6, 13).
in(6, 19).
in(6, 21).
in(6, 25).
in(6, 28).
in(6, 31).
in(6, 32).
in(6, 35).
in(6, 37).
in(6, 45).
in(6, 46).
in(6, 52).
in(6, 56).
in(6, 58).
in(6, 60).
in(6, 61).
in(6, 67).
in(6, 68).
in(6, 70).
in(6, 72).
in(6, 74).
in(6, 79).
in(6, 80).
in(6, 82).
in(6, 85).
in(6, 87).
in(6, 90).
in(6, 91).
in(6, 103).
in(7, 4).
in(7, 6).
in(7, 8).
in(7, 10).
in(7, 12).
in(7, 16).
in(7, 17).
in(7, 22).
in(7, 25).
in(7, 29).
in(7, 31).
in(7, 33).
in(7, 34).
in(7, 35).
in(7, 36).
in(7, 38).
in(7, 44).
in(7, 45).
in(7, 47).
in(7, 49).
in(7, 50).
in(7, 51).
in(7, 53).
in(7, 57).
in(7, 58).
in(7, 60).
in(7, 61).
in(7, 62).
in(7, 63).
in(7, 65).
in(7, 69).
in(7, 74).
in(7, 80).
in(7, 82).
in(7, 83).
in(7, 85).
in(7, 89).
in(7, 90).
in(7, 92).
in(7, 93).
in(7, 94).
in(7, 95).
in(7, 97).
in(7, 98).
in(7, 99).
in(7, 101).
in(7, 102).
in(7, 106).
in(7, 107).
in(8, 7).
in(8, 8).
in(8, 11).
in(8, 14).
in(8, 16).
in(8, 17).
in(8, 18).
in(8, 21).
in(8, 23).
in(8, 25).
in(8, 27).
in(8, 30).
in(8, 31).
in(8, 32).
in(8, 33).
in(8, 36).
in(8, 42).
in(8, 44).
in(8, 48).
in(8, 51).
in(8, 52).
in(8, 53).
in(8, 55).
in(8, 59).
in(8, 63).
in(8, 64).
in(8, 65).
in(8, 66).
in(8, 68).
in(8, 71).
in(8, 76).
in(8, 77).
in(8, 80).
in(8, 85).
in(8, 90).
in(8, 93).
in(8, 95).
in(8, 96).
in(8, 97).
in(8, 98).
in(8, 104).
in(8, 107).
in(9, 5).
in(9, 8).
in(9, 9).
in(9, 10).
in(9, 11).
in(9, 12).
in(9, 13).
in(9, 15).
in(9, 21).
in(9, 22).
in(9, 23).
in(9, 24).
in(9, 26).
in(9, 29).
in(9, 30).
in(9, 31).
in(9, 36).
in(9, 37).
in(9, 39).
in(9, 43).
in(9, 45).
in(9, 46).
in(9, 48).
in(9, 51).
in(9, 53).
in(9, 54).
in(9, 55).
in(9, 57).
in(9, 62).
in(9, 64).
in(9, 65).
in(9, 67).
in(9, 70).
in(9, 72).
in(9, 74).
in(9, 75).
in(9, 76).
in(9, 82).
in(9, 85).
in(9, 86).
in(9, 87).
in(9, 92).
in(9, 94).
in(9, 96).
in(9, 102).
in(9, 104).
in(10, 4).
in(10, 11).
in(10, 12).
in(10, 14).
in(10, 15).
in(10, 21).
in(10, 22).
in(10, 25).
in(10, 27).
in(10, 31).
in(10, 34).
in(10, 35).
in(10, 37).
in(10, 44).
in(10, 47).
in(10, 64).
in(10, 70).
in(10, 71).
in(10, 72).
in(10, 75).
in(10, 77).
in(10, 78).
in(10, 81).
in(10, 82).
in(10, 83).
in(10, 85).
in(10, 86).
in(10, 88).
in(10, 95).
in(10, 98).
in(10, 103).
in(10, 104).
in(10, 107).
in(11, 1).
in(11, 3).
in(11, 5).
in(11, 7).
in(11, 8).
in(11, 11).
in(11, 12).
in(11, 14).
in(11, 15).
in(11, 16).
in(11, 17).
in(11, 19).
in(11, 20).
in(11, 24).
in(11, 28).
in(11, 30).
in(11, 32).
in(11, 33).
in(11, 37).
in(11, 39).
in(11, 42).
in(11, 44).
in(11, 45).
in(11, 47).
in(11, 52).
in(11, 55).
in(11, 56).
in(11, 57).
in(11, 58).
in(11, 61).
in(11, 65).
in(11, 69).
in(11, 70).
in(11, 76).
in(11, 78).
in(11, 80).
in(11, 81).
in(11, 86).
in(11, 91).
in(11, 92).
in(11, 96).
in(11, 97).
in(11, 99).
in(11, 100).
in(12, 5).
in(12, 6).
in(12, 7).
in(12, 10).
in(12, 12).
in(12, 15).
in(12, 16).
in(12, 18).
in(12, 19).
in(12, 23).
in(12, 27).
in(12, 28).
in(12, 29).
in(12, 34).
in(12, 36).
in(12, 39).
in(12, 44).
in(12, 47).
in(12, 48).
in(12, 49).
in(12, 51).
in(12, 55).
in(12, 56).
in(12, 63).
in(12, 64).
in(12, 68).
in(12, 75).
in(12, 78).
in(12, 81).
in(12, 82).
in(12, 83).
in(12, 84).
in(12, 86).
in(12, 87).
in(12, 88).
in(12, 95).
in(12, 99).
in(12, 101).
in(12, 104).
in(12, 105).
in(12, 106).
in(13, 1).
in(13, 3).
in(13, 8).
in(13, 12).
in(13, 15).
in(13, 16).
in(13, 17).
in(13, 18).
in(13, 22).
in(13, 23).
in(13, 24).
in(13, 25).
in(13, 30).
in(13, 32).
in(13, 37).
in(13, 38).
in(13, 39).
in(13, 43).
in(13, 45).
in(13, 47).
in(13, 49).
in(13, 51).
in(13, 53).
in(13, 56).
in(13, 57).
in(13, 62).
in(13, 64).
in(13, 68).
in(13, 72).
in(13, 78).
in(13, 79).
in(13, 81).
in(13, 83).
in(13, 84).
in(13, 85).
in(13, 89).
in(13, 96).
in(13, 101).
in(13, 103).
in(13, 104).
in(13, 105).
in(13, 108).
in(14, 1).
in(14, 2).
in(14, 3).
in(14, 5).
in(14, 6).
in(14, 7).
in(14, 12).
in(14, 14).
in(14, 17).
in(14, 21).
in(14, 24).
in(14, 26).
in(14, 29).
in(14, 32).
in(14, 38).
in(14, 39).
in(14, 41).
in(14, 45).
in(14, 51).
in(14, 52).
in(14, 53).
in(14, 59).
in(14, 63).
in(14, 65).
in(14, 70).
in(14, 72).
in(14, 75).
in(14, 77).
in(14, 79).
in(14, 80).
in(14, 82).
in(14, 83).
in(14, 85).
in(14, 90).
in(14, 92).
in(14, 93).
in(14, 96).
in(14, 97).
in(14, 98).
in(14, 100).
in(14, 101).
in(14, 103).
in(14, 104).
in(14, 105).
in(14, 106).
in(15, 4).
in(15, 5).
in(15, 7).
in(15, 8).
in(15, 12).
in(15, 14).
in(15, 15).
in(15, 16).
in(15, 17).
in(15, 19).
in(15, 28).
in(15, 36).
in(15, 37).
in(15, 44).
in(15, 50).
in(15, 56).
in(15, 58).
in(15, 59).
in(15, 62).
in(15, 63).
in(15, 64).
in(15, 67).
in(15, 68).
in(15, 71).
in(15, 76).
in(15, 81).
in(15, 82).
in(15, 83).
in(15, 90).
in(15, 94).
in(15, 96).
in(15, 104).
in(15, 105).
in(15, 106).
in(16, 3).
in(16, 6).
in(16, 9).
in(16, 10).
in(16, 12).
in(16, 17).
in(16, 18).
in(16, 23).
in(16, 24).
in(16, 26).
in(16, 31).
in(16, 33).
in(16, 35).
in(16, 42).
in(16, 44).
in(16, 45).
in(16, 52).
in(16, 54).
in(16, 56).
in(16, 61).
in(16, 62).
in(16, 63).
in(16, 66).
in(16, 68).
in(16, 69).
in(16, 70).
in(16, 71).
in(16, 72).
in(16, 74).
in(16, 79).
in(16, 81).
in(16, 84).
in(16, 89).
in(16, 90).
in(16, 91).
in(16, 92).
in(16, 94).
in(16, 95).
in(16, 97).
in(16, 104).
in(17, 1).
in(17, 3).
in(17, 5).
in(17, 8).
in(17, 12).
in(17, 13).
in(17, 14).
in(17, 15).
in(17, 21).
in(17, 29).
in(17, 34).
in(17, 36).
in(17, 39).
in(17, 40).
in(17, 41).
in(17, 42).
in(17, 44).
in(17, 48).
in(17, 49).
in(17, 50).
in(17, 54).
in(17, 58).
in(17, 59).
in(17, 60).
in(17, 64).
in(17, 65).
in(17, 67).
in(17, 73).
in(17, 74).
in(17, 75).
in(17, 79).
in(17, 84).
in(17, 86).
in(17, 87).
in(17, 90).
in(17, 94).
in(17, 95).
in(17, 96).
in(17, 98).
in(17, 100).
in(17, 101).
in(17, 102).
in(17, 103).
in(17, 104).
in(17, 105).
in(17, 106).
in(17, 107).
in(17, 108).
in(18, 12).
in(18, 16).
in(18, 18).
in(18, 19).
in(18, 24).
in(18, 25).
in(18, 28).
in(18, 32).
in(18, 33).
in(18, 34).
in(18, 35).
in(18, 36).
in(18, 39).
in(18, 45).
in(18, 50).
in(18, 60).
in(18, 61).
in(18, 62).
in(18, 67).
in(18, 71).
in(18, 72).
in(18, 75).
in(18, 77).
in(18, 79).
in(18, 83).
in(18, 89).
in(18, 91).
in(18, 95).
in(18, 98).
in(18, 100).
in(18, 101).
in(18, 102).
in(18, 106).
in(18, 108).
in(19, 1).
in(19, 3).
in(19, 5).
in(19, 7).
in(19, 10).
in(19, 11).
in(19, 12).
in(19, 14).
in(19, 15).
in(19, 17).
in(19, 21).
in(19, 25).
in(19, 27).
in(19, 30).
in(19, 35).
in(19, 37).
in(19, 38).
in(19, 39).
in(19, 45).
in(19, 46).
in(19, 48).
in(19, 50).
in(19, 57).
in(19, 60).
in(19, 61).
in(19, 64).
in(19, 67).
in(19, 69).
in(19, 77).
in(19, 83).
in(19, 84).
in(19, 87).
in(19, 93).
in(19, 100).
in(20, 4).
in(20, 10).
in(20, 13).
in(20, 16).
in(20, 20).
in(20, 21).
in(20, 22).
in(20, 26).
in(20, 27).
in(20, 29).
in(20, 30).
in(20, 33).
in(20, 34).
in(20, 35).
in(20, 39).
in(20, 40).
in(20, 41).
in(20, 44).
in(20, 45).
in(20, 48).
in(20, 59).
in(20, 60).
in(20, 61).
in(20, 67).
in(20, 68).
in(20, 69).
in(20, 70).
in(20, 72).
in(20, 73).
in(20, 75).
in(20, 76).
in(20, 80).
in(20, 82).
in(20, 84).
in(20, 85).
in(20, 86).
in(20, 87).
in(20, 88).
in(20, 91).
in(20, 92).
in(20, 95).
in(20, 96).
in(20, 98).
in(20, 100).
in(20, 103).
in(20, 104).
in(21, 1).
in(21, 9).
in(21, 15).
in(21, 18).
in(21, 19).
in(21, 23).
in(21, 29).
in(21, 30).
in(21, 34).
in(21, 35).
in(21, 40).
in(21, 42).
in(21, 48).
in(21, 49).
in(21, 50).
in(21, 51).
in(21, 56).
in(21, 58).
in(21, 59).
in(21, 66).
in(21, 68).
in(21, 70).
in(21, 72).
in(21, 73).
in(21, 75).
in(21, 76).
in(21, 81).
in(21, 83).
in(21, 96).
in(21, 98).
in(21, 99).
in(21, 101).
in(21, 102).
in(21, 103).
in(21, 104).
in(21, 105).
in(22, 1).
in(22, 3).
in(22, 4).
in(22, 10).
in(22, 12).
in(22, 13).
in(22, 17).
in(22, 20).
in(22, 22).
in(22, 23).
in(22, 24).
in(22, 26).
in(22, 30).
in(22, 34).
in(22, 44).
in(22, 51).
in(22, 53).
in(22, 70).
in(22, 75).
in(22, 78).
in(22, 80).
in(22, 81).
in(22, 82).
in(22, 90).
in(22, 93).
in(22, 94).
in(22, 95).
in(22, 97).
in(22, 105).
in(22, 106).
in(22, 108).
in(23, 5).
in(23, 6).
in(23, 10).
in(23, 12).
in(23, 23).
in(23, 28).
in(23, 30).
in(23, 34).
in(23, 37).
in(23, 41).
in(23, 42).
in(23, 43).
in(23, 44).
in(23, 51).
in(23, 53).
in(23, 58).
in(23, 60).
in(23, 61).
in(23, 62).
in(23, 67).
in(23, 69).
in(23, 72).
in(23, 73).
in(23, 77).
in(23, 87).
in(23, 89).
in(23, 91).
in(23, 92).
in(23, 98).
in(23, 99).
in(23, 103).
in(24, 5).
in(24, 6).
in(24, 10).
in(24, 11).
in(24, 13).
in(24, 14).
in(24, 16).
in(24, 19).
in(24, 22).
in(24, 23).
in(24, 24).
in(24, 25).
in(24, 29).
in(24, 30).
in(24, 35).
in(24, 36).
in(24, 37).
in(24, 41).
in(24, 42).
in(24, 43).
in(24, 45).
in(24, 48).
in(24, 52).
in(24, 55).
in(24, 60).
in(24, 62).
in(24, 65).
in(24, 67).
in(24, 70).
in(24, 72).
in(24, 73).
in(24, 75).
in(24, 76).
in(24, 78).
in(24, 79).
in(24, 80).
in(24, 86).
in(24, 87).
in(24, 88).
in(24, 91).
in(24, 92).
in(24, 93).
in(24, 98).
in(24, 101).
in(24, 104).
in(24, 105).
in(24, 107).
in(25, 1).
in(25, 2).
in(25, 6).
in(25, 8).
in(25, 9).
in(25, 10).
in(25, 21).
in(25, 22).
in(25, 25).
in(25, 32).
in(25, 36).
in(25, 41).
in(25, 42).
in(25, 47).
in(25, 48).
in(25, 57).
in(25, 59).
in(25, 61).
in(25, 63).
in(25, 64).
in(25, 65).
in(25, 66).
in(25, 74).
in(25, 75).
in(25, 79).
in(25, 83).
in(25, 84).
in(25, 86).
in(25, 96).
in(25, 100).
in(25, 104).
in(25, 106).
in(26, 4).
in(26, 5).
in(26, 6).
in(26, 11).
in(26, 14).
in(26, 22).
in(26, 24).
in(26, 29).
in(26, 31).
in(26, 36).
in(26, 43).
in(26, 46).
in(26, 47).
in(26, 48).
in(26, 50).
in(26, 51).
in(26, 52).
in(26, 53).
in(26, 55).
in(26, 57).
in(26, 61).
in(26, 65).
in(26, 72).
in(26, 73).
in(26, 76).
in(26, 81).
in(26, 85).
in(26, 86).
in(26, 88).
in(26, 90).
in(26, 93).
in(26, 94).
in(26, 95).
in(26, 96).
in(26, 98).
in(26, 101).
in(26, 103).
in(26, 104).
in(27, 1).
in(27, 2).
in(27, 9).
in(27, 10).
in(27, 12).
in(27, 13).
in(27, 16).
in(27, 23).
in(27, 28).
in(27, 29).
in(27, 35).
in(27, 39).
in(27, 40).
in(27, 41).
in(27, 45).
in(27, 48).
in(27, 49).
in(27, 52).
in(27, 57).
in(27, 59).
in(27, 64).
in(27, 66).
in(27, 67).
in(27, 70).
in(27, 72).
in(27, 73).
in(27, 79).
in(27, 80).
in(27, 82).
in(27, 84).
in(27, 87).
in(27, 92).
in(27, 93).
in(27, 94).
in(27, 96).
in(27, 101).
in(27, 102).
in(27, 105).
in(27, 106).
in(27, 108).
in(28, 2).
in(28, 3).
in(28, 4).
in(28, 6).
in(28, 8).
in(28, 13).
in(28, 14).
in(28, 19).
in(28, 20).
in(28, 26).
in(28, 27).
in(28, 33).
in(28, 34).
in(28, 35).
in(28, 40).
in(28, 41).
in(28, 42).
in(28, 44).
in(28, 54).
in(28, 55).
in(28, 56).
in(28, 58).
in(28, 61).
in(28, 69).
in(28, 70).
in(28, 72).
in(28, 77).
in(28, 83).
in(28, 84).
in(28, 86).
in(28, 87).
in(28, 97).
in(28, 98).
in(29, 2).
in(29, 3).
in(29, 4).
in(29, 5).
in(29, 10).
in(29, 13).
in(29, 14).
in(29, 16).
in(29, 17).
in(29, 19).
in(29, 20).
in(29, 22).
in(29, 26).
in(29, 28).
in(29, 29).
in(29, 30).
in(29, 33).
in(29, 37).
in(29, 38).
in(29, 41).
in(29, 44).
in(29, 52).
in(29, 55).
in(29, 63).
in(29, 64).
in(29, 65).
in(29, 69).
in(29, 75).
in(29, 78).
in(29, 79).
in(29, 82).
in(29, 84).
in(29, 93).
in(29, 95).
in(29, 100).
in(29, 103).
in(29, 104).
in(29, 105).
in(30, 1).
in(30, 2).
in(30, 5).
in(30, 9).
in(30, 11).
in(30, 13).
in(30, 18).
in(30, 19).
in(30, 23).
in(30, 31).
in(30, 36).
in(30, 39).
in(30, 40).
in(30, 44).
in(30, 46).
in(30, 47).
in(30, 50).
in(30, 52).
in(30, 53).
in(30, 57).
in(30, 64).
in(30, 70).
in(30, 75).
in(30, 84).
in(30, 87).
in(30, 92).
in(30, 95).
in(30, 97).
in(30, 100).
in(30, 102).
in(30, 104).
in(30, 105).
in(30, 108).
in(31, 1).
in(31, 2).
in(31, 9).
in(31, 10).
in(31, 12).
in(31, 19).
in(31, 23).
in(31, 24).
in(31, 25).
in(31, 28).
in(31, 31).
in(31, 32).
in(31, 44).
in(31, 47).
in(31, 51).
in(31, 53).
in(31, 59).
in(31, 61).
in(31, 62).
in(31, 64).
in(31, 74).
in(31, 85).
in(31, 88).
in(31, 91).
in(31, 94).
in(31, 97).
in(31, 101).
in(31, 104).
in(31, 107).
in(31, 108).
in(32, 2).
in(32, 7).
in(32, 8).
in(32, 9).
in(32, 11).
in(32, 15).
in(32, 17).
in(32, 21).
in(32, 24).
in(32, 26).
in(32, 27).
in(32, 30).
in(32, 31).
in(32, 36).
in(32, 39).
in(32, 45).
in(32, 48).
in(32, 49).
in(32, 52).
in(32, 53).
in(32, 58).
in(32, 62).
in(32, 65).
in(32, 70).
in(32, 72).
in(32, 73).
in(32, 75).
in(32, 79).
in(32, 81).
in(32, 83).
in(32, 85).
in(32, 87).
in(32, 88).
in(32, 92).
in(32, 93).
in(32, 95).
in(32, 96).
in(32, 101).
in(32, 103).
in(32, 107).
in(33, 5).
in(33, 6).
in(33, 10).
in(33, 11).
in(33, 12).
in(33, 15).
in(33, 16).
in(33, 21).
in(33, 22).
in(33, 25).
in(33, 30).
in(33, 35).
in(33, 46).
in(33, 48).
in(33, 51).
in(33, 56).
in(33, 59).
in(33, 65).
in(33, 66).
in(33, 69).
in(33, 72).
in(33, 75).
in(33, 76).
in(33, 77).
in(33, 79).
in(33, 80).
in(33, 84).
in(33, 89).
in(33, 91).
in(33, 92).
in(33, 93).
in(33, 95).
in(33, 96).
in(33, 97).
in(33, 99).
in(33, 103).
in(33, 106).
in(33, 107).
in(34, 3).
in(34, 7).
in(34, 9).
in(34, 14).
in(34, 17).
in(34, 22).
in(34, 25).
in(34, 26).
in(34, 32).
in(34, 33).
in(34, 36).
in(34, 38).
in(34, 39).
in(34, 42).
in(34, 43).
in(34, 44).
in(34, 47).
in(34, 49).
in(34, 56).
in(34, 64).
in(34, 67).
in(34, 73).
in(34, 74).
in(34, 75).
in(34, 76).
in(34, 79).
in(34, 80).
in(34, 81).
in(34, 83).
in(34, 84).
in(34, 86).
in(34, 90).
in(34, 97).
in(34, 98).
in(34, 100).
in(34, 101).
in(34, 103).
in(35, 1).
in(35, 2).
in(35, 3).
in(35, 9).
in(35, 12).
in(35, 13).
in(35, 16).
in(35, 18).
in(35, 19).
in(35, 24).
in(35, 31).
in(35, 33).
in(35, 34).
in(35, 36).
in(35, 48).
in(35, 51).
in(35, 53).
in(35, 54).
in(35, 57).
in(35, 59).
in(35, 63).
in(35, 65).
in(35, 67).
in(35, 68).
in(35, 75).
in(35, 78).
in(35, 82).
in(35, 84).
in(35, 86).
in(35, 90).
in(35, 93).
in(35, 95).
in(35, 101).
in(35, 103).
in(35, 104).
in(35, 107).
in(35, 108).
in(36, 9).
in(36, 12).
in(36, 15).
in(36, 16).
in(36, 17).
in(36, 21).
in(36, 22).
in(36, 23).
in(36, 24).
in(36, 25).
in(36, 29).
in(36, 30).
in(36, 36).
in(36, 37).
in(36, 42).
in(36, 43).
in(36, 48).
in(36, 51).
in(36, 52).
in(36, 53).
in(36, 55).
in(36, 56).
in(36, 59).
in(36, 63).
in(36, 65).
in(36, 68).
in(36, 70).
in(36, 71).
in(36, 74).
in(36, 79).
in(36, 80).
in(36, 82).
in(36, 89).
in(36, 91).
in(36, 96).
in(36, 103).
in(36, 104).
in(36, 105).
in(36, 107).
in(37, 1).
in(37, 7).
in(37, 13).
in(37, 24).
in(37, 25).
in(37, 28).
in(37, 29).
in(37, 33).
in(37, 34).
in(37, 35).
in(37, 41).
in(37, 44).
in(37, 45).
in(37, 50).
in(37, 60).
in(37, 64).
in(37, 65).
in(37, 66).
in(37, 67).
in(37, 71).
in(37, 74).
in(37, 75).
in(37, 77).
in(37, 79).
in(37, 81).
in(37, 87).
in(37, 89).
in(37, 94).
in(37, 99).
in(37, 100).
in(37, 104).
in(37, 107).
in(38, 2).
in(38, 3).
in(38, 5).
in(38, 7).
in(38, 10).
in(38, 15).
in(38, 20).
in(38, 22).
in(38, 25).
in(38, 26).
in(38, 27).
in(38, 29).
in(38, 34).
in(38, 36).
in(38, 38).
in(38, 39).
in(38, 42).
in(38, 47).
in(38, 50).
in(38, 55).
in(38, 57).
in(38, 58).
in(38, 59).
in(38, 60).
in(38, 63).
in(38, 68).
in(38, 74).
in(38, 76).
in(38, 82).
in(38, 83).
in(38, 85).
in(38, 87).
in(38, 89).
in(38, 95).
in(38, 100).
in(38, 101).
in(39, 1).
in(39, 3).
in(39, 4).
in(39, 6).
in(39, 14).
in(39, 16).
in(39, 23).
in(39, 27).
in(39, 30).
in(39, 31).
in(39, 35).
in(39, 36).
in(39, 37).
in(39, 44).
in(39, 45).
in(39, 47).
in(39, 48).
in(39, 49).
in(39, 60).
in(39, 61).
in(39, 62).
in(39, 66).
in(39, 70).
in(39, 72).
in(39, 78).
in(39, 82).
in(39, 83).
in(39, 87).
in(39, 93).
in(39, 98).
in(39, 100).
in(39, 102).
in(39, 103).
in(39, 105).
in(39, 106).
in(40, 2).
in(40, 6).
in(40, 8).
in(40, 9).
in(40, 13).
in(40, 17).
in(40, 19).
in(40, 24).
in(40, 27).
in(40, 29).
in(40, 31).
in(40, 33).
in(40, 35).
in(40, 36).
in(40, 40).
in(40, 42).
in(40, 43).
in(40, 44).
in(40, 47).
in(40, 48).
in(40, 52).
in(40, 57).
in(40, 58).
in(40, 61).
in(40, 65).
in(40, 70).
in(40, 75).
in(40, 80).
in(40, 86).
in(40, 89).
in(40, 90).
in(40, 92).
in(40, 94).
in(40, 95).
in(40, 96).
in(40, 104).
in(40, 105).
in(41, 4).
in(41, 5).
in(41, 6).
in(41, 8).
in(41, 9).
in(41, 11).
in(41, 13).
in(41, 14).
in(41, 16).
in(41, 20).
in(41, 24).
in(41, 27).
in(41, 29).
in(41, 30).
in(41, 31).
in(41, 34).
in(41, 37).
in(41, 41).
in(41, 42).
in(41, 46).
in(41, 55).
in(41, 58).
in(41, 62).
in(41, 63).
in(41, 68).
in(41, 69).
in(41, 76).
in(41, 80).
in(41, 86).
in(41, 89).
in(41, 90).
in(41, 93).
in(41, 94).
in(41, 97).
in(41, 98).
in(41, 99).
in(41, 100).
in(41, 105).
in(41, 106).
in(42, 4).
in(42, 6).
in(42, 15).
in(42, 16).
in(42, 17).
in(42, 18).
in(42, 23).
in(42, 26).
in(42, 28).
in(42, 33).
in(42, 37).
in(42, 40).
in(42, 44).
in(42, 46).
in(42, 48).
in(42, 53).
in(42, 54).
in(42, 58).
in(42, 62).
in(42, 66).
in(42, 71).
in(42, 72).
in(42, 74).
in(42, 78).
in(42, 79).
in(42, 80).
in(42, 90).
in(42, 92).
in(42, 94).
in(42, 95).
in(42, 96).
in(42, 100).
in(42, 103).
in(42, 104).
in(42, 106).
in(42, 108).
in(43, 1).
in(43, 3).
in(43, 6).
in(43, 11).
in(43, 23).
in(43, 24).
in(43, 25).
in(43, 27).
in(43, 35).
in(43, 36).
in(43, 44).
in(43, 46).
in(43, 48).
in(43, 49).
in(43, 58).
in(43, 59).
in(43, 62).
in(43, 68).
in(43, 70).
in(43, 73).
in(43, 74).
in(43, 76).
in(43, 80).
in(43, 86).
in(43, 88).
in(43, 94).
in(43, 96).
in(43, 99).
in(43, 101).
in(43, 102).
in(43, 106).
in(43, 108).
in(44, 1).
in(44, 3).
in(44, 7).
in(44, 13).
in(44, 22).
in(44, 23).
in(44, 29).
in(44, 30).
in(44, 33).
in(44, 34).
in(44, 37).
in(44, 44).
in(44, 47).
in(44, 49).
in(44, 55).
in(44, 56).
in(44, 57).
in(44, 69).
in(44, 75).
in(44, 79).
in(44, 80).
in(44, 81).
in(44, 93).
in(44, 96).
in(44, 98).
in(44, 99).
in(44, 100).
in(44, 101).
in(44, 105).
in(44, 108).
in(45, 2).
in(45, 3).
in(45, 6).
in(45, 8).
in(45, 10).
in(45, 15).
in(45, 21).
in(45, 22).
in(45, 26).
in(45, 30).
in(45, 32).
in(45, 35).
in(45, 36).
in(45, 37).
in(45, 41).
in(45, 43).
in(45, 45).
in(45, 47).
in(45, 48).
in(45, 53).
in(45, 54).
in(45, 59).
in(45, 61).
in(45, 63).
in(45, 69).
in(45, 70).
in(45, 73).
in(45, 76).
in(45, 77).
in(45, 79).
in(45, 83).
in(45, 84).
in(45, 94).
in(45, 96).
in(45, 97).
in(45, 99).
in(45, 100).
in(45, 108).
in(46, 3).
in(46, 4).
in(46, 5).
in(46, 6).
in(46, 7).
in(46, 12).
in(46, 13).
in(46, 16).
in(46, 17).
in(46, 18).
in(46, 21).
in(46, 23).
in(46, 26).
in(46, 31).
in(46, 38).
in(46, 39).
in(46, 43).
in(46, 44).
in(46, 46).
in(46, 51).
in(46, 53).
in(46, 58).
in(46, 62).
in(46, 67).
in(46, 68).
in(46, 74).
in(46, 76).
in(46, 81).
in(46, 83).
in(46, 86).
in(46, 91).
in(46, 94).
in(46, 99).
in(46, 100).
in(46, 107).
in(46, 108).
in(47, 2).
in(47, 4).
in(47, 5).
in(47, 6).
in(47, 7).
in(47, 9).
in(47, 12).
in(47, 14).
in(47, 18).
in(47, 21).
in(47, 23).
in(47, 27).
in(47, 29).
in(47, 32).
in(47, 38).
in(47, 40).
in(47, 42).
in(47, 43).
in(47, 45).
in(47, 58).
in(47, 59).
in(47, 60).
in(47, 61).
in(47, 68).
in(47, 70).
in(47, 75).
in(47, 78).
in(47, 79).
in(47, 84).
in(47, 86).
in(47, 87).
in(47, 92).
in(47, 94).
in(47, 98).
in(47, 100).
in(47, 103).
in(47, 105).
in(47, 108).
in(48, 8).
in(48, 11).
in(48, 16).
in(48, 17).
in(48, 22).
in(48, 23).
in(48, 25).
in(48, 26).
in(48, 27).
in(48, 28).
in(48, 29).
in(48, 33).
in(48, 36).
in(48, 39).
in(48, 40).
in(48, 41).
in(48, 43).
in(48, 44).
in(48, 49).
in(48, 53).
in(48, 56).
in(48, 61).
in(48, 67).
in(48, 70).
in(48, 75).
in(48, 83).
in(48, 86).
in(48, 91).
in(48, 93).
in(48, 97).
in(48, 108).
in(49, 1).
in(49, 3).
in(49, 11).
in(49, 14).
in(49, 16).
in(49, 19).
in(49, 22).
in(49, 23).
in(49, 24).
in(49, 26).
in(49, 28).
in(49, 30).
in(49, 32).
in(49, 37).
in(49, 40).
in(49, 45).
in(49, 50).
in(49, 51).
in(49, 56).
in(49, 57).
in(49, 59).
in(49, 62).
in(49, 64).
in(49, 65).
in(49, 68).
in(49, 71).
in(49, 74).
in(49, 78).
in(49, 80).
in(49, 81).
in(49, 89).
in(49, 90).
in(49, 91).
in(49, 95).
in(49, 99).
in(49, 100).
in(49, 102).
in(49, 103).
in(49, 104).
in(50, 1).
in(50, 6).
in(50, 7).
in(50, 15).
in(50, 17).
in(50, 18).
in(50, 21).
in(50, 27).
in(50, 31).
in(50, 32).
in(50, 35).
in(50, 40).
in(50, 44).
in(50, 46).
in(50, 49).
in(50, 50).
in(50, 51).
in(50, 52).
in(50, 53).
in(50, 54).
in(50, 56).
in(50, 57).
in(50, 60).
in(50, 64).
in(50, 68).
in(50, 69).
in(50, 74).
in(50, 80).
in(50, 84).
in(50, 87).
in(50, 91).
in(50, 97).
in(50, 98).
in(50, 99).
in(50, 100).
in(50, 101).
in(50, 102).
in(50, 103).
in(50, 105).
in(51, 6).
in(51, 7).
in(51, 8).
in(51, 10).
in(51, 11).
in(51, 12).
in(51, 17).
in(51, 22).
in(51, 24).
in(51, 29).
in(51, 31).
in(51, 33).
in(51, 37).
in(51, 39).
in(51, 41).
in(51, 48).
in(51, 49).
in(51, 50).
in(51, 55).
in(51, 56).
in(51, 59).
in(51, 64).
in(51, 68).
in(51, 70).
in(51, 72).
in(51, 74).
in(51, 75).
in(51, 77).
in(51, 79).
in(51, 86).
in(51, 88).
in(51, 90).
in(51, 93).
in(51, 106).
in(51, 107).
in(52, 3).
in(52, 10).
in(52, 15).
in(52, 17).
in(52, 18).
in(52, 20).
in(52, 25).
in(52, 37).
in(52, 43).
in(52, 46).
in(52, 54).
in(52, 58).
in(52, 59).
in(52, 61).
in(52, 64).
in(52, 67).
in(52, 68).
in(52, 69).
in(52, 70).
in(52, 78).
in(52, 83).
in(52, 88).
in(52, 89).
in(52, 95).
in(52, 99).
in(52, 104).
in(52, 108).
in(53, 1).
in(53, 2).
in(53, 7).
in(53, 9).
in(53, 10).
in(53, 12).
in(53, 13).
in(53, 14).
in(53, 15).
in(53, 16).
in(53, 19).
in(53, 22).
in(53, 23).
in(53, 32).
in(53, 33).
in(53, 36).
in(53, 41).
in(53, 56).
in(53, 60).
in(53, 61).
in(53, 62).
in(53, 65).
in(53, 66).
in(53, 67).
in(53, 70).
in(53, 75).
in(53, 76).
in(53, 78).
in(53, 80).
in(53, 81).
in(53, 85).
in(53, 94).
in(53, 101).
in(53, 103).
in(53, 104).
in(53, 106).
in(54, 4).
in(54, 6).
in(54, 14).
in(54, 15).
in(54, 16).
in(54, 18).
in(54, 19).
in(54, 21).
in(54, 25).
in(54, 26).
in(54, 28).
in(54, 29).
in(54, 42).
in(54, 45).
in(54, 48).
in(54, 55).
in(54, 56).
in(54, 58).
in(54, 60).
in(54, 63).
in(54, 67).
in(54, 69).
in(54, 70).
in(54, 74).
in(54, 76).
in(54, 77).
in(54, 83).
in(54, 85).
in(54, 87).
in(54, 88).
in(54, 90).
in(54, 92).
in(54, 94).
in(54, 96).
in(54, 101).
in(54, 106).
in(55, 3).
in(55, 5).
in(55, 7).
in(55, 9).
in(55, 11).
in(55, 12).
in(55, 21).
in(55, 24).
in(55, 25).
in(55, 26).
in(55, 29).
in(55, 30).
in(55, 45).
in(55, 46).
in(55, 47).
in(55, 48).
in(55, 52).
in(55, 53).
in(55, 54).
in(55, 56).
in(55, 58).
in(55, 65).
in(55, 69).
in(55, 74).
in(55, 80).
in(55, 82).
in(55, 84).
in(55, 86).
in(55, 88).
in(55, 90).
in(55, 91).
in(55, 93).
in(55, 96).
in(55, 100).
in(55, 103).
in(55, 104).
in(55, 105).
in(55, 108).
in(56, 3).
in(56, 4).
in(56, 8).
in(56, 15).
in(56, 18).
in(56, 27).
in(56, 33).
in(56, 34).
in(56, 36).
in(56, 43).
in(56, 44).
in(56, 51).
in(56, 54).
in(56, 56).
in(56, 60).
in(56, 62).
in(56, 64).
in(56, 67).
in(56, 68).
in(56, 70).
in(56, 71).
in(56, 72).
in(56, 73).
in(56, 80).
in(56, 81).
in(56, 82).
in(56, 84).
in(56, 85).
in(56, 86).
in(56, 87).
in(56, 88).
in(56, 89).
in(56, 98).
in(56, 107).
in(57, 11).
in(57, 13).
in(57, 16).
in(57, 21).
in(57, 22).
in(57, 23).
in(57, 26).
in(57, 30).
in(57, 31).
in(57, 38).
in(57, 43).
in(57, 44).
in(57, 45).
in(57, 48).
in(57, 55).
in(57, 56).
in(57, 58).
in(57, 71).
in(57, 75).
in(57, 82).
in(57, 85).
in(57, 86).
in(57, 87).
in(57, 91).
in(57, 96).
in(57, 107).
in(57, 108).
in(58, 1).
in(58, 4).
in(58, 7).
in(58, 8).
in(58, 12).
in(58, 13).
in(58, 16).
in(58, 18).
in(58, 21).
in(58, 25).
in(58, 28).
in(58, 29).
in(58, 31).
in(58, 34).
in(58, 38).
in(58, 43).
in(58, 44).
in(58, 45).
in(58, 47).
in(58, 49).
in(58, 50).
in(58, 53).
in(58, 55).
in(58, 57).
in(58, 59).
in(58, 70).
in(58, 73).
in(58, 74).
in(58, 79).
in(58, 81).
in(58, 82).
in(58, 93).
in(58, 94).
in(58, 95).
in(58, 97).
in(58, 98).
in(58, 108).
in(59, 1).
in(59, 5).
in(59, 6).
in(59, 11).
in(59, 13).
in(59, 14).
in(59, 19).
in(59, 21).
in(59, 22).
in(59, 23).
in(59, 24).
in(59, 25).
in(59, 32).
in(59, 33).
in(59, 36).
in(59, 45).
in(59, 46).
in(59, 48).
in(59, 49).
in(59, 57).
in(59, 59).
in(59, 60).
in(59, 63).
in(59, 64).
in(59, 65).
in(59, 67).
in(59, 74).
in(59, 75).
in(59, 76).
in(59, 82).
in(59, 83).
in(59, 86).
in(59, 88).
in(59, 89).
in(59, 91).
in(59, 92).
in(59, 95).
in(59, 96).
in(59, 103).
in(59, 104).
in(59, 105).
in(59, 107).
in(60, 4).
in(60, 8).
in(60, 11).
in(60, 12).
in(60, 15).
in(60, 18).
in(60, 21).
in(60, 22).
in(60, 25).
in(60, 26).
in(60, 27).
in(60, 29).
in(60, 32).
in(60, 35).
in(60, 39).
in(60, 46).
in(60, 50).
in(60, 51).
in(60, 55).
in(60, 61).
in(60, 62).
in(60, 63).
in(60, 64).
in(60, 67).
in(60, 69).
in(60, 70).
in(60, 75).
in(60, 80).
in(60, 82).
in(60, 84).
in(60, 86).
in(60, 90).
in(60, 92).
in(60, 94).
in(60, 95).
in(60, 101).
in(60, 102).
in(60, 104).
in(60, 105).
in(60, 107).
in(60, 108).
in(61, 2).
in(61, 6).
in(61, 8).
in(61, 16).
in(61, 17).
in(61, 18).
in(61, 19).
in(61, 20).
in(61, 22).
in(61, 23).
in(61, 24).
in(61, 25).
in(61, 28).
in(61, 34).
in(61, 35).
in(61, 37).
in(61, 40).
in(61, 47).
in(61, 49).
in(61, 50).
in(61, 51).
in(61, 52).
in(61, 53).
in(61, 54).
in(61, 56).
in(61, 57).
in(61, 60).
in(61, 63).
in(61, 66).
in(61, 67).
in(61, 70).
in(61, 75).
in(61, 79).
in(61, 84).
in(61, 89).
in(61, 92).
in(61, 94).
in(61, 96).
in(61, 97).
in(61, 102).
in(61, 104).
in(61, 106).
in(61, 108).
in(62, 2).
in(62, 3).
in(62, 5).
in(62, 10).
in(62, 18).
in(62, 23).
in(62, 25).
in(62, 27).
in(62, 33).
in(62, 34).
in(62, 35).
in(62, 38).
in(62, 40).
in(62, 41).
in(62, 42).
in(62, 44).
in(62, 45).
in(62, 51).
in(62, 52).
in(62, 55).
in(62, 57).
in(62, 59).
in(62, 61).
in(62, 63).
in(62, 67).
in(62, 71).
in(62, 72).
in(62, 75).
in(62, 80).
in(62, 83).
in(62, 85).
in(62, 88).
in(62, 91).
in(62, 95).
in(62, 99).
in(62, 103).
in(62, 107).
in(62, 108).
in(63, 3).
in(63, 4).
in(63, 7).
in(63, 18).
in(63, 21).
in(63, 22).
in(63, 23).
in(63, 24).
in(63, 30).
in(63, 40).
in(63, 45).
in(63, 48).
in(63, 49).
in(63, 51).
in(63, 52).
in(63, 58).
in(63, 63).
in(63, 64).
in(63, 67).
in(63, 68).
in(63, 75).
in(63, 76).
in(63, 81).
in(63, 84).
in(63, 85).
in(63, 89).
in(63, 93).
in(63, 101).
in(63, 102).
in(63, 104).
in(63, 107).
in(64, 1).
in(64, 8).
in(64, 9).
in(64, 11).
in(64, 16).
in(64, 20).
in(64, 29).
in(64, 35).
in(64, 39).
in(64, 40).
in(64, 41).
in(64, 42).
in(64, 43).
in(64, 54).
in(64, 55).
in(64, 56).
in(64, 61).
in(64, 63).
in(64, 66).
in(64, 70).
in(64, 71).
in(64, 72).
in(64, 78).
in(64, 82).
in(64, 84).
in(64, 85).
in(64, 92).
in(64, 96).
in(64, 102).
in(64, 106).
in(64, 107).
in(65, 1).
in(65, 2).
in(65, 8).
in(65, 9).
in(65, 14).
in(65, 18).
in(65, 22).
in(65, 23).
in(65, 26).
in(65, 38).
in(65, 41).
in(65, 43).
in(65, 48).
in(65, 50).
in(65, 53).
in(65, 55).
in(65, 57).
in(65, 69).
in(65, 70).
in(65, 72).
in(65, 73).
in(65, 77).
in(65, 82).
in(65, 85).
in(65, 87).
in(65, 90).
in(65, 92).
in(65, 98).
in(65, 103).
in(66, 1).
in(66, 2).
in(66, 3).
in(66, 5).
in(66, 16).
in(66, 17).
in(66, 19).
in(66, 29).
in(66, 34).
in(66, 39).
in(66, 45).
in(66, 51).
in(66, 55).
in(66, 60).
in(66, 61).
in(66, 64).
in(66, 65).
in(66, 68).
in(66, 71).
in(66, 73).
in(66, 75).
in(66, 76).
in(66, 79).
in(66, 86).
in(66, 87).
in(66, 89).
in(66, 90).
in(66, 94).
in(66, 95).
in(66, 96).
in(66, 97).
in(66, 98).
in(66, 100).
in(66, 101).
in(66, 108).
in(67, 3).
in(67, 4).
in(67, 10).
in(67, 11).
in(67, 12).
in(67, 14).
in(67, 19).
in(67, 21).
in(67, 24).
in(67, 25).
in(67, 28).
in(67, 30).
in(67, 35).
in(67, 36).
in(67, 43).
in(67, 47).
in(67, 49).
in(67, 50).
in(67, 56).
in(67, 57).
in(67, 60).
in(67, 61).
in(67, 66).
in(67, 69).
in(67, 70).
in(67, 73).
in(67, 74).
in(67, 76).
in(67, 77).
in(67, 83).
in(67, 88).
in(67, 96).
in(67, 98).
in(67, 99).
in(67, 100).
in(67, 101).
in(67, 104).
in(67, 105).
in(67, 106).
in(67, 107).
in(68, 2).
in(68, 5).
in(68, 8).
in(68, 12).
in(68, 14).
in(68, 18).
in(68, 22).
in(68, 23).
in(68, 26).
in(68, 28).
in(68, 33).
in(68, 35).
in(68, 36).
in(68, 37).
in(68, 40).
in(68, 41).
in(68, 43).
in(68, 46).
in(68, 47).
in(68, 51).
in(68, 56).
in(68, 59).
in(68, 60).
in(68, 65).
in(68, 66).
in(68, 69).
in(68, 73).
in(68, 77).
in(68, 78).
in(68, 79).
in(68, 81).
in(68, 86).
in(68, 90).
in(68, 92).
in(68, 93).
in(68, 95).
in(68, 99).
in(68, 107).
in(69, 2).
in(69, 4).
in(69, 11).
in(69, 12).
in(69, 14).
in(69, 18).
in(69, 20).
in(69, 22).
in(69, 24).
in(69, 26).
in(69, 30).
in(69, 32).
in(69, 34).
in(69, 37).
in(69, 38).
in(69, 42).
in(69, 43).
in(69, 45).
in(69, 46).
in(69, 47).
in(69, 49).
in(69, 54).
in(69, 56).
in(69, 59).
in(69, 60).
in(69, 61).
in(69, 62).
in(69, 63).
in(69, 67).
in(69, 69).
in(69, 70).
in(69, 71).
in(69, 72).
in(69, 78).
in(69, 81).
in(69, 82).
in(69, 86).
in(69, 88).
in(69, 91).
in(69, 92).
in(69, 94).
in(69, 96).
in(69, 98).
in(69, 100).
in(69, 102).
in(69, 105).
in(70, 2).
in(70, 3).
in(70, 7).
in(70, 8).
in(70, 13).
in(70, 18).
in(70, 25).
in(70, 28).
in(70, 29).
in(70, 31).
in(70, 32).
in(70, 38).
in(70, 49).
in(70, 50).
in(70, 52).
in(70, 54).
in(70, 60).
in(70, 63).
in(70, 68).
in(70, 76).
in(70, 77).
in(70, 78).
in(70, 80).
in(70, 83).
in(70, 85).
in(70, 88).
in(70, 90).
in(70, 92).
in(70, 93).
in(70, 95).
in(70, 99).
in(70, 100).
in(70, 101).
in(70, 105).
in(70, 106).
in(70, 108).
in(71, 3).
in(71, 4).
in(71, 8).
in(71, 9).
in(71, 11).
in(71, 15).
in(71, 21).
in(71, 22).
in(71, 25).
in(71, 26).
in(71, 27).
in(71, 29).
in(71, 34).
in(71, 35).
in(71, 39).
in(71, 43).
in(71, 48).
in(71, 49).
in(71, 57).
in(71, 60).
in(71, 61).
in(71, 63).
in(71, 66).
in(71, 67).
in(71, 68).
in(71, 72).
in(71, 74).
in(71, 76).
in(71, 77).
in(71, 80).
in(71, 87).
in(71, 90).
in(71, 94).
in(71, 98).
in(71, 101).
in(71, 103).
in(71, 106).
in(71, 107).
in(71, 108).
in(72, 10).
in(72, 16).
in(72, 17).
in(72, 19).
in(72, 20).
in(72, 22).
in(72, 25).
in(72, 26).
in(72, 27).
in(72, 32).
in(72, 34).
in(72, 37).
in(72, 38).
in(72, 39).
in(72, 42).
in(72, 47).
in(72, 48).
in(72, 53).
in(72, 54).
in(72, 63).
in(72, 67).
in(72, 69).
in(72, 72).
in(72, 73).
in(72, 75).
in(72, 78).
in(72, 83).
in(72, 88).
in(72, 91).
in(72, 96).
in(72, 100).
in(72, 101).
in(72, 102).
in(72, 103).
in(72, 107).
in(73, 3).
in(73, 5).
in(73, 8).
in(73, 13).
in(73, 14).
in(73, 16).
in(73, 21).
in(73, 23).
in(73, 25).
in(73, 28).
in(73, 30).
in(73, 32).
in(73, 35).
in(73, 37).
in(73, 38).
in(73, 43).
in(73, 44).
in(73, 46).
in(73, 48).
in(73, 50).
in(73, 51).
in(73, 52).
in(73, 58).
in(73, 60).
in(73, 64).
in(73, 65).
in(73, 68).
in(73, 70).
in(73, 72).
in(73, 73).
in(73, 76).
in(73, 80).
in(73, 84).
in(73, 86).
in(73, 87).
in(73, 91).
in(73, 94).
in(73, 96).
in(73, 97).
in(73, 98).
in(73, 101).
in(73, 102).
in(73, 107).
in(73, 108).
in(74, 9).
in(74, 10).
in(74, 11).
in(74, 23).
in(74, 24).
in(74, 26).
in(74, 27).
in(74, 34).
in(74, 37).
in(74, 43).
in(74, 46).
in(74, 47).
in(74, 48).
in(74, 50).
in(74, 54).
in(74, 55).
in(74, 56).
in(74, 57).
in(74, 59).
in(74, 61).
in(74, 62).
in(74, 68).
in(74, 69).
in(74, 71).
in(74, 72).
in(74, 78).
in(74, 79).
in(74, 84).
in(74, 89).
in(74, 93).
in(74, 96).
in(74, 99).
in(74, 101).
in(74, 106).
in(74, 108).
in(75, 1).
in(75, 4).
in(75, 6).
in(75, 8).
in(75, 12).
in(75, 18).
in(75, 19).
in(75, 28).
in(75, 31).
in(75, 33).
in(75, 39).
in(75, 41).
in(75, 42).
in(75, 47).
in(75, 49).
in(75, 52).
in(75, 53).
in(75, 54).
in(75, 55).
in(75, 63).
in(75, 66).
in(75, 67).
in(75, 68).
in(75, 72).
in(75, 78).
in(75, 82).
in(75, 84).
in(75, 86).
in(75, 90).
in(75, 91).
in(75, 93).
in(75, 94).
in(75, 95).
in(75, 99).
in(75, 103).
in(75, 104).
in(75, 107).
in(76, 2).
in(76, 3).
in(76, 13).
in(76, 17).
in(76, 19).
in(76, 22).
in(76, 23).
in(76, 27).
in(76, 30).
in(76, 32).
in(76, 33).
in(76, 40).
in(76, 51).
in(76, 52).
in(76, 56).
in(76, 57).
in(76, 58).
in(76, 59).
in(76, 64).
in(76, 72).
in(76, 75).
in(76, 77).
in(76, 79).
in(76, 82).
in(76, 83).
in(76, 87).
in(76, 90).
in(76, 93).
in(76, 97).
in(76, 100).
in(76, 103).
in(76, 108).
in(77, 2).
in(77, 3).
in(77, 6).
in(77, 11).
in(77, 13).
in(77, 14).
in(77, 15).
in(77, 16).
in(77, 17).
in(77, 22).
in(77, 24).
in(77, 25).
in(77, 26).
in(77, 29).
in(77, 30).
in(77, 32).
in(77, 34).
in(77, 36).
in(77, 40).
in(77, 53).
in(77, 54).
in(77, 60).
in(77, 61).
in(77, 64).
in(77, 66).
in(77, 67).
in(77, 68).
in(77, 70).
in(77, 78).
in(77, 83).
in(77, 85).
in(77, 98).
in(77, 104).
in(77, 106).
in(77, 108).
in(78, 1).
in(78, 5).
in(78, 11).
in(78, 14).
in(78, 16).
in(78, 18).
in(78, 19).
in(78, 21).
in(78, 24).
in(78, 25).
in(78, 28).
in(78, 32).
in(78, 40).
in(78, 41).
in(78, 57).
in(78, 61).
in(78, 63).
in(78, 64).
in(78, 67).
in(78, 69).
in(78, 73).
in(78, 76).
in(78, 78).
in(78, 79).
in(78, 82).
in(78, 85).
in(78, 91).
in(78, 92).
in(78, 93).
in(78, 94).
in(78, 99).
in(78, 108).
in(79, 5).
in(79, 9).
in(79, 12).
in(79, 13).
in(79, 14).
in(79, 23).
in(79, 25).
in(79, 27).
in(79, 30).
in(79, 31).
in(79, 32).
in(79, 34).
in(79, 36).
in(79, 39).
in(79, 41).
in(79, 45).
in(79, 48).
in(79, 49).
in(79, 55).
in(79, 56).
in(79, 57).
in(79, 58).
in(79, 65).
in(79, 68).
in(79, 75).
in(79, 77).
in(79, 83).
in(79, 85).
in(79, 90).
in(79, 92).
in(79, 95).
in(79, 100).
in(79, 101).
in(79, 106).
in(79, 107).
in(80, 7).
in(80, 10).
in(80, 11).
in(80, 15).
in(80, 16).
in(80, 18).
in(80, 19).
in(80, 21).
in(80, 23).
in(80, 25).
in(80, 26).
in(80, 31).
in(80, 35).
in(80, 37).
in(80, 38).
in(80, 39).
in(80, 40).
in(80, 41).
in(80, 44).
in(80, 45).
in(80, 46).
in(80, 47).
in(80, 51).
in(80, 54).
in(80, 56).
in(80, 58).
in(80, 63).
in(80, 64).
in(80, 69).
in(80, 70).
in(80, 73).
in(80, 74).
in(80, 75).
in(80, 79).
in(80, 80).
in(80, 81).
in(80, 82).
in(80, 86).
in(80, 87).
in(80, 88).
in(80, 89).
in(80, 102).
in(80, 103).
in(80, 105).
in(80, 107).
in(80, 108).
in(81, 3).
in(81, 9).
in(81, 13).
in(81, 15).
in(81, 19).
in(81, 21).
in(81, 22).
in(81, 24).
in(81, 25).
in(81, 26).
in(81, 32).
in(81, 33).
in(81, 34).
in(81, 35).
in(81, 38).
in(81, 40).
in(81, 43).
in(81, 46).
in(81, 48).
in(81, 52).
in(81, 56).
in(81, 61).
in(81, 62).
in(81, 67).
in(81, 70).
in(81, 71).
in(81, 72).
in(81, 76).
in(81, 79).
in(81, 80).
in(81, 82).
in(81, 83).
in(81, 88).
in(81, 91).
in(81, 92).
in(81, 96).
in(81, 99).
in(81, 101).
in(81, 105).
in(82, 5).
in(82, 7).
in(82, 8).
in(82, 11).
in(82, 20).
in(82, 23).
in(82, 26).
in(82, 31).
in(82, 32).
in(82, 34).
in(82, 39).
in(82, 40).
in(82, 42).
in(82, 46).
in(82, 52).
in(82, 53).
in(82, 58).
in(82, 59).
in(82, 61).
in(82, 63).
in(82, 68).
in(82, 69).
in(82, 72).
in(82, 73).
in(82, 80).
in(82, 85).
in(82, 87).
in(82, 88).
in(82, 91).
in(82, 97).
in(82, 98).
in(82, 100).
in(82, 103).
in(82, 108).
in(83, 3).
in(83, 4).
in(83, 7).
in(83, 8).
in(83, 12).
in(83, 14).
in(83, 18).
in(83, 22).
in(83, 23).
in(83, 24).
in(83, 26).
in(83, 35).
in(83, 36).
in(83, 46).
in(83, 53).
in(83, 65).
in(83, 71).
in(83, 74).
in(83, 78).
in(83, 79).
in(83, 81).
in(83, 84).
in(83, 90).
in(83, 91).
in(83, 92).
in(83, 94).
in(83, 95).
in(83, 99).
in(83, 102).
in(83, 104).
in(83, 105).
in(83, 107).
in(84, 4).
in(84, 6).
in(84, 8).
in(84, 12).
in(84, 14).
in(84, 15).
in(84, 16).
in(84, 17).
in(84, 27).
in(84, 29).
in(84, 31).
in(84, 32).
in(84, 37).
in(84, 38).
in(84, 41).
in(84, 43).
in(84, 45).
in(84, 46).
in(84, 47).
in(84, 52).
in(84, 58).
in(84, 62).
in(84, 63).
in(84, 65).
in(84, 66).
in(84, 70).
in(84, 71).
in(84, 73).
in(84, 77).
in(84, 80).
in(84, 82).
in(84, 85).
in(84, 90).
in(84, 91).
in(84, 93).
in(84, 95).
in(84, 101).
in(84, 103).
in(84, 108).
in(85, 3).
in(85, 4).
in(85, 8).
in(85, 11).
in(85, 13).
in(85, 19).
in(85, 21).
in(85, 22).
in(85, 29).
in(85, 31).
in(85, 35).
in(85, 36).
in(85, 38).
in(85, 41).
in(85, 49).
in(85, 50).
in(85, 51).
in(85, 54).
in(85, 56).
in(85, 57).
in(85, 70).
in(85, 74).
in(85, 76).
in(85, 77).
in(85, 78).
in(85, 82).
in(85, 83).
in(85, 89).
in(85, 97).
in(85, 107).
in(86, 1).
in(86, 4).
in(86, 8).
in(86, 11).
in(86, 14).
in(86, 16).
in(86, 20).
in(86, 22).
in(86, 25).
in(86, 27).
in(86, 29).
in(86, 32).
in(86, 37).
in(86, 40).
in(86, 43).
in(86, 44).
in(86, 45).
in(86, 48).
in(86, 51).
in(86, 53).
in(86, 54).
in(86, 56).
in(86, 61).
in(86, 68).
in(86, 71).
in(86, 74).
in(86, 75).
in(86, 76).
in(86, 80).
in(86, 81).
in(86, 87).
in(86, 91).
in(86, 94).
in(86, 96).
in(86, 98).
in(86, 100).
in(86, 102).
in(86, 104).
in(86, 108).
in(87, 5).
in(87, 9).
in(87, 13).
in(87, 14).
in(87, 16).
in(87, 19).
in(87, 21).
in(87, 22).
in(87, 24).
in(87, 26).
in(87, 31).
in(87, 36).
in(87, 46).
in(87, 48).
in(87, 50).
in(87, 51).
in(87, 55).
in(87, 57).
in(87, 59).
in(87, 68).
in(87, 71).
in(87, 74).
in(87, 83).
in(87, 87).
in(87, 91).
in(87, 106).
in(88, 3).
in(88, 5).
in(88, 6).
in(88, 8).
in(88, 10).
in(88, 13).
in(88, 17).
in(88, 18).
in(88, 20).
in(88, 24).
in(88, 25).
in(88, 26).
in(88, 28).
in(88, 31).
in(88, 34).
in(88, 36).
in(88, 39).
in(88, 48).
in(88, 49).
in(88, 50).
in(88, 52).
in(88, 57).
in(88, 63).
in(88, 67).
in(88, 69).
in(88, 71).
in(88, 84).
in(88, 85).
in(88, 88).
in(88, 95).
in(88, 96).
in(88, 99).
in(88, 105).
in(88, 106).
in(88, 108).
in(89, 3).
in(89, 7).
in(89, 8).
in(89, 9).
in(89, 10).
in(89, 12).
in(89, 13).
in(89, 14).
in(89, 19).
in(89, 21).
in(89, 23).
in(89, 24).
in(89, 28).
in(89, 29).
in(89, 31).
in(89, 32).
in(89, 38).
in(89, 42).
in(89, 43).
in(89, 53).
in(89, 56).
in(89, 59).
in(89, 63).
in(89, 67).
in(89, 69).
in(89, 70).
in(89, 73).
in(89, 75).
in(89, 76).
in(89, 77).
in(89, 79).
in(89, 80).
in(89, 83).
in(89, 85).
in(89, 87).
in(89, 88).
in(89, 92).
in(89, 94).
in(89, 97).
in(89, 100).
in(89, 108).
in(90, 5).
in(90, 6).
in(90, 17).
in(90, 18).
in(90, 22).
in(90, 24).
in(90, 25).
in(90, 26).
in(90, 35).
in(90, 36).
in(90, 40).
in(90, 41).
in(90, 49).
in(90, 51).
in(90, 54).
in(90, 59).
in(90, 61).
in(90, 62).
in(90, 73).
in(90, 74).
in(90, 75).
in(90, 77).
in(90, 79).
in(90, 81).
in(90, 83).
in(90, 86).
in(90, 87).
in(90, 88).
in(90, 90).
in(90, 93).
in(90, 94).
in(90, 95).
in(90, 102).
in(90, 104).
in(90, 105).
in(90, 108).
in(91, 1).
in(91, 3).
in(91, 4).
in(91, 6).
in(91, 8).
in(91, 10).
in(91, 14).
in(91, 16).
in(91, 21).
in(91, 25).
in(91, 27).
in(91, 30).
in(91, 33).
in(91, 36).
in(91, 38).
in(91, 43).
in(91, 44).
in(91, 45).
in(91, 48).
in(91, 54).
in(91, 57).
in(91, 61).
in(91, 63).
in(91, 65).
in(91, 68).
in(91, 78).
in(91, 85).
in(91, 86).
in(91, 92).
in(91, 93).
in(91, 101).
in(91, 102).
in(91, 103).
in(91, 104).
in(91, 105).
in(91, 107).
in(92, 1).
in(92, 5).
in(92, 8).
in(92, 10).
in(92, 11).
in(92, 15).
in(92, 16).
in(92, 24).
in(92, 27).
in(92, 30).
in(92, 49).
in(92, 52).
in(92, 56).
in(92, 63).
in(92, 74).
in(92, 75).
in(92, 78).
in(92, 82).
in(92, 83).
in(92, 85).
in(92, 86).
in(92, 90).
in(92, 95).
in(92, 98).
in(92, 99).
in(92, 107).
in(93, 2).
in(93, 4).
in(93, 5).
in(93, 7).
in(93, 9).
in(93, 10).
in(93, 11).
in(93, 14).
in(93, 15).
in(93, 17).
in(93, 18).
in(93, 19).
in(93, 25).
in(93, 31).
in(93, 33).
in(93, 37).
in(93, 38).
in(93, 43).
in(93, 44).
in(93, 58).
in(93, 59).
in(93, 62).
in(93, 63).
in(93, 66).
in(93, 70).
in(93, 71).
in(93, 73).
in(93, 76).
in(93, 80).
in(93, 84).
in(93, 86).
in(93, 87).
in(93, 90).
in(93, 95).
in(93, 98).
in(93, 99).
in(93, 101).
in(93, 106).
in(93, 108).
in(94, 1).
in(94, 7).
in(94, 8).
in(94, 10).
in(94, 11).
in(94, 13).
in(94, 15).
in(94, 18).
in(94, 19).
in(94, 21).
in(94, 22).
in(94, 25).
in(94, 27).
in(94, 30).
in(94, 31).
in(94, 33).
in(94, 36).
in(94, 37).
in(94, 38).
in(94, 41).
in(94, 44).
in(94, 46).
in(94, 47).
in(94, 50).
in(94, 53).
in(94, 59).
in(94, 63).
in(94, 71).
in(94, 76).
in(94, 78).
in(94, 79).
in(94, 85).
in(94, 86).
in(94, 90).
in(94, 91).
in(94, 93).
in(94, 94).
in(94, 95).
in(94, 98).
in(94, 100).
in(94, 102).
in(95, 1).
in(95, 3).
in(95, 4).
in(95, 5).
in(95, 8).
in(95, 9).
in(95, 10).
in(95, 15).
in(95, 21).
in(95, 22).
in(95, 23).
in(95, 24).
in(95, 29).
in(95, 32).
in(95, 37).
in(95, 41).
in(95, 43).
in(95, 45).
in(95, 46).
in(95, 48).
in(95, 49).
in(95, 50).
in(95, 55).
in(95, 56).
in(95, 62).
in(95, 65).
in(95, 70).
in(95, 72).
in(95, 74).
in(95, 80).
in(95, 83).
in(95, 84).
in(95, 85).
in(95, 86).
in(95, 87).
in(95, 91).
in(95, 96).
in(95, 98).
in(95, 99).
in(95, 101).
in(95, 106).
in(95, 107).
in(96, 1).
in(96, 2).
in(96, 5).
in(96, 10).
in(96, 11).
in(96, 14).
in(96, 16).
in(96, 20).
in(96, 22).
in(96, 24).
in(96, 25).
in(96, 26).
in(96, 27).
in(96, 28).
in(96, 30).
in(96, 33).
in(96, 40).
in(96, 42).
in(96, 55).
in(96, 56).
in(96, 65).
in(96, 68).
in(96, 70).
in(96, 73).
in(96, 78).
in(96, 80).
in(96, 84).
in(96, 85).
in(96, 88).
in(96, 90).
in(96, 96).
in(96, 101).
in(96, 102).
in(96, 104).
in(96, 106).
in(96, 108).
in(97, 5).
in(97, 6).
in(97, 7).
in(97, 12).
in(97, 13).
in(97, 14).
in(97, 15).
in(97, 16).
in(97, 22).
in(97, 23).
in(97, 26).
in(97, 30).
in(97, 31).
in(97, 32).
in(97, 33).
in(97, 38).
in(97, 40).
in(97, 42).
in(97, 54).
in(97, 58).
in(97, 59).
in(97, 63).
in(97, 67).
in(97, 69).
in(97, 75).
in(97, 78).
in(97, 80).
in(97, 81).
in(97, 82).
in(97, 85).
in(97, 88).
in(97, 89).
in(97, 92).
in(97, 94).
in(97, 97).
in(98, 1).
in(98, 7).
in(98, 9).
in(98, 12).
in(98, 18).
in(98, 23).
in(98, 26).
in(98, 27).
in(98, 29).
in(98, 31).
in(98, 33).
in(98, 35).
in(98, 43).
in(98, 44).
in(98, 47).
in(98, 48).
in(98, 49).
in(98, 57).
in(98, 59).
in(98, 60).
in(98, 64).
in(98, 65).
in(98, 69).
in(98, 70).
in(98, 72).
in(98, 75).
in(98, 77).
in(98, 79).
in(98, 86).
in(98, 97).
in(98, 104).
in(98, 106).
in(99, 1).
in(99, 2).
in(99, 10).
in(99, 11).
in(99, 12).
in(99, 14).
in(99, 15).
in(99, 16).
in(99, 18).
in(99, 24).
in(99, 29).
in(99, 30).
in(99, 33).
in(99, 36).
in(99, 39).
in(99, 40).
in(99, 42).
in(99, 43).
in(99, 47).
in(99, 48).
in(99, 49).
in(99, 50).
in(99, 51).
in(99, 59).
in(99, 64).
in(99, 66).
in(99, 67).
in(99, 72).
in(99, 76).
in(99, 81).
in(99, 82).
in(99, 83).
in(99, 84).
in(99, 87).
in(99, 88).
in(99, 89).
in(99, 95).
in(99, 96).
in(99, 101).
in(99, 106).
in(99, 107).
in(99, 108).
in(100, 1).
in(100, 5).
in(100, 6).
in(100, 7).
in(100, 11).
in(100, 12).
in(100, 13).
in(100, 14).
in(100, 16).
in(100, 19).
in(100, 22).
in(100, 24).
in(100, 25).
in(100, 30).
in(100, 32).
in(100, 41).
in(100, 43).
in(100, 45).
in(100, 47).
in(100, 48).
in(100, 49).
in(100, 51).
in(100, 52).
in(100, 55).
in(100, 56).
in(100, 57).
in(100, 58).
in(100, 59).
in(100, 61).
in(100, 62).
in(100, 64).
in(100, 66).
in(100, 69).
in(100, 70).
in(100, 74).
in(100, 75).
in(100, 76).
in(100, 77).
in(100, 80).
in(100, 81).
in(100, 84).
in(100, 86).
in(100, 90).
in(100, 94).
in(100, 96).
in(100, 97).
in(100, 98).
in(100, 102).
in(100, 108).
in(101, 3).
in(101, 5).
in(101, 12).
in(101, 15).
in(101, 17).
in(101, 19).
in(101, 29).
in(101, 31).
in(101, 35).
in(101, 42).
in(101, 43).
in(101, 47).
in(101, 55).
in(101, 57).
in(101, 60).
in(101, 61).
in(101, 63).
in(101, 69).
in(101, 75).
in(101, 77).
in(101, 80).
in(101, 84).
in(101, 87).
in(101, 89).
in(101, 90).
in(101, 99).
in(101, 101).
in(101, 105).
in(102, 1).
in(102, 2).
in(102, 4).
in(102, 11).
in(102, 12).
in(102, 13).
in(102, 16).
in(102, 19).
in(102, 23).
in(102, 28).
in(102, 36).
in(102, 37).
in(102, 38).
in(102, 45).
in(102, 50).
in(102, 53).
in(102, 57).
in(102, 63).
in(102, 67).
in(102, 68).
in(102, 69).
in(102, 72).
in(102, 73).
in(102, 76).
in(102, 77).
in(102, 81).
in(102, 84).
in(102, 85).
in(102, 86).
in(102, 88).
in(102, 91).
in(102, 92).
in(102, 93).
in(102, 95).
in(102, 97).
in(102, 98).
in(102, 99).
in(102, 105).
in(102, 107).
in(102, 108).
in(103, 1).
in(103, 7).
in(103, 10).
in(103, 13).
in(103, 20).
in(103, 21).
in(103, 24).
in(103, 27).
in(103, 28).
in(103, 32).
in(103, 34).
in(103, 35).
in(103, 37).
in(103, 38).
in(103, 49).
in(103, 52).
in(103, 55).
in(103, 56).
in(103, 58).
in(103, 61).
in(103, 63).
in(103, 69).
in(103, 73).
in(103, 76).
in(103, 79).
in(103, 81).
in(103, 82).
in(103, 84).
in(103, 85).
in(103, 87).
in(103, 88).
in(103, 93).
in(103, 101).
in(103, 102).
in(103, 104).
in(103, 107).
in(104, 1).
in(104, 4).
in(104, 14).
in(104, 16).
in(104, 19).
in(104, 21).
in(104, 23).
in(104, 24).
in(104, 26).
in(104, 27).
in(104, 33).
in(104, 34).
in(104, 42).
in(104, 44).
in(104, 45).
in(104, 46).
in(104, 47).
in(104, 50).
in(104, 52).
in(104, 54).
in(104, 61).
in(104, 63).
in(104, 66).
in(104, 68).
in(104, 69).
in(104, 71).
in(104, 73).
in(104, 75).
in(104, 79).
in(104, 84).
in(104, 85).
in(104, 86).
in(104, 91).
in(104, 100).
in(104, 101).
in(104, 103).
in(104, 106).
in(104, 108).
in(105, 1).
in(105, 8).
in(105, 11).
in(105, 14).
in(105, 15).
in(105, 16).
in(105, 17).
in(105, 18).
in(105, 19).
in(105, 21).
in(105, 23).
in(105, 24).
in(105, 26).
in(105, 37).
in(105, 41).
in(105, 50).
in(105, 51).
in(105, 52).
in(105, 59).
in(105, 60).
in(105, 62).
in(105, 66).
in(105, 70).
in(105, 76).
in(105, 80).
in(105, 84).
in(105, 87).
in(105, 93).
in(105, 94).
in(105, 95).
in(105, 98).
in(105, 100).
in(105, 106).
in(106, 1).
in(106, 3).
in(106, 6).
in(106, 8).
in(106, 9).
in(106, 10).
in(106, 15).
in(106, 18).
in(106, 19).
in(106, 20).
in(106, 21).
in(106, 26).
in(106, 29).
in(106, 31).
in(106, 33).
in(106, 34).
in(106, 36).
in(106, 38).
in(106, 39).
in(106, 42).
in(106, 46).
in(106, 47).
in(106, 48).
in(106, 50).
in(106, 52).
in(106, 54).
in(106, 56).
in(106, 57).
in(106, 70).
in(106, 75).
in(106, 77).
in(106, 82).
in(106, 85).
in(106, 89).
in(106, 92).
in(106, 95).
in(106, 98).
in(106, 99).
in(106, 100).
in(106, 101).
in(106, 103).
in(107, 4).
in(107, 5).
in(107, 7).
in(107, 8).
in(107, 9).
in(107, 15).
in(107, 18).
in(107, 23).
in(107, 28).
in(107, 30).
in(107, 31).
in(107, 32).
in(107, 36).
in(107, 37).
in(107, 40).
in(107, 46).
in(107, 50).
in(107, 51).
in(107, 52).
in(107, 53).
in(107, 58).
in(107, 59).
in(107, 62).
in(107, 63).
in(107, 66).
in(107, 70).
in(107, 72).
in(107, 76).
in(107, 79).
in(107, 80).
in(107, 82).
in(107, 86).
in(107, 89).
in(107, 92).
in(107, 93).
in(107, 96).
in(107, 98).
in(107, 99).
in(107, 100).
in(107, 102).
in(107, 104).
in(108, 9).
in(108, 16).
in(108, 17).
in(108, 20).
in(108, 22).
in(108, 23).
in(108, 28).
in(108, 30).
in(108, 32).
in(108, 33).
in(108, 35).
in(108, 37).
in(108, 38).
in(108, 39).
in(108, 48).
in(108, 49).
in(108, 50).
in(108, 56).
in(108, 57).
in(108, 59).
in(108, 61).
in(108, 62).
in(108, 66).
in(108, 68).
in(108, 70).
in(108, 72).
in(108, 76).
in(108, 77).
in(108, 79).
in(108, 80).
in(108, 81).
in(108, 84).
in(108, 89).
in(108, 92).
in(108, 98).
in(108, 100).
in(108, 103).
in(108, 108).
in(109, 2).
in(109, 4).
in(109, 8).
in(109, 9).
in(109, 17).
in(109, 18).
in(109, 19).
in(109, 21).
in(109, 24).
in(109, 25).
in(109, 29).
in(109, 35).
in(109, 37).
in(109, 40).
in(109, 41).
in(109, 45).
in(109, 46).
in(109, 48).
in(109, 56).
in(109, 57).
in(109, 61).
in(109, 63).
in(109, 64).
in(109, 68).
in(109, 69).
in(109, 72).
in(109, 74).
in(109, 76).
in(109, 83).
in(109, 90).
in(109, 106).
in(110, 2).
in(110, 5).
in(110, 6).
in(110, 19).
in(110, 22).
in(110, 26).
in(110, 29).
in(110, 35).
in(110, 41).
in(110, 43).
in(110, 49).
in(110, 51).
in(110, 52).
in(110, 55).
in(110, 58).
in(110, 59).
in(110, 64).
in(110, 68).
in(110, 70).
in(110, 75).
in(110, 78).
in(110, 80).
in(110, 85).
in(110, 90).
in(110, 92).
in(110, 101).
in(110, 102).
in(110, 104).
in(111, 1).
in(111, 5).
in(111, 6).
in(111, 8).
in(111, 12).
in(111, 19).
in(111, 20).
in(111, 22).
in(111, 25).
in(111, 26).
in(111, 28).
in(111, 37).
in(111, 40).
in(111, 44).
in(111, 51).
in(111, 52).
in(111, 54).
in(111, 55).
in(111, 56).
in(111, 58).
in(111, 62).
in(111, 64).
in(111, 65).
in(111, 66).
in(111, 67).
in(111, 68).
in(111, 69).
in(111, 70).
in(111, 71).
in(111, 72).
in(111, 74).
in(111, 75).
in(111, 78).
in(111, 81).
in(111, 84).
in(111, 85).
in(111, 88).
in(111, 90).
in(111, 92).
in(111, 93).
in(111, 97).
in(111, 104).
in(111, 107).
in(112, 2).
in(112, 4).
in(112, 6).
in(112, 7).
in(112, 12).
in(112, 14).
in(112, 16).
in(112, 27).
in(112, 30).
in(112, 34).
in(112, 40).
in(112, 45).
in(112, 46).
in(112, 50).
in(112, 54).
in(112, 55).
in(112, 60).
in(112, 61).
in(112, 63).
in(112, 67).
in(112, 68).
in(112, 70).
in(112, 72).
in(112, 73).
in(112, 78).
in(112, 80).
in(112, 81).
in(112, 83).
in(112, 90).
in(112, 94).
in(112, 97).
in(112, 103).
in(112, 108).
in(113, 5).
in(113, 7).
in(113, 11).
in(113, 14).
in(113, 21).
in(113, 23).
in(113, 26).
in(113, 30).
in(113, 34).
in(113, 35).
in(113, 38).
in(113, 41).
in(113, 45).
in(113, 46).
in(113, 51).
in(113, 54).
in(113, 60).
in(113, 63).
in(113, 69).
in(113, 70).
in(113, 73).
in(113, 74).
in(113, 80).
in(113, 82).
in(113, 84).
in(113, 87).
in(113, 88).
in(113, 89).
in(113, 93).
in(113, 94).
in(113, 97).
in(113, 99).
in(113, 102).
in(114, 2).
in(114, 4).
in(114, 5).
in(114, 6).
in(114, 7).
in(114, 8).
in(114, 12).
in(114, 13).
in(114, 14).
in(114, 23).
in(114, 26).
in(114, 27).
in(114, 29).
in(114, 37).
in(114, 38).
in(114, 40).
in(114, 45).
in(114, 47).
in(114, 48).
in(114, 52).
in(114, 55).
in(114, 57).
in(114, 58).
in(114, 59).
in(114, 62).
in(114, 63).
in(114, 64).
in(114, 65).
in(114, 66).
in(114, 68).
in(114, 69).
in(114, 71).
in(114, 73).
in(114, 78).
in(114, 79).
in(114, 81).
in(114, 82).
in(114, 83).
in(114, 86).
in(114, 87).
in(114, 91).
in(114, 92).
in(114, 95).
in(114, 96).
in(114, 100).
in(114, 101).
in(114, 102).
in(114, 104).
in(114, 107).
in(115, 4).
in(115, 6).
in(115, 10).
in(115, 11).
in(115, 13).
in(115, 15).
in(115, 17).
in(115, 18).
in(115, 19).
in(115, 25).
in(115, 27).
in(115, 30).
in(115, 32).
in(115, 33).
in(115, 37).
in(115, 40).
in(115, 48).
in(115, 51).
in(115, 55).
in(115, 57).
in(115, 58).
in(115, 65).
in(115, 66).
in(115, 71).
in(115, 73).
in(115, 74).
in(115, 77).
in(115, 79).
in(115, 84).
in(115, 86).
in(115, 87).
in(115, 91).
in(115, 99).
in(115, 100).
in(115, 102).
in(115, 106).
in(116, 1).
in(116, 5).
in(116, 6).
in(116, 9).
in(116, 11).
in(116, 12).
in(116, 13).
in(116, 14).
in(116, 28).
in(116, 31).
in(116, 34).
in(116, 37).
in(116, 39).
in(116, 41).
in(116, 43).
in(116, 47).
in(116, 50).
in(116, 59).
in(116, 62).
in(116, 63).
in(116, 67).
in(116, 68).
in(116, 70).
in(116, 74).
in(116, 75).
in(116, 76).
in(116, 79).
in(116, 80).
in(116, 82).
in(116, 87).
in(116, 95).
in(116, 99).
in(116, 102).
in(117, 1).
in(117, 4).
in(117, 6).
in(117, 7).
in(117, 11).
in(117, 12).
in(117, 15).
in(117, 16).
in(117, 19).
in(117, 21).
in(117, 24).
in(117, 25).
in(117, 29).
in(117, 33).
in(117, 38).
in(117, 39).
in(117, 40).
in(117, 42).
in(117, 43).
in(117, 44).
in(117, 46).
in(117, 48).
in(117, 52).
in(117, 54).
in(117, 56).
in(117, 57).
in(117, 63).
in(117, 67).
in(117, 76).
in(117, 78).
in(117, 81).
in(117, 86).
in(117, 95).
in(117, 96).
in(117, 97).
in(117, 99).
in(117, 101).
in(118, 1).
in(118, 4).
in(118, 5).
in(118, 7).
in(118, 13).
in(118, 14).
in(118, 15).
in(118, 19).
in(118, 23).
in(118, 25).
in(118, 29).
in(118, 31).
in(118, 33).
in(118, 35).
in(118, 37).
in(118, 38).
in(118, 39).
in(118, 45).
in(118, 47).
in(118, 48).
in(118, 55).
in(118, 60).
in(118, 61).
in(118, 62).
in(118, 64).
in(118, 65).
in(118, 67).
in(118, 74).
in(118, 80).
in(118, 81).
in(118, 83).
in(118, 84).
in(118, 85).
in(118, 90).
in(118, 92).
in(118, 94).
in(118, 96).
in(118, 97).
in(118, 98).
in(118, 101).
in(118, 103).
in(118, 104).
in(118, 107).
in(118, 108).
in(119, 1).
in(119, 2).
in(119, 4).
in(119, 5).
in(119, 6).
in(119, 8).
in(119, 14).
in(119, 15).
in(119, 16).
in(119, 23).
in(119, 25).
in(119, 29).
in(119, 30).
in(119, 35).
in(119, 39).
in(119, 40).
in(119, 48).
in(119, 56).
in(119, 59).
in(119, 60).
in(119, 65).
in(119, 69).
in(119, 75).
in(119, 77).
in(119, 78).
in(119, 82).
in(119, 84).
in(119, 85).
in(119, 90).
in(119, 91).
in(119, 93).
in(119, 94).
in(119, 95).
in(119, 99).
in(119, 100).
in(119, 101).
in(119, 104).
in(119, 105).
in(119, 106).
in(119, 108).
in(120, 1).
in(120, 5).
in(120, 7).
in(120, 9).
in(120, 10).
in(120, 11).
in(120, 18).
in(120, 19).
in(120, 34).
in(120, 49).
in(120, 52).
in(120, 56).
in(120, 62).
in(120, 64).
in(120, 66).
in(120, 69).
in(120, 70).
in(120, 71).
in(120, 72).
in(120, 74).
in(120, 75).
in(120, 78).
in(120, 82).
in(120, 84).
in(120, 85).
in(120, 92).
in(120, 99).
in(120, 101).
in(120, 102).
in(120, 103).
in(120, 107).
in(120, 108).
in(121, 9).
in(121, 12).
in(121, 15).
in(121, 19).
in(121, 21).
in(121, 24).
in(121, 28).
in(121, 34).
in(121, 35).
in(121, 39).
in(121, 48).
in(121, 51).
in(121, 52).
in(121, 60).
in(121, 61).
in(121, 64).
in(121, 73).
in(121, 74).
in(121, 79).
in(121, 80).
in(121, 81).
in(121, 84).
in(121, 89).
in(121, 95).
in(121, 96).
in(121, 101).
in(121, 102).
in(121, 103).
in(121, 105).
in(122, 1).
in(122, 2).
in(122, 3).
in(122, 4).
in(122, 5).
in(122, 6).
in(122, 8).
in(122, 9).
in(122, 13).
in(122, 14).
in(122, 17).
in(122, 21).
in(122, 22).
in(122, 23).
in(122, 31).
in(122, 35).
in(122, 38).
in(122, 40).
in(122, 41).
in(122, 44).
in(122, 47).
in(122, 51).
in(122, 54).
in(122, 56).
in(122, 59).
in(122, 61).
in(122, 63).
in(122, 64).
in(122, 65).
in(122, 68).
in(122, 69).
in(122, 70).
in(122, 71).
in(122, 73).
in(122, 75).
in(122, 77).
in(122, 81).
in(122, 83).
in(122, 88).
in(122, 93).
in(122, 94).
in(122, 95).
in(122, 97).
in(122, 102).
in(122, 103).
in(123, 2).
in(123, 7).
in(123, 8).
in(123, 9).
in(123, 10).
in(123, 12).
in(123, 19).
in(123, 21).
in(123, 26).
in(123, 28).
in(123, 29).
in(123, 30).
in(123, 31).
in(123, 32).
in(123, 35).
in(123, 36).
in(123, 39).
in(123, 46).
in(123, 49).
in(123, 51).
in(123, 62).
in(123, 64).
in(123, 67).
in(123, 68).
in(123, 69).
in(123, 71).
in(123, 72).
in(123, 75).
in(123, 78).
in(123, 79).
in(123, 81).
in(123, 85).
in(123, 86).
in(123, 91).
in(123, 92).
in(123, 93).
in(123, 96).
in(123, 97).
in(123, 98).
in(123, 99).
in(123, 101).
in(123, 102).
in(123, 103).
in(123, 108).
in(124, 5).
in(124, 7).
in(124, 8).
in(124, 9).
in(124, 10).
in(124, 11).
in(124, 12).
in(124, 15).
in(124, 16).
in(124, 17).
in(124, 26).
in(124, 29).
in(124, 31).
in(124, 32).
in(124, 35).
in(124, 37).
in(124, 44).
in(124, 47).
in(124, 48).
in(124, 49).
in(124, 52).
in(124, 61).
in(124, 64).
in(124, 71).
in(124, 75).
in(124, 76).
in(124, 77).
in(124, 78).
in(124, 82).
in(124, 83).
in(124, 85).
in(124, 88).
in(124, 91).
in(124, 92).
in(124, 100).
in(124, 107).
in(125, 5).
in(125, 11).
in(125, 13).
in(125, 25).
in(125, 27).
in(125, 31).
in(125, 32).
in(125, 33).
in(125, 34).
in(125, 37).
in(125, 39).
in(125, 42).
in(125, 44).
in(125, 45).
in(125, 53).
in(125, 59).
in(125, 61).
in(125, 66).
in(125, 67).
in(125, 68).
in(125, 71).
in(125, 80).
in(125, 81).
in(125, 82).
in(125, 83).
in(125, 92).
in(125, 95).
in(125, 96).
in(125, 99).
in(125, 105).
in(125, 106).
in(125, 107).
in(126, 1).
in(126, 4).
in(126, 8).
in(126, 10).
in(126, 13).
in(126, 15).
in(126, 16).
in(126, 23).
in(126, 24).
in(126, 34).
in(126, 40).
in(126, 43).
in(126, 54).
in(126, 55).
in(126, 56).
in(126, 59).
in(126, 62).
in(126, 65).
in(126, 68).
in(126, 69).
in(126, 75).
in(126, 76).
in(126, 83).
in(126, 85).
in(126, 87).
in(126, 94).
in(126, 100).
in(126, 102).
in(126, 105).
in(127, 1).
in(127, 6).
in(127, 7).
in(127, 10).
in(127, 11).
in(127, 18).
in(127, 22).
in(127, 24).
in(127, 29).
in(127, 30).
in(127, 33).
in(127, 34).
in(127, 38).
in(127, 39).
in(127, 42).
in(127, 44).
in(127, 46).
in(127, 47).
in(127, 56).
in(127, 57).
in(127, 61).
in(127, 63).
in(127, 65).
in(127, 66).
in(127, 69).
in(127, 70).
in(127, 72).
in(127, 73).
in(127, 74).
in(127, 76).
in(127, 81).
in(127, 82).
in(127, 85).
in(127, 87).
in(127, 88).
in(127, 89).
in(127, 90).
in(127, 95).
in(127, 97).
in(127, 101).
in(127, 102).
in(127, 104).
in(127, 105).
in(128, 1).
in(128, 2).
in(128, 5).
in(128, 6).
in(128, 8).
in(128, 12).
in(128, 15).
in(128, 16).
in(128, 22).
in(128, 24).
in(128, 26).
in(128, 32).
in(128, 35).
in(128, 39).
in(128, 40).
in(128, 50).
in(128, 54).
in(128, 55).
in(128, 56).
in(128, 59).
in(128, 62).
in(128, 65).
in(128, 70).
in(128, 71).
in(128, 72).
in(128, 73).
in(128, 74).
in(128, 77).
in(128, 79).
in(128, 81).
in(128, 82).
in(128, 84).
in(128, 89).
in(128, 91).
in(128, 92).
in(128, 93).
in(128, 94).
in(128, 98).
in(128, 99).
in(128, 100).
in(128, 101).
in(128, 103).
in(128, 104).
in(128, 108).
in(129, 4).
in(129, 7).
in(129, 10).
in(129, 14).
in(129, 17).
in(129, 19).
in(129, 23).
in(129, 25).
in(129, 28).
in(129, 33).
in(129, 34).
in(129, 35).
in(129, 37).
in(129, 40).
in(129, 42).
in(129, 45).
in(129, 48).
in(129, 49).
in(129, 50).
in(129, 53).
in(129, 54).
in(129, 57).
in(129, 58).
in(129, 62).
in(129, 63).
in(129, 64).
in(129, 67).
in(129, 70).
in(129, 72).
in(129, 73).
in(129, 77).
in(129, 78).
in(129, 79).
in(129, 80).
in(129, 81).
in(129, 82).
in(129, 84).
in(129, 85).
in(129, 88).
in(129, 89).
in(129, 90).
in(129, 94).
in(129, 95).
in(129, 102).
in(129, 104).
in(129, 106).
in(130, 1).
in(130, 2).
in(130, 5).
in(130, 11).
in(130, 14).
in(130, 15).
in(130, 17).
in(130, 22).
in(130, 23).
in(130, 24).
in(130, 31).
in(130, 34).
in(130, 36).
in(130, 40).
in(130, 41).
in(130, 47).
in(130, 48).
in(130, 51).
in(130, 53).
in(130, 55).
in(130, 56).
in(130, 57).
in(130, 58).
in(130, 61).
in(130, 62).
in(130, 63).
in(130, 64).
in(130, 68).
in(130, 70).
in(130, 72).
in(130, 75).
in(130, 77).
in(130, 80).
in(130, 81).
in(130, 83).
in(130, 85).
in(130, 91).
in(130, 95).
in(130, 96).
in(130, 100).
in(130, 102).
in(130, 104).
in(130, 106).
in(130, 108).
in(131, 1).
in(131, 2).
in(131, 4).
in(131, 6).
in(131, 9).
in(131, 12).
in(131, 14).
in(131, 22).
in(131, 31).
in(131, 32).
in(131, 40).
in(131, 41).
in(131, 44).
in(131, 48).
in(131, 52).
in(131, 53).
in(131, 54).
in(131, 56).
in(131, 61).
in(131, 63).
in(131, 65).
in(131, 67).
in(131, 72).
in(131, 74).
in(131, 75).
in(131, 77).
in(131, 79).
in(131, 80).
in(131, 82).
in(131, 84).
in(131, 86).
in(131, 87).
in(131, 91).
in(131, 92).
in(131, 93).
in(131, 94).
in(131, 97).
in(131, 101).
in(131, 104).
in(131, 108).
in(132, 2).
in(132, 4).
in(132, 7).
in(132, 8).
in(132, 13).
in(132, 16).
in(132, 22).
in(132, 23).
in(132, 31).
in(132, 33).
in(132, 34).
in(132, 36).
in(132, 44).
in(132, 48).
in(132, 51).
in(132, 52).
in(132, 55).
in(132, 57).
in(132, 63).
in(132, 73).
in(132, 75).
in(132, 85).
in(132, 86).
in(132, 88).
in(132, 89).
in(132, 92).
in(132, 101).
in(132, 102).
in(132, 107).
in(132, 108).
in(133, 2).
in(133, 6).
in(133, 7).
in(133, 11).
in(133, 26).
in(133, 31).
in(133, 32).
in(133, 33).
in(133, 34).
in(133, 40).
in(133, 41).
in(133, 43).
in(133, 45).
in(133, 48).
in(133, 49).
in(133, 50).
in(133, 52).
in(133, 53).
in(133, 54).
in(133, 58).
in(133, 64).
in(133, 66).
in(133, 68).
in(133, 70).
in(133, 71).
in(133, 72).
in(133, 75).
in(133, 79).
in(133, 82).
in(133, 85).
in(133, 88).
in(133, 93).
in(133, 95).
in(133, 96).
in(133, 100).
in(133, 106).
in(134, 2).
in(134, 7).
in(134, 8).
in(134, 15).
in(134, 23).
in(134, 24).
in(134, 27).
in(134, 29).
in(134, 30).
in(134, 34).
in(134, 37).
in(134, 44).
in(134, 45).
in(134, 47).
in(134, 48).
in(134, 49).
in(134, 52).
in(134, 58).
in(134, 63).
in(134, 65).
in(134, 66).
in(134, 69).
in(134, 71).
in(134, 72).
in(134, 73).
in(134, 75).
in(134, 81).
in(134, 87).
in(134, 88).
in(134, 92).
in(134, 97).
in(134, 102).
in(134, 107).
in(135, 3).
in(135, 8).
in(135, 12).
in(135, 13).
in(135, 14).
in(135, 15).
in(135, 17).
in(135, 30).
in(135, 31).
in(135, 33).
in(135, 34).
in(135, 35).
in(135, 38).
in(135, 40).
in(135, 44).
in(135, 45).
in(135, 47).
in(135, 51).
in(135, 54).
in(135, 55).
in(135, 56).
in(135, 57).
in(135, 63).
in(135, 67).
in(135, 69).
in(135, 70).
in(135, 72).
in(135, 73).
in(135, 77).
in(135, 78).
in(135, 80).
in(135, 82).
in(135, 87).
in(135, 88).
in(135, 89).
in(135, 92).
in(135, 94).
in(135, 96).
in(135, 100).
in(135, 101).
in(135, 103).
in(135, 107).
in(136, 8).
in(136, 9).
in(136, 13).
in(136, 15).
in(136, 16).
in(136, 17).
in(136, 18).
in(136, 20).
in(136, 21).
in(136, 23).
in(136, 24).
in(136, 26).
in(136, 27).
in(136, 35).
in(136, 36).
in(136, 38).
in(136, 41).
in(136, 43).
in(136, 49).
in(136, 55).
in(136, 59).
in(136, 61).
in(136, 62).
in(136, 63).
in(136, 64).
in(136, 67).
in(136, 69).
in(136, 73).
in(136, 74).
in(136, 75).
in(136, 77).
in(136, 78).
in(136, 85).
in(136, 88).
in(136, 89).
in(136, 90).
in(136, 91).
in(136, 102).
in(136, 104).
in(136, 106).
in(136, 108).
in(137, 1).
in(137, 4).
in(137, 6).
in(137, 12).
in(137, 13).
in(137, 15).
in(137, 20).
in(137, 22).
in(137, 28).
in(137, 33).
in(137, 34).
in(137, 35).
in(137, 39).
in(137, 42).
in(137, 47).
in(137, 50).
in(137, 51).
in(137, 56).
in(137, 60).
in(137, 61).
in(137, 62).
in(137, 68).
in(137, 69).
in(137, 78).
in(137, 79).
in(137, 80).
in(137, 83).
in(137, 84).
in(137, 93).
in(137, 95).
in(137, 97).
in(137, 98).
in(137, 101).
in(137, 103).
in(138, 5).
in(138, 6).
in(138, 8).
in(138, 11).
in(138, 12).
in(138, 13).
in(138, 15).
in(138, 17).
in(138, 20).
in(138, 23).
in(138, 26).
in(138, 28).
in(138, 29).
in(138, 31).
in(138, 32).
in(138, 34).
in(138, 35).
in(138, 37).
in(138, 39).
in(138, 41).
in(138, 42).
in(138, 45).
in(138, 50).
in(138, 54).
in(138, 56).
in(138, 57).
in(138, 58).
in(138, 62).
in(138, 66).
in(138, 70).
in(138, 74).
in(138, 76).
in(138, 79).
in(138, 80).
in(138, 85).
in(138, 86).
in(138, 88).
in(138, 90).
in(138, 91).
in(138, 95).
in(138, 97).
in(138, 101).
in(138, 108).
in(139, 4).
in(139, 7).
in(139, 8).
in(139, 9).
in(139, 10).
in(139, 12).
in(139, 14).
in(139, 17).
in(139, 21).
in(139, 24).
in(139, 26).
in(139, 29).
in(139, 30).
in(139, 32).
in(139, 41).
in(139, 43).
in(139, 45).
in(139, 46).
in(139, 58).
in(139, 59).
in(139, 60).
in(139, 67).
in(139, 76).
in(139, 77).
in(139, 84).
in(139, 87).
in(139, 89).
in(139, 98).
in(139, 99).
in(139, 101).
in(139, 102).
in(139, 108).
in(140, 3).
in(140, 4).
in(140, 6).
in(140, 8).
in(140, 13).
in(140, 15).
in(140, 16).
in(140, 17).
in(140, 19).
in(140, 20).
in(140, 32).
in(140, 37).
in(140, 53).
in(140, 59).
in(140, 61).
in(140, 62).
in(140, 66).
in(140, 70).
in(140, 75).
in(140, 79).
in(140, 83).
in(140, 88).
in(140, 93).
in(140, 94).
in(140, 96).
in(140, 99).
in(140, 100).
in(140, 101).
in(140, 105).
in(140, 106).
in(140, 108).
in(141, 8).
in(141, 10).
in(141, 11).
in(141, 13).
in(141, 17).
in(141, 22).
in(141, 25).
in(141, 34).
in(141, 37).
in(141, 41).
in(141, 45).
in(141, 46).
in(141, 52).
in(141, 56).
in(141, 59).
in(141, 61).
in(141, 64).
in(141, 66).
in(141, 68).
in(141, 70).
in(141, 72).
in(141, 73).
in(141, 74).
in(141, 76).
in(141, 79).
in(141, 80).
in(141, 81).
in(141, 94).
in(141, 95).
in(141, 97).
in(141, 102).
in(141, 103).
in(141, 104).
in(141, 106).
in(141, 108).
in(142, 3).
in(142, 4).
in(142, 7).
in(142, 9).
in(142, 15).
in(142, 16).
in(142, 19).
in(142, 23).
in(142, 29).
in(142, 31).
in(142, 32).
in(142, 38).
in(142, 41).
in(142, 43).
in(142, 44).
in(142, 49).
in(142, 51).
in(142, 52).
in(142, 54).
in(142, 56).
in(142, 61).
in(142, 63).
in(142, 68).
in(142, 70).
in(142, 73).
in(142, 75).
in(142, 77).
in(142, 78).
in(142, 80).
in(142, 81).
in(142, 85).
in(142, 89).
in(142, 93).
in(142, 95).
in(142, 96).
in(142, 97).
in(142, 98).
in(142, 100).
in(142, 102).
in(142, 104).
in(142, 106).
in(143, 2).
in(143, 4).
in(143, 5).
in(143, 6).
in(143, 7).
in(143, 11).
in(143, 19).
in(143, 22).
in(143, 26).
in(143, 27).
in(143, 32).
in(143, 34).
in(143, 35).
in(143, 36).
in(143, 38).
in(143, 41).
in(143, 42).
in(143, 51).
in(143, 52).
in(143, 53).
in(143, 59).
in(143, 64).
in(143, 66).
in(143, 73).
in(143, 75).
in(143, 76).
in(143, 79).
in(143, 82).
in(143, 83).
in(143, 85).
in(143, 86).
in(143, 87).
in(143, 96).
in(143, 99).
in(143, 100).
in(143, 101).
in(144, 2).
in(144, 4).
in(144, 7).
in(144, 12).
in(144, 13).
in(144, 16).
in(144, 19).
in(144, 20).
in(144, 23).
in(144, 24).
in(144, 26).
in(144, 27).
in(144, 28).
in(144, 35).
in(144, 37).
in(144, 41).
in(144, 42).
in(144, 43).
in(144, 45).
in(144, 47).
in(144, 50).
in(144, 54).
in(144, 59).
in(144, 62).
in(144, 63).
in(144, 66).
in(144, 67).
in(144, 68).
in(144, 73).
in(144, 74).
in(144, 76).
in(144, 77).
in(144, 79).
in(144, 83).
in(144, 87).
in(144, 89).
in(144, 90).
in(144, 91).
in(144, 92).
in(144, 93).
in(144, 94).
in(144, 99).
in(144, 107).
in(145, 1).
in(145, 3).
in(145, 6).
in(145, 10).
in(145, 12).
in(145, 13).
in(145, 18).
in(145, 19).
in(145, 20).
in(145, 21).
in(145, 24).
in(145, 26).
in(145, 27).
in(145, 28).
in(145, 29).
in(145, 30).
in(145, 35).
in(145, 38).
in(145, 41).
in(145, 43).
in(145, 44).
in(145, 47).
in(145, 50).
in(145, 51).
in(145, 54).
in(145, 55).
in(145, 58).
in(145, 65).
in(145, 66).
in(145, 67).
in(145, 68).
in(145, 69).
in(145, 70).
in(145, 72).
in(145, 75).
in(145, 85).
in(145, 86).
in(145, 88).
in(145, 93).
in(145, 96).
in(145, 101).
in(145, 103).
in(145, 105).
in(145, 107).
in(145, 108).
in(146, 3).
in(146, 11).
in(146, 12).
in(146, 16).
in(146, 18).
in(146, 20).
in(146, 24).
in(146, 26).
in(146, 27).
in(146, 28).
in(146, 29).
in(146, 31).
in(146, 32).
in(146, 33).
in(146, 34).
in(146, 35).
in(146, 40).
in(146, 44).
in(146, 45).
in(146, 55).
in(146, 58).
in(146, 60).
in(146, 65).
in(146, 66).
in(146, 67).
in(146, 71).
in(146, 76).
in(146, 77).
in(146, 78).
in(146, 80).
in(146, 84).
in(146, 86).
in(146, 88).
in(146, 90).
in(146, 91).
in(146, 94).
in(146, 95).
in(146, 96).
in(146, 97).
in(146, 98).
in(146, 101).
in(146, 106).
in(147, 7).
in(147, 8).
in(147, 13).
in(147, 16).
in(147, 18).
in(147, 21).
in(147, 29).
in(147, 33).
in(147, 37).
in(147, 38).
in(147, 45).
in(147, 49).
in(147, 53).
in(147, 56).
in(147, 58).
in(147, 60).
in(147, 63).
in(147, 64).
in(147, 67).
in(147, 76).
in(147, 85).
in(147, 90).
in(147, 93).
in(147, 94).
in(147, 98).
in(147, 101).
in(147, 102).
in(147, 104).
in(147, 105).
in(147, 107).
in(148, 7).
in(148, 9).
in(148, 12).
in(148, 20).
in(148, 27).
in(148, 28).
in(148, 30).
in(148, 31).
in(148, 33).
in(148, 34).
in(148, 37).
in(148, 39).
in(148, 41).
in(148, 42).
in(148, 45).
in(148, 48).
in(148, 49).
in(148, 50).
in(148, 55).
in(148, 57).
in(148, 58).
in(148, 62).
in(148, 65).
in(148, 69).
in(148, 70).
in(148, 71).
in(148, 74).
in(148, 75).
in(148, 77).
in(148, 80).
in(148, 91).
in(148, 93).
in(148, 94).
in(148, 99).
in(148, 101).
in(148, 102).
in(148, 105).
in(148, 108).
in(149, 1).
in(149, 3).
in(149, 5).
in(149, 6).
in(149, 10).
in(149, 17).
in(149, 18).
in(149, 24).
in(149, 28).
in(149, 29).
in(149, 33).
in(149, 38).
in(149, 40).
in(149, 42).
in(149, 43).
in(149, 44).
in(149, 47).
in(149, 48).
in(149, 50).
in(149, 51).
in(149, 54).
in(149, 56).
in(149, 57).
in(149, 58).
in(149, 59).
in(149, 64).
in(149, 66).
in(149, 69).
in(149, 76).
in(149, 80).
in(149, 82).
in(149, 85).
in(149, 87).
in(149, 94).
in(149, 95).
in(149, 98).
in(149, 105).
in(149, 108).
in(150, 4).
in(150, 11).
in(150, 13).
in(150, 14).
in(150, 17).
in(150, 27).
in(150, 30).
in(150, 32).
in(150, 34).
in(150, 37).
in(150, 40).
in(150, 41).
in(150, 42).
in(150, 43).
in(150, 45).
in(150, 46).
in(150, 48).
in(150, 52).
in(150, 57).
in(150, 63).
in(150, 65).
in(150, 68).
in(150, 71).
in(150, 75).
in(150, 79).
in(150, 83).
in(150, 88).
in(150, 89).
in(150, 91).
in(150, 92).
in(150, 96).
in(150, 98).
in(150, 99).
in(150, 105).
in(150, 106).
in(151, 1).
in(151, 6).
in(151, 18).
in(151, 20).
in(151, 24).
in(151, 30).
in(151, 31).
in(151, 32).
in(151, 45).
in(151, 48).
in(151, 49).
in(151, 50).
in(151, 53).
in(151, 57).
in(151, 58).
in(151, 64).
in(151, 65).
in(151, 67).
in(151, 68).
in(151, 80).
in(151, 82).
in(151, 83).
in(151, 84).
in(151, 89).
in(151, 90).
in(151, 93).
in(151, 94).
in(151, 95).
in(151, 96).
in(151, 97).
in(151, 98).
in(151, 103).
in(151, 107).
in(152, 1).
in(152, 3).
in(152, 5).
in(152, 7).
in(152, 8).
in(152, 9).
in(152, 13).
in(152, 16).
in(152, 19).
in(152, 26).
in(152, 29).
in(152, 37).
in(152, 38).
in(152, 39).
in(152, 41).
in(152, 43).
in(152, 44).
in(152, 45).
in(152, 46).
in(152, 49).
in(152, 50).
in(152, 53).
in(152, 55).
in(152, 60).
in(152, 63).
in(152, 65).
in(152, 69).
in(152, 70).
in(152, 73).
in(152, 76).
in(152, 83).
in(152, 90).
in(152, 91).
in(152, 92).
in(152, 93).
in(152, 94).
in(152, 98).
in(152, 102).
in(152, 103).
in(152, 104).
in(152, 105).
in(152, 108).
in(153, 6).
in(153, 7).
in(153, 10).
in(153, 11).
in(153, 13).
in(153, 17).
in(153, 20).
in(153, 22).
in(153, 25).
in(153, 27).
in(153, 32).
in(153, 38).
in(153, 42).
in(153, 44).
in(153, 46).
in(153, 48).
in(153, 49).
in(153, 50).
in(153, 54).
in(153, 56).
in(153, 57).
in(153, 58).
in(153, 62).
in(153, 69).
in(153, 73).
in(153, 76).
in(153, 77).
in(153, 78).
in(153, 79).
in(153, 80).
in(153, 81).
in(153, 84).
in(153, 85).
in(153, 87).
in(153, 92).
in(153, 93).
in(153, 94).
in(153, 97).
in(153, 99).
in(153, 101).
in(153, 104).
in(154, 2).
in(154, 3).
in(154, 9).
in(154, 11).
in(154, 30).
in(154, 32).
in(154, 35).
in(154, 39).
in(154, 40).
in(154, 42).
in(154, 44).
in(154, 47).
in(154, 51).
in(154, 53).
in(154, 56).
in(154, 57).
in(154, 60).
in(154, 63).
in(154, 68).
in(154, 70).
in(154, 77).
in(154, 83).
in(154, 87).
in(154, 90).
in(154, 93).
in(154, 105).
in(154, 107).
in(155, 5).
in(155, 6).
in(155, 9).
in(155, 10).
in(155, 17).
in(155, 21).
in(155, 22).
in(155, 24).
in(155, 29).
in(155, 35).
in(155, 36).
in(155, 40).
in(155, 42).
in(155, 44).
in(155, 46).
in(155, 48).
in(155, 50).
in(155, 51).
in(155, 56).
in(155, 58).
in(155, 60).
in(155, 65).
in(155, 69).
in(155, 70).
in(155, 71).
in(155, 74).
in(155, 85).
in(155, 89).
in(155, 90).
in(155, 94).
in(155, 95).
in(155, 96).
in(155, 97).
in(155, 101).
in(155, 105).
in(156, 2).
in(156, 7).
in(156, 11).
in(156, 13).
in(156, 14).
in(156, 15).
in(156, 17).
in(156, 18).
in(156, 19).
in(156, 20).
in(156, 23).
in(156, 26).
in(156, 28).
in(156, 30).
in(156, 33).
in(156, 34).
in(156, 36).
in(156, 43).
in(156, 45).
in(156, 46).
in(156, 47).
in(156, 54).
in(156, 55).
in(156, 56).
in(156, 60).
in(156, 72).
in(156, 73).
in(156, 80).
in(156, 81).
in(156, 86).
in(156, 87).
in(156, 88).
in(156, 91).
in(156, 94).
in(156, 107).
in(157, 1).
in(157, 2).
in(157, 3).
in(157, 4).
in(157, 7).
in(157, 8).
in(157, 10).
in(157, 13).
in(157, 16).
in(157, 25).
in(157, 29).
in(157, 33).
in(157, 37).
in(157, 38).
in(157, 39).
in(157, 41).
in(157, 43).
in(157, 50).
in(157, 51).
in(157, 55).
in(157, 64).
in(157, 65).
in(157, 69).
in(157, 76).
in(157, 77).
in(157, 86).
in(157, 90).
in(157, 91).
in(157, 92).
in(157, 94).
in(157, 95).
in(157, 97).
in(157, 99).
in(157, 102).
in(157, 103).
in(158, 1).
in(158, 2).
in(158, 5).
in(158, 14).
in(158, 15).
in(158, 19).
in(158, 22).
in(158, 32).
in(158, 34).
in(158, 35).
in(158, 36).
in(158, 37).
in(158, 39).
in(158, 40).
in(158, 47).
in(158, 48).
in(158, 49).
in(158, 51).
in(158, 52).
in(158, 53).
in(158, 55).
in(158, 70).
in(158, 74).
in(158, 76).
in(158, 78).
in(158, 80).
in(158, 82).
in(158, 83).
in(158, 90).
in(158, 99).
in(158, 103).
in(158, 105).
in(158, 107).
in(158, 108).
in(159, 6).
in(159, 7).
in(159, 8).
in(159, 11).
in(159, 14).
in(159, 15).
in(159, 16).
in(159, 18).
in(159, 21).
in(159, 22).
in(159, 24).
in(159, 26).
in(159, 41).
in(159, 43).
in(159, 44).
in(159, 46).
in(159, 47).
in(159, 48).
in(159, 49).
in(159, 51).
in(159, 60).
in(159, 66).
in(159, 68).
in(159, 71).
in(159, 72).
in(159, 74).
in(159, 77).
in(159, 81).
in(159, 84).
in(159, 87).
in(159, 88).
in(159, 89).
in(159, 90).
in(159, 95).
in(159, 97).
in(159, 99).
in(159, 100).
in(159, 101).
in(159, 104).
in(159, 108).
in(160, 6).
in(160, 11).
in(160, 13).
in(160, 14).
in(160, 19).
in(160, 22).
in(160, 28).
in(160, 30).
in(160, 34).
in(160, 35).
in(160, 38).
in(160, 39).
in(160, 43).
in(160, 49).
in(160, 51).
in(160, 59).
in(160, 61).
in(160, 62).
in(160, 63).
in(160, 69).
in(160, 70).
in(160, 71).
in(160, 72).
in(160, 73).
in(160, 79).
in(160, 80).
in(160, 81).
in(160, 83).
in(160, 84).
in(160, 85).
in(160, 100).
in(160, 104).
in(160, 106).
in(160, 107).
in(161, 5).
in(161, 6).
in(161, 12).
in(161, 14).
in(161, 21).
in(161, 22).
in(161, 23).
in(161, 24).
in(161, 28).
in(161, 30).
in(161, 33).
in(161, 35).
in(161, 38).
in(161, 39).
in(161, 43).
in(161, 44).
in(161, 49).
in(161, 50).
in(161, 54).
in(161, 55).
in(161, 56).
in(161, 60).
in(161, 61).
in(161, 67).
in(161, 68).
in(161, 69).
in(161, 72).
in(161, 78).
in(161, 80).
in(161, 81).
in(161, 88).
in(161, 93).
in(161, 95).
in(161, 96).
in(161, 97).
in(161, 98).
in(161, 101).
in(161, 105).
in(161, 107).
in(161, 108).
in(162, 5).
in(162, 6).
in(162, 8).
in(162, 15).
in(162, 16).
in(162, 17).
in(162, 18).
in(162, 20).
in(162, 24).
in(162, 28).
in(162, 31).
in(162, 35).
in(162, 40).
in(162, 42).
in(162, 44).
in(162, 50).
in(162, 52).
in(162, 53).
in(162, 57).
in(162, 58).
in(162, 59).
in(162, 60).
in(162, 62).
in(162, 66).
in(162, 68).
in(162, 74).
in(162, 76).
in(162, 78).
in(162, 80).
in(162, 84).
in(162, 86).
in(162, 88).
in(162, 91).
in(162, 93).
in(162, 97).
in(162, 100).
in(162, 103).
in(162, 104).
in(162, 108).
in(163, 3).
in(163, 4).
in(163, 11).
in(163, 18).
in(163, 19).
in(163, 20).
in(163, 22).
in(163, 25).
in(163, 28).
in(163, 32).
in(163, 45).
in(163, 46).
in(163, 50).
in(163, 51).
in(163, 52).
in(163, 56).
in(163, 57).
in(163, 61).
in(163, 62).
in(163, 74).
in(163, 75).
in(163, 79).
in(163, 81).
in(163, 82).
in(163, 86).
in(163, 88).
in(163, 90).
in(163, 92).
in(163, 97).
in(163, 103).
in(163, 105).
in(163, 106).
in(164, 3).
in(164, 4).
in(164, 5).
in(164, 8).
in(164, 11).
in(164, 13).
in(164, 17).
in(164, 19).
in(164, 23).
in(164, 27).
in(164, 29).
in(164, 30).
in(164, 32).
in(164, 34).
in(164, 35).
in(164, 43).
in(164, 47).
in(164, 49).
in(164, 53).
in(164, 54).
in(164, 55).
in(164, 61).
in(164, 64).
in(164, 65).
in(164, 67).
in(164, 72).
in(164, 73).
in(164, 74).
in(164, 82).
in(164, 83).
in(164, 85).
in(164, 86).
in(164, 89).
in(164, 91).
in(164, 92).
in(164, 96).
in(164, 104).
in(164, 105).
in(164, 108).
in(165, 2).
in(165, 4).
in(165, 8).
in(165, 11).
in(165, 15).
in(165, 20).
in(165, 23).
in(165, 24).
in(165, 27).
in(165, 28).
in(165, 32).
in(165, 35).
in(165, 37).
in(165, 38).
in(165, 41).
in(165, 42).
in(165, 43).
in(165, 46).
in(165, 47).
in(165, 55).
in(165, 56).
in(165, 58).
in(165, 61).
in(165, 65).
in(165, 66).
in(165, 68).
in(165, 69).
in(165, 74).
in(165, 76).
in(165, 80).
in(165, 88).
in(165, 90).
in(165, 92).
in(165, 98).
in(165, 100).
in(165, 101).
in(165, 103).
in(166, 7).
in(166, 8).
in(166, 9).
in(166, 10).
in(166, 11).
in(166, 13).
in(166, 14).
in(166, 15).
in(166, 18).
in(166, 19).
in(166, 22).
in(166, 24).
in(166, 25).
in(166, 26).
in(166, 27).
in(166, 28).
in(166, 30).
in(166, 31).
in(166, 32).
in(166, 36).
in(166, 39).
in(166, 40).
in(166, 44).
in(166, 49).
in(166, 50).
in(166, 51).
in(166, 54).
in(166, 55).
in(166, 58).
in(166, 60).
in(166, 63).
in(166, 64).
in(166, 65).
in(166, 66).
in(166, 67).
in(166, 68).
in(166, 71).
in(166, 73).
in(166, 74).
in(166, 86).
in(166, 93).
in(166, 101).
in(166, 104).
in(166, 105).
in(167, 1).
in(167, 2).
in(167, 4).
in(167, 6).
in(167, 7).
in(167, 10).
in(167, 11).
in(167, 15).
in(167, 19).
in(167, 24).
in(167, 29).
in(167, 30).
in(167, 31).
in(167, 38).
in(167, 43).
in(167, 51).
in(167, 56).
in(167, 64).
in(167, 65).
in(167, 66).
in(167, 68).
in(167, 70).
in(167, 71).
in(167, 73).
in(167, 75).
in(167, 81).
in(167, 82).
in(167, 87).
in(167, 88).
in(167, 89).
in(167, 92).
in(167, 95).
in(167, 97).
in(167, 101).
in(167, 103).
in(167, 105).
in(167, 106).
in(167, 108).
in(168, 1).
in(168, 3).
in(168, 4).
in(168, 10).
in(168, 13).
in(168, 14).
in(168, 17).
in(168, 20).
in(168, 24).
in(168, 26).
in(168, 28).
in(168, 30).
in(168, 32).
in(168, 33).
in(168, 36).
in(168, 39).
in(168, 42).
in(168, 43).
in(168, 46).
in(168, 51).
in(168, 52).
in(168, 54).
in(168, 55).
in(168, 56).
in(168, 58).
in(168, 65).
in(168, 73).
in(168, 79).
in(168, 81).
in(168, 83).
in(168, 85).
in(168, 86).
in(168, 89).
in(168, 98).
in(168, 99).
in(168, 100).
in(168, 102).
in(168, 103).
weight(1, 8).
weight(2, 2).
weight(3, 7).
weight(4, 5).
weight(5, 1).
weight(6, 9).
weight(7, 3).
weight(8, 5).
weight(9, 5).
weight(10, 4).
weight(11, 9).
weight(12, 4).
weight(13, 7).
weight(14, 5).
weight(15, 3).
weight(16, 3).
weight(17, 3).
weight(18, 5).
weight(19, 5).
weight(20, 4).
weight(21, 1).
weight(22, 3).
weight(23, 2).
weight(24, 2).
weight(25, 9).
weight(26, 9).
weight(27, 2).
weight(28, 1).
weight(29, 9).
weight(30, 1).
weight(31, 7).
weight(32, 1).
weight(33, 9).
weight(34, 3).
weight(35, 3).
weight(36, 2).
weight(37, 7).
weight(38, 1).
weight(39, 5).
weight(40, 2).
weight(41, 8).
weight(42, 1).
weight(43, 4).
weight(44, 8).
weight(45, 4).
weight(46, 6).
weight(47, 9).
weight(48, 7).
weight(49, 6).
weight(50, 9).
weight(51, 1).
weight(52, 3).
weight(53, 8).
weight(54, 6).
weight(55, 4).
weight(56, 6).
weight(57, 4).
weight(58, 1).
weight(59, 3).
weight(60, 7).
weight(61, 4).
weight(62, 7).
weight(63, 4).
weight(64, 8).
weight(65, 2).
weight(66, 1).
weight(67, 9).
weight(68, 4).
weight(69, 5).
weight(70, 7).
weight(71, 5).
weight(72, 3).
weight(73, 9).
weight(74, 9).
weight(75, 8).
weight(76, 9).
weight(77, 9).
weight(78, 1).
weight(79, 2).
weight(80, 3).
weight(81, 1).
weight(82, 5).
weight(83, 1).
weight(84, 8).
weight(85, 3).
weight(86, 1).
weight(87, 7).
weight(88, 5).
weight(89, 7).
weight(90, 2).
weight(91, 8).
weight(92, 3).
weight(93, 3).
weight(94, 2).
weight(95, 1).
weight(96, 2).
weight(97, 8).
weight(98, 3).
weight(99, 8).
weight(100, 5).
weight(101, 6).
weight(102, 1).
weight(103, 7).
weight(104, 8).
weight(105, 1).
weight(106, 8).
weight(107, 1).
weight(108, 9).
weight(109, 1).
weight(110, 1).
weight(111, 5).
weight(112, 1).
weight(113, 8).
weight(114, 2).
weight(115, 3).
weight(116, 1).
weight(117, 1).
weight(118, 1).
weight(119, 8).
weight(120, 7).
weight(121, 9).
weight(122, 7).
weight(123, 7).
weight(124, 6).
weight(125, 2).
weight(126, 1).
weight(127, 9).
weight(128, 5).
weight(129, 2).
weight(130, 7).
weight(131, 1).
weight(132, 9).
weight(133, 5).
weight(134, 8).
weight(135, 1).
weight(136, 3).
weight(137, 1).
weight(138, 6).
weight(139, 9).
weight(140, 6).
weight(141, 3).
weight(142, 8).
weight(143, 4).
weight(144, 5).
weight(145, 3).
weight(146, 7).
weight(147, 7).
weight(148, 8).
weight(149, 1).
weight(150, 9).
weight(151, 1).
weight(152, 2).
weight(153, 7).
weight(154, 4).
weight(155, 7).
weight(156, 9).
weight(157, 2).
weight(158, 7).
weight(159, 7).
weight(160, 8).
weight(161, 7).
weight(162, 7).
weight(163, 4).
weight(164, 1).
weight(165, 9).
weight(166, 2).
weight(167, 5).
weight(168, 4).

{ choose(S) } :- set(S).
:- choose(S1), choose(S2), S1 < S2, in(S1,E), in(S2,E).
:~ not choose(S), weight(S,W). [W@1,S]
