elem(1..95).
set(1..146).
in(1, 1).
in(1, 2).
in(1, 7).
in(1, 8).
in(1, 15).
in(1, 16).
in(1, 18).
in(1, 21).
in(1, 24).
in(1, 26).
in(1, 27).
in(1, 29).
in(1, 30).
in(1, 32).
in(1, 33).
in(1, 35).
in(1, 36).
in(1, 37).
in(1, 39).
in(1, 40).
in(1, 45).
in(1, 46).
in(1, 49).
in(1, 54).
in(1, 58).
in(1, 59).
in(1, 63).
in(1, 65).
in(1, 68).
in(1, 70).
in(1, 71).
in(1, 73).
in(1, 74).
in(1, 75).
in(1, 76).
in(1, 77).
in(1, 78).
in(1, 79).
in(1, 80).
in(1, 82).
in(1, 84).
in(1, 85).
in(1, 86).
in(1, 89).
in(1, 92).
in(1, 95).
in(2, 5).
in(2, 10).
in(2, 12).
in(2, 13).
in(2, 16).
in(2, 18).
in(2, 19).
in(2, 20).
in(2, 21).
in(2, 22).
in(2, 25).
in(2, 26).
in(2, 29).
in(2, 30).
in(2, 34).
in(2, 42).
in(2, 46).
in(2, 47).
in(2, 48).
in(2, 50).
in(2, 51).
in(2, 52).
in(2, 55).
in(2, 57).
in(2, 59).
in(2, 61).
in(2, 63).
in(2, 65).
in(2, 66).
in(2, 71).
in(2, 72).
in(2, 73).
in(2, 74).
in(2, 82).
in(2, 84).
in(2, 86).
in(2, 87).
in(2, 92).
in(2, 93).
in(2, 94).
in(2, 95).
in(3, 3).
in(3, 4).
in(3, 5).
in(3, 6).
in(3, 7).
in(3, 9).
in(3, 12).
in(3, 18).
in(3, 20).
in(3, 21).
in(3, 22).
in(3, 24).
in(3, 27).
in(3, 28).
in(3, 32).
in(3, 34).
in(3, 36).
in(3, 37).
in(3, 40).
in(3, 43).
in(3, 45).
in(3, 46).
in(3, 48).
in(3, 51).
in(3, 53).
in(3, 56).
in(3, 57).
in(3, 58).
in(3, 59).
in(3, 60).
in(3, 66).
in(3, 67).
in(3, 69).
in(3, 71).
in(3, 72).
in(3, 75).
in(3, 76).
in(3, 79).
in(3, 82).
in(3, 85).
in(3, 93).
in(3, 94).
in(4, 1).
in(4, 2).
in(4, 3).
in(4, 5).
in(4, 7).
in(4, 8).
in(4, 9).
in(4, 11).
in(4, 14).
in(4, 15).
in(4, 33).
in(4, 34).
in(4, 35).
in(4, 39).
in(4, 40).
in(4, 41).
in(4, 45).
in(4, 46).
in(4, 50).
in(4, 51).
in(4, 56).
in(4, 60).
in(4, 64).
in(4, 66).
in(4, 67).
in(4, 70).
in(4, 71).
in(4, 72).
in(4, 76).
in(4, 81).
in(4, 83).
in(4, 87).
in(4, 90).
in(4, 93).
in(4, 94).
in(5, 2).
in(5, 5).
in(5, 6).
in(5, 9).
in(5, 10).
in(5, 12).
in(5, 16).
in(5, 17).
in(5, 19).
in(5, 21).
in(5, 24).
in(5, 25).
in(5, 26).
in(5, 27).
in(5, 29).
in(5, 31).
in(5, 34).
in(5, 42).
in(5, 43).
in(5, 47).
in(5, 50).
in(5, 53).
in(5, 57).
in(5, 58).
in(5, 63).
in(5, 64).
in(5, 66).
in(5, 67).
in(5, 68).
in(5, 73).
in(5, 74).
in(5, 76).
in(5, 78).
in(5, 79).
in(5, 82).
in(5, 85).
in(5, 86).
in(5, 87).
in(5, 88).
in(5, 93).
in(5, 94).
in(6, 3).
in(6, 4).
in(6, 6).
in(6, 8).
in(6, 9).
in(6, 13).
in(6, 15).
in(6, 16).
in(6, 17).
in(6, 18).
in(6, 19).
in(6, 21).
in(6, 23).
in(6, 24).
in(6, 37).
in(6, 38).
in(6, 39).
in(6, 41).
in(6, 43).
in(6, 44).
in(6, 45).
in(6, 51).
in(6, 52).
in(6, 55).
in(6, 57).
in(6, 59).
in(6, 60).
in(6, 63).
in(6, 65).
in(6, 66).
in(6, 67).
in(6, 71).
in(6, 73).
in(6, 75).
in(6, 84).
in(6, 85).
in(6, 90).
in(6, 93).
in(6, 94).
in(7, 4).
in(7, 9).
in(7, 14).
in(7, 23).
in(7, 24).
in(7, 27).
in(7, 28).
in(7, 29).
in(7, 35).
in(7, 37).
in(7, 39).
in(7, 43).
in(7, 44).
in(7, 49).
in(7, 50).
in(7, 51).
in(7, 55).
in(7, 57).
in(7, 59).
in(7, 61).
in(7, 62).
in(7, 65).
in(7, 66).
in(7, 67).
in(7, 74).
in(7, 75).
in(7, 76).
in(7, 78).
in(7, 79).
in(7, 80).
in(7, 85).
in(7, 86).
in(7, 89).
in(7, 91).
in(7, 92).
in(7, 94).
in(7, 95).
in(8, 1).
in(8, 3).
in(8, 4).
in(8, 7).
in(8, 8).
in(8, 9).
in(8, 17).
in(8, 19).
in(8, 26).
in(8, 27).
in(8, 28).
in(8, 30).
in(8, 31).
in(8, 32).
in(8, 38).
in(8, 42).
in(8, 44).
in(8, 52).
in(8, 54).
in(8, 59).
in(8, 60).
in(8, 63).
in(8, 64).
in(8, 66).
in(8, 68).
in(8, 69).
in(8, 73).
in(8, 76).
in(8, 77).
in(8, 78).
in(8, 80).
in(8, 83).
in(8, 84).
in(8, 86).
in(8, 87).
in(8, 88).
in(8, 90).
in(8, 95).
in(9, 5).
in(9, 6).
in(9, 8).
in(9, 15).
in(9, 19).
in(9, 23).
in(9, 24).
in(9, 36).
in(9, 38).
in(9, 39).
in(9, 40).
in(9, 43).
in(9, 44).
in(9, 47).
in(9, 49).
in(9, 51).
in(9, 52).
in(9, 55).
in(9, 60).
in(9, 63).
in(9, 66).
in(9, 69).
in(9, 70).
in(9, 75).
in(9, 76).
in(9, 77).
in(9, 79).
in(9, 80).
in(9, 81).
in(9, 84).
in(9, 85).
in(9, 87).
in(9, 89).
in(9, 90).
in(9, 92).
in(9, 95).
in(10, 1).
in(10, 2).
in(10, 4).
in(10, 6).
in(10, 9).
in(10, 12).
in(10, 13).
in(10, 15).
in(10, 16).
in(10, 17).
in(10, 19).
in(10, 21).
in(10, 28).
in(10, 29).
in(10, 31).
in(10, 32).
in(10, 33).
in(10, 34).
in(10, 35).
in(10, 39).
in(10, 43).
in(10, 44).
in(10, 45).
in(10, 46).
in(10, 49).
in(10, 57).
in(10, 60).
in(10, 61).
in(10, 62).
in(10, 64).
in(10, 67).
in(10, 69).
in(10, 81).
in(10, 86).
in(10, 87).
in(10, 88).
in(10, 92).
in(11, 1).
in(11, 2).
in(11, 8).
in(11, 12).
in(11, 13).
in(11, 15).
in(11, 16).
in(11, 18).
in(11, 22).
in(11, 25).
in(11, 31).
in(11, 33).
in(11, 35).
in(11, 36).
in(11, 38).
in(11, 39).
in(11, 40).
in(11, 43).
in(11, 46).
in(11, 47).
in(11, 53).
in(11, 54).
in(11, 56).
in(11, 57).
in(11, 60).
in(11, 65).
in(11, 68).
in(11, 69).
in(11, 74).
in(11, 78).
in(11, 80).
in(11, 83).
in(11, 84).
in(11, 89).
in(11, 91).
in(12, 1).
in(12, 3).
in(12, 4).
in(12, 10).
in(12, 15).
in(12, 16).
in(12, 18).
in(12, 19).
in(12, 21).
in(12, 22).
in(12, 24).
in(12, 27).
in(12, 29).
in(12, 30).
in(12, 35).
in(12, 41).
in(12, 44).
in(12, 47).
in(12, 50).
in(12, 51).
in(12, 55).
in(12, 56).
in(12, 58).
in(12, 59).
in(12, 61).
in(12, 62).
in(12, 65).
in(12, 70).
in(12, 78).
in(12, 80).
in(12, 81).
in(12, 82).
in(12, 84).
in(12, 86).
in(12, 90).
in(12, 91).
in(13, 1).
in(13, 10).
in(13, 12).
in(13, 14).
in(13, 15).
in(13, 18).
in(13, 19).
in(13, 20).
in(13, 23).
in(13, 25).
in(13, 26).
in(13, 28).
in(13, 35).
in(13, 37).
in(13, 38).
in(13, 40).
in(13, 44).
in(13, 46).
in(13, 49).
in(13, 51).
in(13, 52).
in(13, 59).
in(13, 64).
in(13, 69).
in(13, 73).
in(13, 74).
in(13, 78).
in(13, 79).
in(13, 81).
in(13, 83).
in(13, 86).
in(13, 87).
in(13, 88).
in(13, 90).
in(13, 93).
in(14, 1).
in(14, 8).
in(14, 9).
in(14, 16).
in(14, 21).
in(14, 24).
in(14, 26).
in(14, 30).
in(14, 32).
in(14, 33).
in(14, 34).
in(14, 35).
in(14, 37).
in(14, 40).
in(14, 42).
in(14, 43).
in(14, 45).
in(14, 47).
in(14, 50).
in(14, 51).
in(14, 55).
in(14, 61).
in(14, 62).
in(14, 65).
in(14, 66).
in(14, 69).
in(14, 70).
in(14, 73).
in(14, 75).
in(14, 76).
in(14, 77).
in(14, 78).
in(14, 81).
in(14, 84).
in(14, 87).
in(14, 88).
in(14, 89).
in(14, 90).
in(14, 91).
in(14, 94).
in(15, 3).
in(15, 4).
in(15, 6).
in(15, 8).
in(15, 9).
in(15, 12).
in(15, 13).
in(15, 15).
in(15, 16).
in(15, 18).
in(15, 19).
in(15, 21).
in(15, 25).
in(15, 30).
in(15, 31).
in(15, 35).
in(15, 37).
in(15, 39).
in(15, 40).
in(15, 41).
in(15, 43).
in(15, 46).
in(15, 47).
in(15, 48).
in(15, 49).
in(15, 52).
in(15, 54).
in(15, 55).
in(15, 56).
in(15, 62).
in(15, 63).
in(15, 66).
in(15, 73).
in(15, 77).
in(15, 78).
in(15, 79).
in(15, 83).
in(15, 85).
in(15, 88).
in(15, 91).
in(15, 92).
in(16, 3).
in(16, 5).
in(16, 9).
in(16, 10).
in(16, 11).
in(16, 12).
in(16, 13).
in(16, 14).
in(16, 18).
in(16, 21).
in(16, 24).
in(16, 26).
in(16, 27).
in(16, 30).
in(16, 35).
in(16, 39).
in(16, 41).
in(16, 42).
in(16, 43).
in(16, 47).
in(16, 50).
in(16, 57).
in(16, 59).
in(16, 62).
in(16, 69).
in(16, 70).
in(16, 71).
in(16, 79).
in(16, 80).
in(16, 83).
in(16, 86).
in(16, 87).
in(16, 88).
in(16, 90).
in(16, 92).
in(17, 1).
in(17, 2).
in(17, 4).
in(17, 13).
in(17, 15).
in(17, 17).
in(17, 18).
in(17, 19).
in(17, 21).
in(17, 22).
in(17, 23).
in(17, 29).
in(17, 30).
in(17, 32).
in(17, 38).
in(17, 39).
in(17, 40).
in(17, 43).
in(17, 45).
in(17, 47).
in(17, 49).
in(17, 50).
in(17, 51).
in(17, 52).
in(17, 53).
in(17, 55).
in(17, 58).
in(17, 66).
in(17, 70).
in(17, 72).
in(17, 74).
in(17, 75).
in(17, 76).
in(17, 77).
in(17, 79).
in(17, 81).
in(17, 85).
in(17, 87).
in(17, 90).
in(17, 91).
in(17, 93).
in(17, 95).
in(18, 1).
in(18, 6).
in(18, 7).
in(18, 9).
in(18, 12).
in(18, 14).
in(18, 18).
in(18, 20).
in(18, 21).
in(18, 23).
in(18, 26).
in(18, 28).
in(18, 31).
in(18, 36).
in(18, 41).
in(18, 46).
in(18, 47).
in(18, 55).
in(18, 56).
in(18, 58).
in(18, 59).
in(18, 61).
in(18, 62).
in(18, 66).
in(18, 68).
in(18, 70).
in(18, 71).
in(18, 72).
in(18, 77).
in(18, 78).
in(18, 81).
in(18, 90).
in(19, 3).
in(19, 6).
in(19, 10).
in(19, 13).
in(19, 15).
in(19, 16).
in(19, 19).
in(19, 21).
in(19, 22).
in(19, 23).
in(19, 25).
in(19, 26).
in(19, 29).
in(19, 31).
in(19, 35).
in(19, 37).
in(19, 38).
in(19, 39).
in(19, 40).
in(19, 42).
in(19, 45).
in(19, 47).
in(19, 52).
in(19, 53).
in(19, 55).
in(19, 60).
in(19, 62).
in(19, 63).
in(19, 64).
in(19, 71).
in(19, 72).
in(19, 74).
in(19, 75).
in(19, 76).
in(19, 77).
in(19, 81).
in(19, 82).
in(19, 83).
in(19, 84).
in(19, 85).
in(19, 87).
in(19, 89).
in(20, 2).
in(20, 3).
in(20, 4).
in(20, 5).
in(20, 6).
in(20, 9).
in(20, 14).
in(20, 15).
in(20, 16).
in(20, 17).
in(20, 21).
in(20, 22).
in(20, 25).
in(20, 27).
in(20, 30).
in(20, 31).
in(20, 32).
in(20, 33).
in(20, 34).
in(20, 37).
in(20, 38).
in(20, 39).
in(20, 43).
in(20, 47).
in(20, 52).
in(20, 53).
in(20, 55).
in(20, 58).
in(20, 61).
in(20, 63).
in(20, 64).
in(20, 65).
in(20, 66).
in(20, 70).
in(20, 73).
in(20, 75).
in(20, 76).
in(20, 78).
in(20, 79).
in(20, 82).
in(20, 83).
in(20, 84).
in(20, 86).
in(20, 87).
in(21, 2).
in(21, 5).
in(21, 6).
in(21, 7).
in(21, 8).
in(21, 9).
in(21, 10).
in(21, 11).
in(21, 15).
in(21, 16).
in(21, 17).
in(21, 22).
in(21, 23).
in(21, 24).
in(21, 25).
in(21, 26).
in(21, 29).
in(21, 32).
in(21, 33).
in(21, 34).
in(21, 36).
in(21, 37).
in(21, 38).
in(21, 42).
in(21, 46).
in(21, 48).
in(21, 53).
in(21, 56).
in(21, 58).
in(21, 60).
in(21, 63).
in(21, 66).
in(21, 70).
in(21, 71).
in(21, 72).
in(21, 76).
in(21, 81).
in(21, 89).
in(21, 90).
in(21, 92).
in(21, 94).
in(22, 2).
in(22, 3).
in(22, 4).
in(22, 5).
in(22, 7).
in(22, 9).
in(22, 11).
in(22, 12).
in(22, 14).
in(22, 20).
in(22, 22).
in(22, 23).
in(22, 24).
in(22, 29).
in(22, 35).
in(22, 37).
in(22, 38).
in(22, 42).
in(22, 43).
in(22, 46).
in(22, 50).
in(22, 53).
in(22, 60).
in(22, 64).
in(22, 68).
in(22, 69).
in(22, 72).
in(22, 74).
in(22, 77).
in(22, 78).
in(22, 84).
in(22, 89).
in(22, 92).
in(22, 93).
in(22, 95).
in(23, 3).
in(23, 5).
in(23, 8).
in(23, 9).
in(23, 10).
in(23, 18).
in(23, 21).
in(23, 22).
in(23, 24).
in(23, 25).
in(23, 27).
in(23, 28).
in(23, 31).
in(23, 32).
in(23, 34).
in(23, 38).
in(23, 41).
in(23, 42).
in(23, 45).
in(23, 48).
in(23, 50).
in(23, 60).
in(23, 62).
in(23, 63).
in(23, 64).
in(23, 65).
in(23, 69).
in(23, 75).
in(23, 79).
in(23, 82).
in(23, 83).
in(23, 84).
in(23, 88).
in(23, 90).
in(23, 91).
in(23, 94).
in(24, 1).
in(24, 6).
in(24, 12).
in(24, 13).
in(24, 15).
in(24, 16).
in(24, 17).
in(24, 19).
in(24, 29).
in(24, 33).
in(24, 36).
in(24, 38).
in(24, 41).
in(24, 42).
in(24, 46).
in(24, 51).
in(24, 52).
in(24, 57).
in(24, 60).
in(24, 61).
in(24, 65).
in(24, 73).
in(24, 75).
in(24, 80).
in(24, 82).
in(24, 88).
in(24, 89).
in(24, 90).
in(24, 93).
in(25, 4).
in(25, 8).
in(25, 11).
in(25, 14).
in(25, 17).
in(25, 19).
in(25, 37).
in(25, 38).
in(25, 39).
in(25, 42).
in(25, 43).
in(25, 46).
in(25, 49).
in(25, 50).
in(25, 53).
in(25, 57).
in(25, 61).
in(25, 62).
in(25, 63).
in(25, 68).
in(25, 70).
in(25, 71).
in(25, 72).
in(25, 76).
in(25, 78).
in(25, 88).
in(25, 89).
in(26, 6).
in(26, 8).
in(26, 9).
in(26, 12).
in(26, 13).
in(26, 14).
in(26, 16).
in(26, 20).
in(26, 26).
in(26, 27).
in(26, 28).
in(26, 31).
in(26, 33).
in(26, 34).
in(26, 38).
in(26, 42).
in(26, 48).
in(26, 49).
in(26, 51).
in(26, 52).
in(26, 53).
in(26, 56).
in(26, 57).
in(26, 59).
in(26, 62).
in(26, 64).
in(26, 66).
in(26, 67).
in(26, 70).
in(26, 71).
in(26, 72).
in(26, 74).
in(26, 75).
in(26, 76).
in(26, 80).
in(26, 88).
in(26, 89).
in(26, 93).
in(27, 1).
in(27, 2).
in(27, 4).
in(27, 8).
in(27, 10).
in(27, 17).
in(27, 20).
in(27, 23).
in(27, 24).
in(27, 25).
in(27, 26).
in(27, 27).
in(27, 28).
in(27, 29).
in(27, 30).
in(27, 33).
in(27, 42).
in(27, 43).
in(27, 48).
in(27, 50).
in(27, 51).
in(27, 53).
in(27, 54).
in(27, 63).
in(27, 67).
in(27, 68).
in(27, 71).
in(27, 72).
in(27, 74).
in(27, 78).
in(27, 80).
in(27, 84).
in(27, 85).
in(27, 87).
in(27, 88).
in(27, 92).
in(27, 93).
in(28, 3).
in(28, 4).
in(28, 8).
in(28, 10).
in(28, 15).
in(28, 16).
in(28, 19).
in(28, 22).
in(28, 23).
in(28, 30).
in(28, 31).
in(28, 33).
in(28, 35).
in(28, 36).
in(28, 39).
in(28, 40).
in(28, 44).
in(28, 45).
in(28, 47).
in(28, 51).
in(28, 53).
in(28, 54).
in(28, 57).
in(28, 60).
in(28, 64).
in(28, 65).
in(28, 67).
in(28, 71).
in(28, 72).
in(28, 73).
in(28, 74).
in(28, 76).
in(28, 77).
in(28, 80).
in(28, 82).
in(28, 84).
in(28, 85).
in(28, 88).
in(28, 89).
in(28, 90).
in(28, 91).
in(28, 93).
in(28, 95).
in(29, 4).
in(29, 9).
in(29, 10).
in(29, 13).
in(29, 15).
in(29, 16).
in(29, 17).
in(29, 19).
in(29, 20).
in(29, 22).
in(29, 23).
in(29, 24).
in(29, 27).
in(29, 28).
in(29, 30).
in(29, 32).
in(29, 33).
in(29, 35).
in(29, 40).
in(29, 42).
in(29, 43).
in(29, 44).
in(29, 46).
in(29, 47).
in(29, 51).
in(29, 52).
in(29, 53).
in(29, 58).
in(29, 59).
in(29, 60).
in(29, 61).
in(29, 64).
in(29, 68).
in(29, 70).
in(29, 71).
in(29, 74).
in(29, 79).
in(29, 82).
in(29, 83).
in(29, 87).
in(29, 88).
in(29, 89).
in(29, 90).
in(29, 91).
in(29, 92).
in(29, 93).
in(29, 95).
in(30, 4).
in(30, 7).
in(30, 9).
in(30, 10).
in(30, 12).
in(30, 17).
in(30, 18).
in(30, 21).
in(30, 23).
in(30, 25).
in(30, 30).
in(30, 32).
in(30, 35).
in(30, 36).
in(30, 39).
in(30, 40).
in(30, 41).
in(30, 43).
in(30, 46).
in(30, 47).
in(30, 49).
in(30, 52).
in(30, 56).
in(30, 57).
in(30, 60).
in(30, 61).
in(30, 62).
in(30, 67).
in(30, 68).
in(30, 69).
in(30, 70).
in(30, 71).
in(30, 73).
in(30, 74).
in(30, 75).
in(30, 80).
in(30, 82).
in(30, 83).
in(30, 85).
in(30, 86).
in(30, 87).
in(30, 89).
in(30, 92).
in(30, 94).
in(30, 95).
in(31, 4).
in(31, 7).
in(31, 8).
in(31, 14).
in(31, 16).
in(31, 18).
in(31, 22).
in(31, 27).
in(31, 29).
in(31, 33).
in(31, 34).
in(31, 35).
in(31, 43).
in(31, 44).
in(31, 47).
in(31, 52).
in(31, 54).
in(31, 59).
in(31, 60).
in(31, 61).
in(31, 64).
in(31, 65).
in(31, 69).
in(31, 70).
in(31, 74).
in(31, 76).
in(31, 78).
in(31, 79).
in(31, 83).
in(31, 86).
in(31, 87).
in(31, 88).
in(31, 94).
in(32, 5).
in(32, 6).
in(32, 7).
in(32, 8).
in(32, 13).
in(32, 19).
in(32, 21).
in(32, 28).
in(32, 29).
in(32, 31).
in(32, 33).
in(32, 36).
in(32, 37).
in(32, 41).
in(32, 43).
in(32, 47).
in(32, 48).
in(32, 49).
in(32, 51).
in(32, 52).
in(32, 53).
in(32, 56).
in(32, 59).
in(32, 63).
in(32, 68).
in(32, 71).
in(32, 73).
in(32, 74).
in(32, 76).
in(32, 78).
in(32, 82).
in(32, 83).
in(32, 84).
in(32, 86).
in(32, 87).
in(32, 89).
in(32, 94).
in(33, 1).
in(33, 2).
in(33, 4).
in(33, 11).
in(33, 12).
in(33, 13).
in(33, 15).
in(33, 17).
in(33, 19).
in(33, 21).
in(33, 23).
in(33, 25).
in(33, 27).
in(33, 29).
in(33, 31).
in(33, 37).
in(33, 46).
in(33, 48).
in(33, 49).
in(33, 51).
in(33, 54).
in(33, 64).
in(33, 65).
in(33, 67).
in(33, 69).
in(33, 71).
in(33, 72).
in(33, 76).
in(33, 77).
in(33, 86).
in(34, 1).
in(34, 5).
in(34, 7).
in(34, 11).
in(34, 14).
in(34, 21).
in(34, 31).
in(34, 34).
in(34, 38).
in(34, 39).
in(34, 41).
in(34, 50).
in(34, 54).
in(34, 56).
in(34, 57).
in(34, 58).
in(34, 59).
in(34, 64).
in(34, 67).
in(34, 73).
in(34, 74).
in(34, 75).
in(34, 77).
in(34, 82).
in(34, 83).
in(34, 85).
in(34, 87).
in(34, 92).
in(34, 95).
in(35, 2).
in(35, 4).
in(35, 5).
in(35, 6).
in(35, 7).
in(35, 9).
in(35, 16).
in(35, 17).
in(35, 18).
in(35, 19).
in(35, 20).
in(35, 21).
in(35, 22).
in(35, 27).
in(35, 28).
in(35, 30).
in(35, 32).
in(35, 33).
in(35, 34).
in(35, 39).
in(35, 41).
in(35, 42).
in(35, 43).
in(35, 45).
in(35, 46).
in(35, 51).
in(35, 53).
in(35, 55).
in(35, 57).
in(35, 58).
in(35, 62).
in(35, 66).
in(35, 72).
in(35, 73).
in(35, 76).
in(35, 78).
in(35, 80).
in(35, 84).
in(35, 86).
in(35, 89).
in(35, 91).
in(35, 93).
in(36, 1).
in(36, 3).
in(36, 5).
in(36, 6).
in(36, 10).
in(36, 11).
in(36, 12).
in(36, 13).
in(36, 15).
in(36, 20).
in(36, 22).
in(36, 25).
in(36, 31).
in(36, 32).
in(36, 33).
in(36, 34).
in(36, 35).
in(36, 37).
in(36, 41).
in(36, 43).
in(36, 45).
in(36, 54).
in(36, 59).
in(36, 61).
in(36, 65).
in(36, 71).
in(36, 72).
in(36, 73).
in(36, 75).
in(36, 77).
in(36, 78).
in(36, 81).
in(36, 82).
in(36, 83).
in(36, 84).
in(36, 87).
in(36, 89).
in(36, 90).
in(36, 92).
in(36, 93).
in(37, 4).
in(37, 5).
in(37, 8).
in(37, 9).
in(37, 10).
in(37, 16).
in(37, 19).
in(37, 20).
in(37, 28).
in(37, 29).
in(37, 36).
in(37, 38).
in(37, 41).
in(37, 42).
in(37, 46).
in(37, 47).
in(37, 48).
in(37, 49).
in(37, 50).
in(37, 52).
in(37, 53).
in(37, 54).
in(37, 58).
in(37, 60).
in(37, 63).
in(37, 67).
in(37, 68).
in(37, 72).
in(37, 73).
in(37, 75).
in(37, 76).
in(37, 77).
in(37, 79).
in(37, 82).
in(37, 83).
in(37, 86).
in(37, 87).
in(37, 88).
in(37, 89).
in(37, 93).
in(37, 95).
in(38, 3).
in(38, 5).
in(38, 8).
in(38, 10).
in(38, 12).
in(38, 13).
in(38, 14).
in(38, 19).
in(38, 24).
in(38, 25).
in(38, 28).
in(38, 29).
in(38, 30).
in(38, 31).
in(38, 32).
in(38, 34).
in(38, 39).
in(38, 43).
in(38, 48).
in(38, 49).
in(38, 50).
in(38, 52).
in(38, 55).
in(38, 57).
in(38, 58).
in(38, 59).
in(38, 61).
in(38, 64).
in(38, 65).
in(38, 66).
in(38, 67).
in(38, 68).
in(38, 71).
in(38, 72).
in(38, 74).
in(38, 75).
in(38, 76).
in(38, 79).
in(38, 81).
in(38, 83).
in(38, 90).
in(38, 91).
in(39, 1).
in(39, 2).
in(39, 6).
in(39, 10).
in(39, 11).
in(39, 15).
in(39, 17).
in(39, 19).
in(39, 22).
in(39, 25).
in(39, 26).
in(39, 28).
in(39, 29).
in(39, 32).
in(39, 37).
in(39, 40).
in(39, 41).
in(39, 42).
in(39, 45).
in(39, 49).
in(39, 53).
in(39, 56).
in(39, 58).
in(39, 59).
in(39, 60).
in(39, 63).
in(39, 64).
in(39, 65).
in(39, 66).
in(39, 69).
in(39, 70).
in(39, 71).
in(39, 72).
in(39, 74).
in(39, 75).
in(39, 77).
in(39, 78).
in(39, 79).
in(39, 80).
in(39, 81).
in(39, 84).
in(39, 87).
in(39, 90).
in(39, 93).
in(39, 94).
in(39, 95).
in(40, 4).
in(40, 5).
in(40, 7).
in(40, 10).
in(40, 17).
in(40, 19).
in(40, 20).
in(40, 21).
in(40, 22).
in(40, 24).
in(40, 25).
in(40, 34).
in(40, 38).
in(40, 39).
in(40, 41).
in(40, 45).
in(40, 50).
in(40, 56).
in(40, 57).
in(40, 62).
in(40, 64).
in(40, 70).
in(40, 71).
in(40, 77).
in(40, 83).
in(40, 85).
in(40, 86).
in(40, 87).
in(40, 91).
in(40, 94).
in(41, 2).
in(41, 3).
in(41, 5).
in(41, 8).
in(41, 9).
in(41, 11).
in(41, 14).
in(41, 16).
in(41, 17).
in(41, 21).
in(41, 24).
in(41, 25).
in(41, 26).
in(41, 28).
in(41, 30).
in(41, 31).
in(41, 32).
in(41, 33).
in(41, 35).
in(41, 41).
in(41, 45).
in(41, 47).
in(41, 48).
in(41, 53).
in(41, 55).
in(41, 57).
in(41, 61).
in(41, 63).
in(41, 71).
in(41, 72).
in(41, 74).
in(41, 75).
in(41, 76).
in(41, 77).
in(41, 78).
in(41, 85).
in(41, 88).
in(41, 89).
in(41, 90).
in(41, 94).
in(41, 95).
in(42, 4).
in(42, 11).
in(42, 12).
in(42, 15).
in(42, 18).
in(42, 19).
in(42, 20).
in(42, 21).
in(42, 22).
in(42, 23).
in(42, 26).
in(42, 29).
in(42, 31).
in(42, 32).
in(42, 43).
in(42, 47).
in(42, 50).
in(42, 51).
in(42, 53).
in(42, 54).
in(42, 55).
in(42, 58).
in(42, 62).
in(42, 63).
in(42, 65).
in(42, 66).
in(42, 67).
in(42, 68).
in(42, 70).
in(42, 75).
in(42, 77).
in(42, 79).
in(42, 81).
in(42, 83).
in(42, 84).
in(42, 85).
in(42, 87).
in(42, 88).
in(42, 90).
in(42, 91).
in(43, 1).
in(43, 2).
in(43, 4).
in(43, 5).
in(43, 8).
in(43, 9).
in(43, 13).
in(43, 14).
in(43, 19).
in(43, 22).
in(43, 25).
in(43, 27).
in(43, 28).
in(43, 29).
in(43, 32).
in(43, 33).
in(43, 34).
in(43, 39).
in(43, 40).
in(43, 41).
in(43, 44).
in(43, 45).
in(43, 48).
in(43, 49).
in(43, 53).
in(43, 60).
in(43, 61).
in(43, 64).
in(43, 66).
in(43, 67).
in(43, 69).
in(43, 72).
in(43, 73).
in(43, 74).
in(43, 75).
in(43, 77).
in(43, 81).
in(43, 83).
in(43, 85).
in(43, 88).
in(43, 90).
in(43, 92).
in(43, 93).
in(43, 94).
in(43, 95).
in(44, 1).
in(44, 3).
in(44, 7).
in(44, 8).
in(44, 10).
in(44, 11).
in(44, 13).
in(44, 15).
in(44, 16).
in(44, 20).
in(44, 22).
in(44, 23).
in(44, 24).
in(44, 25).
in(44, 26).
in(44, 27).
in(44, 28).
in(44, 29).
in(44, 30).
in(44, 31).
in(44, 33).
in(44, 36).
in(44, 43).
in(44, 45).
in(44, 50).
in(44, 51).
in(44, 52).
in(44, 53).
in(44, 54).
in(44, 57).
in(44, 60).
in(44, 63).
in(44, 65).
in(44, 67).
in(44, 70).
in(44, 71).
in(44, 76).
in(44, 77).
in(44, 78).
in(44, 79).
in(44, 84).
in(44, 85).
in(44, 87).
in(44, 88).
in(44, 90).
in(44, 92).
in(45, 1).
in(45, 3).
in(45, 4).
in(45, 5).
in(45, 6).
in(45, 7).
in(45, 10).
in(45, 13).
in(45, 19).
in(45, 20).
in(45, 22).
in(45, 25).
in(45, 27).
in(45, 33).
in(45, 35).
in(45, 37).
in(45, 39).
in(45, 42).
in(45, 44).
in(45, 48).
in(45, 54).
in(45, 55).
in(45, 57).
in(45, 58).
in(45, 62).
in(45, 63).
in(45, 67).
in(45, 70).
in(45, 73).
in(45, 75).
in(45, 77).
in(45, 78).
in(45, 79).
in(45, 83).
in(45, 84).
in(45, 87).
in(45, 89).
in(45, 91).
in(46, 3).
in(46, 4).
in(46, 7).
in(46, 8).
in(46, 10).
in(46, 12).
in(46, 15).
in(46, 16).
in(46, 18).
in(46, 20).
in(46, 26).
in(46, 27).
in(46, 28).
in(46, 29).
in(46, 30).
in(46, 37).
in(46, 38).
in(46, 39).
in(46, 41).
in(46, 46).
in(46, 48).
in(46, 51).
in(46, 56).
in(46, 57).
in(46, 59).
in(46, 60).
in(46, 61).
in(46, 64).
in(46, 65).
in(46, 67).
in(46, 70).
in(46, 73).
in(46, 75).
in(46, 76).
in(46, 78).
in(46, 79).
in(46, 83).
in(46, 91).
in(46, 93).
in(46, 94).
in(47, 1).
in(47, 9).
in(47, 11).
in(47, 14).
in(47, 18).
in(47, 23).
in(47, 24).
in(47, 25).
in(47, 26).
in(47, 30).
in(47, 33).
in(47, 35).
in(47, 36).
in(47, 38).
in(47, 40).
in(47, 42).
in(47, 43).
in(47, 50).
in(47, 51).
in(47, 52).
in(47, 53).
in(47, 55).
in(47, 61).
in(47, 65).
in(47, 69).
in(47, 71).
in(47, 72).
in(47, 73).
in(47, 74).
in(47, 75).
in(47, 77).
in(47, 78).
in(47, 80).
in(47, 82).
in(47, 83).
in(47, 87).
in(47, 92).
in(47, 93).
in(47, 95).
in(48, 1).
in(48, 2).
in(48, 8).
in(48, 10).
in(48, 11).
in(48, 12).
in(48, 14).
in(48, 16).
in(48, 19).
in(48, 20).
in(48, 22).
in(48, 24).
in(48, 25).
in(48, 27).
in(48, 32).
in(48, 35).
in(48, 38).
in(48, 40).
in(48, 42).
in(48, 46).
in(48, 48).
in(48, 53).
in(48, 63).
in(48, 64).
in(48, 65).
in(48, 69).
in(48, 71).
in(48, 72).
in(48, 74).
in(48, 79).
in(48, 80).
in(48, 86).
in(48, 87).
in(48, 93).
in(48, 95).
in(49, 3).
in(49, 6).
in(49, 7).
in(49, 9).
in(49, 16).
in(49, 23).
in(49, 25).
in(49, 27).
in(49, 28).
in(49, 29).
in(49, 32).
in(49, 35).
in(49, 36).
in(49, 41).
in(49, 42).
in(49, 43).
in(49, 44).
in(49, 49).
in(49, 50).
in(49, 54).
in(49, 55).
in(49, 60).
in(49, 61).
in(49, 63).
in(49, 64).
in(49, 68).
in(49, 69).
in(49, 71).
in(49, 72).
in(49, 73).
in(49, 74).
in(49, 75).
in(49, 76).
in(49, 81).
in(49, 86).
in(49, 88).
in(49, 91).
in(49, 94).
in(50, 3).
in(50, 6).
in(50, 10).
in(50, 14).
in(50, 16).
in(50, 18).
in(50, 24).
in(50, 25).
in(50, 26).
in(50, 27).
in(50, 33).
in(50, 37).
in(50, 41).
in(50, 42).
in(50, 43).
in(50, 44).
in(50, 46).
in(50, 49).
in(50, 52).
in(50, 54).
in(50, 55).
in(50, 56).
in(50, 61).
in(50, 62).
in(50, 66).
in(50, 68).
in(50, 69).
in(50, 80).
in(50, 83).
in(50, 84).
in(50, 85).
in(50, 87).
in(50, 89).
in(50, 91).
in(51, 2).
in(51, 4).
in(51, 8).
in(51, 9).
in(51, 17).
in(51, 19).
in(51, 20).
in(51, 23).
in(51, 30).
in(51, 33).
in(51, 35).
in(51, 36).
in(51, 38).
in(51, 44).
in(51, 45).
in(51, 47).
in(51, 48).
in(51, 52).
in(51, 54).
in(51, 56).
in(51, 58).
in(51, 63).
in(51, 66).
in(51, 67).
in(51, 70).
in(51, 71).
in(51, 78).
in(51, 79).
in(51, 80).
in(51, 85).
in(51, 87).
in(51, 90).
in(52, 7).
in(52, 11).
in(52, 16).
in(52, 20).
in(52, 22).
in(52, 24).
in(52, 25).
in(52, 26).
in(52, 29).
in(52, 31).
in(52, 33).
in(52, 35).
in(52, 36).
in(52, 43).
in(52, 46).
in(52, 47).
in(52, 51).
in(52, 52).
in(52, 54).
in(52, 55).
in(52, 66).
in(52, 67).
in(52, 68).
in(52, 73).
in(52, 80).
in(52, 82).
in(52, 84).
in(52, 86).
in(52, 88).
in(52, 90).
in(52, 92).
in(52, 93).
in(53, 1).
in(53, 6).
in(53, 9).
in(53, 10).
in(53, 13).
in(53, 21).
in(53, 24).
in(53, 26).
in(53, 27).
in(53, 34).
in(53, 36).
in(53, 40).
in(53, 48).
in(53, 49).
in(53, 51).
in(53, 52).
in(53, 56).
in(53, 58).
in(53, 60).
in(53, 65).
in(53, 66).
in(53, 68).
in(53, 71).
in(53, 72).
in(53, 73).
in(53, 77).
in(53, 78).
in(53, 80).
in(53, 82).
in(53, 84).
in(53, 87).
in(53, 88).
in(53, 89).
in(53, 91).
in(53, 95).
in(54, 1).
in(54, 5).
in(54, 9).
in(54, 12).
in(54, 14).
in(54, 15).
in(54, 18).
in(54, 21).
in(54, 22).
in(54, 27).
in(54, 30).
in(54, 32).
in(54, 33).
in(54, 34).
in(54, 36).
in(54, 38).
in(54, 41).
in(54, 43).
in(54, 44).
in(54, 46).
in(54, 49).
in(54, 53).
in(54, 54).
in(54, 55).
in(54, 56).
in(54, 57).
in(54, 58).
in(54, 59).
in(54, 61).
in(54, 62).
in(54, 66).
in(54, 68).
in(54, 71).
in(54, 76).
in(54, 79).
in(54, 80).
in(54, 83).
in(54, 84).
in(54, 85).
in(54, 86).
in(54, 87).
in(54, 88).
in(54, 90).
in(54, 93).
in(54, 94).
in(55, 1).
in(55, 3).
in(55, 5).
in(55, 9).
in(55, 10).
in(55, 12).
in(55, 13).
in(55, 16).
in(55, 21).
in(55, 22).
in(55, 24).
in(55, 25).
in(55, 26).
in(55, 27).
in(55, 29).
in(55, 30).
in(55, 31).
in(55, 34).
in(55, 35).
in(55, 43).
in(55, 44).
in(55, 47).
in(55, 48).
in(55, 49).
in(55, 52).
in(55, 53).
in(55, 54).
in(55, 56).
in(55, 57).
in(55, 58).
in(55, 59).
in(55, 62).
in(55, 65).
in(55, 67).
in(55, 69).
in(55, 74).
in(55, 79).
in(55, 84).
in(55, 85).
in(55, 86).
in(55, 88).
in(55, 89).
in(55, 90).
in(55, 91).
in(55, 93).
in(55, 95).
in(56, 4).
in(56, 10).
in(56, 14).
in(56, 15).
in(56, 16).
in(56, 18).
in(56, 22).
in(56, 26).
in(56, 29).
in(56, 32).
in(56, 33).
in(56, 34).
in(56, 36).
in(56, 37).
in(56, 38).
in(56, 39).
in(56, 42).
in(56, 43).
in(56, 45).
in(56, 46).
in(56, 47).
in(56, 53).
in(56, 54).
in(56, 55).
in(56, 63).
in(56, 64).
in(56, 73).
in(56, 75).
in(56, 76).
in(56, 80).
in(56, 81).
in(56, 86).
in(56, 90).
in(56, 93).
in(56, 94).
in(56, 95).
in(57, 1).
in(57, 2).
in(57, 3).
in(57, 4).
in(57, 5).
in(57, 7).
in(57, 9).
in(57, 10).
in(57, 13).
in(57, 16).
in(57, 17).
in(57, 19).
in(57, 24).
in(57, 26).
in(57, 31).
in(57, 32).
in(57, 33).
in(57, 34).
in(57, 36).
in(57, 38).
in(57, 40).
in(57, 41).
in(57, 43).
in(57, 44).
in(57, 52).
in(57, 56).
in(57, 58).
in(57, 63).
in(57, 65).
in(57, 67).
in(57, 69).
in(57, 73).
in(57, 75).
in(57, 76).
in(57, 78).
in(57, 81).
in(57, 82).
in(57, 83).
in(57, 85).
in(57, 88).
in(57, 93).
in(57, 94).
in(57, 95).
in(58, 2).
in(58, 7).
in(58, 9).
in(58, 10).
in(58, 13).
in(58, 14).
in(58, 16).
in(58, 17).
in(58, 19).
in(58, 28).
in(58, 30).
in(58, 31).
in(58, 35).
in(58, 39).
in(58, 41).
in(58, 45).
in(58, 49).
in(58, 50).
in(58, 53).
in(58, 55).
in(58, 56).
in(58, 57).
in(58, 60).
in(58, 61).
in(58, 63).
in(58, 64).
in(58, 67).
in(58, 68).
in(58, 71).
in(58, 72).
in(58, 74).
in(58, 77).
in(58, 78).
in(58, 80).
in(58, 81).
in(58, 83).
in(58, 86).
in(58, 91).
in(58, 93).
in(58, 94).
in(59, 6).
in(59, 10).
in(59, 11).
in(59, 13).
in(59, 14).
in(59, 16).
in(59, 18).
in(59, 20).
in(59, 21).
in(59, 26).
in(59, 29).
in(59, 32).
in(59, 35).
in(59, 36).
in(59, 37).
in(59, 38).
in(59, 39).
in(59, 43).
in(59, 46).
in(59, 49).
in(59, 57).
in(59, 60).
in(59, 63).
in(59, 65).
in(59, 70).
in(59, 76).
in(59, 80).
in(59, 84).
in(59, 85).
in(59, 86).
in(59, 87).
in(59, 92).
in(59, 93).
in(60, 1).
in(60, 8).
in(60, 9).
in(60, 12).
in(60, 17).
in(60, 18).
in(60, 20).
in(60, 24).
in(60, 25).
in(60, 26).
in(60, 27).
in(60, 29).
in(60, 33).
in(60, 36).
in(60, 37).
in(60, 38).
in(60, 39).
in(60, 41).
in(60, 43).
in(60, 44).
in(60, 49).
in(60, 50).
in(60, 56).
in(60, 58).
in(60, 59).
in(60, 62).
in(60, 66).
in(60, 67).
in(60, 68).
in(60, 70).
in(60, 74).
in(60, 75).
in(60, 77).
in(60, 78).
in(60, 83).
in(60, 85).
in(60, 86).
in(60, 89).
in(60, 90).
in(60, 95).
in(61, 1).
in(61, 4).
in(61, 6).
in(61, 8).
in(61, 10).
in(61, 12).
in(61, 15).
in(61, 17).
in(61, 20).
in(61, 21).
in(61, 23).
in(61, 25).
in(61, 27).
in(61, 30).
in(61, 32).
in(61, 37).
in(61, 38).
in(61, 41).
in(61, 45).
in(61, 46).
in(61, 48).
in(61, 50).
in(61, 52).
in(61, 53).
in(61, 55).
in(61, 58).
in(61, 60).
in(61, 61).
in(61, 62).
in(61, 64).
in(61, 67).
in(61, 70).
in(61, 73).
in(61, 75).
in(61, 76).
in(61, 80).
in(61, 82).
in(61, 87).
in(61, 92).
in(61, 95).
in(62, 2).
in(62, 3).
in(62, 5).
in(62, 7).
in(62, 11).
in(62, 12).
in(62, 13).
in(62, 14).
in(62, 21).
in(62, 24).
in(62, 25).
in(62, 27).
in(62, 28).
in(62, 32).
in(62, 33).
in(62, 34).
in(62, 36).
in(62, 40).
in(62, 44).
in(62, 45).
in(62, 47).
in(62, 48).
in(62, 50).
in(62, 52).
in(62, 53).
in(62, 64).
in(62, 66).
in(62, 68).
in(62, 71).
in(62, 72).
in(62, 76).
in(62, 77).
in(62, 78).
in(62, 79).
in(62, 81).
in(62, 83).
in(62, 86).
in(62, 88).
in(62, 93).
in(63, 4).
in(63, 5).
in(63, 10).
in(63, 14).
in(63, 15).
in(63, 16).
in(63, 17).
in(63, 18).
in(63, 25).
in(63, 29).
in(63, 30).
in(63, 40).
in(63, 42).
in(63, 43).
in(63, 44).
in(63, 45).
in(63, 55).
in(63, 56).
in(63, 57).
in(63, 58).
in(63, 60).
in(63, 61).
in(63, 62).
in(63, 64).
in(63, 69).
in(63, 70).
in(63, 71).
in(63, 73).
in(63, 74).
in(63, 76).
in(63, 79).
in(63, 88).
in(64, 2).
in(64, 4).
in(64, 7).
in(64, 8).
in(64, 9).
in(64, 12).
in(64, 14).
in(64, 19).
in(64, 20).
in(64, 22).
in(64, 26).
in(64, 29).
in(64, 32).
in(64, 34).
in(64, 35).
in(64, 36).
in(64, 37).
in(64, 40).
in(64, 43).
in(64, 46).
in(64, 54).
in(64, 61).
in(64, 65).
in(64, 73).
in(64, 74).
in(64, 76).
in(64, 78).
in(64, 91).
in(64, 92).
in(64, 95).
in(65, 1).
in(65, 5).
in(65, 9).
in(65, 11).
in(65, 14).
in(65, 17).
in(65, 19).
in(65, 20).
in(65, 21).
in(65, 23).
in(65, 24).
in(65, 26).
in(65, 29).
in(65, 31).
in(65, 33).
in(65, 37).
in(65, 39).
in(65, 40).
in(65, 42).
in(65, 43).
in(65, 45).
in(65, 49).
in(65, 51).
in(65, 52).
in(65, 54).
in(65, 55).
in(65, 58).
in(65, 60).
in(65, 66).
in(65, 72).
in(65, 79).
in(65, 80).
in(65, 81).
in(65, 82).
in(65, 86).
in(65, 87).
in(65, 89).
in(65, 90).
in(65, 92).
in(65, 93).
in(66, 1).
in(66, 3).
in(66, 8).
in(66, 10).
in(66, 14).
in(66, 17).
in(66, 18).
in(66, 20).
in(66, 23).
in(66, 28).
in(66, 29).
in(66, 31).
in(66, 33).
in(66, 35).
in(66, 42).
in(66, 45).
in(66, 46).
in(66, 50).
in(66, 51).
in(66, 52).
in(66, 55).
in(66, 56).
in(66, 58).
in(66, 60).
in(66, 61).
in(66, 62).
in(66, 69).
in(66, 72).
in(66, 74).
in(66, 80).
in(66, 83).
in(66, 85).
in(66, 95).
in(67, 1).
in(67, 6).
in(67, 7).
in(67, 9).
in(67, 12).
in(67, 18).
in(67, 19).
in(67, 21).
in(67, 22).
in(67, 24).
in(67, 26).
in(67, 27).
in(67, 29).
in(67, 33).
in(67, 35).
in(67, 37).
in(67, 39).
in(67, 41).
in(67, 44).
in(67, 48).
in(67, 50).
in(67, 52).
in(67, 54).
in(67, 57).
in(67, 59).
in(67, 61).
in(67, 64).
in(67, 68).
in(67, 69).
in(67, 70).
in(67, 71).
in(67, 72).
in(67, 76).
in(67, 77).
in(67, 79).
in(67, 83).
in(67, 87).
in(67, 89).
in(67, 90).
in(67, 93).
in(67, 94).
in(68, 1).
in(68, 4).
in(68, 5).
in(68, 6).
in(68, 9).
in(68, 10).
in(68, 11).
in(68, 16).
in(68, 19).
in(68, 22).
in(68, 23).
in(68, 24).
in(68, 30).
in(68, 35).
in(68, 37).
in(68, 39).
in(68, 40).
in(68, 41).
in(68, 42).
in(68, 43).
in(68, 46).
in(68, 47).
in(68, 48).
in(68, 49).
in(68, 50).
in(68, 53).
in(68, 55).
in(68, 57).
in(68, 59).
in(68, 60).
in(68, 61).
in(68, 66).
in(68, 74).
in(68, 75).
in(68, 79).
in(68, 82).
in(68, 83).
in(68, 84).
in(68, 88).
in(68, 89).
in(68, 94).
in(69, 1).
in(69, 4).
in(69, 6).
in(69, 7).
in(69, 12).
in(69, 16).
in(69, 18).
in(69, 19).
in(69, 20).
in(69, 26).
in(69, 27).
in(69, 29).
in(69, 30).
in(69, 33).
in(69, 34).
in(69, 36).
in(69, 37).
in(69, 38).
in(69, 39).
in(69, 41).
in(69, 44).
in(69, 49).
in(69, 55).
in(69, 57).
in(69, 58).
in(69, 61).
in(69, 62).
in(69, 65).
in(69, 66).
in(69, 67).
in(69, 68).
in(69, 73).
in(69, 75).
in(69, 76).
in(69, 80).
in(69, 86).
in(69, 90).
in(69, 91).
in(69, 92).
in(69, 94).
in(70, 5).
in(70, 6).
in(70, 8).
in(70, 9).
in(70, 10).
in(70, 13).
in(70, 14).
in(70, 15).
in(70, 18).
in(70, 20).
in(70, 21).
in(70, 22).
in(70, 23).
in(70, 24).
in(70, 26).
in(70, 28).
in(70, 30).
in(70, 32).
in(70, 33).
in(70, 35).
in(70, 36).
in(70, 37).
in(70, 38).
in(70, 39).
in(70, 40).
in(70, 49).
in(70, 50).
in(70, 52).
in(70, 53).
in(70, 57).
in(70, 59).
in(70, 61).
in(70, 62).
in(70, 69).
in(70, 72).
in(70, 74).
in(70, 76).
in(70, 77).
in(70, 78).
in(70, 81).
in(70, 83).
in(70, 85).
in(70, 89).
in(70, 92).
in(70, 93).
in(70, 94).
in(70, 95).
in(71, 3).
in(71, 4).
in(71, 5).
in(71, 6).
in(71, 14).
in(71, 15).
in(71, 19).
in(71, 20).
in(71, 21).
in(71, 22).
in(71, 23).
in(71, 24).
in(71, 28).
in(71, 29).
in(71, 31).
in(71, 32).
in(71, 37).
in(71, 39).
in(71, 40).
in(71, 45).
in(71, 46).
in(71, 47).
in(71, 49).
in(71, 50).
in(71, 52).
in(71, 53).
in(71, 54).
in(71, 58).
in(71, 60).
in(71, 65).
in(71, 67).
in(71, 70).
in(71, 71).
in(71, 73).
in(71, 75).
in(71, 79).
in(71, 84).
in(71, 86).
in(71, 88).
in(71, 94).
in(72, 2).
in(72, 12).
in(72, 13).
in(72, 14).
in(72, 18).
in(72, 19).
in(72, 20).
in(72, 24).
in(72, 26).
in(72, 29).
in(72, 31).
in(72, 36).
in(72, 37).
in(72, 39).
in(72, 43).
in(72, 44).
in(72, 45).
in(72, 46).
in(72, 47).
in(72, 48).
in(72, 55).
in(72, 57).
in(72, 58).
in(72, 59).
in(72, 60).
in(72, 62).
in(72, 65).
in(72, 70).
in(72, 73).
in(72, 80).
in(72, 85).
in(72, 86).
in(72, 87).
in(72, 89).
in(72, 91).
in(72, 95).
in(73, 6).
in(73, 7).
in(73, 14).
in(73, 17).
in(73, 18).
in(73, 20).
in(73, 21).
in(73, 22).
in(73, 27).
in(73, 28).
in(73, 30).
in(73, 33).
in(73, 36).
in(73, 39).
in(73, 42).
in(73, 45).
in(73, 46).
in(73, 47).
in(73, 48).
in(73, 50).
in(73, 52).
in(73, 55).
in(73, 57).
in(73, 62).
in(73, 63).
in(73, 64).
in(73, 66).
in(73, 67).
in(73, 74).
in(73, 79).
in(73, 81).
in(73, 83).
in(73, 85).
in(73, 87).
in(73, 92).
in(74, 1).
in(74, 2).
in(74, 5).
in(74, 14).
in(74, 16).
in(74, 18).
in(74, 20).
in(74, 21).
in(74, 22).
in(74, 24).
in(74, 25).
in(74, 26).
in(74, 27).
in(74, 31).
in(74, 33).
in(74, 39).
in(74, 41).
in(74, 45).
in(74, 47).
in(74, 49).
in(74, 50).
in(74, 51).
in(74, 53).
in(74, 54).
in(74, 60).
in(74, 63).
in(74, 64).
in(74, 65).
in(74, 71).
in(74, 72).
in(74, 74).
in(74, 75).
in(74, 76).
in(74, 77).
in(74, 80).
in(74, 81).
in(74, 83).
in(74, 85).
in(74, 86).
in(74, 88).
in(74, 90).
in(74, 91).
in(74, 94).
in(75, 2).
in(75, 3).
in(75, 5).
in(75, 7).
in(75, 10).
in(75, 11).
in(75, 12).
in(75, 13).
in(75, 15).
in(75, 16).
in(75, 22).
in(75, 24).
in(75, 26).
in(75, 32).
in(75, 34).
in(75, 36).
in(75, 37).
in(75, 45).
in(75, 46).
in(75, 48).
in(75, 51).
in(75, 52).
in(75, 54).
in(75, 57).
in(75, 58).
in(75, 62).
in(75, 64).
in(75, 66).
in(75, 68).
in(75, 69).
in(75, 71).
in(75, 80).
in(75, 81).
in(75, 82).
in(75, 85).
in(75, 87).
in(75, 88).
in(75, 93).
in(75, 95).
in(76, 1).
in(76, 2).
in(76, 3).
in(76, 5).
in(76, 6).
in(76, 7).
in(76, 9).
in(76, 10).
in(76, 19).
in(76, 23).
in(76, 26).
in(76, 28).
in(76, 29).
in(76, 30).
in(76, 33).
in(76, 35).
in(76, 36).
in(76, 37).
in(76, 42).
in(76, 46).
in(76, 49).
in(76, 50).
in(76, 53).
in(76, 55).
in(76, 62).
in(76, 64).
in(76, 66).
in(76, 68).
in(76, 69).
in(76, 71).
in(76, 75).
in(76, 79).
in(76, 81).
in(76, 84).
in(76, 85).
in(76, 86).
in(76, 89).
in(76, 90).
in(76, 95).
in(77, 4).
in(77, 6).
in(77, 13).
in(77, 14).
in(77, 15).
in(77, 16).
in(77, 20).
in(77, 24).
in(77, 28).
in(77, 30).
in(77, 33).
in(77, 37).
in(77, 39).
in(77, 41).
in(77, 50).
in(77, 52).
in(77, 54).
in(77, 55).
in(77, 58).
in(77, 61).
in(77, 62).
in(77, 67).
in(77, 69).
in(77, 70).
in(77, 71).
in(77, 73).
in(77, 74).
in(77, 77).
in(77, 81).
in(77, 82).
in(77, 87).
in(77, 90).
in(77, 91).
in(78, 7).
in(78, 8).
in(78, 9).
in(78, 11).
in(78, 17).
in(78, 21).
in(78, 22).
in(78, 29).
in(78, 31).
in(78, 34).
in(78, 35).
in(78, 37).
in(78, 38).
in(78, 39).
in(78, 44).
in(78, 45).
in(78, 46).
in(78, 47).
in(78, 48).
in(78, 52).
in(78, 53).
in(78, 56).
in(78, 60).
in(78, 61).
in(78, 63).
in(78, 66).
in(78, 67).
in(78, 68).
in(78, 69).
in(78, 71).
in(78, 76).
in(78, 81).
in(78, 85).
in(78, 86).
in(78, 88).
in(78, 89).
in(78, 93).
in(78, 94).
in(78, 95).
in(79, 5).
in(79, 10).
in(79, 13).
in(79, 14).
in(79, 15).
in(79, 19).
in(79, 20).
in(79, 22).
in(79, 23).
in(79, 25).
in(79, 29).
in(79, 30).
in(79, 34).
in(79, 35).
in(79, 36).
in(79, 41).
in(79, 45).
in(79, 49).
in(79, 52).
in(79, 53).
in(79, 56).
in(79, 66).
in(79, 69).
in(79, 70).
in(79, 74).
in(79, 75).
in(79, 78).
in(79, 83).
in(79, 87).
in(79, 88).
in(79, 91).
in(79, 94).
in(80, 2).
in(80, 3).
in(80, 9).
in(80, 17).
in(80, 18).
in(80, 19).
in(80, 21).
in(80, 24).
in(80, 26).
in(80, 27).
in(80, 31).
in(80, 33).
in(80, 38).
in(80, 40).
in(80, 42).
in(80, 46).
in(80, 47).
in(80, 49).
in(80, 50).
in(80, 60).
in(80, 62).
in(80, 64).
in(80, 67).
in(80, 75).
in(80, 76).
in(80, 78).
in(80, 81).
in(80, 82).
in(80, 85).
in(80, 86).
in(80, 90).
in(80, 91).
in(80, 92).
in(80, 95).
in(81, 6).
in(81, 7).
in(81, 12).
in(81, 14).
in(81, 16).
in(81, 20).
in(81, 29).
in(81, 30).
in(81, 32).
in(81, 33).
in(81, 34).
in(81, 35).
in(81, 39).
in(81, 42).
in(81, 44).
in(81, 45).
in(81, 47).
in(81, 48).
in(81, 50).
in(81, 52).
in(81, 53).
in(81, 54).
in(81, 58).
in(81, 60).
in(81, 62).
in(81, 63).
in(81, 64).
in(81, 66).
in(81, 69).
in(81, 73).
in(81, 74).
in(81, 76).
in(81, 80).
in(81, 82).
in(81, 83).
in(81, 85).
in(81, 86).
in(81, 88).
in(81, 89).
in(81, 90).
in(81, 91).
in(81, 92).
in(81, 94).
in(81, 95).
in(82, 3).
in(82, 5).
in(82, 7).
in(82, 10).
in(82, 13).
in(82, 19).
in(82, 20).
in(82, 23).
in(82, 27).
in(82, 34).
in(82, 35).
in(82, 36).
in(82, 39).
in(82, 43).
in(82, 45).
in(82, 47).
in(82, 51).
in(82, 53).
in(82, 56).
in(82, 57).
in(82, 64).
in(82, 65).
in(82, 69).
in(82, 72).
in(82, 73).
in(82, 74).
in(82, 77).
in(82, 78).
in(82, 82).
in(82, 85).
in(82, 87).
in(82, 89).
in(82, 91).
in(82, 93).
in(83, 2).
in(83, 4).
in(83, 6).
in(83, 7).
in(83, 11).
in(83, 22).
in(83, 23).
in(83, 25).
in(83, 27).
in(83, 30).
in(83, 31).
in(83, 39).
in(83, 48).
in(83, 49).
in(83, 52).
in(83, 53).
in(83, 54).
in(83, 59).
in(83, 60).
in(83, 64).
in(83, 67).
in(83, 71).
in(83, 76).
in(83, 77).
in(83, 81).
in(83, 87).
in(83, 88).
in(83, 90).
in(83, 93).
in(84, 7).
in(84, 11).
in(84, 12).
in(84, 16).
in(84, 17).
in(84, 19).
in(84, 21).
in(84, 27).
in(84, 29).
in(84, 30).
in(84, 32).
in(84, 34).
in(84, 36).
in(84, 42).
in(84, 45).
in(84, 51).
in(84, 52).
in(84, 55).
in(84, 57).
in(84, 69).
in(84, 71).
in(84, 73).
in(84, 75).
in(84, 78).
in(84, 79).
in(84, 83).
in(84, 86).
in(84, 88).
in(84, 90).
in(84, 92).
in(84, 93).
in(84, 94).
in(85, 2).
in(85, 3).
in(85, 5).
in(85, 11).
in(85, 14).
in(85, 16).
in(85, 17).
in(85, 23).
in(85, 24).
in(85, 25).
in(85, 31).
in(85, 33).
in(85, 34).
in(85, 37).
in(85, 38).
in(85, 40).
in(85, 41).
in(85, 44).
in(85, 49).
in(85, 50).
in(85, 51).
in(85, 53).
in(85, 54).
in(85, 57).
in(85, 58).
in(85, 60).
in(85, 63).
in(85, 68).
in(85, 69).
in(85, 70).
in(85, 72).
in(85, 83).
in(86, 1).
in(86, 2).
in(86, 3).
in(86, 7).
in(86, 11).
in(86, 12).
in(86, 14).
in(86, 19).
in(86, 22).
in(86, 24).
in(86, 26).
in(86, 28).
in(86, 34).
in(86, 36).
in(86, 38).
in(86, 39).
in(86, 40).
in(86, 46).
in(86, 47).
in(86, 57).
in(86, 59).
in(86, 62).
in(86, 63).
in(86, 72).
in(86, 74).
in(86, 75).
in(86, 77).
in(86, 79).
in(86, 80).
in(86, 81).
in(86, 86).
in(86, 87).
in(86, 89).
in(86, 92).
in(86, 95).
in(87, 2).
in(87, 7).
in(87, 9).
in(87, 10).
in(87, 14).
in(87, 18).
in(87, 19).
in(87, 22).
in(87, 29).
in(87, 30).
in(87, 32).
in(87, 33).
in(87, 36).
in(87, 38).
in(87, 39).
in(87, 40).
in(87, 42).
in(87, 44).
in(87, 45).
in(87, 48).
in(87, 49).
in(87, 51).
in(87, 52).
in(87, 53).
in(87, 54).
in(87, 55).
in(87, 58).
in(87, 59).
in(87, 65).
in(87, 66).
in(87, 67).
in(87, 71).
in(87, 74).
in(87, 75).
in(87, 78).
in(87, 85).
in(87, 90).
in(87, 92).
in(87, 94).
in(87, 95).
in(88, 1).
in(88, 2).
in(88, 4).
in(88, 6).
in(88, 7).
in(88, 9).
in(88, 11).
in(88, 15).
in(88, 17).
in(88, 18).
in(88, 19).
in(88, 20).
in(88, 22).
in(88, 27).
in(88, 29).
in(88, 32).
in(88, 35).
in(88, 41).
in(88, 45).
in(88, 46).
in(88, 50).
in(88, 52).
in(88, 57).
in(88, 59).
in(88, 61).
in(88, 63).
in(88, 64).
in(88, 65).
in(88, 66).
in(88, 70).
in(88, 73).
in(88, 74).
in(88, 79).
in(88, 82).
in(88, 83).
in(88, 84).
in(88, 86).
in(88, 88).
in(88, 95).
in(89, 1).
in(89, 3).
in(89, 4).
in(89, 7).
in(89, 8).
in(89, 12).
in(89, 16).
in(89, 19).
in(89, 20).
in(89, 21).
in(89, 23).
in(89, 25).
in(89, 31).
in(89, 32).
in(89, 33).
in(89, 36).
in(89, 39).
in(89, 41).
in(89, 42).
in(89, 44).
in(89, 47).
in(89, 48).
in(89, 50).
in(89, 52).
in(89, 53).
in(89, 54).
in(89, 55).
in(89, 57).
in(89, 58).
in(89, 62).
in(89, 63).
in(89, 64).
in(89, 65).
in(89, 72).
in(89, 74).
in(89, 77).
in(89, 78).
in(89, 79).
in(89, 86).
in(89, 87).
in(89, 91).
in(89, 93).
in(89, 95).
in(90, 5).
in(90, 6).
in(90, 9).
in(90, 12).
in(90, 13).
in(90, 14).
in(90, 17).
in(90, 18).
in(90, 21).
in(90, 22).
in(90, 23).
in(90, 24).
in(90, 26).
in(90, 27).
in(90, 29).
in(90, 32).
in(90, 35).
in(90, 39).
in(90, 40).
in(90, 43).
in(90, 45).
in(90, 46).
in(90, 48).
in(90, 49).
in(90, 56).
in(90, 60).
in(90, 61).
in(90, 63).
in(90, 66).
in(90, 71).
in(90, 73).
in(90, 77).
in(90, 78).
in(90, 80).
in(90, 82).
in(90, 85).
in(90, 92).
in(90, 93).
in(90, 94).
in(91, 2).
in(91, 4).
in(91, 5).
in(91, 6).
in(91, 8).
in(91, 9).
in(91, 10).
in(91, 12).
in(91, 14).
in(91, 15).
in(91, 20).
in(91, 21).
in(91, 25).
in(91, 27).
in(91, 29).
in(91, 30).
in(91, 32).
in(91, 35).
in(91, 39).
in(91, 40).
in(91, 42).
in(91, 49).
in(91, 56).
in(91, 57).
in(91, 60).
in(91, 61).
in(91, 64).
in(91, 65).
in(91, 66).
in(91, 70).
in(91, 78).
in(91, 79).
in(91, 80).
in(91, 84).
in(91, 86).
in(91, 87).
in(91, 88).
in(91, 89).
in(91, 91).
in(91, 94).
in(91, 95).
in(92, 1).
in(92, 2).
in(92, 4).
in(92, 7).
in(92, 9).
in(92, 10).
in(92, 15).
in(92, 16).
in(92, 17).
in(92, 18).
in(92, 22).
in(92, 28).
in(92, 32).
in(92, 34).
in(92, 42).
in(92, 44).
in(92, 46).
in(92, 48).
in(92, 53).
in(92, 54).
in(92, 55).
in(92, 56).
in(92, 57).
in(92, 60).
in(92, 62).
in(92, 65).
in(92, 66).
in(92, 67).
in(92, 70).
in(92, 71).
in(92, 73).
in(92, 74).
in(92, 75).
in(92, 76).
in(92, 80).
in(92, 82).
in(92, 85).
in(92, 86).
in(92, 89).
in(92, 91).
in(92, 92).
in(92, 93).
in(93, 2).
in(93, 3).
in(93, 5).
in(93, 11).
in(93, 13).
in(93, 14).
in(93, 15).
in(93, 19).
in(93, 20).
in(93, 23).
in(93, 24).
in(93, 25).
in(93, 27).
in(93, 29).
in(93, 30).
in(93, 36).
in(93, 39).
in(93, 47).
in(93, 50).
in(93, 55).
in(93, 57).
in(93, 58).
in(93, 60).
in(93, 61).
in(93, 64).
in(93, 68).
in(93, 70).
in(93, 71).
in(93, 73).
in(93, 74).
in(93, 75).
in(93, 77).
in(93, 84).
in(93, 86).
in(93, 88).
in(93, 90).
in(93, 92).
in(94, 2).
in(94, 5).
in(94, 7).
in(94, 8).
in(94, 10).
in(94, 11).
in(94, 13).
in(94, 29).
in(94, 32).
in(94, 34).
in(94, 37).
in(94, 38).
in(94, 40).
in(94, 41).
in(94, 43).
in(94, 45).
in(94, 51).
in(94, 52).
in(94, 56).
in(94, 59).
in(94, 60).
in(94, 76).
in(94, 77).
in(94, 82).
in(94, 83).
in(94, 84).
in(94, 85).
in(94, 90).
in(94, 92).
in(95, 1).
in(95, 7).
in(95, 11).
in(95, 14).
in(95, 18).
in(95, 21).
in(95, 22).
in(95, 23).
in(95, 24).
in(95, 27).
in(95, 32).
in(95, 34).
in(95, 35).
in(95, 37).
in(95, 42).
in(95, 44).
in(95, 45).
in(95, 49).
in(95, 51).
in(95, 55).
in(95, 62).
in(95, 63).
in(95, 66).
in(95, 68).
in(95, 69).
in(95, 72).
in(95, 76).
in(95, 78).
in(95, 80).
in(95, 81).
in(95, 82).
in(95, 83).
in(95, 85).
in(95, 89).
in(95, 91).
in(95, 94).
in(95, 95).
in(96, 1).
in(96, 5).
in(96, 7).
in(96, 9).
in(96, 12).
in(96, 17).
in(96, 18).
in(96, 22).
in(96, 23).
in(96, 24).
in(96, 25).
in(96, 28).
in(96, 30).
in(96, 31).
in(96, 32).
in(96, 35).
in(96, 38).
in(96, 40).
in(96, 41).
in(96, 42).
in(96, 44).
in(96, 45).
in(96, 46).
in(96, 49).
in(96, 50).
in(96, 51).
in(96, 54).
in(96, 57).
in(96, 59).
in(96, 60).
in(96, 63).
in(96, 64).
in(96, 65).
in(96, 66).
in(96, 68).
in(96, 70).
in(96, 75).
in(96, 76).
in(96, 77).
in(96, 80).
in(96, 83).
in(96, 84).
in(96, 85).
in(96, 88).
in(96, 91).
in(96, 92).
in(96, 93).
in(96, 94).
in(97, 5).
in(97, 7).
in(97, 8).
in(97, 9).
in(97, 10).
in(97, 11).
in(97, 15).
in(97, 23).
in(97, 29).
in(97, 32).
in(97, 33).
in(97, 37).
in(97, 38).
in(97, 39).
in(97, 41).
in(97, 42).
in(97, 43).
in(97, 45).
in(97, 46).
in(97, 47).
in(97, 49).
in(97, 52).
in(97, 56).
in(97, 59).
in(97, 60).
in(97, 64).
in(97, 70).
in(97, 71).
in(97, 73).
in(97, 75).
in(97, 76).
in(97, 79).
in(97, 80).
in(97, 81).
in(97, 82).
in(97, 83).
in(97, 85).
in(97, 86).
in(97, 90).
in(97, 91).
in(97, 92).
in(98, 7).
in(98, 8).
in(98, 10).
in(98, 14).
in(98, 15).
in(98, 17).
in(98, 26).
in(98, 32).
in(98, 35).
in(98, 36).
in(98, 37).
in(98, 39).
in(98, 40).
in(98, 41).
in(98, 43).
in(98, 45).
in(98, 46).
in(98, 48).
in(98, 49).
in(98, 60).
in(98, 64).
in(98, 66).
in(98, 69).
in(98, 72).
in(98, 74).
in(98, 76).
in(98, 77).
in(98, 79).
in(98, 80).
in(98, 82).
in(98, 84).
in(98, 85).
in(98, 87).
in(98, 88).
in(98, 90).
in(98, 91).
in(98, 93).
in(99, 2).
in(99, 4).
in(99, 5).
in(99, 8).
in(99, 10).
in(99, 15).
in(99, 18).
in(99, 21).
in(99, 23).
in(99, 24).
in(99, 28).
in(99, 31).
in(99, 35).
in(99, 36).
in(99, 42).
in(99, 44).
in(99, 49).
in(99, 51).
in(99, 53).
in(99, 54).
in(99, 56).
in(99, 60).
in(99, 61).
in(99, 63).
in(99, 65).
in(99, 67).
in(99, 68).
in(99, 69).
in(99, 73).
in(99, 74).
in(99, 75).
in(99, 77).
in(99, 78).
in(99, 83).
in(99, 86).
in(99, 88).
in(99, 90).
in(99, 95).
in(100, 1).
in(100, 4).
in(100, 9).
in(100, 14).
in(100, 16).
in(100, 19).
in(100, 21).
in(100, 25).
in(100, 27).
in(100, 28).
in(100, 29).
in(100, 35).
in(100, 39).
in(100, 45).
in(100, 46).
in(100, 65).
in(100, 66).
in(100, 67).
in(100, 68).
in(100, 69).
in(100, 71).
in(100, 73).
in(100, 75).
in(100, 78).
in(100, 81).
in(100, 83).
in(100, 88).
in(100, 89).
in(100, 93).
in(100, 94).
in(100, 95).
in(101, 5).
in(101, 12).
in(101, 22).
in(101, 24).
in(101, 30).
in(101, 32).
in(101, 34).
in(101, 35).
in(101, 36).
in(101, 37).
in(101, 39).
in(101, 40).
in(101, 43).
in(101, 50).
in(101, 52).
in(101, 53).
in(101, 56).
in(101, 60).
in(101, 65).
in(101, 67).
in(101, 69).
in(101, 73).
in(101, 75).
in(101, 77).
in(101, 78).
in(101, 80).
in(101, 83).
in(101, 84).
in(101, 88).
in(101, 90).
in(101, 94).
in(101, 95).
in(102, 1).
in(102, 6).
in(102, 9).
in(102, 11).
in(102, 12).
in(102, 14).
in(102, 15).
in(102, 16).
in(102, 17).
in(102, 23).
in(102, 26).
in(102, 29).
in(102, 35).
in(102, 37).
in(102, 38).
in(102, 40).
in(102, 46).
in(102, 52).
in(102, 53).
in(102, 59).
in(102, 61).
in(102, 62).
in(102, 63).
in(102, 66).
in(102, 67).
in(102, 69).
in(102, 70).
in(102, 71).
in(102, 72).
in(102, 75).
in(102, 78).
in(102, 79).
in(102, 80).
in(102, 81).
in(102, 83).
in(102, 84).
in(102, 85).
in(102, 86).
in(102, 89).
in(102, 92).
in(102, 93).
in(103, 4).
in(103, 6).
in(103, 10).
in(103, 11).
in(103, 13).
in(103, 15).
in(103, 16).
in(103, 17).
in(103, 19).
in(103, 20).
in(103, 21).
in(103, 25).
in(103, 28).
in(103, 30).
in(103, 33).
in(103, 34).
in(103, 36).
in(103, 38).
in(103, 40).
in(103, 49).
in(103, 50).
in(103, 51).
in(103, 52).
in(103, 54).
in(103, 64).
in(103, 71).
in(103, 72).
in(103, 75).
in(103, 77).
in(103, 78).
in(103, 81).
in(103, 82).
in(103, 83).
in(103, 84).
in(103, 85).
in(103, 86).
in(103, 88).
in(103, 92).
in(104, 1).
in(104, 2).
in(104, 4).
in(104, 10).
in(104, 13).
in(104, 15).
in(104, 18).
in(104, 21).
in(104, 22).
in(104, 23).
in(104, 24).
in(104, 29).
in(104, 31).
in(104, 34).
in(104, 36).
in(104, 39).
in(104, 43).
in(104, 48).
in(104, 51).
in(104, 52).
in(104, 57).
in(104, 58).
in(104, 59).
in(104, 63).
in(104, 67).
in(104, 68).
in(104, 74).
in(104, 76).
in(104, 79).
in(104, 82).
in(104, 84).
in(104, 88).
in(104, 90).
in(104, 93).
in(105, 2).
in(105, 6).
in(105, 7).
in(105, 10).
in(105, 12).
in(105, 15).
in(105, 20).
in(105, 21).
in(105, 23).
in(105, 24).
in(105, 25).
in(105, 28).
in(105, 29).
in(105, 30).
in(105, 33).
in(105, 34).
in(105, 35).
in(105, 37).
in(105, 39).
in(105, 42).
in(105, 48).
in(105, 49).
in(105, 53).
in(105, 55).
in(105, 57).
in(105, 58).
in(105, 60).
in(105, 62).
in(105, 69).
in(105, 71).
in(105, 72).
in(105, 75).
in(105, 76).
in(105, 78).
in(105, 79).
in(105, 81).
in(105, 83).
in(105, 89).
in(106, 3).
in(106, 4).
in(106, 5).
in(106, 6).
in(106, 12).
in(106, 13).
in(106, 14).
in(106, 15).
in(106, 16).
in(106, 17).
in(106, 18).
in(106, 19).
in(106, 25).
in(106, 26).
in(106, 28).
in(106, 29).
in(106, 33).
in(106, 36).
in(106, 39).
in(106, 41).
in(106, 44).
in(106, 46).
in(106, 51).
in(106, 54).
in(106, 59).
in(106, 62).
in(106, 64).
in(106, 65).
in(106, 69).
in(106, 75).
in(106, 76).
in(106, 80).
in(106, 81).
in(106, 85).
in(106, 86).
in(106, 88).
in(106, 89).
in(106, 92).
in(106, 93).
in(106, 95).
in(107, 1).
in(107, 4).
in(107, 5).
in(107, 7).
in(107, 8).
in(107, 9).
in(107, 10).
in(107, 12).
in(107, 14).
in(107, 15).
in(107, 16).
in(107, 18).
in(107, 24).
in(107, 26).
in(107, 27).
in(107, 28).
in(107, 29).
in(107, 39).
in(107, 41).
in(107, 44).
in(107, 47).
in(107, 49).
in(107, 59).
in(107, 61).
in(107, 62).
in(107, 63).
in(107, 68).
in(107, 70).
in(107, 77).
in(107, 78).
in(107, 81).
in(107, 85).
in(107, 86).
in(107, 87).
in(107, 91).
in(107, 93).
in(107, 94).
in(108, 1).
in(108, 2).
in(108, 7).
in(108, 13).
in(108, 19).
in(108, 20).
in(108, 21).
in(108, 22).
in(108, 23).
in(108, 24).
in(108, 25).
in(108, 28).
in(108, 29).
in(108, 33).
in(108, 37).
in(108, 43).
in(108, 44).
in(108, 45).
in(108, 46).
in(108, 50).
in(108, 51).
in(108, 53).
in(108, 57).
in(108, 58).
in(108, 61).
in(108, 62).
in(108, 66).
in(108, 72).
in(108, 78).
in(108, 82).
in(108, 83).
in(108, 91).
in(108, 93).
in(109, 1).
in(109, 4).
in(109, 6).
in(109, 7).
in(109, 8).
in(109, 9).
in(109, 10).
in(109, 16).
in(109, 18).
in(109, 20).
in(109, 21).
in(109, 22).
in(109, 25).
in(109, 26).
in(109, 27).
in(109, 29).
in(109, 31).
in(109, 32).
in(109, 33).
in(109, 36).
in(109, 39).
in(109, 43).
in(109, 45).
in(109, 46).
in(109, 47).
in(109, 48).
in(109, 52).
in(109, 57).
in(109, 60).
in(109, 61).
in(109, 65).
in(109, 69).
in(109, 75).
in(109, 76).
in(109, 86).
in(109, 88).
in(109, 90).
in(110, 1).
in(110, 3).
in(110, 7).
in(110, 11).
in(110, 13).
in(110, 16).
in(110, 17).
in(110, 23).
in(110, 26).
in(110, 28).
in(110, 29).
in(110, 30).
in(110, 31).
in(110, 33).
in(110, 35).
in(110, 36).
in(110, 40).
in(110, 43).
in(110, 45).
in(110, 46).
in(110, 52).
in(110, 54).
in(110, 56).
in(110, 57).
in(110, 61).
in(110, 63).
in(110, 65).
in(110, 66).
in(110, 69).
in(110, 70).
in(110, 71).
in(110, 72).
in(110, 73).
in(110, 74).
in(110, 76).
in(110, 78).
in(110, 80).
in(110, 81).
in(110, 83).
in(110, 84).
in(110, 91).
in(110, 92).
in(111, 2).
in(111, 5).
in(111, 7).
in(111, 11).
in(111, 12).
in(111, 14).
in(111, 16).
in(111, 17).
in(111, 19).
in(111, 20).
in(111, 22).
in(111, 29).
in(111, 31).
in(111, 34).
in(111, 35).
in(111, 40).
in(111, 41).
in(111, 44).
in(111, 46).
in(111, 49).
in(111, 52).
in(111, 53).
in(111, 54).
in(111, 55).
in(111, 57).
in(111, 61).
in(111, 70).
in(111, 77).
in(111, 78).
in(111, 79).
in(111, 80).
in(111, 89).
in(111, 93).
in(112, 1).
in(112, 2).
in(112, 4).
in(112, 5).
in(112, 6).
in(112, 8).
in(112, 9).
in(112, 10).
in(112, 11).
in(112, 13).
in(112, 14).
in(112, 16).
in(112, 17).
in(112, 20).
in(112, 24).
in(112, 26).
in(112, 29).
in(112, 31).
in(112, 32).
in(112, 35).
in(112, 36).
in(112, 37).
in(112, 39).
in(112, 44).
in(112, 47).
in(112, 51).
in(112, 56).
in(112, 61).
in(112, 63).
in(112, 64).
in(112, 66).
in(112, 67).
in(112, 68).
in(112, 69).
in(112, 73).
in(112, 76).
in(112, 78).
in(112, 79).
in(112, 80).
in(112, 81).
in(112, 83).
in(112, 85).
in(112, 87).
in(112, 89).
in(112, 90).
in(112, 91).
in(112, 93).
in(113, 9).
in(113, 10).
in(113, 11).
in(113, 15).
in(113, 16).
in(113, 17).
in(113, 18).
in(113, 21).
in(113, 22).
in(113, 23).
in(113, 24).
in(113, 27).
in(113, 29).
in(113, 33).
in(113, 35).
in(113, 39).
in(113, 41).
in(113, 42).
in(113, 48).
in(113, 51).
in(113, 52).
in(113, 53).
in(113, 56).
in(113, 57).
in(113, 58).
in(113, 60).
in(113, 61).
in(113, 63).
in(113, 67).
in(113, 68).
in(113, 71).
in(113, 73).
in(113, 78).
in(113, 79).
in(113, 81).
in(113, 83).
in(113, 85).
in(113, 90).
in(113, 91).
in(113, 95).
in(114, 2).
in(114, 4).
in(114, 6).
in(114, 8).
in(114, 15).
in(114, 19).
in(114, 21).
in(114, 22).
in(114, 27).
in(114, 29).
in(114, 30).
in(114, 31).
in(114, 34).
in(114, 43).
in(114, 47).
in(114, 48).
in(114, 52).
in(114, 54).
in(114, 56).
in(114, 57).
in(114, 61).
in(114, 67).
in(114, 73).
in(114, 79).
in(114, 81).
in(114, 82).
in(114, 83).
in(114, 84).
in(114, 85).
in(114, 94).
in(115, 3).
in(115, 5).
in(115, 11).
in(115, 12).
in(115, 16).
in(115, 20).
in(115, 22).
in(115, 28).
in(115, 29).
in(115, 31).
in(115, 35).
in(115, 36).
in(115, 42).
in(115, 44).
in(115, 46).
in(115, 49).
in(115, 50).
in(115, 51).
in(115, 52).
in(115, 53).
in(115, 54).
in(115, 55).
in(115, 56).
in(115, 57).
in(115, 60).
in(115, 63).
in(115, 65).
in(115, 66).
in(115, 70).
in(115, 74).
in(115, 76).
in(115, 79).
in(115, 80).
in(115, 81).
in(115, 83).
in(115, 86).
in(115, 91).
in(115, 92).
in(115, 93).
in(115, 94).
in(116, 11).
in(116, 17).
in(116, 20).
in(116, 23).
in(116, 24).
in(116, 25).
in(116, 38).
in(116, 40).
in(116, 43).
in(116, 44).
in(116, 49).
in(116, 52).
in(116, 54).
in(116, 56).
in(116, 58).
in(116, 59).
in(116, 60).
in(116, 64).
in(116, 69).
in(116, 70).
in(116, 75).
in(116, 79).
in(116, 82).
in(116, 83).
in(116, 84).
in(116, 85).
in(116, 86).
in(116, 89).
in(116, 93).
in(116, 94).
in(117, 1).
in(117, 5).
in(117, 9).
in(117, 11).
in(117, 12).
in(117, 21).
in(117, 25).
in(117, 28).
in(117, 31).
in(117, 33).
in(117, 34).
in(117, 37).
in(117, 39).
in(117, 42).
in(117, 43).
in(117, 44).
in(117, 45).
in(117, 49).
in(117, 52).
in(117, 56).
in(117, 57).
in(117, 60).
in(117, 61).
in(117, 62).
in(117, 63).
in(117, 65).
in(117, 66).
in(117, 67).
in(117, 70).
in(117, 72).
in(117, 75).
in(117, 84).
in(117, 91).
in(117, 94).
in(117, 95).
in(118, 5).
in(118, 8).
in(118, 9).
in(118, 15).
in(118, 19).
in(118, 22).
in(118, 25).
in(118, 26).
in(118, 28).
in(118, 29).
in(118, 30).
in(118, 33).
in(118, 35).
in(118, 37).
in(118, 39).
in(118, 41).
in(118, 42).
in(118, 45).
in(118, 47).
in(118, 51).
in(118, 53).
in(118, 56).
in(118, 57).
in(118, 64).
in(118, 66).
in(118, 67).
in(118, 73).
in(118, 75).
in(118, 79).
in(118, 81).
in(118, 82).
in(118, 83).
in(118, 85).
in(118, 86).
in(118, 87).
in(118, 90).
in(118, 94).
in(119, 4).
in(119, 5).
in(119, 15).
in(119, 17).
in(119, 19).
in(119, 20).
in(119, 22).
in(119, 23).
in(119, 24).
in(119, 27).
in(119, 29).
in(119, 35).
in(119, 36).
in(119, 38).
in(119, 39).
in(119, 40).
in(119, 45).
in(119, 46).
in(119, 47).
in(119, 49).
in(119, 52).
in(119, 55).
in(119, 57).
in(119, 58).
in(119, 59).
in(119, 62).
in(119, 63).
in(119, 64).
in(119, 65).
in(119, 67).
in(119, 71).
in(119, 72).
in(119, 74).
in(119, 75).
in(119, 76).
in(119, 78).
in(119, 88).
in(119, 90).
in(119, 91).
in(119, 92).
in(119, 93).
in(119, 95).
in(120, 4).
in(120, 6).
in(120, 8).
in(120, 10).
in(120, 15).
in(120, 16).
in(120, 22).
in(120, 25).
in(120, 26).
in(120, 29).
in(120, 30).
in(120, 34).
in(120, 36).
in(120, 44).
in(120, 46).
in(120, 48).
in(120, 49).
in(120, 50).
in(120, 51).
in(120, 53).
in(120, 54).
in(120, 55).
in(120, 58).
in(120, 60).
in(120, 63).
in(120, 67).
in(120, 70).
in(120, 75).
in(120, 77).
in(120, 83).
in(120, 84).
in(120, 85).
in(120, 86).
in(120, 87).
in(120, 88).
in(120, 91).
in(120, 93).
in(120, 95).
in(121, 2).
in(121, 7).
in(121, 8).
in(121, 11).
in(121, 13).
in(121, 16).
in(121, 17).
in(121, 19).
in(121, 20).
in(121, 23).
in(121, 26).
in(121, 29).
in(121, 30).
in(121, 34).
in(121, 37).
in(121, 38).
in(121, 43).
in(121, 44).
in(121, 45).
in(121, 48).
in(121, 53).
in(121, 55).
in(121, 56).
in(121, 58).
in(121, 59).
in(121, 61).
in(121, 63).
in(121, 64).
in(121, 66).
in(121, 69).
in(121, 73).
in(121, 77).
in(121, 78).
in(121, 82).
in(121, 83).
in(121, 84).
in(121, 85).
in(121, 92).
in(122, 1).
in(122, 2).
in(122, 6).
in(122, 7).
in(122, 12).
in(122, 13).
in(122, 14).
in(122, 17).
in(122, 18).
in(122, 22).
in(122, 25).
in(122, 27).
in(122, 31).
in(122, 36).
in(122, 39).
in(122, 41).
in(122, 46).
in(122, 50).
in(122, 51).
in(122, 53).
in(122, 56).
in(122, 59).
in(122, 62).
in(122, 64).
in(122, 66).
in(122, 67).
in(122, 70).
in(122, 73).
in(122, 76).
in(122, 77).
in(122, 82).
in(122, 83).
in(122, 85).
in(122, 86).
in(122, 88).
in(122, 89).
in(122, 91).
in(122, 92).
in(123, 4).
in(123, 5).
in(123, 10).
in(123, 12).
in(123, 14).
in(123, 26).
in(123, 28).
in(123, 31).
in(123, 32).
in(123, 33).
in(123, 34).
in(123, 37).
in(123, 42).
in(123, 50).
in(123, 51).
in(123, 53).
in(123, 54).
in(123, 56).
in(123, 57).
in(123, 59).
in(123, 60).
in(123, 61).
in(123, 63).
in(123, 66).
in(123, 69).
in(123, 70).
in(123, 71).
in(123, 72).
in(123, 75).
in(123, 77).
in(123, 80).
in(123, 84).
in(123, 85).
in(123, 91).
in(123, 93).
in(123, 95).
in(124, 1).
in(124, 2).
in(124, 7).
in(124, 8).
in(124, 12).
in(124, 15).
in(124, 16).
in(124, 20).
in(124, 29).
in(124, 33).
in(124, 36).
in(124, 40).
in(124, 43).
in(124, 44).
in(124, 48).
in(124, 52).
in(124, 54).
in(124, 56).
in(124, 57).
in(124, 62).
in(124, 65).
in(124, 69).
in(124, 77).
in(124, 78).
in(124, 79).
in(124, 80).
in(124, 82).
in(124, 85).
in(124, 87).
in(124, 90).
in(124, 92).
in(125, 1).
in(125, 5).
in(125, 6).
in(125, 10).
in(125, 13).
in(125, 22).
in(125, 25).
in(125, 28).
in(125, 29).
in(125, 30).
in(125, 32).
in(125, 43).
in(125, 45).
in(125, 50).
in(125, 51).
in(125, 54).
in(125, 59).
in(125, 67).
in(125, 68).
in(125, 72).
in(125, 74).
in(125, 76).
in(125, 77).
in(125, 78).
in(125, 88).
in(125, 90).
in(125, 91).
in(125, 94).
in(125, 95).
in(126, 2).
in(126, 10).
in(126, 11).
in(126, 12).
in(126, 15).
in(126, 17).
in(126, 18).
in(126, 19).
in(126, 21).
in(126, 25).
in(126, 26).
in(126, 29).
in(126, 30).
in(126, 31).
in(126, 32).
in(126, 35).
in(126, 38).
in(126, 40).
in(126, 41).
in(126, 42).
in(126, 43).
in(126, 47).
in(126, 50).
in(126, 51).
in(126, 52).
in(126, 54).
in(126, 56).
in(126, 57).
in(126, 59).
in(126, 64).
in(126, 65).
in(126, 66).
in(126, 69).
in(126, 76).
in(126, 77).
in(126, 85).
in(126, 92).
in(126, 94).
in(126, 95).
in(127, 3).
in(127, 5).
in(127, 7).
in(127, 8).
in(127, 10).
in(127, 13).
in(127, 14).
in(127, 15).
in(127, 21).
in(127, 22).
in(127, 23).
in(127, 28).
in(127, 31).
in(127, 32).
in(127, 33).
in(127, 34).
in(127, 35).
in(127, 38).
in(127, 40).
in(127, 41).
in(127, 42).
in(127, 43).
in(127, 45).
in(127, 46).
in(127, 47).
in(127, 48).
in(127, 49).
in(127, 50).
in(127, 54).
in(127, 57).
in(127, 59).
in(127, 60).
in(127, 61).
in(127, 64).
in(127, 65).
in(127, 71).
in(127, 73).
in(127, 74).
in(127, 81).
in(127, 87).
in(127, 90).
in(127, 91).
in(127, 92).
in(127, 94).
in(127, 95).
in(128, 3).
in(128, 10).
in(128, 17).
in(128, 20).
in(128, 21).
in(128, 24).
in(128, 26).
in(128, 27).
in(128, 29).
in(128, 31).
in(128, 32).
in(128, 34).
in(128, 35).
in(128, 41).
in(128, 42).
in(128, 43).
in(128, 49).
in(128, 54).
in(128, 55).
in(128, 56).
in(128, 61).
in(128, 62).
in(128, 70).
in(128, 73).
in(128, 75).
in(128, 76).
in(128, 79).
in(128, 81).
in(128, 85).
in(128, 86).
in(128, 88).
in(128, 95).
in(129, 1).
in(129, 5).
in(129, 8).
in(129, 9).
in(129, 12).
in(129, 13).
in(129, 14).
in(129, 17).
in(129, 19).
in(129, 20).
in(129, 22).
in(129, 24).
in(129, 25).
in(129, 26).
in(129, 31).
in(129, 33).
in(129, 34).
in(129, 35).
in(129, 37).
in(129, 38).
in(129, 39).
in(129, 56).
in(129, 62).
in(129, 64).
in(129, 65).
in(129, 66).
in(129, 71).
in(129, 75).
in(129, 80).
in(129, 82).
in(129, 83).
in(129, 85).
in(129, 86).
in(129, 87).
in(129, 88).
in(129, 94).
in(130, 2).
in(130, 3).
in(130, 4).
in(130, 5).
in(130, 6).
in(130, 8).
in(130, 10).
in(130, 11).
in(130, 14).
in(130, 15).
in(130, 16).
in(130, 17).
in(130, 18).
in(130, 20).
in(130, 23).
in(130, 27).
in(130, 29).
in(130, 30).
in(130, 34).
in(130, 37).
in(130, 38).
in(130, 45).
in(130, 46).
in(130, 47).
in(130, 48).
in(130, 49).
in(130, 53).
in(130, 55).
in(130, 56).
in(130, 60).
in(130, 65).
in(130, 68).
in(130, 71).
in(130, 73).
in(130, 74).
in(130, 77).
in(130, 82).
in(130, 83).
in(130, 84).
in(130, 86).
in(130, 87).
in(130, 92).
in(130, 94).
in(131, 3).
in(131, 5).
in(131, 6).
in(131, 8).
in(131, 9).
in(131, 12).
in(131, 13).
in(131, 14).
in(131, 15).
in(131, 18).
in(131, 19).
in(131, 21).
in(131, 23).
in(131, 25).
in(131, 30).
in(131, 31).
in(131, 33).
in(131, 36).
in(131, 40).
in(131, 46).
in(131, 47).
in(131, 50).
in(131, 53).
in(131, 55).
in(131, 57).
in(131, 58).
in(131, 61).
in(131, 62).
in(131, 65).
in(131, 66).
in(131, 69).
in(131, 73).
in(131, 75).
in(131, 78).
in(131, 80).
in(131, 84).
in(131, 86).
in(131, 88).
in(131, 92).
in(131, 95).
in(132, 1).
in(132, 4).
in(132, 9).
in(132, 10).
in(132, 11).
in(132, 12).
in(132, 18).
in(132, 19).
in(132, 20).
in(132, 22).
in(132, 23).
in(132, 26).
in(132, 27).
in(132, 29).
in(132, 30).
in(132, 33).
in(132, 34).
in(132, 36).
in(132, 39).
in(132, 45).
in(132, 47).
in(132, 48).
in(132, 50).
in(132, 51).
in(132, 52).
in(132, 56).
in(132, 58).
in(132, 59).
in(132, 61).
in(132, 62).
in(132, 63).
in(132, 70).
in(132, 71).
in(132, 72).
in(132, 73).
in(132, 77).
in(132, 78).
in(132, 80).
in(132, 81).
in(132, 87).
in(132, 88).
in(132, 94).
in(132, 95).
in(133, 3).
in(133, 6).
in(133, 7).
in(133, 9).
in(133, 11).
in(133, 17).
in(133, 19).
in(133, 24).
in(133, 31).
in(133, 33).
in(133, 34).
in(133, 36).
in(133, 41).
in(133, 42).
in(133, 43).
in(133, 47).
in(133, 48).
in(133, 53).
in(133, 54).
in(133, 57).
in(133, 61).
in(133, 64).
in(133, 65).
in(133, 66).
in(133, 69).
in(133, 74).
in(133, 75).
in(133, 76).
in(133, 80).
in(133, 81).
in(133, 82).
in(133, 93).
in(134, 8).
in(134, 16).
in(134, 19).
in(134, 20).
in(134, 22).
in(134, 23).
in(134, 24).
in(134, 27).
in(134, 31).
in(134, 32).
in(134, 33).
in(134, 34).
in(134, 35).
in(134, 40).
in(134, 41).
in(134, 42).
in(134, 44).
in(134, 45).
in(134, 49).
in(134, 51).
in(134, 56).
in(134, 61).
in(134, 62).
in(134, 63).
in(134, 65).
in(134, 66).
in(134, 68).
in(134, 72).
in(134, 74).
in(134, 75).
in(134, 81).
in(134, 84).
in(134, 87).
in(134, 88).
in(134, 90).
in(134, 93).
in(134, 94).
in(135, 7).
in(135, 10).
in(135, 14).
in(135, 22).
in(135, 23).
in(135, 25).
in(135, 26).
in(135, 27).
in(135, 28).
in(135, 30).
in(135, 31).
in(135, 36).
in(135, 37).
in(135, 38).
in(135, 42).
in(135, 46).
in(135, 49).
in(135, 51).
in(135, 53).
in(135, 55).
in(135, 57).
in(135, 58).
in(135, 59).
in(135, 61).
in(135, 64).
in(135, 68).
in(135, 74).
in(135, 76).
in(135, 77).
in(135, 78).
in(135, 82).
in(135, 84).
in(135, 86).
in(135, 89).
in(135, 92).
in(135, 94).
in(136, 1).
in(136, 2).
in(136, 3).
in(136, 6).
in(136, 7).
in(136, 8).
in(136, 12).
in(136, 13).
in(136, 15).
in(136, 16).
in(136, 18).
in(136, 26).
in(136, 27).
in(136, 32).
in(136, 33).
in(136, 34).
in(136, 35).
in(136, 43).
in(136, 44).
in(136, 53).
in(136, 54).
in(136, 56).
in(136, 60).
in(136, 61).
in(136, 63).
in(136, 65).
in(136, 66).
in(136, 68).
in(136, 69).
in(136, 70).
in(136, 72).
in(136, 75).
in(136, 76).
in(136, 84).
in(136, 86).
in(136, 87).
in(136, 90).
in(137, 3).
in(137, 12).
in(137, 17).
in(137, 20).
in(137, 22).
in(137, 23).
in(137, 25).
in(137, 27).
in(137, 30).
in(137, 35).
in(137, 37).
in(137, 41).
in(137, 42).
in(137, 43).
in(137, 46).
in(137, 48).
in(137, 49).
in(137, 51).
in(137, 53).
in(137, 57).
in(137, 61).
in(137, 62).
in(137, 64).
in(137, 65).
in(137, 70).
in(137, 71).
in(137, 74).
in(137, 76).
in(137, 78).
in(137, 79).
in(137, 82).
in(137, 84).
in(137, 85).
in(137, 86).
in(137, 92).
in(137, 93).
in(138, 3).
in(138, 13).
in(138, 23).
in(138, 25).
in(138, 26).
in(138, 27).
in(138, 30).
in(138, 31).
in(138, 33).
in(138, 36).
in(138, 37).
in(138, 39).
in(138, 41).
in(138, 44).
in(138, 46).
in(138, 47).
in(138, 51).
in(138, 52).
in(138, 54).
in(138, 55).
in(138, 57).
in(138, 62).
in(138, 63).
in(138, 64).
in(138, 66).
in(138, 68).
in(138, 69).
in(138, 70).
in(138, 71).
in(138, 78).
in(138, 86).
in(138, 87).
in(138, 91).
in(138, 94).
in(139, 1).
in(139, 3).
in(139, 5).
in(139, 6).
in(139, 12).
in(139, 13).
in(139, 16).
in(139, 18).
in(139, 19).
in(139, 20).
in(139, 21).
in(139, 23).
in(139, 25).
in(139, 28).
in(139, 29).
in(139, 32).
in(139, 34).
in(139, 37).
in(139, 39).
in(139, 44).
in(139, 49).
in(139, 53).
in(139, 56).
in(139, 57).
in(139, 59).
in(139, 62).
in(139, 64).
in(139, 65).
in(139, 67).
in(139, 71).
in(139, 73).
in(139, 75).
in(139, 76).
in(139, 79).
in(139, 80).
in(139, 85).
in(139, 86).
in(139, 88).
in(139, 89).
in(139, 91).
in(140, 6).
in(140, 7).
in(140, 13).
in(140, 14).
in(140, 15).
in(140, 22).
in(140, 24).
in(140, 27).
in(140, 29).
in(140, 30).
in(140, 31).
in(140, 37).
in(140, 40).
in(140, 41).
in(140, 42).
in(140, 45).
in(140, 46).
in(140, 49).
in(140, 54).
in(140, 56).
in(140, 57).
in(140, 61).
in(140, 64).
in(140, 65).
in(140, 70).
in(140, 75).
in(140, 76).
in(140, 81).
in(140, 85).
in(140, 91).
in(140, 92).
in(140, 93).
in(140, 94).
in(141, 2).
in(141, 4).
in(141, 5).
in(141, 6).
in(141, 8).
in(141, 9).
in(141, 14).
in(141, 20).
in(141, 21).
in(141, 22).
in(141, 26).
in(141, 27).
in(141, 28).
in(141, 30).
in(141, 37).
in(141, 39).
in(141, 40).
in(141, 42).
in(141, 46).
in(141, 47).
in(141, 48).
in(141, 49).
in(141, 51).
in(141, 52).
in(141, 53).
in(141, 54).
in(141, 56).
in(141, 57).
in(141, 58).
in(141, 60).
in(141, 61).
in(141, 63).
in(141, 65).
in(141, 68).
in(141, 69).
in(141, 73).
in(141, 74).
in(141, 76).
in(141, 77).
in(141, 80).
in(141, 81).
in(141, 82).
in(141, 84).
in(141, 85).
in(141, 91).
in(142, 3).
in(142, 4).
in(142, 6).
in(142, 8).
in(142, 9).
in(142, 12).
in(142, 16).
in(142, 19).
in(142, 22).
in(142, 25).
in(142, 26).
in(142, 27).
in(142, 30).
in(142, 31).
in(142, 43).
in(142, 46).
in(142, 51).
in(142, 52).
in(142, 61).
in(142, 67).
in(142, 68).
in(142, 71).
in(142, 72).
in(142, 73).
in(142, 75).
in(142, 78).
in(142, 81).
in(142, 89).
in(142, 90).
in(142, 93).
in(143, 1).
in(143, 3).
in(143, 7).
in(143, 14).
in(143, 16).
in(143, 17).
in(143, 19).
in(143, 20).
in(143, 22).
in(143, 23).
in(143, 25).
in(143, 26).
in(143, 30).
in(143, 34).
in(143, 39).
in(143, 41).
in(143, 42).
in(143, 43).
in(143, 44).
in(143, 45).
in(143, 46).
in(143, 48).
in(143, 49).
in(143, 53).
in(143, 54).
in(143, 58).
in(143, 59).
in(143, 61).
in(143, 62).
in(143, 64).
in(143, 66).
in(143, 67).
in(143, 80).
in(143, 81).
in(143, 82).
in(143, 85).
in(143, 87).
in(143, 91).
in(143, 92).
in(144, 1).
in(144, 2).
in(144, 3).
in(144, 6).
in(144, 9).
in(144, 11).
in(144, 13).
in(144, 16).
in(144, 18).
in(144, 19).
in(144, 20).
in(144, 24).
in(144, 26).
in(144, 27).
in(144, 29).
in(144, 30).
in(144, 31).
in(144, 36).
in(144, 40).
in(144, 43).
in(144, 44).
in(144, 47).
in(144, 48).
in(144, 49).
in(144, 50).
in(144, 56).
in(144, 61).
in(144, 62).
in(144, 64).
in(144, 65).
in(144, 68).
in(144, 69).
in(144, 70).
in(144, 81).
in(144, 85).
in(144, 88).
in(144, 89).
in(144, 90).
in(144, 92).
in(144, 94).
in(145, 1).
in(145, 2).
in(145, 4).
in(145, 5).
in(145, 7).
in(145, 8).
in(145, 10).
in(145, 11).
in(145, 12).
in(145, 14).
in(145, 20).
in(145, 24).
in(145, 25).
in(145, 30).
in(145, 31).
in(145, 34).
in(145, 36).
in(145, 39).
in(145, 42).
in(145, 43).
in(145, 50).
in(145, 53).
in(145, 58).
in(145, 63).
in(145, 64).
in(145, 66).
in(145, 68).
in(145, 71).
in(145, 73).
in(145, 78).
in(145, 81).
in(145, 83).
in(145, 84).
in(145, 87).
in(145, 90).
in(145, 93).
in(145, 94).
in(146, 2).
in(146, 6).
in(146, 9).
in(146, 10).
in(146, 11).
in(146, 12).
in(146, 14).
in(146, 15).
in(146, 25).
in(146, 26).
in(146, 27).
in(146, 28).
in(146, 30).
in(146, 31).
in(146, 34).
in(146, 36).
in(146, 37).
in(146, 39).
in(146, 40).
in(146, 44).
in(146, 45).
in(146, 48).
in(146, 50).
in(146, 52).
in(146, 53).
in(146, 54).
in(146, 56).
in(146, 57).
in(146, 58).
in(146, 59).
in(146, 60).
in(146, 61).
in(146, 63).
in(146, 67).
in(146, 70).
in(146, 71).
in(146, 72).
in(146, 74).
in(146, 78).
in(146, 81).
in(146, 82).
in(146, 83).
in(146, 88).
weight(1, 6).
weight(2, 8).
weight(3, 1).
weight(4, 1).
weight(5, 4).
weight(6, 7).
weight(7, 8).
weight(8, 6).
weight(9, 4).
weight(10, 8).
weight(11, 6).
weight(12, 7).
weight(13, 5).
weight(14, 3).
weight(15, 3).
weight(16, 8).
weight(17, 7).
weight(18, 6).
weight(19, 8).
weight(20, 2).
weight(21, 8).
weight(22, 8).
weight(23, 2).
weight(24, 2).
weight(25, 3).
weight(26, 5).
weight(27, 3).
weight(28, 4).
weight(29, 2).
weight(30, 1).
weight(31, 2).
weight(32, 8).
weight(33, 7).
weight(34, 7).
weight(35, 8).
weight(36, 1).
weight(37, 7).
weight(38, 5).
weight(39, 5).
weight(40, 5).
weight(41, 4).
weight(42, 6).
weight(43, 1).
weight(44, 7).
weight(45, 7).
weight(46, 4).
weight(47, 6).
weight(48, 2).
weight(49, 5).
weight(50, 1).
weight(51, 2).
weight(52, 3).
weight(53, 5).
weight(54, 1).
weight(55, 7).
weight(56, 7).
weight(57, 6).
weight(58, 8).
weight(59, 6).
weight(60, 2).
weight(61, 6).
weight(62, 8).
weight(63, 1).
weight(64, 6).
weight(65, 8).
weight(66, 5).
weight(67, 8).
weight(68, 8).
weight(69, 7).
weight(70, 2).
weight(71, 5).
weight(72, 5).
weight(73, 8).
weight(74, 3).
weight(75, 5).
weight(76, 5).
weight(77, 7).
weight(78, 1).
weight(79, 6).
weight(80, 8).
weight(81, 5).
weight(82, 4).
weight(83, 6).
weight(84, 4).
weight(85, 1).
weight(86, 7).
weight(87, 5).
weight(88, 1).
weight(89, 8).
weight(90, 5).
weight(91, 6).
weight(92, 4).
weight(93, 6).
weight(94, 3).
weight(95, 5).
weight(96, 3).
weight(97, 6).
weight(98, 6).
weight(99, 3).
weight(100, 3).
weight(101, 1).
weight(102, 2).
weight(103, 7).
weight(104, 2).
weight(105, 5).
weight(106, 4).
weight(107, 4).
weight(108, 8).
weight(109, 7).
weight(110, 1).
weight(111, 3).
weight(112, 7).
weight(113, 7).
weight(114, 3).
weight(115, 2).
weight(116, 4).
weight(117, 6).
weight(118, 4).
weight(119, 1).
weight(120, 2).
weight(121, 8).
weight(122, 6).
weight(123, 5).
weight(124, 7).
weight(125, 7).
weight(126, 4).
weight(127, 7).
weight(128, 7).
weight(129, 4).
weight(130, 7).
weight(131, 2).
weight(132, 7).
weight(133, 6).
weight(134, 8).
weight(135, 3).
weight(136, 7).
weight(137, 1).
weight(138, 4).
weight(139, 3).
weight(140, 4).
weight(141, 7).
weight(142, 3).
weight(143, 2).
weight(144, 4).
weight(145, 1).
weight(146, 2).

{ choose(S) } :- set(S).
:- choose(S1), choose(S2), S1 < S2, in(S1,E), in(S2,E).
:~ not choose(S), weight(S,W). [W@1,S]
