elem(1..109).
set(1..169).
in(1, 2).
in(1, 4).
in(1, 10).
in(1, 11).
in(1, 15).
in(1, 20).
in(1, 22).
in(1, 26).
in(1, 28).
in(1, 33).
in(1, 39).
in(1, 40).
in(1, 43).
in(1, 44).
in(1, 48).
in(1, 49).
in(1, 52).
in(1, 54).
in(1, 55).
in(1, 57).
in(1, 58).
in(1, 59).
in(1, 61).
in(1, 63).
in(1, 69).
in(1, 72).
in(1, 73).
in(1, 74).
in(1, 77).
in(1, 81).
in(1, 83).
in(1, 84).
in(1, 86).
in(1, 87).
in(1, 91).
in(1, 92).
in(1, 93).
in(1, 94).
in(1, 100).
in(1, 101).
in(1, 104).
in(1, 106).
in(1, 108).
in(1, 109).
in(2, 2).
in(2, 4).
in(2, 5).
in(2, 6).
in(2, 9).
in(2, 10).
in(2, 12).
in(2, 13).
in(2, 16).
in(2, 17).
in(2, 20).
in(2, 23).
in(2, 28).
in(2, 32).
in(2, 33).
in(2, 35).
in(2, 36).
in(2, 39).
in(2, 41).
in(2, 42).
in(2, 43).
in(2, 45).
in(2, 46).
in(2, 47).
in(2, 52).
in(2, 53).
in(2, 55).
in(2, 56).
in(2, 58).
in(2, 63).
in(2, 64).
in(2, 65).
in(2, 69).
in(2, 76).
in(2, 78).
in(2, 79).
in(2, 85).
in(2, 88).
in(2, 92).
in(2, 94).
in(2, 95).
in(2, 96).
in(2, 97).
in(2, 101).
in(2, 107).
in(2, 108).
in(3, 1).
in(3, 2).
in(3, 5).
in(3, 10).
in(3, 13).
in(3, 17).
in(3, 20).
in(3, 22).
in(3, 23).
in(3, 24).
in(3, 27).
in(3, 30).
in(3, 31).
in(3, 32).
in(3, 33).
in(3, 35).
in(3, 37).
in(3, 40).
in(3, 51).
in(3, 56).
in(3, 58).
in(3, 59).
in(3, 60).
in(3, 61).
in(3, 62).
in(3, 63).
in(3, 69).
in(3, 73).
in(3, 75).
in(3, 78).
in(3, 79).
in(3, 82).
in(3, 85).
in(3, 86).
in(3, 88).
in(3, 89).
in(3, 93).
in(3, 96).
in(3, 99).
in(3, 100).
in(3, 101).
in(3, 105).
in(3, 107).
in(3, 108).
in(4, 2).
in(4, 6).
in(4, 12).
in(4, 18).
in(4, 24).
in(4, 26).
in(4, 27).
in(4, 33).
in(4, 36).
in(4, 37).
in(4, 41).
in(4, 43).
in(4, 44).
in(4, 46).
in(4, 47).
in(4, 49).
in(4, 51).
in(4, 54).
in(4, 55).
in(4, 57).
in(4, 58).
in(4, 59).
in(4, 61).
in(4, 62).
in(4, 67).
in(4, 74).
in(4, 76).
in(4, 81).
in(4, 82).
in(4, 84).
in(4, 85).
in(4, 86).
in(4, 88).
in(4, 91).
in(4, 93).
in(4, 94).
in(4, 95).
in(4, 98).
in(4, 100).
in(4, 104).
in(4, 105).
in(4, 108).
in(5, 2).
in(5, 3).
in(5, 7).
in(5, 9).
in(5, 10).
in(5, 11).
in(5, 15).
in(5, 16).
in(5, 19).
in(5, 21).
in(5, 23).
in(5, 24).
in(5, 26).
in(5, 27).
in(5, 28).
in(5, 32).
in(5, 33).
in(5, 38).
in(5, 39).
in(5, 41).
in(5, 43).
in(5, 45).
in(5, 47).
in(5, 57).
in(5, 62).
in(5, 64).
in(5, 66).
in(5, 70).
in(5, 72).
in(5, 73).
in(5, 74).
in(5, 78).
in(5, 81).
in(5, 82).
in(5, 85).
in(5, 87).
in(5, 88).
in(5, 89).
in(5, 90).
in(5, 91).
in(5, 93).
in(5, 95).
in(5, 98).
in(5, 100).
in(5, 103).
in(5, 106).
in(5, 108).
in(6, 6).
in(6, 7).
in(6, 9).
in(6, 10).
in(6, 13).
in(6, 16).
in(6, 17).
in(6, 20).
in(6, 27).
in(6, 28).
in(6, 29).
in(6, 30).
in(6, 31).
in(6, 32).
in(6, 33).
in(6, 35).
in(6, 36).
in(6, 38).
in(6, 39).
in(6, 41).
in(6, 42).
in(6, 43).
in(6, 44).
in(6, 45).
in(6, 51).
in(6, 53).
in(6, 54).
in(6, 64).
in(6, 65).
in(6, 69).
in(6, 70).
in(6, 72).
in(6, 74).
in(6, 75).
in(6, 76).
in(6, 77).
in(6, 80).
in(6, 82).
in(6, 83).
in(6, 84).
in(6, 85).
in(6, 88).
in(6, 89).
in(6, 91).
in(6, 93).
in(6, 97).
in(6, 99).
in(6, 100).
in(6, 101).
in(6, 103).
in(6, 106).
in(6, 107).
in(6, 108).
in(7, 2).
in(7, 3).
in(7, 4).
in(7, 6).
in(7, 7).
in(7, 8).
in(7, 9).
in(7, 10).
in(7, 12).
in(7, 13).
in(7, 15).
in(7, 17).
in(7, 20).
in(7, 22).
in(7, 25).
in(7, 26).
in(7, 27).
in(7, 29).
in(7, 31).
in(7, 34).
in(7, 36).
in(7, 38).
in(7, 39).
in(7, 45).
in(7, 48).
in(7, 49).
in(7, 55).
in(7, 56).
in(7, 63).
in(7, 64).
in(7, 67).
in(7, 69).
in(7, 71).
in(7, 74).
in(7, 75).
in(7, 79).
in(7, 81).
in(7, 82).
in(7, 88).
in(7, 95).
in(7, 97).
in(7, 98).
in(7, 101).
in(8, 4).
in(8, 5).
in(8, 6).
in(8, 15).
in(8, 17).
in(8, 24).
in(8, 28).
in(8, 29).
in(8, 31).
in(8, 32).
in(8, 33).
in(8, 34).
in(8, 35).
in(8, 36).
in(8, 37).
in(8, 41).
in(8, 42).
in(8, 44).
in(8, 46).
in(8, 47).
in(8, 48).
in(8, 50).
in(8, 52).
in(8, 53).
in(8, 54).
in(8, 56).
in(8, 60).
in(8, 61).
in(8, 62).
in(8, 64).
in(8, 65).
in(8, 67).
in(8, 68).
in(8, 69).
in(8, 71).
in(8, 76).
in(8, 80).
in(8, 92).
in(8, 95).
in(8, 96).
in(8, 99).
in(8, 101).
in(8, 102).
in(8, 103).
in(8, 109).
in(9, 4).
in(9, 5).
in(9, 7).
in(9, 8).
in(9, 9).
in(9, 10).
in(9, 15).
in(9, 16).
in(9, 19).
in(9, 21).
in(9, 22).
in(9, 24).
in(9, 25).
in(9, 26).
in(9, 29).
in(9, 30).
in(9, 31).
in(9, 32).
in(9, 33).
in(9, 35).
in(9, 36).
in(9, 38).
in(9, 40).
in(9, 42).
in(9, 43).
in(9, 50).
in(9, 53).
in(9, 54).
in(9, 57).
in(9, 58).
in(9, 63).
in(9, 64).
in(9, 65).
in(9, 69).
in(9, 70).
in(9, 71).
in(9, 73).
in(9, 74).
in(9, 76).
in(9, 79).
in(9, 80).
in(9, 82).
in(9, 89).
in(9, 93).
in(9, 99).
in(9, 100).
in(9, 103).
in(9, 108).
in(9, 109).
in(10, 2).
in(10, 3).
in(10, 4).
in(10, 10).
in(10, 13).
in(10, 19).
in(10, 20).
in(10, 21).
in(10, 22).
in(10, 24).
in(10, 25).
in(10, 27).
in(10, 28).
in(10, 33).
in(10, 35).
in(10, 38).
in(10, 49).
in(10, 50).
in(10, 52).
in(10, 53).
in(10, 56).
in(10, 57).
in(10, 60).
in(10, 64).
in(10, 71).
in(10, 72).
in(10, 73).
in(10, 74).
in(10, 76).
in(10, 78).
in(10, 82).
in(10, 83).
in(10, 88).
in(10, 89).
in(10, 96).
in(10, 97).
in(10, 100).
in(10, 101).
in(10, 103).
in(10, 106).
in(10, 107).
in(10, 109).
in(11, 2).
in(11, 3).
in(11, 6).
in(11, 10).
in(11, 13).
in(11, 15).
in(11, 16).
in(11, 20).
in(11, 23).
in(11, 24).
in(11, 25).
in(11, 30).
in(11, 32).
in(11, 34).
in(11, 35).
in(11, 37).
in(11, 39).
in(11, 42).
in(11, 47).
in(11, 51).
in(11, 53).
in(11, 61).
in(11, 63).
in(11, 67).
in(11, 69).
in(11, 74).
in(11, 76).
in(11, 77).
in(11, 82).
in(11, 84).
in(11, 86).
in(11, 92).
in(11, 93).
in(11, 95).
in(11, 96).
in(11, 97).
in(11, 101).
in(11, 102).
in(11, 104).
in(11, 105).
in(12, 3).
in(12, 4).
in(12, 6).
in(12, 7).
in(12, 9).
in(12, 12).
in(12, 15).
in(12, 18).
in(12, 29).
in(12, 32).
in(12, 33).
in(12, 36).
in(12, 37).
in(12, 38).
in(12, 40).
in(12, 42).
in(12, 47).
in(12, 49).
in(12, 50).
in(12, 51).
in(12, 52).
in(12, 54).
in(12, 55).
in(12, 57).
in(12, 59).
in(12, 62).
in(12, 71).
in(12, 72).
in(12, 73).
in(12, 78).
in(12, 86).
in(12, 88).
in(12, 91).
in(12, 100).
in(12, 101).
in(12, 103).
in(12, 104).
in(12, 105).
in(12, 106).
in(12, 108).
in(12, 109).
in(13, 1).
in(13, 2).
in(13, 3).
in(13, 5).
in(13, 9).
in(13, 10).
in(13, 18).
in(13, 19).
in(13, 20).
in(13, 21).
in(13, 22).
in(13, 23).
in(13, 27).
in(13, 32).
in(13, 33).
in(13, 38).
in(13, 39).
in(13, 46).
in(13, 48).
in(13, 49).
in(13, 51).
in(13, 55).
in(13, 65).
in(13, 68).
in(13, 69).
in(13, 74).
in(13, 75).
in(13, 76).
in(13, 77).
in(13, 80).
in(13, 82).
in(13, 84).
in(13, 85).
in(13, 93).
in(13, 94).
in(13, 95).
in(13, 97).
in(13, 100).
in(13, 101).
in(13, 106).
in(13, 107).
in(13, 108).
in(14, 1).
in(14, 3).
in(14, 4).
in(14, 6).
in(14, 8).
in(14, 10).
in(14, 11).
in(14, 16).
in(14, 18).
in(14, 19).
in(14, 20).
in(14, 24).
in(14, 31).
in(14, 33).
in(14, 35).
in(14, 37).
in(14, 41).
in(14, 42).
in(14, 43).
in(14, 44).
in(14, 45).
in(14, 48).
in(14, 56).
in(14, 61).
in(14, 62).
in(14, 64).
in(14, 71).
in(14, 72).
in(14, 75).
in(14, 80).
in(14, 81).
in(14, 83).
in(14, 86).
in(14, 87).
in(14, 89).
in(14, 91).
in(14, 92).
in(14, 94).
in(14, 95).
in(14, 96).
in(14, 101).
in(14, 105).
in(14, 107).
in(14, 108).
in(15, 2).
in(15, 8).
in(15, 9).
in(15, 10).
in(15, 12).
in(15, 15).
in(15, 17).
in(15, 18).
in(15, 22).
in(15, 23).
in(15, 30).
in(15, 32).
in(15, 37).
in(15, 39).
in(15, 43).
in(15, 44).
in(15, 45).
in(15, 46).
in(15, 47).
in(15, 48).
in(15, 51).
in(15, 52).
in(15, 54).
in(15, 55).
in(15, 56).
in(15, 60).
in(15, 62).
in(15, 63).
in(15, 65).
in(15, 67).
in(15, 69).
in(15, 72).
in(15, 74).
in(15, 76).
in(15, 77).
in(15, 79).
in(15, 80).
in(15, 82).
in(15, 85).
in(15, 87).
in(15, 91).
in(15, 99).
in(15, 106).
in(15, 108).
in(16, 4).
in(16, 5).
in(16, 9).
in(16, 14).
in(16, 17).
in(16, 19).
in(16, 21).
in(16, 25).
in(16, 27).
in(16, 29).
in(16, 35).
in(16, 37).
in(16, 38).
in(16, 39).
in(16, 40).
in(16, 41).
in(16, 42).
in(16, 48).
in(16, 49).
in(16, 51).
in(16, 53).
in(16, 55).
in(16, 56).
in(16, 58).
in(16, 66).
in(16, 67).
in(16, 76).
in(16, 77).
in(16, 78).
in(16, 79).
in(16, 81).
in(16, 83).
in(16, 84).
in(16, 85).
in(16, 88).
in(16, 91).
in(16, 93).
in(16, 95).
in(16, 100).
in(16, 103).
in(16, 104).
in(16, 105).
in(16, 106).
in(16, 107).
in(17, 1).
in(17, 5).
in(17, 7).
in(17, 9).
in(17, 14).
in(17, 21).
in(17, 22).
in(17, 24).
in(17, 25).
in(17, 30).
in(17, 36).
in(17, 40).
in(17, 42).
in(17, 43).
in(17, 44).
in(17, 45).
in(17, 47).
in(17, 48).
in(17, 49).
in(17, 52).
in(17, 54).
in(17, 58).
in(17, 62).
in(17, 63).
in(17, 65).
in(17, 67).
in(17, 71).
in(17, 72).
in(17, 75).
in(17, 77).
in(17, 80).
in(17, 83).
in(17, 88).
in(17, 89).
in(17, 91).
in(17, 94).
in(17, 101).
in(17, 103).
in(17, 104).
in(17, 106).
in(18, 2).
in(18, 5).
in(18, 10).
in(18, 13).
in(18, 14).
in(18, 15).
in(18, 16).
in(18, 17).
in(18, 21).
in(18, 22).
in(18, 24).
in(18, 30).
in(18, 32).
in(18, 34).
in(18, 36).
in(18, 37).
in(18, 38).
in(18, 40).
in(18, 41).
in(18, 43).
in(18, 45).
in(18, 49).
in(18, 51).
in(18, 54).
in(18, 58).
in(18, 59).
in(18, 60).
in(18, 63).
in(18, 64).
in(18, 70).
in(18, 76).
in(18, 77).
in(18, 78).
in(18, 79).
in(18, 82).
in(18, 83).
in(18, 84).
in(18, 87).
in(18, 89).
in(18, 97).
in(18, 98).
in(18, 99).
in(18, 101).
in(18, 102).
in(18, 104).
in(18, 107).
in(18, 109).
in(19, 2).
in(19, 4).
in(19, 13).
in(19, 14).
in(19, 18).
in(19, 22).
in(19, 25).
in(19, 27).
in(19, 29).
in(19, 30).
in(19, 31).
in(19, 32).
in(19, 34).
in(19, 38).
in(19, 41).
in(19, 43).
in(19, 46).
in(19, 47).
in(19, 48).
in(19, 54).
in(19, 55).
in(19, 57).
in(19, 59).
in(19, 60).
in(19, 62).
in(19, 63).
in(19, 64).
in(19, 65).
in(19, 68).
in(19, 69).
in(19, 73).
in(19, 74).
in(19, 76).
in(19, 77).
in(19, 79).
in(19, 80).
in(19, 84).
in(19, 85).
in(19, 86).
in(19, 87).
in(19, 89).
in(19, 90).
in(19, 94).
in(19, 95).
in(19, 97).
in(19, 104).
in(19, 107).
in(20, 1).
in(20, 5).
in(20, 14).
in(20, 16).
in(20, 17).
in(20, 18).
in(20, 19).
in(20, 27).
in(20, 32).
in(20, 34).
in(20, 35).
in(20, 36).
in(20, 39).
in(20, 41).
in(20, 44).
in(20, 46).
in(20, 48).
in(20, 49).
in(20, 55).
in(20, 56).
in(20, 57).
in(20, 58).
in(20, 61).
in(20, 63).
in(20, 65).
in(20, 66).
in(20, 70).
in(20, 72).
in(20, 74).
in(20, 75).
in(20, 76).
in(20, 77).
in(20, 80).
in(20, 82).
in(20, 84).
in(20, 89).
in(20, 91).
in(20, 95).
in(20, 96).
in(20, 105).
in(20, 107).
in(21, 1).
in(21, 2).
in(21, 4).
in(21, 7).
in(21, 9).
in(21, 11).
in(21, 14).
in(21, 16).
in(21, 21).
in(21, 22).
in(21, 23).
in(21, 24).
in(21, 25).
in(21, 28).
in(21, 29).
in(21, 30).
in(21, 35).
in(21, 37).
in(21, 39).
in(21, 40).
in(21, 41).
in(21, 44).
in(21, 46).
in(21, 47).
in(21, 50).
in(21, 52).
in(21, 59).
in(21, 60).
in(21, 61).
in(21, 62).
in(21, 66).
in(21, 68).
in(21, 70).
in(21, 71).
in(21, 73).
in(21, 74).
in(21, 81).
in(21, 82).
in(21, 83).
in(21, 87).
in(21, 89).
in(21, 92).
in(21, 95).
in(21, 96).
in(21, 98).
in(21, 100).
in(21, 104).
in(21, 107).
in(21, 108).
in(21, 109).
in(22, 1).
in(22, 2).
in(22, 3).
in(22, 5).
in(22, 7).
in(22, 10).
in(22, 16).
in(22, 22).
in(22, 23).
in(22, 25).
in(22, 26).
in(22, 29).
in(22, 32).
in(22, 36).
in(22, 38).
in(22, 41).
in(22, 44).
in(22, 47).
in(22, 48).
in(22, 51).
in(22, 52).
in(22, 56).
in(22, 59).
in(22, 60).
in(22, 61).
in(22, 62).
in(22, 67).
in(22, 68).
in(22, 73).
in(22, 76).
in(22, 77).
in(22, 80).
in(22, 86).
in(22, 87).
in(22, 88).
in(22, 91).
in(22, 92).
in(22, 104).
in(22, 106).
in(22, 108).
in(22, 109).
in(23, 1).
in(23, 3).
in(23, 7).
in(23, 8).
in(23, 12).
in(23, 13).
in(23, 14).
in(23, 15).
in(23, 17).
in(23, 19).
in(23, 20).
in(23, 25).
in(23, 28).
in(23, 32).
in(23, 35).
in(23, 36).
in(23, 37).
in(23, 38).
in(23, 40).
in(23, 43).
in(23, 45).
in(23, 47).
in(23, 48).
in(23, 51).
in(23, 52).
in(23, 55).
in(23, 57).
in(23, 58).
in(23, 59).
in(23, 60).
in(23, 61).
in(23, 62).
in(23, 65).
in(23, 68).
in(23, 71).
in(23, 72).
in(23, 73).
in(23, 74).
in(23, 76).
in(23, 78).
in(23, 79).
in(23, 81).
in(23, 83).
in(23, 84).
in(23, 85).
in(23, 86).
in(23, 87).
in(23, 89).
in(23, 91).
in(23, 93).
in(23, 98).
in(23, 100).
in(23, 102).
in(23, 103).
in(23, 107).
in(23, 108).
in(24, 1).
in(24, 2).
in(24, 5).
in(24, 11).
in(24, 21).
in(24, 24).
in(24, 27).
in(24, 30).
in(24, 31).
in(24, 32).
in(24, 35).
in(24, 36).
in(24, 38).
in(24, 41).
in(24, 44).
in(24, 47).
in(24, 49).
in(24, 54).
in(24, 55).
in(24, 56).
in(24, 57).
in(24, 58).
in(24, 62).
in(24, 65).
in(24, 71).
in(24, 76).
in(24, 78).
in(24, 81).
in(24, 83).
in(24, 85).
in(24, 88).
in(24, 92).
in(24, 93).
in(24, 95).
in(24, 97).
in(24, 103).
in(24, 105).
in(25, 2).
in(25, 6).
in(25, 7).
in(25, 8).
in(25, 10).
in(25, 12).
in(25, 15).
in(25, 16).
in(25, 17).
in(25, 19).
in(25, 25).
in(25, 27).
in(25, 35).
in(25, 37).
in(25, 38).
in(25, 44).
in(25, 46).
in(25, 47).
in(25, 49).
in(25, 51).
in(25, 52).
in(25, 53).
in(25, 55).
in(25, 58).
in(25, 59).
in(25, 61).
in(25, 62).
in(25, 63).
in(25, 65).
in(25, 66).
in(25, 67).
in(25, 72).
in(25, 76).
in(25, 78).
in(25, 81).
in(25, 82).
in(25, 85).
in(25, 96).
in(25, 104).
in(25, 106).
in(26, 2).
in(26, 4).
in(26, 6).
in(26, 8).
in(26, 9).
in(26, 10).
in(26, 14).
in(26, 21).
in(26, 23).
in(26, 24).
in(26, 28).
in(26, 29).
in(26, 32).
in(26, 36).
in(26, 37).
in(26, 38).
in(26, 41).
in(26, 42).
in(26, 44).
in(26, 45).
in(26, 46).
in(26, 48).
in(26, 49).
in(26, 55).
in(26, 56).
in(26, 57).
in(26, 58).
in(26, 59).
in(26, 61).
in(26, 63).
in(26, 65).
in(26, 66).
in(26, 67).
in(26, 68).
in(26, 70).
in(26, 77).
in(26, 82).
in(26, 85).
in(26, 86).
in(26, 87).
in(26, 92).
in(26, 96).
in(26, 98).
in(26, 100).
in(26, 101).
in(26, 102).
in(26, 106).
in(26, 107).
in(27, 10).
in(27, 11).
in(27, 12).
in(27, 16).
in(27, 17).
in(27, 18).
in(27, 24).
in(27, 25).
in(27, 28).
in(27, 31).
in(27, 34).
in(27, 36).
in(27, 40).
in(27, 42).
in(27, 47).
in(27, 51).
in(27, 53).
in(27, 54).
in(27, 59).
in(27, 61).
in(27, 63).
in(27, 64).
in(27, 65).
in(27, 67).
in(27, 68).
in(27, 69).
in(27, 72).
in(27, 73).
in(27, 74).
in(27, 78).
in(27, 84).
in(27, 87).
in(27, 90).
in(27, 93).
in(27, 94).
in(27, 96).
in(27, 97).
in(27, 99).
in(27, 101).
in(27, 102).
in(27, 104).
in(27, 105).
in(27, 107).
in(27, 108).
in(27, 109).
in(28, 1).
in(28, 2).
in(28, 3).
in(28, 5).
in(28, 7).
in(28, 8).
in(28, 13).
in(28, 14).
in(28, 22).
in(28, 24).
in(28, 25).
in(28, 26).
in(28, 30).
in(28, 34).
in(28, 35).
in(28, 38).
in(28, 44).
in(28, 46).
in(28, 50).
in(28, 51).
in(28, 54).
in(28, 55).
in(28, 57).
in(28, 58).
in(28, 62).
in(28, 65).
in(28, 67).
in(28, 68).
in(28, 69).
in(28, 70).
in(28, 71).
in(28, 77).
in(28, 81).
in(28, 82).
in(28, 85).
in(28, 88).
in(28, 89).
in(28, 91).
in(28, 93).
in(28, 94).
in(28, 96).
in(28, 97).
in(28, 100).
in(28, 101).
in(28, 104).
in(28, 105).
in(28, 106).
in(29, 1).
in(29, 2).
in(29, 3).
in(29, 7).
in(29, 8).
in(29, 9).
in(29, 10).
in(29, 13).
in(29, 14).
in(29, 15).
in(29, 16).
in(29, 21).
in(29, 32).
in(29, 34).
in(29, 38).
in(29, 39).
in(29, 40).
in(29, 43).
in(29, 44).
in(29, 46).
in(29, 47).
in(29, 48).
in(29, 50).
in(29, 52).
in(29, 55).
in(29, 56).
in(29, 57).
in(29, 59).
in(29, 60).
in(29, 62).
in(29, 63).
in(29, 64).
in(29, 67).
in(29, 68).
in(29, 74).
in(29, 75).
in(29, 78).
in(29, 79).
in(29, 80).
in(29, 81).
in(29, 86).
in(29, 91).
in(29, 92).
in(29, 94).
in(29, 97).
in(29, 100).
in(29, 102).
in(29, 106).
in(29, 109).
in(30, 4).
in(30, 6).
in(30, 8).
in(30, 13).
in(30, 15).
in(30, 18).
in(30, 19).
in(30, 20).
in(30, 23).
in(30, 24).
in(30, 26).
in(30, 33).
in(30, 34).
in(30, 39).
in(30, 40).
in(30, 43).
in(30, 44).
in(30, 45).
in(30, 46).
in(30, 50).
in(30, 51).
in(30, 52).
in(30, 53).
in(30, 55).
in(30, 56).
in(30, 63).
in(30, 65).
in(30, 66).
in(30, 67).
in(30, 68).
in(30, 69).
in(30, 70).
in(30, 71).
in(30, 72).
in(30, 74).
in(30, 76).
in(30, 77).
in(30, 84).
in(30, 86).
in(30, 87).
in(30, 92).
in(30, 93).
in(30, 95).
in(30, 96).
in(30, 97).
in(30, 98).
in(30, 99).
in(30, 100).
in(30, 103).
in(30, 105).
in(30, 106).
in(31, 1).
in(31, 2).
in(31, 4).
in(31, 7).
in(31, 8).
in(31, 11).
in(31, 13).
in(31, 16).
in(31, 18).
in(31, 21).
in(31, 24).
in(31, 25).
in(31, 27).
in(31, 29).
in(31, 30).
in(31, 32).
in(31, 33).
in(31, 37).
in(31, 38).
in(31, 40).
in(31, 42).
in(31, 43).
in(31, 44).
in(31, 46).
in(31, 47).
in(31, 56).
in(31, 57).
in(31, 61).
in(31, 65).
in(31, 66).
in(31, 69).
in(31, 70).
in(31, 71).
in(31, 72).
in(31, 73).
in(31, 74).
in(31, 75).
in(31, 77).
in(31, 78).
in(31, 81).
in(31, 83).
in(31, 84).
in(31, 86).
in(31, 87).
in(31, 88).
in(31, 90).
in(31, 95).
in(31, 97).
in(31, 102).
in(31, 103).
in(31, 109).
in(32, 1).
in(32, 3).
in(32, 5).
in(32, 6).
in(32, 7).
in(32, 9).
in(32, 11).
in(32, 12).
in(32, 14).
in(32, 16).
in(32, 17).
in(32, 19).
in(32, 21).
in(32, 24).
in(32, 25).
in(32, 26).
in(32, 31).
in(32, 34).
in(32, 37).
in(32, 39).
in(32, 43).
in(32, 46).
in(32, 48).
in(32, 50).
in(32, 53).
in(32, 54).
in(32, 57).
in(32, 62).
in(32, 63).
in(32, 64).
in(32, 66).
in(32, 67).
in(32, 70).
in(32, 73).
in(32, 75).
in(32, 84).
in(32, 88).
in(32, 90).
in(32, 91).
in(32, 96).
in(32, 98).
in(32, 101).
in(32, 103).
in(32, 104).
in(32, 105).
in(32, 107).
in(32, 109).
in(33, 1).
in(33, 2).
in(33, 3).
in(33, 4).
in(33, 10).
in(33, 12).
in(33, 14).
in(33, 15).
in(33, 16).
in(33, 17).
in(33, 18).
in(33, 19).
in(33, 23).
in(33, 25).
in(33, 26).
in(33, 30).
in(33, 31).
in(33, 32).
in(33, 34).
in(33, 45).
in(33, 46).
in(33, 48).
in(33, 49).
in(33, 50).
in(33, 53).
in(33, 54).
in(33, 56).
in(33, 57).
in(33, 64).
in(33, 65).
in(33, 68).
in(33, 70).
in(33, 71).
in(33, 72).
in(33, 74).
in(33, 75).
in(33, 77).
in(33, 79).
in(33, 80).
in(33, 83).
in(33, 87).
in(33, 88).
in(33, 89).
in(33, 91).
in(33, 94).
in(33, 104).
in(33, 105).
in(33, 107).
in(33, 109).
in(34, 3).
in(34, 4).
in(34, 9).
in(34, 10).
in(34, 11).
in(34, 15).
in(34, 16).
in(34, 19).
in(34, 22).
in(34, 23).
in(34, 26).
in(34, 27).
in(34, 39).
in(34, 41).
in(34, 44).
in(34, 48).
in(34, 50).
in(34, 52).
in(34, 57).
in(34, 58).
in(34, 63).
in(34, 64).
in(34, 67).
in(34, 69).
in(34, 71).
in(34, 73).
in(34, 77).
in(34, 80).
in(34, 83).
in(34, 84).
in(34, 85).
in(34, 88).
in(34, 89).
in(34, 90).
in(34, 91).
in(34, 93).
in(34, 94).
in(34, 109).
in(35, 1).
in(35, 5).
in(35, 6).
in(35, 8).
in(35, 11).
in(35, 12).
in(35, 15).
in(35, 18).
in(35, 19).
in(35, 21).
in(35, 23).
in(35, 24).
in(35, 25).
in(35, 27).
in(35, 30).
in(35, 35).
in(35, 36).
in(35, 38).
in(35, 40).
in(35, 43).
in(35, 46).
in(35, 48).
in(35, 55).
in(35, 56).
in(35, 57).
in(35, 61).
in(35, 62).
in(35, 70).
in(35, 71).
in(35, 72).
in(35, 74).
in(35, 75).
in(35, 78).
in(35, 80).
in(35, 82).
in(35, 88).
in(35, 91).
in(35, 92).
in(35, 94).
in(35, 95).
in(35, 97).
in(35, 99).
in(35, 102).
in(35, 103).
in(35, 104).
in(35, 107).
in(35, 108).
in(36, 6).
in(36, 8).
in(36, 12).
in(36, 13).
in(36, 16).
in(36, 17).
in(36, 18).
in(36, 19).
in(36, 20).
in(36, 22).
in(36, 26).
in(36, 33).
in(36, 36).
in(36, 38).
in(36, 39).
in(36, 40).
in(36, 42).
in(36, 44).
in(36, 45).
in(36, 47).
in(36, 55).
in(36, 58).
in(36, 63).
in(36, 65).
in(36, 66).
in(36, 67).
in(36, 68).
in(36, 70).
in(36, 75).
in(36, 77).
in(36, 79).
in(36, 81).
in(36, 82).
in(36, 83).
in(36, 88).
in(36, 90).
in(36, 91).
in(36, 92).
in(36, 101).
in(36, 103).
in(36, 105).
in(36, 106).
in(36, 108).
in(37, 1).
in(37, 3).
in(37, 5).
in(37, 6).
in(37, 10).
in(37, 13).
in(37, 15).
in(37, 17).
in(37, 23).
in(37, 24).
in(37, 25).
in(37, 29).
in(37, 31).
in(37, 32).
in(37, 33).
in(37, 34).
in(37, 38).
in(37, 41).
in(37, 42).
in(37, 43).
in(37, 44).
in(37, 46).
in(37, 49).
in(37, 54).
in(37, 56).
in(37, 59).
in(37, 61).
in(37, 62).
in(37, 63).
in(37, 66).
in(37, 71).
in(37, 73).
in(37, 75).
in(37, 76).
in(37, 77).
in(37, 78).
in(37, 79).
in(37, 80).
in(37, 86).
in(37, 89).
in(37, 92).
in(37, 94).
in(37, 96).
in(37, 100).
in(37, 101).
in(37, 104).
in(37, 107).
in(37, 108).
in(37, 109).
in(38, 1).
in(38, 3).
in(38, 11).
in(38, 13).
in(38, 14).
in(38, 17).
in(38, 20).
in(38, 21).
in(38, 24).
in(38, 26).
in(38, 30).
in(38, 33).
in(38, 35).
in(38, 42).
in(38, 43).
in(38, 44).
in(38, 45).
in(38, 47).
in(38, 56).
in(38, 63).
in(38, 64).
in(38, 68).
in(38, 70).
in(38, 71).
in(38, 72).
in(38, 74).
in(38, 76).
in(38, 77).
in(38, 78).
in(38, 81).
in(38, 82).
in(38, 83).
in(38, 91).
in(38, 92).
in(38, 93).
in(38, 96).
in(38, 98).
in(38, 99).
in(38, 100).
in(38, 102).
in(38, 104).
in(38, 109).
in(39, 5).
in(39, 7).
in(39, 9).
in(39, 10).
in(39, 15).
in(39, 18).
in(39, 20).
in(39, 29).
in(39, 30).
in(39, 31).
in(39, 34).
in(39, 35).
in(39, 36).
in(39, 37).
in(39, 39).
in(39, 40).
in(39, 41).
in(39, 44).
in(39, 46).
in(39, 47).
in(39, 50).
in(39, 53).
in(39, 54).
in(39, 57).
in(39, 58).
in(39, 64).
in(39, 67).
in(39, 69).
in(39, 72).
in(39, 73).
in(39, 75).
in(39, 76).
in(39, 77).
in(39, 80).
in(39, 82).
in(39, 85).
in(39, 86).
in(39, 87).
in(39, 88).
in(39, 90).
in(39, 92).
in(39, 95).
in(39, 98).
in(39, 99).
in(39, 102).
in(39, 106).
in(40, 1).
in(40, 4).
in(40, 6).
in(40, 7).
in(40, 8).
in(40, 9).
in(40, 10).
in(40, 11).
in(40, 12).
in(40, 13).
in(40, 16).
in(40, 17).
in(40, 24).
in(40, 26).
in(40, 28).
in(40, 33).
in(40, 36).
in(40, 38).
in(40, 44).
in(40, 45).
in(40, 49).
in(40, 50).
in(40, 51).
in(40, 52).
in(40, 54).
in(40, 55).
in(40, 59).
in(40, 60).
in(40, 61).
in(40, 63).
in(40, 66).
in(40, 67).
in(40, 70).
in(40, 71).
in(40, 75).
in(40, 76).
in(40, 85).
in(40, 86).
in(40, 88).
in(40, 91).
in(40, 95).
in(40, 96).
in(40, 97).
in(40, 98).
in(40, 100).
in(40, 104).
in(40, 108).
in(41, 2).
in(41, 4).
in(41, 5).
in(41, 11).
in(41, 12).
in(41, 19).
in(41, 20).
in(41, 21).
in(41, 24).
in(41, 26).
in(41, 31).
in(41, 32).
in(41, 33).
in(41, 34).
in(41, 35).
in(41, 36).
in(41, 37).
in(41, 39).
in(41, 41).
in(41, 47).
in(41, 49).
in(41, 50).
in(41, 52).
in(41, 53).
in(41, 54).
in(41, 55).
in(41, 57).
in(41, 58).
in(41, 59).
in(41, 60).
in(41, 61).
in(41, 63).
in(41, 68).
in(41, 69).
in(41, 75).
in(41, 77).
in(41, 78).
in(41, 80).
in(41, 82).
in(41, 86).
in(41, 91).
in(41, 92).
in(41, 95).
in(41, 98).
in(41, 104).
in(41, 105).
in(41, 107).
in(42, 2).
in(42, 5).
in(42, 7).
in(42, 9).
in(42, 10).
in(42, 12).
in(42, 18).
in(42, 19).
in(42, 20).
in(42, 28).
in(42, 31).
in(42, 33).
in(42, 37).
in(42, 38).
in(42, 40).
in(42, 44).
in(42, 48).
in(42, 50).
in(42, 51).
in(42, 54).
in(42, 56).
in(42, 59).
in(42, 62).
in(42, 64).
in(42, 65).
in(42, 67).
in(42, 71).
in(42, 72).
in(42, 74).
in(42, 75).
in(42, 79).
in(42, 80).
in(42, 82).
in(42, 83).
in(42, 84).
in(42, 87).
in(42, 88).
in(42, 91).
in(42, 92).
in(42, 95).
in(42, 97).
in(42, 98).
in(42, 100).
in(42, 104).
in(42, 106).
in(43, 5).
in(43, 9).
in(43, 13).
in(43, 14).
in(43, 19).
in(43, 23).
in(43, 25).
in(43, 26).
in(43, 28).
in(43, 29).
in(43, 30).
in(43, 35).
in(43, 36).
in(43, 38).
in(43, 45).
in(43, 46).
in(43, 53).
in(43, 54).
in(43, 55).
in(43, 57).
in(43, 58).
in(43, 63).
in(43, 66).
in(43, 67).
in(43, 68).
in(43, 70).
in(43, 79).
in(43, 82).
in(43, 83).
in(43, 86).
in(43, 87).
in(43, 88).
in(43, 89).
in(43, 90).
in(43, 100).
in(43, 101).
in(43, 104).
in(43, 106).
in(43, 108).
in(44, 2).
in(44, 4).
in(44, 5).
in(44, 6).
in(44, 11).
in(44, 15).
in(44, 17).
in(44, 18).
in(44, 20).
in(44, 26).
in(44, 27).
in(44, 30).
in(44, 31).
in(44, 38).
in(44, 39).
in(44, 40).
in(44, 43).
in(44, 46).
in(44, 49).
in(44, 50).
in(44, 51).
in(44, 54).
in(44, 55).
in(44, 57).
in(44, 58).
in(44, 60).
in(44, 62).
in(44, 68).
in(44, 77).
in(44, 78).
in(44, 79).
in(44, 80).
in(44, 82).
in(44, 85).
in(44, 86).
in(44, 88).
in(44, 90).
in(44, 91).
in(44, 94).
in(44, 95).
in(44, 96).
in(44, 97).
in(44, 100).
in(44, 101).
in(44, 102).
in(44, 104).
in(44, 105).
in(44, 108).
in(44, 109).
in(45, 4).
in(45, 5).
in(45, 8).
in(45, 12).
in(45, 13).
in(45, 14).
in(45, 21).
in(45, 23).
in(45, 24).
in(45, 28).
in(45, 35).
in(45, 36).
in(45, 37).
in(45, 43).
in(45, 46).
in(45, 47).
in(45, 49).
in(45, 57).
in(45, 60).
in(45, 61).
in(45, 62).
in(45, 63).
in(45, 64).
in(45, 67).
in(45, 68).
in(45, 69).
in(45, 71).
in(45, 76).
in(45, 78).
in(45, 80).
in(45, 81).
in(45, 84).
in(45, 87).
in(45, 94).
in(45, 95).
in(45, 96).
in(45, 97).
in(45, 100).
in(45, 104).
in(45, 105).
in(45, 106).
in(45, 108).
in(45, 109).
in(46, 6).
in(46, 7).
in(46, 10).
in(46, 11).
in(46, 23).
in(46, 24).
in(46, 30).
in(46, 31).
in(46, 33).
in(46, 34).
in(46, 37).
in(46, 39).
in(46, 43).
in(46, 44).
in(46, 46).
in(46, 48).
in(46, 49).
in(46, 53).
in(46, 56).
in(46, 57).
in(46, 58).
in(46, 59).
in(46, 60).
in(46, 63).
in(46, 65).
in(46, 68).
in(46, 70).
in(46, 71).
in(46, 74).
in(46, 75).
in(46, 76).
in(46, 77).
in(46, 80).
in(46, 81).
in(46, 83).
in(46, 86).
in(46, 91).
in(46, 93).
in(46, 94).
in(46, 97).
in(46, 99).
in(46, 101).
in(46, 102).
in(46, 104).
in(46, 105).
in(46, 108).
in(47, 2).
in(47, 4).
in(47, 6).
in(47, 9).
in(47, 11).
in(47, 14).
in(47, 17).
in(47, 19).
in(47, 23).
in(47, 25).
in(47, 28).
in(47, 29).
in(47, 30).
in(47, 31).
in(47, 36).
in(47, 37).
in(47, 41).
in(47, 43).
in(47, 44).
in(47, 45).
in(47, 46).
in(47, 47).
in(47, 48).
in(47, 49).
in(47, 51).
in(47, 54).
in(47, 58).
in(47, 59).
in(47, 60).
in(47, 63).
in(47, 70).
in(47, 71).
in(47, 75).
in(47, 82).
in(47, 83).
in(47, 85).
in(47, 87).
in(47, 89).
in(47, 90).
in(47, 94).
in(47, 97).
in(47, 99).
in(47, 100).
in(47, 101).
in(48, 2).
in(48, 7).
in(48, 16).
in(48, 17).
in(48, 21).
in(48, 22).
in(48, 23).
in(48, 24).
in(48, 27).
in(48, 29).
in(48, 32).
in(48, 33).
in(48, 34).
in(48, 36).
in(48, 37).
in(48, 40).
in(48, 45).
in(48, 48).
in(48, 50).
in(48, 52).
in(48, 54).
in(48, 58).
in(48, 59).
in(48, 61).
in(48, 62).
in(48, 63).
in(48, 65).
in(48, 66).
in(48, 70).
in(48, 74).
in(48, 76).
in(48, 78).
in(48, 83).
in(48, 84).
in(48, 85).
in(48, 86).
in(48, 88).
in(48, 90).
in(48, 91).
in(48, 94).
in(48, 96).
in(48, 98).
in(48, 100).
in(48, 101).
in(48, 102).
in(48, 103).
in(48, 104).
in(48, 106).
in(48, 107).
in(48, 109).
in(49, 2).
in(49, 4).
in(49, 7).
in(49, 11).
in(49, 14).
in(49, 19).
in(49, 26).
in(49, 30).
in(49, 32).
in(49, 33).
in(49, 35).
in(49, 37).
in(49, 38).
in(49, 42).
in(49, 43).
in(49, 44).
in(49, 46).
in(49, 47).
in(49, 49).
in(49, 53).
in(49, 55).
in(49, 56).
in(49, 60).
in(49, 64).
in(49, 67).
in(49, 69).
in(49, 71).
in(49, 72).
in(49, 75).
in(49, 79).
in(49, 80).
in(49, 81).
in(49, 82).
in(49, 84).
in(49, 86).
in(49, 88).
in(49, 89).
in(49, 93).
in(49, 95).
in(49, 99).
in(49, 100).
in(49, 103).
in(49, 106).
in(49, 107).
in(49, 109).
in(50, 1).
in(50, 2).
in(50, 3).
in(50, 14).
in(50, 16).
in(50, 19).
in(50, 24).
in(50, 27).
in(50, 28).
in(50, 29).
in(50, 30).
in(50, 31).
in(50, 37).
in(50, 39).
in(50, 40).
in(50, 41).
in(50, 43).
in(50, 44).
in(50, 45).
in(50, 46).
in(50, 47).
in(50, 49).
in(50, 51).
in(50, 53).
in(50, 56).
in(50, 57).
in(50, 59).
in(50, 60).
in(50, 64).
in(50, 66).
in(50, 68).
in(50, 72).
in(50, 73).
in(50, 74).
in(50, 75).
in(50, 76).
in(50, 78).
in(50, 81).
in(50, 83).
in(50, 84).
in(50, 85).
in(50, 87).
in(50, 92).
in(50, 94).
in(50, 95).
in(50, 97).
in(50, 98).
in(50, 99).
in(50, 102).
in(50, 109).
in(51, 2).
in(51, 3).
in(51, 5).
in(51, 7).
in(51, 8).
in(51, 9).
in(51, 14).
in(51, 15).
in(51, 16).
in(51, 18).
in(51, 19).
in(51, 20).
in(51, 22).
in(51, 25).
in(51, 26).
in(51, 27).
in(51, 29).
in(51, 31).
in(51, 38).
in(51, 39).
in(51, 45).
in(51, 47).
in(51, 51).
in(51, 53).
in(51, 55).
in(51, 60).
in(51, 63).
in(51, 64).
in(51, 66).
in(51, 68).
in(51, 70).
in(51, 72).
in(51, 73).
in(51, 76).
in(51, 78).
in(51, 79).
in(51, 80).
in(51, 81).
in(51, 83).
in(51, 92).
in(51, 93).
in(51, 94).
in(51, 95).
in(51, 99).
in(51, 100).
in(51, 102).
in(51, 103).
in(51, 104).
in(51, 105).
in(52, 5).
in(52, 6).
in(52, 7).
in(52, 11).
in(52, 12).
in(52, 15).
in(52, 16).
in(52, 17).
in(52, 21).
in(52, 26).
in(52, 27).
in(52, 31).
in(52, 40).
in(52, 41).
in(52, 44).
in(52, 47).
in(52, 51).
in(52, 53).
in(52, 57).
in(52, 58).
in(52, 59).
in(52, 62).
in(52, 63).
in(52, 69).
in(52, 70).
in(52, 71).
in(52, 72).
in(52, 73).
in(52, 74).
in(52, 78).
in(52, 84).
in(52, 89).
in(52, 90).
in(52, 92).
in(52, 94).
in(52, 97).
in(52, 98).
in(52, 100).
in(52, 102).
in(52, 109).
in(53, 1).
in(53, 4).
in(53, 6).
in(53, 12).
in(53, 13).
in(53, 15).
in(53, 18).
in(53, 19).
in(53, 21).
in(53, 24).
in(53, 31).
in(53, 32).
in(53, 33).
in(53, 34).
in(53, 36).
in(53, 37).
in(53, 38).
in(53, 40).
in(53, 41).
in(53, 42).
in(53, 47).
in(53, 48).
in(53, 51).
in(53, 54).
in(53, 56).
in(53, 60).
in(53, 61).
in(53, 64).
in(53, 66).
in(53, 69).
in(53, 70).
in(53, 73).
in(53, 77).
in(53, 78).
in(53, 79).
in(53, 82).
in(53, 84).
in(53, 86).
in(53, 87).
in(53, 95).
in(53, 96).
in(53, 97).
in(53, 99).
in(53, 101).
in(53, 107).
in(53, 108).
in(54, 3).
in(54, 5).
in(54, 8).
in(54, 11).
in(54, 12).
in(54, 13).
in(54, 15).
in(54, 16).
in(54, 23).
in(54, 29).
in(54, 30).
in(54, 37).
in(54, 39).
in(54, 40).
in(54, 42).
in(54, 43).
in(54, 48).
in(54, 51).
in(54, 54).
in(54, 55).
in(54, 56).
in(54, 57).
in(54, 58).
in(54, 60).
in(54, 62).
in(54, 65).
in(54, 72).
in(54, 74).
in(54, 77).
in(54, 81).
in(54, 82).
in(54, 85).
in(54, 86).
in(54, 87).
in(54, 88).
in(54, 93).
in(54, 98).
in(54, 106).
in(54, 107).
in(54, 108).
in(54, 109).
in(55, 2).
in(55, 5).
in(55, 9).
in(55, 11).
in(55, 12).
in(55, 14).
in(55, 17).
in(55, 22).
in(55, 24).
in(55, 28).
in(55, 29).
in(55, 34).
in(55, 35).
in(55, 42).
in(55, 46).
in(55, 48).
in(55, 53).
in(55, 55).
in(55, 58).
in(55, 61).
in(55, 64).
in(55, 65).
in(55, 66).
in(55, 67).
in(55, 69).
in(55, 71).
in(55, 74).
in(55, 81).
in(55, 82).
in(55, 84).
in(55, 87).
in(55, 88).
in(55, 89).
in(55, 91).
in(55, 92).
in(55, 96).
in(55, 99).
in(55, 101).
in(55, 107).
in(55, 109).
in(56, 1).
in(56, 5).
in(56, 6).
in(56, 7).
in(56, 9).
in(56, 16).
in(56, 19).
in(56, 22).
in(56, 25).
in(56, 26).
in(56, 27).
in(56, 30).
in(56, 36).
in(56, 37).
in(56, 38).
in(56, 39).
in(56, 40).
in(56, 42).
in(56, 43).
in(56, 44).
in(56, 45).
in(56, 50).
in(56, 52).
in(56, 55).
in(56, 56).
in(56, 57).
in(56, 61).
in(56, 62).
in(56, 64).
in(56, 65).
in(56, 71).
in(56, 72).
in(56, 73).
in(56, 74).
in(56, 76).
in(56, 81).
in(56, 82).
in(56, 83).
in(56, 84).
in(56, 85).
in(56, 90).
in(56, 91).
in(56, 92).
in(56, 94).
in(56, 95).
in(56, 100).
in(56, 101).
in(56, 103).
in(56, 105).
in(56, 109).
in(57, 2).
in(57, 6).
in(57, 11).
in(57, 13).
in(57, 17).
in(57, 18).
in(57, 23).
in(57, 26).
in(57, 29).
in(57, 30).
in(57, 32).
in(57, 37).
in(57, 41).
in(57, 42).
in(57, 44).
in(57, 49).
in(57, 51).
in(57, 53).
in(57, 54).
in(57, 55).
in(57, 58).
in(57, 60).
in(57, 61).
in(57, 62).
in(57, 63).
in(57, 64).
in(57, 65).
in(57, 69).
in(57, 71).
in(57, 72).
in(57, 75).
in(57, 78).
in(57, 83).
in(57, 87).
in(57, 92).
in(57, 94).
in(57, 100).
in(57, 101).
in(57, 102).
in(57, 103).
in(57, 105).
in(57, 107).
in(57, 108).
in(57, 109).
in(58, 1).
in(58, 4).
in(58, 8).
in(58, 10).
in(58, 11).
in(58, 12).
in(58, 14).
in(58, 16).
in(58, 18).
in(58, 23).
in(58, 29).
in(58, 37).
in(58, 40).
in(58, 43).
in(58, 44).
in(58, 47).
in(58, 48).
in(58, 49).
in(58, 50).
in(58, 51).
in(58, 52).
in(58, 53).
in(58, 55).
in(58, 60).
in(58, 61).
in(58, 63).
in(58, 65).
in(58, 69).
in(58, 70).
in(58, 80).
in(58, 82).
in(58, 83).
in(58, 84).
in(58, 86).
in(58, 89).
in(58, 91).
in(58, 94).
in(58, 96).
in(58, 99).
in(58, 102).
in(58, 104).
in(58, 106).
in(59, 4).
in(59, 9).
in(59, 18).
in(59, 19).
in(59, 20).
in(59, 22).
in(59, 23).
in(59, 24).
in(59, 28).
in(59, 29).
in(59, 30).
in(59, 32).
in(59, 34).
in(59, 35).
in(59, 36).
in(59, 41).
in(59, 42).
in(59, 44).
in(59, 47).
in(59, 52).
in(59, 53).
in(59, 60).
in(59, 61).
in(59, 64).
in(59, 65).
in(59, 66).
in(59, 69).
in(59, 70).
in(59, 71).
in(59, 73).
in(59, 75).
in(59, 77).
in(59, 83).
in(59, 86).
in(59, 91).
in(59, 95).
in(59, 97).
in(59, 100).
in(59, 101).
in(59, 104).
in(59, 105).
in(59, 106).
in(60, 2).
in(60, 5).
in(60, 6).
in(60, 7).
in(60, 9).
in(60, 11).
in(60, 12).
in(60, 17).
in(60, 20).
in(60, 22).
in(60, 26).
in(60, 29).
in(60, 30).
in(60, 33).
in(60, 38).
in(60, 41).
in(60, 42).
in(60, 43).
in(60, 44).
in(60, 46).
in(60, 47).
in(60, 49).
in(60, 51).
in(60, 53).
in(60, 57).
in(60, 58).
in(60, 60).
in(60, 64).
in(60, 66).
in(60, 67).
in(60, 71).
in(60, 74).
in(60, 77).
in(60, 82).
in(60, 85).
in(60, 87).
in(60, 88).
in(60, 89).
in(60, 92).
in(60, 93).
in(60, 94).
in(60, 107).
in(61, 3).
in(61, 5).
in(61, 7).
in(61, 8).
in(61, 9).
in(61, 13).
in(61, 15).
in(61, 16).
in(61, 17).
in(61, 21).
in(61, 29).
in(61, 31).
in(61, 34).
in(61, 35).
in(61, 37).
in(61, 45).
in(61, 48).
in(61, 49).
in(61, 50).
in(61, 52).
in(61, 54).
in(61, 57).
in(61, 58).
in(61, 59).
in(61, 62).
in(61, 63).
in(61, 64).
in(61, 73).
in(61, 75).
in(61, 78).
in(61, 79).
in(61, 80).
in(61, 84).
in(61, 88).
in(61, 89).
in(61, 91).
in(61, 92).
in(61, 97).
in(61, 98).
in(61, 101).
in(61, 102).
in(61, 107).
in(62, 3).
in(62, 4).
in(62, 9).
in(62, 12).
in(62, 13).
in(62, 16).
in(62, 22).
in(62, 24).
in(62, 26).
in(62, 29).
in(62, 30).
in(62, 31).
in(62, 34).
in(62, 39).
in(62, 40).
in(62, 44).
in(62, 45).
in(62, 51).
in(62, 53).
in(62, 54).
in(62, 55).
in(62, 64).
in(62, 68).
in(62, 69).
in(62, 71).
in(62, 78).
in(62, 79).
in(62, 80).
in(62, 82).
in(62, 83).
in(62, 84).
in(62, 86).
in(62, 92).
in(62, 93).
in(62, 96).
in(62, 98).
in(62, 101).
in(62, 105).
in(63, 1).
in(63, 3).
in(63, 7).
in(63, 8).
in(63, 13).
in(63, 15).
in(63, 17).
in(63, 18).
in(63, 19).
in(63, 21).
in(63, 22).
in(63, 27).
in(63, 28).
in(63, 29).
in(63, 31).
in(63, 32).
in(63, 36).
in(63, 37).
in(63, 39).
in(63, 41).
in(63, 42).
in(63, 43).
in(63, 44).
in(63, 45).
in(63, 47).
in(63, 49).
in(63, 50).
in(63, 52).
in(63, 55).
in(63, 56).
in(63, 58).
in(63, 63).
in(63, 64).
in(63, 65).
in(63, 67).
in(63, 68).
in(63, 70).
in(63, 71).
in(63, 72).
in(63, 73).
in(63, 77).
in(63, 78).
in(63, 81).
in(63, 85).
in(63, 89).
in(63, 95).
in(63, 96).
in(63, 98).
in(63, 102).
in(63, 103).
in(63, 106).
in(64, 2).
in(64, 4).
in(64, 7).
in(64, 9).
in(64, 10).
in(64, 11).
in(64, 13).
in(64, 14).
in(64, 18).
in(64, 24).
in(64, 25).
in(64, 27).
in(64, 32).
in(64, 33).
in(64, 34).
in(64, 35).
in(64, 36).
in(64, 37).
in(64, 39).
in(64, 41).
in(64, 43).
in(64, 44).
in(64, 45).
in(64, 46).
in(64, 47).
in(64, 48).
in(64, 49).
in(64, 57).
in(64, 60).
in(64, 64).
in(64, 65).
in(64, 77).
in(64, 78).
in(64, 79).
in(64, 80).
in(64, 81).
in(64, 82).
in(64, 84).
in(64, 85).
in(64, 90).
in(64, 92).
in(64, 96).
in(64, 98).
in(64, 101).
in(64, 104).
in(64, 107).
in(64, 109).
in(65, 5).
in(65, 6).
in(65, 7).
in(65, 8).
in(65, 9).
in(65, 12).
in(65, 13).
in(65, 15).
in(65, 16).
in(65, 18).
in(65, 19).
in(65, 24).
in(65, 25).
in(65, 27).
in(65, 30).
in(65, 31).
in(65, 32).
in(65, 35).
in(65, 38).
in(65, 40).
in(65, 41).
in(65, 42).
in(65, 43).
in(65, 51).
in(65, 52).
in(65, 53).
in(65, 54).
in(65, 56).
in(65, 57).
in(65, 63).
in(65, 64).
in(65, 65).
in(65, 67).
in(65, 68).
in(65, 72).
in(65, 73).
in(65, 76).
in(65, 79).
in(65, 80).
in(65, 83).
in(65, 84).
in(65, 85).
in(65, 89).
in(65, 90).
in(65, 91).
in(65, 92).
in(65, 96).
in(65, 98).
in(65, 99).
in(65, 101).
in(65, 102).
in(65, 105).
in(65, 107).
in(66, 1).
in(66, 2).
in(66, 4).
in(66, 9).
in(66, 12).
in(66, 13).
in(66, 14).
in(66, 21).
in(66, 30).
in(66, 31).
in(66, 38).
in(66, 41).
in(66, 42).
in(66, 43).
in(66, 44).
in(66, 45).
in(66, 49).
in(66, 51).
in(66, 53).
in(66, 54).
in(66, 55).
in(66, 60).
in(66, 63).
in(66, 68).
in(66, 69).
in(66, 71).
in(66, 73).
in(66, 74).
in(66, 76).
in(66, 77).
in(66, 78).
in(66, 80).
in(66, 84).
in(66, 89).
in(66, 91).
in(66, 93).
in(66, 95).
in(66, 96).
in(66, 99).
in(66, 100).
in(66, 102).
in(66, 104).
in(66, 105).
in(66, 108).
in(66, 109).
in(67, 2).
in(67, 10).
in(67, 11).
in(67, 16).
in(67, 17).
in(67, 20).
in(67, 27).
in(67, 28).
in(67, 29).
in(67, 30).
in(67, 31).
in(67, 33).
in(67, 34).
in(67, 38).
in(67, 39).
in(67, 45).
in(67, 49).
in(67, 53).
in(67, 55).
in(67, 57).
in(67, 60).
in(67, 63).
in(67, 64).
in(67, 66).
in(67, 68).
in(67, 69).
in(67, 70).
in(67, 74).
in(67, 76).
in(67, 80).
in(67, 81).
in(67, 83).
in(67, 85).
in(67, 91).
in(67, 92).
in(67, 94).
in(67, 95).
in(67, 96).
in(67, 97).
in(67, 103).
in(67, 106).
in(67, 108).
in(68, 1).
in(68, 2).
in(68, 7).
in(68, 9).
in(68, 12).
in(68, 13).
in(68, 15).
in(68, 17).
in(68, 20).
in(68, 22).
in(68, 25).
in(68, 27).
in(68, 28).
in(68, 33).
in(68, 37).
in(68, 41).
in(68, 43).
in(68, 44).
in(68, 45).
in(68, 51).
in(68, 52).
in(68, 55).
in(68, 57).
in(68, 62).
in(68, 70).
in(68, 72).
in(68, 73).
in(68, 74).
in(68, 76).
in(68, 83).
in(68, 85).
in(68, 86).
in(68, 88).
in(68, 89).
in(68, 90).
in(68, 91).
in(68, 92).
in(68, 95).
in(68, 96).
in(68, 98).
in(68, 100).
in(68, 105).
in(68, 106).
in(68, 108).
in(68, 109).
in(69, 1).
in(69, 3).
in(69, 5).
in(69, 6).
in(69, 8).
in(69, 9).
in(69, 11).
in(69, 13).
in(69, 14).
in(69, 15).
in(69, 20).
in(69, 22).
in(69, 24).
in(69, 25).
in(69, 28).
in(69, 35).
in(69, 39).
in(69, 40).
in(69, 41).
in(69, 42).
in(69, 43).
in(69, 48).
in(69, 49).
in(69, 53).
in(69, 54).
in(69, 56).
in(69, 58).
in(69, 59).
in(69, 60).
in(69, 61).
in(69, 66).
in(69, 70).
in(69, 77).
in(69, 79).
in(69, 81).
in(69, 82).
in(69, 83).
in(69, 87).
in(69, 89).
in(69, 90).
in(69, 93).
in(69, 98).
in(69, 99).
in(69, 100).
in(69, 101).
in(69, 103).
in(69, 105).
in(70, 1).
in(70, 2).
in(70, 4).
in(70, 5).
in(70, 10).
in(70, 13).
in(70, 14).
in(70, 16).
in(70, 17).
in(70, 21).
in(70, 22).
in(70, 25).
in(70, 28).
in(70, 32).
in(70, 34).
in(70, 35).
in(70, 36).
in(70, 38).
in(70, 39).
in(70, 40).
in(70, 41).
in(70, 43).
in(70, 44).
in(70, 48).
in(70, 50).
in(70, 52).
in(70, 55).
in(70, 56).
in(70, 58).
in(70, 59).
in(70, 61).
in(70, 63).
in(70, 64).
in(70, 65).
in(70, 66).
in(70, 67).
in(70, 69).
in(70, 74).
in(70, 75).
in(70, 76).
in(70, 78).
in(70, 80).
in(70, 82).
in(70, 83).
in(70, 85).
in(70, 88).
in(70, 89).
in(70, 94).
in(70, 95).
in(70, 97).
in(70, 98).
in(70, 99).
in(70, 101).
in(70, 102).
in(70, 109).
in(71, 3).
in(71, 4).
in(71, 5).
in(71, 7).
in(71, 13).
in(71, 14).
in(71, 16).
in(71, 17).
in(71, 18).
in(71, 19).
in(71, 23).
in(71, 25).
in(71, 29).
in(71, 30).
in(71, 31).
in(71, 32).
in(71, 37).
in(71, 39).
in(71, 42).
in(71, 46).
in(71, 47).
in(71, 50).
in(71, 51).
in(71, 52).
in(71, 60).
in(71, 61).
in(71, 63).
in(71, 70).
in(71, 72).
in(71, 73).
in(71, 77).
in(71, 79).
in(71, 81).
in(71, 83).
in(71, 85).
in(71, 90).
in(71, 91).
in(71, 93).
in(71, 94).
in(71, 96).
in(71, 97).
in(71, 99).
in(71, 100).
in(71, 102).
in(71, 105).
in(71, 107).
in(72, 3).
in(72, 4).
in(72, 5).
in(72, 8).
in(72, 10).
in(72, 11).
in(72, 15).
in(72, 21).
in(72, 23).
in(72, 25).
in(72, 26).
in(72, 27).
in(72, 29).
in(72, 31).
in(72, 33).
in(72, 34).
in(72, 35).
in(72, 38).
in(72, 41).
in(72, 43).
in(72, 45).
in(72, 46).
in(72, 49).
in(72, 50).
in(72, 53).
in(72, 54).
in(72, 60).
in(72, 61).
in(72, 65).
in(72, 66).
in(72, 68).
in(72, 70).
in(72, 74).
in(72, 77).
in(72, 78).
in(72, 83).
in(72, 84).
in(72, 85).
in(72, 90).
in(72, 91).
in(72, 95).
in(72, 96).
in(72, 99).
in(72, 104).
in(72, 105).
in(72, 106).
in(72, 108).
in(72, 109).
in(73, 1).
in(73, 12).
in(73, 13).
in(73, 16).
in(73, 17).
in(73, 18).
in(73, 22).
in(73, 25).
in(73, 29).
in(73, 31).
in(73, 32).
in(73, 36).
in(73, 37).
in(73, 39).
in(73, 44).
in(73, 47).
in(73, 48).
in(73, 52).
in(73, 58).
in(73, 59).
in(73, 62).
in(73, 64).
in(73, 65).
in(73, 66).
in(73, 68).
in(73, 70).
in(73, 71).
in(73, 76).
in(73, 77).
in(73, 82).
in(73, 85).
in(73, 88).
in(73, 101).
in(73, 105).
in(73, 106).
in(73, 107).
in(74, 3).
in(74, 8).
in(74, 9).
in(74, 11).
in(74, 13).
in(74, 14).
in(74, 15).
in(74, 17).
in(74, 18).
in(74, 19).
in(74, 23).
in(74, 24).
in(74, 26).
in(74, 28).
in(74, 29).
in(74, 35).
in(74, 37).
in(74, 38).
in(74, 40).
in(74, 45).
in(74, 54).
in(74, 56).
in(74, 57).
in(74, 59).
in(74, 60).
in(74, 64).
in(74, 65).
in(74, 66).
in(74, 67).
in(74, 69).
in(74, 72).
in(74, 76).
in(74, 79).
in(74, 81).
in(74, 83).
in(74, 84).
in(74, 88).
in(74, 91).
in(74, 95).
in(74, 98).
in(74, 104).
in(74, 105).
in(74, 106).
in(74, 107).
in(74, 109).
in(75, 1).
in(75, 6).
in(75, 7).
in(75, 8).
in(75, 10).
in(75, 11).
in(75, 13).
in(75, 18).
in(75, 21).
in(75, 22).
in(75, 23).
in(75, 27).
in(75, 28).
in(75, 35).
in(75, 39).
in(75, 41).
in(75, 42).
in(75, 43).
in(75, 44).
in(75, 45).
in(75, 49).
in(75, 50).
in(75, 53).
in(75, 55).
in(75, 58).
in(75, 60).
in(75, 61).
in(75, 63).
in(75, 64).
in(75, 67).
in(75, 68).
in(75, 70).
in(75, 71).
in(75, 72).
in(75, 73).
in(75, 76).
in(75, 78).
in(75, 79).
in(75, 82).
in(75, 83).
in(75, 87).
in(75, 88).
in(75, 90).
in(75, 91).
in(75, 92).
in(75, 94).
in(75, 96).
in(75, 101).
in(75, 102).
in(76, 1).
in(76, 7).
in(76, 17).
in(76, 18).
in(76, 25).
in(76, 27).
in(76, 29).
in(76, 37).
in(76, 38).
in(76, 39).
in(76, 41).
in(76, 43).
in(76, 45).
in(76, 46).
in(76, 49).
in(76, 54).
in(76, 55).
in(76, 57).
in(76, 58).
in(76, 73).
in(76, 78).
in(76, 79).
in(76, 83).
in(76, 88).
in(76, 90).
in(76, 91).
in(76, 93).
in(76, 94).
in(76, 103).
in(76, 107).
in(76, 108).
in(76, 109).
in(77, 2).
in(77, 4).
in(77, 5).
in(77, 8).
in(77, 10).
in(77, 13).
in(77, 16).
in(77, 21).
in(77, 22).
in(77, 24).
in(77, 26).
in(77, 28).
in(77, 35).
in(77, 36).
in(77, 38).
in(77, 41).
in(77, 43).
in(77, 45).
in(77, 49).
in(77, 50).
in(77, 53).
in(77, 55).
in(77, 56).
in(77, 59).
in(77, 62).
in(77, 63).
in(77, 66).
in(77, 67).
in(77, 68).
in(77, 72).
in(77, 75).
in(77, 77).
in(77, 83).
in(77, 86).
in(77, 87).
in(77, 91).
in(77, 94).
in(77, 96).
in(77, 98).
in(77, 99).
in(77, 101).
in(77, 104).
in(77, 105).
in(77, 107).
in(78, 3).
in(78, 11).
in(78, 13).
in(78, 17).
in(78, 19).
in(78, 20).
in(78, 26).
in(78, 27).
in(78, 31).
in(78, 32).
in(78, 33).
in(78, 34).
in(78, 39).
in(78, 40).
in(78, 42).
in(78, 44).
in(78, 47).
in(78, 51).
in(78, 55).
in(78, 56).
in(78, 58).
in(78, 59).
in(78, 65).
in(78, 70).
in(78, 74).
in(78, 76).
in(78, 79).
in(78, 80).
in(78, 82).
in(78, 85).
in(78, 88).
in(78, 89).
in(78, 91).
in(78, 93).
in(78, 95).
in(78, 98).
in(78, 99).
in(78, 100).
in(78, 102).
in(78, 104).
in(78, 105).
in(79, 1).
in(79, 2).
in(79, 4).
in(79, 6).
in(79, 8).
in(79, 17).
in(79, 19).
in(79, 20).
in(79, 21).
in(79, 25).
in(79, 29).
in(79, 30).
in(79, 31).
in(79, 35).
in(79, 36).
in(79, 37).
in(79, 39).
in(79, 43).
in(79, 44).
in(79, 45).
in(79, 49).
in(79, 53).
in(79, 56).
in(79, 59).
in(79, 60).
in(79, 63).
in(79, 67).
in(79, 68).
in(79, 69).
in(79, 70).
in(79, 71).
in(79, 79).
in(79, 84).
in(79, 91).
in(79, 92).
in(79, 97).
in(79, 99).
in(79, 100).
in(79, 101).
in(79, 102).
in(79, 109).
in(80, 1).
in(80, 2).
in(80, 3).
in(80, 6).
in(80, 8).
in(80, 9).
in(80, 11).
in(80, 13).
in(80, 15).
in(80, 20).
in(80, 21).
in(80, 23).
in(80, 26).
in(80, 27).
in(80, 28).
in(80, 30).
in(80, 36).
in(80, 38).
in(80, 39).
in(80, 41).
in(80, 44).
in(80, 45).
in(80, 48).
in(80, 49).
in(80, 52).
in(80, 53).
in(80, 54).
in(80, 55).
in(80, 57).
in(80, 58).
in(80, 59).
in(80, 61).
in(80, 62).
in(80, 68).
in(80, 70).
in(80, 77).
in(80, 78).
in(80, 83).
in(80, 85).
in(80, 87).
in(80, 88).
in(80, 91).
in(80, 95).
in(80, 99).
in(80, 104).
in(81, 1).
in(81, 2).
in(81, 4).
in(81, 5).
in(81, 6).
in(81, 8).
in(81, 9).
in(81, 10).
in(81, 12).
in(81, 17).
in(81, 18).
in(81, 22).
in(81, 23).
in(81, 25).
in(81, 27).
in(81, 28).
in(81, 29).
in(81, 33).
in(81, 38).
in(81, 40).
in(81, 44).
in(81, 46).
in(81, 48).
in(81, 49).
in(81, 50).
in(81, 51).
in(81, 52).
in(81, 55).
in(81, 56).
in(81, 60).
in(81, 61).
in(81, 63).
in(81, 64).
in(81, 65).
in(81, 69).
in(81, 70).
in(81, 72).
in(81, 77).
in(81, 80).
in(81, 83).
in(81, 88).
in(81, 89).
in(81, 91).
in(81, 99).
in(81, 101).
in(81, 102).
in(81, 103).
in(81, 104).
in(81, 105).
in(81, 107).
in(81, 108).
in(81, 109).
in(82, 1).
in(82, 4).
in(82, 7).
in(82, 8).
in(82, 9).
in(82, 11).
in(82, 12).
in(82, 13).
in(82, 15).
in(82, 20).
in(82, 23).
in(82, 26).
in(82, 28).
in(82, 31).
in(82, 36).
in(82, 37).
in(82, 38).
in(82, 40).
in(82, 41).
in(82, 45).
in(82, 46).
in(82, 49).
in(82, 50).
in(82, 51).
in(82, 52).
in(82, 54).
in(82, 56).
in(82, 58).
in(82, 59).
in(82, 61).
in(82, 63).
in(82, 68).
in(82, 69).
in(82, 71).
in(82, 76).
in(82, 80).
in(82, 82).
in(82, 84).
in(82, 87).
in(82, 93).
in(82, 94).
in(82, 99).
in(82, 101).
in(82, 102).
in(82, 103).
in(82, 105).
in(82, 108).
in(82, 109).
in(83, 1).
in(83, 6).
in(83, 7).
in(83, 8).
in(83, 9).
in(83, 11).
in(83, 13).
in(83, 14).
in(83, 15).
in(83, 17).
in(83, 18).
in(83, 22).
in(83, 24).
in(83, 26).
in(83, 27).
in(83, 28).
in(83, 33).
in(83, 35).
in(83, 37).
in(83, 38).
in(83, 39).
in(83, 41).
in(83, 46).
in(83, 49).
in(83, 52).
in(83, 53).
in(83, 58).
in(83, 59).
in(83, 64).
in(83, 65).
in(83, 72).
in(83, 74).
in(83, 76).
in(83, 77).
in(83, 79).
in(83, 84).
in(83, 85).
in(83, 86).
in(83, 87).
in(83, 88).
in(83, 90).
in(83, 93).
in(83, 95).
in(83, 98).
in(83, 100).
in(83, 102).
in(83, 103).
in(83, 104).
in(83, 105).
in(83, 109).
in(84, 8).
in(84, 11).
in(84, 12).
in(84, 16).
in(84, 21).
in(84, 23).
in(84, 27).
in(84, 28).
in(84, 37).
in(84, 38).
in(84, 40).
in(84, 46).
in(84, 49).
in(84, 50).
in(84, 52).
in(84, 54).
in(84, 55).
in(84, 58).
in(84, 59).
in(84, 60).
in(84, 65).
in(84, 66).
in(84, 67).
in(84, 72).
in(84, 80).
in(84, 82).
in(84, 83).
in(84, 84).
in(84, 86).
in(84, 93).
in(84, 94).
in(84, 99).
in(84, 103).
in(84, 104).
in(84, 105).
in(85, 2).
in(85, 3).
in(85, 4).
in(85, 7).
in(85, 9).
in(85, 15).
in(85, 16).
in(85, 17).
in(85, 18).
in(85, 24).
in(85, 25).
in(85, 26).
in(85, 27).
in(85, 33).
in(85, 35).
in(85, 38).
in(85, 45).
in(85, 47).
in(85, 50).
in(85, 53).
in(85, 55).
in(85, 57).
in(85, 60).
in(85, 63).
in(85, 65).
in(85, 71).
in(85, 74).
in(85, 75).
in(85, 80).
in(85, 84).
in(85, 86).
in(85, 87).
in(85, 88).
in(85, 91).
in(85, 97).
in(85, 98).
in(85, 102).
in(85, 104).
in(85, 105).
in(85, 109).
in(86, 1).
in(86, 2).
in(86, 4).
in(86, 5).
in(86, 6).
in(86, 10).
in(86, 12).
in(86, 16).
in(86, 22).
in(86, 23).
in(86, 24).
in(86, 25).
in(86, 26).
in(86, 28).
in(86, 32).
in(86, 33).
in(86, 34).
in(86, 37).
in(86, 41).
in(86, 48).
in(86, 51).
in(86, 52).
in(86, 56).
in(86, 61).
in(86, 62).
in(86, 65).
in(86, 66).
in(86, 67).
in(86, 74).
in(86, 75).
in(86, 77).
in(86, 78).
in(86, 84).
in(86, 87).
in(86, 89).
in(86, 91).
in(86, 92).
in(86, 94).
in(86, 95).
in(86, 96).
in(86, 98).
in(86, 99).
in(86, 100).
in(86, 105).
in(86, 106).
in(87, 3).
in(87, 5).
in(87, 6).
in(87, 7).
in(87, 9).
in(87, 10).
in(87, 11).
in(87, 15).
in(87, 18).
in(87, 19).
in(87, 21).
in(87, 23).
in(87, 24).
in(87, 25).
in(87, 27).
in(87, 29).
in(87, 31).
in(87, 32).
in(87, 38).
in(87, 40).
in(87, 44).
in(87, 47).
in(87, 54).
in(87, 56).
in(87, 59).
in(87, 60).
in(87, 61).
in(87, 64).
in(87, 66).
in(87, 70).
in(87, 72).
in(87, 75).
in(87, 76).
in(87, 80).
in(87, 83).
in(87, 84).
in(87, 88).
in(87, 95).
in(87, 97).
in(87, 99).
in(87, 102).
in(87, 109).
in(88, 1).
in(88, 3).
in(88, 5).
in(88, 7).
in(88, 8).
in(88, 10).
in(88, 11).
in(88, 12).
in(88, 17).
in(88, 22).
in(88, 24).
in(88, 28).
in(88, 29).
in(88, 32).
in(88, 34).
in(88, 38).
in(88, 40).
in(88, 42).
in(88, 50).
in(88, 51).
in(88, 52).
in(88, 53).
in(88, 54).
in(88, 55).
in(88, 61).
in(88, 69).
in(88, 71).
in(88, 73).
in(88, 74).
in(88, 75).
in(88, 80).
in(88, 82).
in(88, 83).
in(88, 88).
in(88, 90).
in(88, 92).
in(88, 93).
in(88, 94).
in(88, 100).
in(88, 102).
in(88, 103).
in(88, 105).
in(88, 107).
in(88, 108).
in(88, 109).
in(89, 3).
in(89, 5).
in(89, 7).
in(89, 8).
in(89, 10).
in(89, 13).
in(89, 14).
in(89, 15).
in(89, 18).
in(89, 19).
in(89, 22).
in(89, 25).
in(89, 26).
in(89, 27).
in(89, 33).
in(89, 36).
in(89, 39).
in(89, 41).
in(89, 44).
in(89, 45).
in(89, 47).
in(89, 49).
in(89, 50).
in(89, 53).
in(89, 54).
in(89, 58).
in(89, 59).
in(89, 63).
in(89, 65).
in(89, 66).
in(89, 69).
in(89, 70).
in(89, 71).
in(89, 73).
in(89, 74).
in(89, 78).
in(89, 84).
in(89, 86).
in(89, 87).
in(89, 88).
in(89, 91).
in(89, 92).
in(89, 93).
in(89, 96).
in(89, 98).
in(89, 99).
in(89, 100).
in(89, 101).
in(89, 104).
in(89, 106).
in(89, 107).
in(89, 108).
in(89, 109).
in(90, 4).
in(90, 5).
in(90, 11).
in(90, 16).
in(90, 17).
in(90, 19).
in(90, 27).
in(90, 28).
in(90, 29).
in(90, 31).
in(90, 34).
in(90, 35).
in(90, 36).
in(90, 37).
in(90, 41).
in(90, 42).
in(90, 43).
in(90, 45).
in(90, 48).
in(90, 49).
in(90, 60).
in(90, 61).
in(90, 65).
in(90, 67).
in(90, 76).
in(90, 81).
in(90, 84).
in(90, 85).
in(90, 88).
in(90, 94).
in(90, 95).
in(90, 96).
in(90, 98).
in(90, 99).
in(90, 101).
in(90, 103).
in(90, 107).
in(91, 8).
in(91, 9).
in(91, 11).
in(91, 14).
in(91, 15).
in(91, 16).
in(91, 17).
in(91, 19).
in(91, 21).
in(91, 24).
in(91, 25).
in(91, 26).
in(91, 28).
in(91, 32).
in(91, 33).
in(91, 35).
in(91, 37).
in(91, 38).
in(91, 40).
in(91, 42).
in(91, 43).
in(91, 45).
in(91, 46).
in(91, 49).
in(91, 54).
in(91, 56).
in(91, 58).
in(91, 60).
in(91, 62).
in(91, 65).
in(91, 69).
in(91, 71).
in(91, 73).
in(91, 76).
in(91, 77).
in(91, 78).
in(91, 79).
in(91, 82).
in(91, 85).
in(91, 89).
in(91, 92).
in(91, 96).
in(91, 97).
in(91, 100).
in(91, 103).
in(91, 106).
in(92, 1).
in(92, 6).
in(92, 7).
in(92, 10).
in(92, 11).
in(92, 14).
in(92, 16).
in(92, 17).
in(92, 18).
in(92, 19).
in(92, 22).
in(92, 24).
in(92, 25).
in(92, 26).
in(92, 28).
in(92, 31).
in(92, 32).
in(92, 33).
in(92, 38).
in(92, 39).
in(92, 43).
in(92, 44).
in(92, 45).
in(92, 46).
in(92, 48).
in(92, 54).
in(92, 55).
in(92, 56).
in(92, 57).
in(92, 60).
in(92, 65).
in(92, 66).
in(92, 67).
in(92, 72).
in(92, 74).
in(92, 75).
in(92, 76).
in(92, 79).
in(92, 80).
in(92, 84).
in(92, 91).
in(92, 101).
in(92, 102).
in(92, 104).
in(92, 106).
in(92, 107).
in(92, 108).
in(93, 3).
in(93, 4).
in(93, 8).
in(93, 9).
in(93, 10).
in(93, 13).
in(93, 15).
in(93, 19).
in(93, 20).
in(93, 21).
in(93, 23).
in(93, 25).
in(93, 30).
in(93, 33).
in(93, 35).
in(93, 36).
in(93, 38).
in(93, 44).
in(93, 45).
in(93, 46).
in(93, 48).
in(93, 53).
in(93, 54).
in(93, 55).
in(93, 56).
in(93, 58).
in(93, 59).
in(93, 65).
in(93, 66).
in(93, 67).
in(93, 68).
in(93, 73).
in(93, 74).
in(93, 75).
in(93, 77).
in(93, 78).
in(93, 80).
in(93, 83).
in(93, 85).
in(93, 87).
in(93, 88).
in(93, 92).
in(93, 94).
in(93, 95).
in(93, 96).
in(93, 97).
in(93, 98).
in(93, 99).
in(93, 101).
in(93, 103).
in(93, 104).
in(93, 105).
in(93, 106).
in(93, 109).
in(94, 1).
in(94, 3).
in(94, 6).
in(94, 7).
in(94, 10).
in(94, 13).
in(94, 14).
in(94, 15).
in(94, 21).
in(94, 22).
in(94, 24).
in(94, 25).
in(94, 26).
in(94, 27).
in(94, 29).
in(94, 34).
in(94, 36).
in(94, 37).
in(94, 39).
in(94, 40).
in(94, 50).
in(94, 54).
in(94, 56).
in(94, 57).
in(94, 58).
in(94, 59).
in(94, 60).
in(94, 61).
in(94, 62).
in(94, 63).
in(94, 65).
in(94, 66).
in(94, 67).
in(94, 68).
in(94, 69).
in(94, 72).
in(94, 74).
in(94, 78).
in(94, 83).
in(94, 84).
in(94, 88).
in(94, 89).
in(94, 91).
in(94, 94).
in(94, 97).
in(94, 99).
in(94, 102).
in(94, 105).
in(94, 108).
in(94, 109).
in(95, 4).
in(95, 5).
in(95, 6).
in(95, 8).
in(95, 9).
in(95, 12).
in(95, 14).
in(95, 15).
in(95, 16).
in(95, 17).
in(95, 18).
in(95, 23).
in(95, 24).
in(95, 27).
in(95, 29).
in(95, 33).
in(95, 34).
in(95, 35).
in(95, 36).
in(95, 39).
in(95, 44).
in(95, 45).
in(95, 46).
in(95, 48).
in(95, 58).
in(95, 60).
in(95, 68).
in(95, 70).
in(95, 75).
in(95, 77).
in(95, 79).
in(95, 81).
in(95, 82).
in(95, 86).
in(95, 88).
in(95, 92).
in(95, 97).
in(95, 98).
in(95, 99).
in(95, 107).
in(95, 109).
in(96, 1).
in(96, 6).
in(96, 11).
in(96, 13).
in(96, 16).
in(96, 19).
in(96, 20).
in(96, 21).
in(96, 22).
in(96, 23).
in(96, 26).
in(96, 31).
in(96, 33).
in(96, 35).
in(96, 42).
in(96, 45).
in(96, 46).
in(96, 47).
in(96, 49).
in(96, 50).
in(96, 53).
in(96, 56).
in(96, 58).
in(96, 59).
in(96, 69).
in(96, 72).
in(96, 75).
in(96, 76).
in(96, 81).
in(96, 88).
in(96, 91).
in(96, 92).
in(96, 93).
in(96, 94).
in(96, 102).
in(96, 106).
in(96, 109).
in(97, 2).
in(97, 3).
in(97, 6).
in(97, 9).
in(97, 10).
in(97, 11).
in(97, 12).
in(97, 14).
in(97, 15).
in(97, 19).
in(97, 23).
in(97, 28).
in(97, 29).
in(97, 30).
in(97, 32).
in(97, 33).
in(97, 38).
in(97, 40).
in(97, 41).
in(97, 42).
in(97, 43).
in(97, 44).
in(97, 45).
in(97, 49).
in(97, 50).
in(97, 51).
in(97, 55).
in(97, 59).
in(97, 61).
in(97, 64).
in(97, 65).
in(97, 66).
in(97, 67).
in(97, 68).
in(97, 69).
in(97, 70).
in(97, 74).
in(97, 76).
in(97, 88).
in(97, 90).
in(97, 91).
in(97, 92).
in(97, 96).
in(97, 99).
in(97, 101).
in(97, 103).
in(97, 108).
in(98, 3).
in(98, 10).
in(98, 11).
in(98, 17).
in(98, 22).
in(98, 25).
in(98, 29).
in(98, 30).
in(98, 31).
in(98, 32).
in(98, 33).
in(98, 37).
in(98, 41).
in(98, 44).
in(98, 46).
in(98, 47).
in(98, 50).
in(98, 52).
in(98, 54).
in(98, 57).
in(98, 59).
in(98, 60).
in(98, 63).
in(98, 69).
in(98, 71).
in(98, 72).
in(98, 78).
in(98, 80).
in(98, 81).
in(98, 82).
in(98, 83).
in(98, 85).
in(98, 87).
in(98, 88).
in(98, 90).
in(98, 92).
in(98, 93).
in(98, 95).
in(98, 97).
in(98, 100).
in(98, 104).
in(99, 1).
in(99, 3).
in(99, 4).
in(99, 10).
in(99, 11).
in(99, 14).
in(99, 17).
in(99, 23).
in(99, 25).
in(99, 28).
in(99, 29).
in(99, 38).
in(99, 39).
in(99, 40).
in(99, 44).
in(99, 46).
in(99, 47).
in(99, 48).
in(99, 51).
in(99, 53).
in(99, 54).
in(99, 56).
in(99, 61).
in(99, 64).
in(99, 65).
in(99, 67).
in(99, 69).
in(99, 74).
in(99, 76).
in(99, 77).
in(99, 78).
in(99, 80).
in(99, 82).
in(99, 88).
in(99, 89).
in(99, 97).
in(99, 101).
in(99, 102).
in(99, 104).
in(99, 105).
in(99, 106).
in(100, 2).
in(100, 3).
in(100, 4).
in(100, 5).
in(100, 6).
in(100, 14).
in(100, 16).
in(100, 17).
in(100, 19).
in(100, 20).
in(100, 21).
in(100, 23).
in(100, 30).
in(100, 37).
in(100, 38).
in(100, 42).
in(100, 43).
in(100, 46).
in(100, 48).
in(100, 49).
in(100, 50).
in(100, 52).
in(100, 54).
in(100, 55).
in(100, 56).
in(100, 58).
in(100, 61).
in(100, 62).
in(100, 63).
in(100, 64).
in(100, 69).
in(100, 71).
in(100, 73).
in(100, 75).
in(100, 77).
in(100, 80).
in(100, 81).
in(100, 87).
in(100, 89).
in(100, 94).
in(100, 95).
in(100, 102).
in(100, 103).
in(100, 106).
in(101, 1).
in(101, 2).
in(101, 4).
in(101, 5).
in(101, 11).
in(101, 12).
in(101, 13).
in(101, 15).
in(101, 19).
in(101, 21).
in(101, 22).
in(101, 23).
in(101, 25).
in(101, 26).
in(101, 27).
in(101, 28).
in(101, 30).
in(101, 32).
in(101, 33).
in(101, 34).
in(101, 38).
in(101, 40).
in(101, 43).
in(101, 46).
in(101, 52).
in(101, 53).
in(101, 55).
in(101, 57).
in(101, 60).
in(101, 61).
in(101, 64).
in(101, 66).
in(101, 68).
in(101, 69).
in(101, 73).
in(101, 76).
in(101, 77).
in(101, 78).
in(101, 81).
in(101, 82).
in(101, 83).
in(101, 86).
in(101, 87).
in(101, 95).
in(101, 99).
in(101, 101).
in(101, 102).
in(101, 107).
in(101, 109).
in(102, 1).
in(102, 2).
in(102, 4).
in(102, 5).
in(102, 9).
in(102, 10).
in(102, 12).
in(102, 13).
in(102, 14).
in(102, 16).
in(102, 17).
in(102, 19).
in(102, 21).
in(102, 22).
in(102, 24).
in(102, 28).
in(102, 29).
in(102, 30).
in(102, 32).
in(102, 33).
in(102, 38).
in(102, 40).
in(102, 41).
in(102, 43).
in(102, 48).
in(102, 50).
in(102, 53).
in(102, 54).
in(102, 57).
in(102, 58).
in(102, 59).
in(102, 61).
in(102, 66).
in(102, 67).
in(102, 68).
in(102, 70).
in(102, 72).
in(102, 75).
in(102, 76).
in(102, 77).
in(102, 78).
in(102, 80).
in(102, 81).
in(102, 82).
in(102, 83).
in(102, 84).
in(102, 85).
in(102, 88).
in(102, 92).
in(102, 93).
in(102, 98).
in(102, 99).
in(102, 101).
in(102, 102).
in(102, 104).
in(102, 105).
in(102, 109).
in(103, 2).
in(103, 3).
in(103, 4).
in(103, 5).
in(103, 8).
in(103, 9).
in(103, 11).
in(103, 12).
in(103, 14).
in(103, 18).
in(103, 23).
in(103, 24).
in(103, 26).
in(103, 27).
in(103, 30).
in(103, 31).
in(103, 32).
in(103, 35).
in(103, 37).
in(103, 40).
in(103, 41).
in(103, 43).
in(103, 44).
in(103, 49).
in(103, 50).
in(103, 54).
in(103, 56).
in(103, 57).
in(103, 58).
in(103, 61).
in(103, 64).
in(103, 73).
in(103, 74).
in(103, 75).
in(103, 77).
in(103, 79).
in(103, 81).
in(103, 82).
in(103, 84).
in(103, 86).
in(103, 87).
in(103, 89).
in(103, 90).
in(103, 93).
in(103, 95).
in(103, 96).
in(103, 97).
in(103, 100).
in(103, 101).
in(103, 105).
in(103, 107).
in(103, 109).
in(104, 4).
in(104, 5).
in(104, 9).
in(104, 10).
in(104, 13).
in(104, 14).
in(104, 15).
in(104, 19).
in(104, 20).
in(104, 31).
in(104, 33).
in(104, 34).
in(104, 38).
in(104, 41).
in(104, 43).
in(104, 44).
in(104, 46).
in(104, 49).
in(104, 51).
in(104, 54).
in(104, 58).
in(104, 60).
in(104, 62).
in(104, 64).
in(104, 68).
in(104, 69).
in(104, 72).
in(104, 73).
in(104, 76).
in(104, 78).
in(104, 79).
in(104, 80).
in(104, 81).
in(104, 82).
in(104, 86).
in(104, 87).
in(104, 89).
in(104, 91).
in(104, 92).
in(104, 93).
in(104, 97).
in(104, 99).
in(104, 100).
in(104, 101).
in(104, 102).
in(104, 103).
in(104, 105).
in(104, 106).
in(104, 107).
in(104, 108).
in(105, 2).
in(105, 6).
in(105, 8).
in(105, 11).
in(105, 13).
in(105, 14).
in(105, 15).
in(105, 16).
in(105, 17).
in(105, 18).
in(105, 22).
in(105, 23).
in(105, 24).
in(105, 26).
in(105, 27).
in(105, 31).
in(105, 38).
in(105, 41).
in(105, 43).
in(105, 45).
in(105, 47).
in(105, 49).
in(105, 55).
in(105, 60).
in(105, 63).
in(105, 64).
in(105, 65).
in(105, 67).
in(105, 69).
in(105, 71).
in(105, 77).
in(105, 79).
in(105, 80).
in(105, 81).
in(105, 82).
in(105, 83).
in(105, 84).
in(105, 87).
in(105, 89).
in(105, 91).
in(105, 96).
in(105, 98).
in(105, 99).
in(105, 101).
in(105, 102).
in(105, 104).
in(105, 105).
in(105, 106).
in(105, 108).
in(106, 3).
in(106, 5).
in(106, 8).
in(106, 9).
in(106, 10).
in(106, 11).
in(106, 13).
in(106, 18).
in(106, 21).
in(106, 23).
in(106, 24).
in(106, 26).
in(106, 30).
in(106, 31).
in(106, 32).
in(106, 36).
in(106, 37).
in(106, 42).
in(106, 43).
in(106, 45).
in(106, 46).
in(106, 47).
in(106, 49).
in(106, 50).
in(106, 51).
in(106, 56).
in(106, 57).
in(106, 58).
in(106, 61).
in(106, 63).
in(106, 66).
in(106, 67).
in(106, 69).
in(106, 71).
in(106, 72).
in(106, 73).
in(106, 74).
in(106, 76).
in(106, 78).
in(106, 82).
in(106, 85).
in(106, 88).
in(106, 92).
in(106, 100).
in(106, 105).
in(106, 106).
in(106, 107).
in(106, 109).
in(107, 4).
in(107, 5).
in(107, 7).
in(107, 9).
in(107, 10).
in(107, 11).
in(107, 12).
in(107, 14).
in(107, 15).
in(107, 16).
in(107, 22).
in(107, 33).
in(107, 34).
in(107, 36).
in(107, 38).
in(107, 39).
in(107, 43).
in(107, 44).
in(107, 46).
in(107, 52).
in(107, 53).
in(107, 55).
in(107, 56).
in(107, 60).
in(107, 61).
in(107, 64).
in(107, 65).
in(107, 67).
in(107, 68).
in(107, 71).
in(107, 74).
in(107, 78).
in(107, 79).
in(107, 83).
in(107, 84).
in(107, 88).
in(107, 90).
in(107, 92).
in(107, 93).
in(107, 100).
in(107, 103).
in(107, 109).
in(108, 1).
in(108, 6).
in(108, 8).
in(108, 11).
in(108, 12).
in(108, 13).
in(108, 15).
in(108, 17).
in(108, 29).
in(108, 31).
in(108, 33).
in(108, 34).
in(108, 36).
in(108, 37).
in(108, 42).
in(108, 46).
in(108, 50).
in(108, 56).
in(108, 58).
in(108, 59).
in(108, 60).
in(108, 61).
in(108, 65).
in(108, 67).
in(108, 72).
in(108, 74).
in(108, 77).
in(108, 78).
in(108, 80).
in(108, 83).
in(108, 84).
in(108, 87).
in(108, 90).
in(108, 91).
in(108, 95).
in(108, 98).
in(108, 102).
in(108, 103).
in(109, 8).
in(109, 12).
in(109, 15).
in(109, 20).
in(109, 23).
in(109, 24).
in(109, 29).
in(109, 32).
in(109, 33).
in(109, 41).
in(109, 42).
in(109, 43).
in(109, 44).
in(109, 46).
in(109, 50).
in(109, 51).
in(109, 52).
in(109, 53).
in(109, 55).
in(109, 56).
in(109, 57).
in(109, 62).
in(109, 64).
in(109, 65).
in(109, 66).
in(109, 68).
in(109, 69).
in(109, 71).
in(109, 77).
in(109, 79).
in(109, 80).
in(109, 82).
in(109, 84).
in(109, 86).
in(109, 88).
in(109, 91).
in(109, 98).
in(109, 100).
in(109, 101).
in(109, 102).
in(109, 106).
in(109, 107).
in(109, 108).
in(110, 1).
in(110, 7).
in(110, 13).
in(110, 14).
in(110, 15).
in(110, 18).
in(110, 19).
in(110, 21).
in(110, 30).
in(110, 31).
in(110, 35).
in(110, 39).
in(110, 40).
in(110, 41).
in(110, 42).
in(110, 43).
in(110, 44).
in(110, 45).
in(110, 46).
in(110, 47).
in(110, 49).
in(110, 55).
in(110, 58).
in(110, 61).
in(110, 63).
in(110, 64).
in(110, 67).
in(110, 71).
in(110, 73).
in(110, 74).
in(110, 75).
in(110, 80).
in(110, 82).
in(110, 83).
in(110, 84).
in(110, 86).
in(110, 87).
in(110, 89).
in(110, 90).
in(110, 94).
in(110, 95).
in(110, 96).
in(110, 98).
in(110, 102).
in(110, 103).
in(110, 104).
in(111, 1).
in(111, 5).
in(111, 6).
in(111, 7).
in(111, 9).
in(111, 10).
in(111, 12).
in(111, 20).
in(111, 21).
in(111, 26).
in(111, 28).
in(111, 30).
in(111, 33).
in(111, 37).
in(111, 39).
in(111, 41).
in(111, 48).
in(111, 55).
in(111, 56).
in(111, 57).
in(111, 58).
in(111, 62).
in(111, 65).
in(111, 68).
in(111, 69).
in(111, 70).
in(111, 71).
in(111, 74).
in(111, 78).
in(111, 83).
in(111, 86).
in(111, 88).
in(111, 89).
in(111, 95).
in(111, 97).
in(111, 99).
in(111, 104).
in(111, 108).
in(112, 2).
in(112, 3).
in(112, 5).
in(112, 6).
in(112, 8).
in(112, 12).
in(112, 13).
in(112, 16).
in(112, 17).
in(112, 18).
in(112, 19).
in(112, 20).
in(112, 21).
in(112, 22).
in(112, 23).
in(112, 25).
in(112, 30).
in(112, 32).
in(112, 35).
in(112, 36).
in(112, 37).
in(112, 38).
in(112, 42).
in(112, 43).
in(112, 44).
in(112, 48).
in(112, 50).
in(112, 52).
in(112, 55).
in(112, 56).
in(112, 58).
in(112, 59).
in(112, 60).
in(112, 61).
in(112, 69).
in(112, 70).
in(112, 73).
in(112, 74).
in(112, 76).
in(112, 79).
in(112, 81).
in(112, 82).
in(112, 87).
in(112, 91).
in(112, 92).
in(112, 97).
in(112, 99).
in(112, 103).
in(112, 108).
in(113, 2).
in(113, 3).
in(113, 4).
in(113, 6).
in(113, 8).
in(113, 10).
in(113, 11).
in(113, 13).
in(113, 14).
in(113, 16).
in(113, 18).
in(113, 19).
in(113, 21).
in(113, 22).
in(113, 23).
in(113, 24).
in(113, 25).
in(113, 27).
in(113, 29).
in(113, 32).
in(113, 33).
in(113, 34).
in(113, 36).
in(113, 37).
in(113, 38).
in(113, 40).
in(113, 41).
in(113, 42).
in(113, 43).
in(113, 44).
in(113, 46).
in(113, 47).
in(113, 49).
in(113, 51).
in(113, 52).
in(113, 53).
in(113, 54).
in(113, 55).
in(113, 57).
in(113, 58).
in(113, 67).
in(113, 68).
in(113, 69).
in(113, 71).
in(113, 72).
in(113, 74).
in(113, 76).
in(113, 81).
in(113, 82).
in(113, 85).
in(113, 86).
in(113, 90).
in(113, 93).
in(113, 97).
in(113, 98).
in(113, 102).
in(113, 106).
in(113, 108).
in(113, 109).
in(114, 2).
in(114, 5).
in(114, 12).
in(114, 13).
in(114, 14).
in(114, 16).
in(114, 19).
in(114, 22).
in(114, 24).
in(114, 29).
in(114, 30).
in(114, 33).
in(114, 39).
in(114, 40).
in(114, 42).
in(114, 44).
in(114, 50).
in(114, 54).
in(114, 57).
in(114, 58).
in(114, 59).
in(114, 63).
in(114, 64).
in(114, 67).
in(114, 74).
in(114, 75).
in(114, 77).
in(114, 82).
in(114, 85).
in(114, 86).
in(114, 87).
in(114, 89).
in(114, 90).
in(114, 91).
in(114, 92).
in(114, 94).
in(114, 98).
in(114, 101).
in(114, 102).
in(114, 104).
in(114, 109).
in(115, 4).
in(115, 6).
in(115, 8).
in(115, 11).
in(115, 12).
in(115, 14).
in(115, 15).
in(115, 16).
in(115, 18).
in(115, 20).
in(115, 22).
in(115, 24).
in(115, 27).
in(115, 32).
in(115, 33).
in(115, 35).
in(115, 39).
in(115, 40).
in(115, 42).
in(115, 45).
in(115, 49).
in(115, 52).
in(115, 54).
in(115, 55).
in(115, 56).
in(115, 57).
in(115, 58).
in(115, 59).
in(115, 60).
in(115, 61).
in(115, 63).
in(115, 64).
in(115, 70).
in(115, 72).
in(115, 75).
in(115, 81).
in(115, 84).
in(115, 85).
in(115, 88).
in(115, 89).
in(115, 90).
in(115, 95).
in(115, 97).
in(115, 99).
in(115, 101).
in(115, 106).
in(115, 107).
in(115, 108).
in(116, 4).
in(116, 5).
in(116, 11).
in(116, 12).
in(116, 13).
in(116, 14).
in(116, 15).
in(116, 18).
in(116, 19).
in(116, 20).
in(116, 33).
in(116, 34).
in(116, 36).
in(116, 38).
in(116, 39).
in(116, 43).
in(116, 46).
in(116, 48).
in(116, 49).
in(116, 51).
in(116, 52).
in(116, 53).
in(116, 54).
in(116, 55).
in(116, 59).
in(116, 62).
in(116, 63).
in(116, 64).
in(116, 67).
in(116, 68).
in(116, 70).
in(116, 71).
in(116, 73).
in(116, 75).
in(116, 77).
in(116, 91).
in(116, 95).
in(116, 97).
in(116, 99).
in(116, 100).
in(116, 101).
in(116, 103).
in(116, 104).
in(116, 107).
in(116, 108).
in(116, 109).
in(117, 3).
in(117, 6).
in(117, 9).
in(117, 13).
in(117, 14).
in(117, 15).
in(117, 16).
in(117, 17).
in(117, 18).
in(117, 21).
in(117, 23).
in(117, 25).
in(117, 26).
in(117, 28).
in(117, 30).
in(117, 31).
in(117, 34).
in(117, 35).
in(117, 36).
in(117, 38).
in(117, 40).
in(117, 42).
in(117, 43).
in(117, 45).
in(117, 47).
in(117, 49).
in(117, 51).
in(117, 53).
in(117, 61).
in(117, 65).
in(117, 66).
in(117, 69).
in(117, 70).
in(117, 72).
in(117, 76).
in(117, 79).
in(117, 82).
in(117, 83).
in(117, 84).
in(117, 86).
in(117, 87).
in(117, 89).
in(117, 90).
in(117, 92).
in(117, 93).
in(117, 95).
in(117, 96).
in(117, 101).
in(117, 106).
in(117, 109).
in(118, 3).
in(118, 6).
in(118, 7).
in(118, 8).
in(118, 11).
in(118, 13).
in(118, 14).
in(118, 16).
in(118, 19).
in(118, 20).
in(118, 23).
in(118, 26).
in(118, 28).
in(118, 29).
in(118, 32).
in(118, 36).
in(118, 37).
in(118, 38).
in(118, 42).
in(118, 43).
in(118, 45).
in(118, 48).
in(118, 50).
in(118, 52).
in(118, 53).
in(118, 54).
in(118, 56).
in(118, 61).
in(118, 62).
in(118, 64).
in(118, 65).
in(118, 66).
in(118, 67).
in(118, 68).
in(118, 69).
in(118, 72).
in(118, 78).
in(118, 80).
in(118, 86).
in(118, 88).
in(118, 90).
in(118, 95).
in(118, 96).
in(118, 99).
in(118, 102).
in(118, 105).
in(118, 106).
in(118, 108).
in(119, 2).
in(119, 4).
in(119, 5).
in(119, 7).
in(119, 11).
in(119, 12).
in(119, 17).
in(119, 18).
in(119, 20).
in(119, 21).
in(119, 24).
in(119, 25).
in(119, 27).
in(119, 28).
in(119, 30).
in(119, 31).
in(119, 32).
in(119, 35).
in(119, 36).
in(119, 38).
in(119, 39).
in(119, 42).
in(119, 43).
in(119, 44).
in(119, 45).
in(119, 46).
in(119, 50).
in(119, 55).
in(119, 59).
in(119, 60).
in(119, 62).
in(119, 63).
in(119, 66).
in(119, 67).
in(119, 68).
in(119, 69).
in(119, 70).
in(119, 71).
in(119, 72).
in(119, 73).
in(119, 74).
in(119, 76).
in(119, 77).
in(119, 78).
in(119, 83).
in(119, 85).
in(119, 88).
in(119, 89).
in(119, 93).
in(119, 96).
in(119, 105).
in(120, 1).
in(120, 6).
in(120, 11).
in(120, 13).
in(120, 17).
in(120, 19).
in(120, 20).
in(120, 23).
in(120, 27).
in(120, 28).
in(120, 31).
in(120, 34).
in(120, 36).
in(120, 37).
in(120, 38).
in(120, 39).
in(120, 42).
in(120, 43).
in(120, 45).
in(120, 46).
in(120, 47).
in(120, 51).
in(120, 52).
in(120, 53).
in(120, 54).
in(120, 59).
in(120, 60).
in(120, 76).
in(120, 80).
in(120, 83).
in(120, 85).
in(120, 89).
in(120, 91).
in(120, 93).
in(120, 95).
in(120, 103).
in(120, 105).
in(120, 107).
in(121, 2).
in(121, 3).
in(121, 4).
in(121, 8).
in(121, 9).
in(121, 10).
in(121, 11).
in(121, 12).
in(121, 13).
in(121, 17).
in(121, 18).
in(121, 19).
in(121, 20).
in(121, 21).
in(121, 31).
in(121, 36).
in(121, 37).
in(121, 41).
in(121, 44).
in(121, 46).
in(121, 48).
in(121, 55).
in(121, 56).
in(121, 59).
in(121, 60).
in(121, 64).
in(121, 65).
in(121, 66).
in(121, 71).
in(121, 77).
in(121, 81).
in(121, 83).
in(121, 87).
in(121, 90).
in(121, 96).
in(121, 99).
in(121, 104).
in(121, 105).
in(121, 107).
in(122, 3).
in(122, 4).
in(122, 5).
in(122, 8).
in(122, 11).
in(122, 12).
in(122, 13).
in(122, 15).
in(122, 17).
in(122, 19).
in(122, 21).
in(122, 23).
in(122, 25).
in(122, 28).
in(122, 29).
in(122, 31).
in(122, 33).
in(122, 35).
in(122, 36).
in(122, 38).
in(122, 39).
in(122, 40).
in(122, 41).
in(122, 42).
in(122, 43).
in(122, 44).
in(122, 48).
in(122, 51).
in(122, 52).
in(122, 54).
in(122, 56).
in(122, 57).
in(122, 59).
in(122, 62).
in(122, 68).
in(122, 69).
in(122, 73).
in(122, 75).
in(122, 78).
in(122, 79).
in(122, 80).
in(122, 81).
in(122, 82).
in(122, 84).
in(122, 89).
in(122, 95).
in(122, 97).
in(122, 99).
in(122, 101).
in(122, 103).
in(122, 104).
in(123, 1).
in(123, 2).
in(123, 3).
in(123, 4).
in(123, 6).
in(123, 8).
in(123, 9).
in(123, 10).
in(123, 11).
in(123, 13).
in(123, 14).
in(123, 15).
in(123, 16).
in(123, 18).
in(123, 19).
in(123, 20).
in(123, 21).
in(123, 24).
in(123, 26).
in(123, 28).
in(123, 34).
in(123, 38).
in(123, 39).
in(123, 40).
in(123, 42).
in(123, 44).
in(123, 47).
in(123, 48).
in(123, 50).
in(123, 51).
in(123, 52).
in(123, 53).
in(123, 60).
in(123, 61).
in(123, 62).
in(123, 63).
in(123, 77).
in(123, 82).
in(123, 86).
in(123, 87).
in(123, 88).
in(123, 90).
in(123, 91).
in(123, 93).
in(123, 100).
in(123, 103).
in(123, 106).
in(123, 109).
in(124, 1).
in(124, 3).
in(124, 4).
in(124, 14).
in(124, 18).
in(124, 19).
in(124, 20).
in(124, 22).
in(124, 23).
in(124, 25).
in(124, 26).
in(124, 27).
in(124, 28).
in(124, 29).
in(124, 31).
in(124, 34).
in(124, 37).
in(124, 43).
in(124, 45).
in(124, 47).
in(124, 50).
in(124, 52).
in(124, 54).
in(124, 56).
in(124, 61).
in(124, 62).
in(124, 66).
in(124, 67).
in(124, 68).
in(124, 69).
in(124, 70).
in(124, 74).
in(124, 76).
in(124, 77).
in(124, 78).
in(124, 79).
in(124, 80).
in(124, 81).
in(124, 82).
in(124, 83).
in(124, 85).
in(124, 90).
in(124, 93).
in(124, 94).
in(124, 97).
in(124, 98).
in(124, 104).
in(124, 105).
in(124, 107).
in(124, 108).
in(124, 109).
in(125, 4).
in(125, 6).
in(125, 7).
in(125, 14).
in(125, 16).
in(125, 17).
in(125, 18).
in(125, 26).
in(125, 32).
in(125, 34).
in(125, 39).
in(125, 40).
in(125, 42).
in(125, 43).
in(125, 48).
in(125, 52).
in(125, 53).
in(125, 54).
in(125, 55).
in(125, 58).
in(125, 69).
in(125, 70).
in(125, 73).
in(125, 75).
in(125, 76).
in(125, 77).
in(125, 78).
in(125, 81).
in(125, 83).
in(125, 84).
in(125, 87).
in(125, 88).
in(125, 90).
in(125, 91).
in(125, 92).
in(125, 93).
in(125, 95).
in(125, 97).
in(125, 98).
in(125, 101).
in(125, 103).
in(125, 105).
in(125, 108).
in(126, 4).
in(126, 6).
in(126, 8).
in(126, 9).
in(126, 13).
in(126, 14).
in(126, 18).
in(126, 20).
in(126, 21).
in(126, 23).
in(126, 28).
in(126, 30).
in(126, 32).
in(126, 35).
in(126, 41).
in(126, 44).
in(126, 46).
in(126, 48).
in(126, 50).
in(126, 51).
in(126, 53).
in(126, 55).
in(126, 57).
in(126, 59).
in(126, 72).
in(126, 73).
in(126, 77).
in(126, 81).
in(126, 86).
in(126, 87).
in(126, 89).
in(126, 93).
in(126, 95).
in(126, 104).
in(126, 109).
in(127, 1).
in(127, 2).
in(127, 3).
in(127, 6).
in(127, 15).
in(127, 16).
in(127, 17).
in(127, 20).
in(127, 21).
in(127, 22).
in(127, 24).
in(127, 27).
in(127, 28).
in(127, 30).
in(127, 33).
in(127, 34).
in(127, 35).
in(127, 38).
in(127, 40).
in(127, 42).
in(127, 43).
in(127, 45).
in(127, 51).
in(127, 52).
in(127, 60).
in(127, 62).
in(127, 63).
in(127, 64).
in(127, 69).
in(127, 72).
in(127, 76).
in(127, 80).
in(127, 81).
in(127, 84).
in(127, 85).
in(127, 89).
in(127, 92).
in(127, 93).
in(127, 96).
in(127, 97).
in(127, 98).
in(127, 102).
in(127, 105).
in(127, 107).
in(128, 5).
in(128, 7).
in(128, 9).
in(128, 12).
in(128, 17).
in(128, 21).
in(128, 23).
in(128, 24).
in(128, 26).
in(128, 27).
in(128, 28).
in(128, 29).
in(128, 33).
in(128, 35).
in(128, 36).
in(128, 39).
in(128, 42).
in(128, 45).
in(128, 46).
in(128, 47).
in(128, 50).
in(128, 51).
in(128, 53).
in(128, 55).
in(128, 56).
in(128, 58).
in(128, 62).
in(128, 65).
in(128, 67).
in(128, 68).
in(128, 72).
in(128, 74).
in(128, 76).
in(128, 77).
in(128, 78).
in(128, 80).
in(128, 81).
in(128, 82).
in(128, 83).
in(128, 84).
in(128, 85).
in(128, 86).
in(128, 87).
in(128, 88).
in(128, 90).
in(128, 95).
in(128, 103).
in(128, 104).
in(128, 105).
in(128, 106).
in(129, 2).
in(129, 4).
in(129, 6).
in(129, 7).
in(129, 9).
in(129, 11).
in(129, 14).
in(129, 19).
in(129, 25).
in(129, 27).
in(129, 28).
in(129, 30).
in(129, 32).
in(129, 36).
in(129, 37).
in(129, 38).
in(129, 39).
in(129, 41).
in(129, 42).
in(129, 45).
in(129, 49).
in(129, 51).
in(129, 54).
in(129, 55).
in(129, 56).
in(129, 57).
in(129, 61).
in(129, 65).
in(129, 66).
in(129, 67).
in(129, 72).
in(129, 73).
in(129, 74).
in(129, 76).
in(129, 78).
in(129, 79).
in(129, 80).
in(129, 84).
in(129, 86).
in(129, 87).
in(129, 88).
in(129, 89).
in(129, 94).
in(129, 96).
in(129, 98).
in(129, 100).
in(129, 101).
in(129, 104).
in(129, 106).
in(129, 108).
in(129, 109).
in(130, 2).
in(130, 3).
in(130, 9).
in(130, 10).
in(130, 11).
in(130, 13).
in(130, 14).
in(130, 19).
in(130, 20).
in(130, 24).
in(130, 26).
in(130, 27).
in(130, 31).
in(130, 35).
in(130, 39).
in(130, 42).
in(130, 45).
in(130, 46).
in(130, 47).
in(130, 48).
in(130, 49).
in(130, 51).
in(130, 52).
in(130, 55).
in(130, 56).
in(130, 58).
in(130, 59).
in(130, 60).
in(130, 61).
in(130, 63).
in(130, 64).
in(130, 65).
in(130, 66).
in(130, 67).
in(130, 68).
in(130, 70).
in(130, 71).
in(130, 72).
in(130, 73).
in(130, 74).
in(130, 78).
in(130, 81).
in(130, 85).
in(130, 86).
in(130, 87).
in(130, 89).
in(130, 90).
in(130, 92).
in(130, 96).
in(130, 97).
in(130, 100).
in(130, 102).
in(130, 105).
in(130, 106).
in(130, 107).
in(130, 109).
in(131, 1).
in(131, 2).
in(131, 15).
in(131, 17).
in(131, 18).
in(131, 28).
in(131, 32).
in(131, 33).
in(131, 35).
in(131, 36).
in(131, 38).
in(131, 39).
in(131, 42).
in(131, 43).
in(131, 45).
in(131, 47).
in(131, 48).
in(131, 52).
in(131, 63).
in(131, 64).
in(131, 66).
in(131, 68).
in(131, 72).
in(131, 74).
in(131, 77).
in(131, 83).
in(131, 84).
in(131, 89).
in(131, 90).
in(131, 95).
in(131, 96).
in(131, 98).
in(131, 100).
in(131, 103).
in(132, 1).
in(132, 2).
in(132, 3).
in(132, 4).
in(132, 5).
in(132, 6).
in(132, 12).
in(132, 16).
in(132, 17).
in(132, 18).
in(132, 20).
in(132, 21).
in(132, 25).
in(132, 27).
in(132, 28).
in(132, 31).
in(132, 33).
in(132, 34).
in(132, 37).
in(132, 38).
in(132, 41).
in(132, 43).
in(132, 47).
in(132, 48).
in(132, 49).
in(132, 52).
in(132, 54).
in(132, 55).
in(132, 56).
in(132, 58).
in(132, 60).
in(132, 61).
in(132, 64).
in(132, 69).
in(132, 73).
in(132, 75).
in(132, 76).
in(132, 77).
in(132, 83).
in(132, 90).
in(132, 91).
in(132, 98).
in(132, 108).
in(133, 1).
in(133, 5).
in(133, 8).
in(133, 9).
in(133, 11).
in(133, 12).
in(133, 13).
in(133, 14).
in(133, 20).
in(133, 24).
in(133, 27).
in(133, 31).
in(133, 32).
in(133, 33).
in(133, 34).
in(133, 38).
in(133, 44).
in(133, 48).
in(133, 49).
in(133, 51).
in(133, 56).
in(133, 57).
in(133, 58).
in(133, 59).
in(133, 60).
in(133, 61).
in(133, 62).
in(133, 63).
in(133, 64).
in(133, 66).
in(133, 67).
in(133, 68).
in(133, 69).
in(133, 74).
in(133, 75).
in(133, 77).
in(133, 78).
in(133, 79).
in(133, 80).
in(133, 82).
in(133, 89).
in(133, 90).
in(133, 91).
in(133, 97).
in(133, 98).
in(133, 103).
in(133, 104).
in(133, 106).
in(133, 107).
in(133, 108).
in(133, 109).
in(134, 10).
in(134, 11).
in(134, 12).
in(134, 15).
in(134, 16).
in(134, 17).
in(134, 20).
in(134, 22).
in(134, 24).
in(134, 26).
in(134, 27).
in(134, 30).
in(134, 31).
in(134, 34).
in(134, 36).
in(134, 39).
in(134, 43).
in(134, 47).
in(134, 48).
in(134, 49).
in(134, 50).
in(134, 52).
in(134, 53).
in(134, 55).
in(134, 56).
in(134, 60).
in(134, 63).
in(134, 64).
in(134, 67).
in(134, 69).
in(134, 76).
in(134, 79).
in(134, 81).
in(134, 83).
in(134, 86).
in(134, 87).
in(134, 88).
in(134, 90).
in(134, 91).
in(134, 92).
in(134, 93).
in(134, 94).
in(134, 96).
in(134, 98).
in(134, 99).
in(134, 100).
in(134, 102).
in(134, 103).
in(134, 104).
in(134, 106).
in(134, 107).
in(135, 3).
in(135, 4).
in(135, 7).
in(135, 10).
in(135, 12).
in(135, 14).
in(135, 16).
in(135, 18).
in(135, 19).
in(135, 20).
in(135, 23).
in(135, 27).
in(135, 29).
in(135, 34).
in(135, 37).
in(135, 38).
in(135, 40).
in(135, 42).
in(135, 43).
in(135, 44).
in(135, 46).
in(135, 50).
in(135, 51).
in(135, 54).
in(135, 56).
in(135, 57).
in(135, 60).
in(135, 61).
in(135, 62).
in(135, 65).
in(135, 66).
in(135, 70).
in(135, 71).
in(135, 72).
in(135, 73).
in(135, 74).
in(135, 76).
in(135, 79).
in(135, 81).
in(135, 83).
in(135, 85).
in(135, 88).
in(135, 89).
in(135, 91).
in(135, 93).
in(135, 94).
in(135, 96).
in(135, 97).
in(135, 99).
in(135, 102).
in(135, 103).
in(135, 105).
in(135, 108).
in(136, 3).
in(136, 4).
in(136, 5).
in(136, 8).
in(136, 9).
in(136, 10).
in(136, 19).
in(136, 22).
in(136, 24).
in(136, 25).
in(136, 31).
in(136, 32).
in(136, 34).
in(136, 37).
in(136, 38).
in(136, 42).
in(136, 43).
in(136, 44).
in(136, 46).
in(136, 47).
in(136, 49).
in(136, 50).
in(136, 53).
in(136, 56).
in(136, 57).
in(136, 58).
in(136, 59).
in(136, 61).
in(136, 63).
in(136, 65).
in(136, 66).
in(136, 67).
in(136, 68).
in(136, 71).
in(136, 73).
in(136, 76).
in(136, 78).
in(136, 80).
in(136, 82).
in(136, 83).
in(136, 86).
in(136, 87).
in(136, 88).
in(136, 90).
in(136, 91).
in(136, 99).
in(136, 100).
in(136, 103).
in(136, 105).
in(136, 106).
in(136, 108).
in(137, 4).
in(137, 5).
in(137, 6).
in(137, 7).
in(137, 8).
in(137, 10).
in(137, 13).
in(137, 14).
in(137, 15).
in(137, 22).
in(137, 23).
in(137, 29).
in(137, 31).
in(137, 33).
in(137, 34).
in(137, 35).
in(137, 37).
in(137, 38).
in(137, 41).
in(137, 43).
in(137, 46).
in(137, 47).
in(137, 52).
in(137, 53).
in(137, 57).
in(137, 58).
in(137, 63).
in(137, 67).
in(137, 69).
in(137, 70).
in(137, 71).
in(137, 73).
in(137, 77).
in(137, 78).
in(137, 79).
in(137, 80).
in(137, 81).
in(137, 84).
in(137, 85).
in(137, 87).
in(137, 95).
in(137, 96).
in(137, 102).
in(137, 108).
in(137, 109).
in(138, 2).
in(138, 4).
in(138, 5).
in(138, 6).
in(138, 7).
in(138, 9).
in(138, 15).
in(138, 17).
in(138, 20).
in(138, 21).
in(138, 23).
in(138, 25).
in(138, 26).
in(138, 32).
in(138, 35).
in(138, 41).
in(138, 50).
in(138, 52).
in(138, 53).
in(138, 56).
in(138, 58).
in(138, 61).
in(138, 63).
in(138, 65).
in(138, 67).
in(138, 71).
in(138, 72).
in(138, 76).
in(138, 78).
in(138, 81).
in(138, 83).
in(138, 86).
in(138, 88).
in(138, 91).
in(138, 97).
in(138, 98).
in(138, 101).
in(138, 103).
in(138, 106).
in(138, 107).
in(138, 108).
in(139, 1).
in(139, 9).
in(139, 17).
in(139, 19).
in(139, 22).
in(139, 24).
in(139, 26).
in(139, 29).
in(139, 30).
in(139, 31).
in(139, 34).
in(139, 35).
in(139, 36).
in(139, 37).
in(139, 39).
in(139, 41).
in(139, 46).
in(139, 48).
in(139, 51).
in(139, 61).
in(139, 62).
in(139, 64).
in(139, 66).
in(139, 67).
in(139, 69).
in(139, 71).
in(139, 72).
in(139, 74).
in(139, 76).
in(139, 84).
in(139, 85).
in(139, 91).
in(139, 93).
in(139, 94).
in(139, 96).
in(139, 97).
in(139, 103).
in(139, 104).
in(139, 105).
in(139, 108).
in(139, 109).
in(140, 8).
in(140, 9).
in(140, 10).
in(140, 14).
in(140, 15).
in(140, 17).
in(140, 18).
in(140, 21).
in(140, 22).
in(140, 24).
in(140, 26).
in(140, 29).
in(140, 30).
in(140, 31).
in(140, 32).
in(140, 33).
in(140, 34).
in(140, 35).
in(140, 36).
in(140, 37).
in(140, 38).
in(140, 42).
in(140, 44).
in(140, 46).
in(140, 47).
in(140, 49).
in(140, 54).
in(140, 56).
in(140, 60).
in(140, 66).
in(140, 69).
in(140, 71).
in(140, 73).
in(140, 75).
in(140, 77).
in(140, 79).
in(140, 80).
in(140, 81).
in(140, 82).
in(140, 83).
in(140, 84).
in(140, 85).
in(140, 86).
in(140, 88).
in(140, 93).
in(140, 97).
in(140, 101).
in(140, 104).
in(140, 106).
in(140, 109).
in(141, 1).
in(141, 6).
in(141, 12).
in(141, 14).
in(141, 15).
in(141, 16).
in(141, 17).
in(141, 18).
in(141, 19).
in(141, 20).
in(141, 21).
in(141, 22).
in(141, 24).
in(141, 25).
in(141, 27).
in(141, 30).
in(141, 31).
in(141, 33).
in(141, 34).
in(141, 37).
in(141, 40).
in(141, 44).
in(141, 47).
in(141, 49).
in(141, 53).
in(141, 55).
in(141, 56).
in(141, 57).
in(141, 58).
in(141, 59).
in(141, 60).
in(141, 63).
in(141, 64).
in(141, 73).
in(141, 77).
in(141, 78).
in(141, 81).
in(141, 83).
in(141, 84).
in(141, 86).
in(141, 88).
in(141, 94).
in(141, 95).
in(141, 98).
in(141, 99).
in(141, 100).
in(141, 102).
in(141, 104).
in(141, 106).
in(141, 108).
in(141, 109).
in(142, 1).
in(142, 3).
in(142, 4).
in(142, 5).
in(142, 8).
in(142, 13).
in(142, 14).
in(142, 15).
in(142, 18).
in(142, 21).
in(142, 22).
in(142, 23).
in(142, 37).
in(142, 38).
in(142, 39).
in(142, 40).
in(142, 44).
in(142, 45).
in(142, 46).
in(142, 51).
in(142, 52).
in(142, 53).
in(142, 57).
in(142, 58).
in(142, 59).
in(142, 60).
in(142, 61).
in(142, 62).
in(142, 65).
in(142, 66).
in(142, 69).
in(142, 70).
in(142, 71).
in(142, 74).
in(142, 75).
in(142, 80).
in(142, 82).
in(142, 87).
in(142, 88).
in(142, 90).
in(142, 93).
in(142, 95).
in(142, 96).
in(142, 97).
in(142, 98).
in(142, 101).
in(142, 102).
in(142, 104).
in(142, 107).
in(142, 109).
in(143, 3).
in(143, 5).
in(143, 8).
in(143, 9).
in(143, 13).
in(143, 15).
in(143, 16).
in(143, 19).
in(143, 23).
in(143, 24).
in(143, 28).
in(143, 29).
in(143, 32).
in(143, 33).
in(143, 34).
in(143, 35).
in(143, 36).
in(143, 42).
in(143, 44).
in(143, 45).
in(143, 46).
in(143, 49).
in(143, 50).
in(143, 52).
in(143, 53).
in(143, 54).
in(143, 55).
in(143, 56).
in(143, 57).
in(143, 63).
in(143, 64).
in(143, 69).
in(143, 70).
in(143, 71).
in(143, 75).
in(143, 78).
in(143, 87).
in(143, 88).
in(143, 89).
in(143, 91).
in(143, 94).
in(143, 98).
in(143, 99).
in(143, 102).
in(143, 103).
in(143, 106).
in(143, 108).
in(143, 109).
in(144, 2).
in(144, 5).
in(144, 11).
in(144, 12).
in(144, 13).
in(144, 18).
in(144, 20).
in(144, 22).
in(144, 24).
in(144, 27).
in(144, 29).
in(144, 32).
in(144, 39).
in(144, 43).
in(144, 49).
in(144, 50).
in(144, 55).
in(144, 59).
in(144, 60).
in(144, 61).
in(144, 62).
in(144, 63).
in(144, 66).
in(144, 67).
in(144, 69).
in(144, 72).
in(144, 73).
in(144, 74).
in(144, 75).
in(144, 76).
in(144, 80).
in(144, 81).
in(144, 87).
in(144, 91).
in(144, 92).
in(144, 93).
in(144, 95).
in(144, 103).
in(144, 108).
in(145, 2).
in(145, 3).
in(145, 7).
in(145, 8).
in(145, 9).
in(145, 10).
in(145, 12).
in(145, 15).
in(145, 17).
in(145, 23).
in(145, 25).
in(145, 27).
in(145, 28).
in(145, 31).
in(145, 33).
in(145, 35).
in(145, 36).
in(145, 38).
in(145, 40).
in(145, 45).
in(145, 48).
in(145, 50).
in(145, 52).
in(145, 54).
in(145, 57).
in(145, 60).
in(145, 61).
in(145, 62).
in(145, 64).
in(145, 66).
in(145, 67).
in(145, 72).
in(145, 73).
in(145, 76).
in(145, 77).
in(145, 78).
in(145, 83).
in(145, 87).
in(145, 88).
in(145, 89).
in(145, 92).
in(145, 93).
in(145, 98).
in(145, 100).
in(145, 102).
in(145, 105).
in(145, 106).
in(145, 108).
in(146, 1).
in(146, 3).
in(146, 6).
in(146, 10).
in(146, 11).
in(146, 14).
in(146, 19).
in(146, 27).
in(146, 30).
in(146, 33).
in(146, 34).
in(146, 35).
in(146, 37).
in(146, 38).
in(146, 39).
in(146, 44).
in(146, 47).
in(146, 49).
in(146, 50).
in(146, 51).
in(146, 54).
in(146, 58).
in(146, 62).
in(146, 63).
in(146, 65).
in(146, 67).
in(146, 68).
in(146, 69).
in(146, 70).
in(146, 72).
in(146, 78).
in(146, 80).
in(146, 81).
in(146, 82).
in(146, 83).
in(146, 84).
in(146, 86).
in(146, 87).
in(146, 88).
in(146, 89).
in(146, 91).
in(146, 94).
in(146, 95).
in(146, 96).
in(146, 97).
in(146, 101).
in(146, 103).
in(146, 105).
in(146, 106).
in(146, 107).
in(147, 1).
in(147, 2).
in(147, 4).
in(147, 5).
in(147, 7).
in(147, 8).
in(147, 11).
in(147, 19).
in(147, 20).
in(147, 21).
in(147, 25).
in(147, 27).
in(147, 29).
in(147, 30).
in(147, 32).
in(147, 34).
in(147, 38).
in(147, 40).
in(147, 45).
in(147, 46).
in(147, 47).
in(147, 55).
in(147, 58).
in(147, 63).
in(147, 65).
in(147, 66).
in(147, 69).
in(147, 73).
in(147, 76).
in(147, 79).
in(147, 81).
in(147, 82).
in(147, 85).
in(147, 86).
in(147, 90).
in(147, 94).
in(147, 95).
in(147, 96).
in(147, 97).
in(147, 98).
in(147, 100).
in(147, 101).
in(147, 105).
in(147, 106).
in(147, 107).
in(147, 108).
in(147, 109).
in(148, 1).
in(148, 4).
in(148, 5).
in(148, 7).
in(148, 8).
in(148, 9).
in(148, 10).
in(148, 12).
in(148, 13).
in(148, 14).
in(148, 16).
in(148, 17).
in(148, 23).
in(148, 24).
in(148, 27).
in(148, 30).
in(148, 31).
in(148, 32).
in(148, 34).
in(148, 36).
in(148, 41).
in(148, 43).
in(148, 44).
in(148, 45).
in(148, 46).
in(148, 50).
in(148, 54).
in(148, 55).
in(148, 57).
in(148, 61).
in(148, 63).
in(148, 64).
in(148, 65).
in(148, 67).
in(148, 70).
in(148, 73).
in(148, 82).
in(148, 85).
in(148, 91).
in(148, 95).
in(148, 97).
in(148, 103).
in(148, 106).
in(148, 107).
in(148, 108).
in(148, 109).
in(149, 4).
in(149, 10).
in(149, 22).
in(149, 24).
in(149, 25).
in(149, 26).
in(149, 28).
in(149, 29).
in(149, 31).
in(149, 32).
in(149, 33).
in(149, 40).
in(149, 43).
in(149, 44).
in(149, 48).
in(149, 52).
in(149, 53).
in(149, 56).
in(149, 59).
in(149, 63).
in(149, 64).
in(149, 68).
in(149, 71).
in(149, 74).
in(149, 79).
in(149, 83).
in(149, 84).
in(149, 86).
in(149, 87).
in(149, 91).
in(149, 92).
in(149, 94).
in(149, 95).
in(149, 102).
in(149, 103).
in(149, 105).
in(149, 108).
in(150, 2).
in(150, 16).
in(150, 17).
in(150, 19).
in(150, 24).
in(150, 29).
in(150, 30).
in(150, 36).
in(150, 38).
in(150, 39).
in(150, 43).
in(150, 48).
in(150, 51).
in(150, 54).
in(150, 62).
in(150, 64).
in(150, 66).
in(150, 71).
in(150, 72).
in(150, 75).
in(150, 76).
in(150, 77).
in(150, 79).
in(150, 82).
in(150, 85).
in(150, 90).
in(150, 93).
in(150, 94).
in(150, 95).
in(150, 100).
in(150, 101).
in(150, 105).
in(150, 107).
in(150, 109).
in(151, 2).
in(151, 3).
in(151, 5).
in(151, 8).
in(151, 16).
in(151, 17).
in(151, 19).
in(151, 20).
in(151, 22).
in(151, 23).
in(151, 29).
in(151, 34).
in(151, 35).
in(151, 41).
in(151, 42).
in(151, 43).
in(151, 47).
in(151, 48).
in(151, 49).
in(151, 51).
in(151, 54).
in(151, 56).
in(151, 57).
in(151, 59).
in(151, 60).
in(151, 63).
in(151, 66).
in(151, 67).
in(151, 70).
in(151, 73).
in(151, 75).
in(151, 76).
in(151, 78).
in(151, 79).
in(151, 82).
in(151, 83).
in(151, 85).
in(151, 86).
in(151, 89).
in(151, 91).
in(151, 93).
in(151, 101).
in(151, 104).
in(151, 105).
in(151, 106).
in(151, 108).
in(152, 3).
in(152, 6).
in(152, 8).
in(152, 9).
in(152, 10).
in(152, 12).
in(152, 13).
in(152, 15).
in(152, 22).
in(152, 23).
in(152, 24).
in(152, 26).
in(152, 27).
in(152, 29).
in(152, 34).
in(152, 35).
in(152, 42).
in(152, 44).
in(152, 47).
in(152, 52).
in(152, 54).
in(152, 56).
in(152, 58).
in(152, 59).
in(152, 60).
in(152, 62).
in(152, 63).
in(152, 64).
in(152, 65).
in(152, 67).
in(152, 71).
in(152, 76).
in(152, 81).
in(152, 82).
in(152, 84).
in(152, 85).
in(152, 88).
in(152, 90).
in(152, 91).
in(152, 92).
in(152, 93).
in(152, 96).
in(152, 97).
in(152, 98).
in(152, 99).
in(152, 101).
in(152, 104).
in(152, 105).
in(153, 6).
in(153, 8).
in(153, 10).
in(153, 11).
in(153, 12).
in(153, 17).
in(153, 18).
in(153, 19).
in(153, 25).
in(153, 26).
in(153, 27).
in(153, 28).
in(153, 29).
in(153, 30).
in(153, 35).
in(153, 42).
in(153, 44).
in(153, 45).
in(153, 49).
in(153, 50).
in(153, 51).
in(153, 62).
in(153, 66).
in(153, 67).
in(153, 70).
in(153, 72).
in(153, 73).
in(153, 74).
in(153, 75).
in(153, 80).
in(153, 81).
in(153, 84).
in(153, 85).
in(153, 87).
in(153, 88).
in(153, 93).
in(153, 97).
in(153, 107).
in(153, 108).
in(153, 109).
in(154, 2).
in(154, 3).
in(154, 6).
in(154, 12).
in(154, 13).
in(154, 21).
in(154, 22).
in(154, 26).
in(154, 27).
in(154, 28).
in(154, 29).
in(154, 30).
in(154, 31).
in(154, 32).
in(154, 34).
in(154, 36).
in(154, 37).
in(154, 38).
in(154, 39).
in(154, 40).
in(154, 41).
in(154, 44).
in(154, 46).
in(154, 50).
in(154, 52).
in(154, 53).
in(154, 57).
in(154, 58).
in(154, 59).
in(154, 61).
in(154, 62).
in(154, 65).
in(154, 70).
in(154, 71).
in(154, 74).
in(154, 76).
in(154, 77).
in(154, 79).
in(154, 80).
in(154, 81).
in(154, 84).
in(154, 85).
in(154, 89).
in(154, 91).
in(154, 92).
in(154, 93).
in(154, 95).
in(154, 96).
in(154, 98).
in(154, 100).
in(154, 101).
in(154, 102).
in(154, 103).
in(154, 108).
in(154, 109).
in(155, 2).
in(155, 3).
in(155, 11).
in(155, 12).
in(155, 13).
in(155, 14).
in(155, 17).
in(155, 20).
in(155, 22).
in(155, 23).
in(155, 28).
in(155, 30).
in(155, 34).
in(155, 35).
in(155, 45).
in(155, 50).
in(155, 51).
in(155, 52).
in(155, 54).
in(155, 55).
in(155, 58).
in(155, 66).
in(155, 70).
in(155, 72).
in(155, 73).
in(155, 76).
in(155, 77).
in(155, 79).
in(155, 81).
in(155, 82).
in(155, 86).
in(155, 89).
in(155, 91).
in(155, 92).
in(155, 93).
in(155, 96).
in(155, 97).
in(155, 99).
in(155, 102).
in(155, 103).
in(155, 104).
in(155, 107).
in(156, 2).
in(156, 4).
in(156, 8).
in(156, 16).
in(156, 18).
in(156, 19).
in(156, 22).
in(156, 23).
in(156, 24).
in(156, 30).
in(156, 38).
in(156, 42).
in(156, 44).
in(156, 45).
in(156, 46).
in(156, 49).
in(156, 50).
in(156, 52).
in(156, 54).
in(156, 56).
in(156, 60).
in(156, 61).
in(156, 62).
in(156, 68).
in(156, 70).
in(156, 75).
in(156, 78).
in(156, 80).
in(156, 81).
in(156, 86).
in(156, 87).
in(156, 91).
in(156, 92).
in(156, 93).
in(156, 95).
in(156, 96).
in(156, 98).
in(156, 99).
in(156, 100).
in(156, 103).
in(156, 105).
in(156, 108).
in(157, 2).
in(157, 3).
in(157, 4).
in(157, 9).
in(157, 10).
in(157, 15).
in(157, 16).
in(157, 17).
in(157, 18).
in(157, 19).
in(157, 22).
in(157, 31).
in(157, 32).
in(157, 33).
in(157, 39).
in(157, 43).
in(157, 45).
in(157, 46).
in(157, 47).
in(157, 48).
in(157, 49).
in(157, 57).
in(157, 62).
in(157, 66).
in(157, 73).
in(157, 74).
in(157, 76).
in(157, 77).
in(157, 79).
in(157, 81).
in(157, 84).
in(157, 88).
in(157, 91).
in(157, 93).
in(157, 99).
in(157, 100).
in(157, 101).
in(157, 102).
in(157, 103).
in(157, 104).
in(157, 105).
in(157, 107).
in(157, 109).
in(158, 1).
in(158, 3).
in(158, 5).
in(158, 7).
in(158, 12).
in(158, 13).
in(158, 15).
in(158, 17).
in(158, 21).
in(158, 25).
in(158, 27).
in(158, 30).
in(158, 33).
in(158, 34).
in(158, 37).
in(158, 38).
in(158, 40).
in(158, 41).
in(158, 42).
in(158, 48).
in(158, 49).
in(158, 50).
in(158, 52).
in(158, 53).
in(158, 59).
in(158, 62).
in(158, 64).
in(158, 75).
in(158, 76).
in(158, 77).
in(158, 80).
in(158, 81).
in(158, 82).
in(158, 83).
in(158, 90).
in(158, 92).
in(158, 95).
in(158, 99).
in(158, 101).
in(158, 102).
in(158, 103).
in(158, 105).
in(158, 106).
in(158, 108).
in(159, 2).
in(159, 4).
in(159, 8).
in(159, 14).
in(159, 15).
in(159, 16).
in(159, 21).
in(159, 22).
in(159, 23).
in(159, 26).
in(159, 27).
in(159, 29).
in(159, 33).
in(159, 34).
in(159, 35).
in(159, 36).
in(159, 37).
in(159, 38).
in(159, 41).
in(159, 44).
in(159, 49).
in(159, 50).
in(159, 54).
in(159, 55).
in(159, 56).
in(159, 57).
in(159, 60).
in(159, 62).
in(159, 64).
in(159, 65).
in(159, 67).
in(159, 68).
in(159, 69).
in(159, 72).
in(159, 73).
in(159, 74).
in(159, 82).
in(159, 83).
in(159, 86).
in(159, 88).
in(159, 93).
in(159, 96).
in(159, 98).
in(159, 99).
in(159, 100).
in(159, 104).
in(159, 108).
in(159, 109).
in(160, 5).
in(160, 6).
in(160, 8).
in(160, 9).
in(160, 10).
in(160, 17).
in(160, 19).
in(160, 20).
in(160, 30).
in(160, 32).
in(160, 33).
in(160, 36).
in(160, 37).
in(160, 40).
in(160, 42).
in(160, 43).
in(160, 44).
in(160, 49).
in(160, 56).
in(160, 57).
in(160, 58).
in(160, 60).
in(160, 61).
in(160, 64).
in(160, 71).
in(160, 74).
in(160, 75).
in(160, 77).
in(160, 81).
in(160, 82).
in(160, 83).
in(160, 88).
in(160, 91).
in(160, 93).
in(160, 94).
in(160, 98).
in(160, 102).
in(160, 103).
in(160, 104).
in(160, 107).
in(160, 109).
in(161, 1).
in(161, 2).
in(161, 3).
in(161, 6).
in(161, 7).
in(161, 8).
in(161, 9).
in(161, 10).
in(161, 11).
in(161, 18).
in(161, 22).
in(161, 25).
in(161, 27).
in(161, 29).
in(161, 32).
in(161, 33).
in(161, 34).
in(161, 35).
in(161, 37).
in(161, 38).
in(161, 39).
in(161, 40).
in(161, 42).
in(161, 44).
in(161, 46).
in(161, 48).
in(161, 49).
in(161, 50).
in(161, 51).
in(161, 53).
in(161, 56).
in(161, 57).
in(161, 59).
in(161, 65).
in(161, 66).
in(161, 69).
in(161, 70).
in(161, 71).
in(161, 73).
in(161, 78).
in(161, 80).
in(161, 82).
in(161, 84).
in(161, 86).
in(161, 87).
in(161, 88).
in(161, 89).
in(161, 93).
in(161, 95).
in(161, 96).
in(161, 97).
in(161, 101).
in(161, 102).
in(161, 108).
in(162, 1).
in(162, 2).
in(162, 4).
in(162, 6).
in(162, 8).
in(162, 14).
in(162, 15).
in(162, 17).
in(162, 18).
in(162, 19).
in(162, 20).
in(162, 21).
in(162, 23).
in(162, 24).
in(162, 25).
in(162, 26).
in(162, 29).
in(162, 31).
in(162, 33).
in(162, 34).
in(162, 39).
in(162, 41).
in(162, 44).
in(162, 45).
in(162, 47).
in(162, 48).
in(162, 50).
in(162, 52).
in(162, 55).
in(162, 56).
in(162, 59).
in(162, 60).
in(162, 65).
in(162, 66).
in(162, 67).
in(162, 68).
in(162, 69).
in(162, 71).
in(162, 72).
in(162, 73).
in(162, 74).
in(162, 78).
in(162, 79).
in(162, 81).
in(162, 83).
in(162, 84).
in(162, 86).
in(162, 89).
in(162, 92).
in(162, 93).
in(162, 100).
in(162, 103).
in(162, 105).
in(162, 109).
in(163, 1).
in(163, 2).
in(163, 3).
in(163, 5).
in(163, 6).
in(163, 7).
in(163, 8).
in(163, 10).
in(163, 11).
in(163, 13).
in(163, 14).
in(163, 20).
in(163, 21).
in(163, 22).
in(163, 24).
in(163, 26).
in(163, 29).
in(163, 30).
in(163, 31).
in(163, 32).
in(163, 37).
in(163, 41).
in(163, 45).
in(163, 46).
in(163, 49).
in(163, 50).
in(163, 52).
in(163, 54).
in(163, 55).
in(163, 57).
in(163, 66).
in(163, 70).
in(163, 71).
in(163, 77).
in(163, 78).
in(163, 79).
in(163, 82).
in(163, 87).
in(163, 88).
in(163, 89).
in(163, 91).
in(163, 92).
in(163, 94).
in(163, 97).
in(163, 98).
in(163, 102).
in(163, 103).
in(163, 107).
in(164, 1).
in(164, 3).
in(164, 6).
in(164, 13).
in(164, 15).
in(164, 16).
in(164, 18).
in(164, 19).
in(164, 20).
in(164, 21).
in(164, 22).
in(164, 23).
in(164, 25).
in(164, 26).
in(164, 27).
in(164, 28).
in(164, 30).
in(164, 36).
in(164, 37).
in(164, 38).
in(164, 41).
in(164, 42).
in(164, 43).
in(164, 44).
in(164, 45).
in(164, 48).
in(164, 50).
in(164, 51).
in(164, 52).
in(164, 53).
in(164, 54).
in(164, 60).
in(164, 63).
in(164, 67).
in(164, 72).
in(164, 73).
in(164, 75).
in(164, 76).
in(164, 77).
in(164, 81).
in(164, 83).
in(164, 87).
in(164, 88).
in(164, 91).
in(164, 92).
in(164, 93).
in(164, 95).
in(164, 96).
in(164, 97).
in(164, 101).
in(164, 103).
in(164, 108).
in(165, 1).
in(165, 2).
in(165, 3).
in(165, 4).
in(165, 7).
in(165, 10).
in(165, 13).
in(165, 14).
in(165, 17).
in(165, 20).
in(165, 23).
in(165, 25).
in(165, 26).
in(165, 30).
in(165, 32).
in(165, 35).
in(165, 37).
in(165, 38).
in(165, 39).
in(165, 41).
in(165, 43).
in(165, 45).
in(165, 46).
in(165, 47).
in(165, 50).
in(165, 53).
in(165, 60).
in(165, 63).
in(165, 65).
in(165, 69).
in(165, 73).
in(165, 74).
in(165, 76).
in(165, 77).
in(165, 78).
in(165, 80).
in(165, 81).
in(165, 90).
in(165, 91).
in(165, 92).
in(165, 95).
in(165, 97).
in(165, 100).
in(165, 103).
in(165, 104).
in(165, 107).
in(166, 3).
in(166, 4).
in(166, 7).
in(166, 8).
in(166, 9).
in(166, 15).
in(166, 16).
in(166, 20).
in(166, 28).
in(166, 32).
in(166, 33).
in(166, 34).
in(166, 36).
in(166, 37).
in(166, 39).
in(166, 40).
in(166, 45).
in(166, 48).
in(166, 49).
in(166, 51).
in(166, 53).
in(166, 59).
in(166, 60).
in(166, 64).
in(166, 69).
in(166, 70).
in(166, 72).
in(166, 73).
in(166, 75).
in(166, 76).
in(166, 81).
in(166, 84).
in(166, 86).
in(166, 87).
in(166, 93).
in(166, 94).
in(166, 96).
in(166, 97).
in(166, 98).
in(166, 101).
in(166, 103).
in(166, 104).
in(166, 105).
in(166, 106).
in(166, 108).
in(166, 109).
in(167, 1).
in(167, 2).
in(167, 3).
in(167, 4).
in(167, 5).
in(167, 9).
in(167, 11).
in(167, 12).
in(167, 15).
in(167, 17).
in(167, 18).
in(167, 21).
in(167, 23).
in(167, 24).
in(167, 28).
in(167, 32).
in(167, 46).
in(167, 48).
in(167, 49).
in(167, 50).
in(167, 56).
in(167, 59).
in(167, 60).
in(167, 63).
in(167, 65).
in(167, 66).
in(167, 67).
in(167, 69).
in(167, 71).
in(167, 82).
in(167, 84).
in(167, 85).
in(167, 87).
in(167, 94).
in(167, 95).
in(167, 96).
in(167, 97).
in(167, 102).
in(167, 105).
in(167, 106).
in(168, 2).
in(168, 3).
in(168, 8).
in(168, 10).
in(168, 12).
in(168, 13).
in(168, 14).
in(168, 17).
in(168, 22).
in(168, 23).
in(168, 24).
in(168, 25).
in(168, 27).
in(168, 28).
in(168, 29).
in(168, 30).
in(168, 37).
in(168, 38).
in(168, 40).
in(168, 43).
in(168, 45).
in(168, 46).
in(168, 47).
in(168, 48).
in(168, 50).
in(168, 51).
in(168, 54).
in(168, 55).
in(168, 56).
in(168, 61).
in(168, 62).
in(168, 63).
in(168, 64).
in(168, 65).
in(168, 68).
in(168, 70).
in(168, 73).
in(168, 75).
in(168, 76).
in(168, 77).
in(168, 78).
in(168, 80).
in(168, 81).
in(168, 82).
in(168, 84).
in(168, 86).
in(168, 87).
in(168, 88).
in(168, 91).
in(168, 93).
in(168, 95).
in(168, 97).
in(168, 98).
in(168, 101).
in(168, 104).
in(168, 106).
in(168, 108).
in(168, 109).
in(169, 3).
in(169, 6).
in(169, 10).
in(169, 11).
in(169, 12).
in(169, 17).
in(169, 18).
in(169, 19).
in(169, 26).
in(169, 34).
in(169, 38).
in(169, 39).
in(169, 40).
in(169, 43).
in(169, 45).
in(169, 49).
in(169, 50).
in(169, 51).
in(169, 58).
in(169, 60).
in(169, 63).
in(169, 65).
in(169, 66).
in(169, 67).
in(169, 69).
in(169, 70).
in(169, 71).
in(169, 72).
in(169, 76).
in(169, 80).
in(169, 81).
in(169, 82).
in(169, 83).
in(169, 86).
in(169, 88).
in(169, 90).
in(169, 92).
in(169, 93).
in(169, 103).
in(169, 104).
in(169, 105).
in(169, 109).
weight(1, 4).
weight(2, 5).
weight(3, 7).
weight(4, 7).
weight(5, 3).
weight(6, 5).
weight(7, 2).
weight(8, 7).
weight(9, 1).
weight(10, 9).
weight(11, 1).
weight(12, 4).
weight(13, 8).
weight(14, 9).
weight(15, 5).
weight(16, 2).
weight(17, 6).
weight(18, 5).
weight(19, 2).
weight(20, 5).
weight(21, 7).
weight(22, 2).
weight(23, 2).
weight(24, 4).
weight(25, 9).
weight(26, 3).
weight(27, 4).
weight(28, 5).
weight(29, 3).
weight(30, 6).
weight(31, 1).
weight(32, 5).
weight(33, 8).
weight(34, 3).
weight(35, 6).
weight(36, 1).
weight(37, 6).
weight(38, 7).
weight(39, 4).
weight(40, 3).
weight(41, 7).
weight(42, 9).
weight(43, 6).
weight(44, 2).
weight(45, 1).
weight(46, 3).
weight(47, 9).
weight(48, 8).
weight(49, 1).
weight(50, 3).
weight(51, 4).
weight(52, 6).
weight(53, 9).
weight(54, 7).
weight(55, 8).
weight(56, 8).
weight(57, 4).
weight(58, 8).
weight(59, 5).
weight(60, 3).
weight(61, 3).
weight(62, 3).
weight(63, 5).
weight(64, 4).
weight(65, 4).
weight(66, 3).
weight(67, 9).
weight(68, 2).
weight(69, 5).
weight(70, 1).
weight(71, 7).
weight(72, 7).
weight(73, 1).
weight(74, 8).
weight(75, 8).
weight(76, 3).
weight(77, 1).
weight(78, 5).
weight(79, 5).
weight(80, 7).
weight(81, 7).
weight(82, 2).
weight(83, 9).
weight(84, 9).
weight(85, 7).
weight(86, 5).
weight(87, 3).
weight(88, 9).
weight(89, 9).
weight(90, 7).
weight(91, 8).
weight(92, 2).
weight(93, 8).
weight(94, 2).
weight(95, 5).
weight(96, 9).
weight(97, 5).
weight(98, 9).
weight(99, 7).
weight(100, 3).
weight(101, 8).
weight(102, 6).
weight(103, 2).
weight(104, 5).
weight(105, 7).
weight(106, 8).
weight(107, 1).
weight(108, 3).
weight(109, 1).
weight(110, 5).
weight(111, 7).
weight(112, 4).
weight(113, 4).
weight(114, 4).
weight(115, 8).
weight(116, 5).
weight(117, 2).
weight(118, 5).
weight(119, 8).
weight(120, 6).
weight(121, 7).
weight(122, 1).
weight(123, 1).
weight(124, 7).
weight(125, 7).
weight(126, 5).
weight(127, 9).
weight(128, 1).
weight(129, 4).
weight(130, 7).
weight(131, 8).
weight(132, 4).
weight(133, 5).
weight(134, 5).
weight(135, 7).
weight(136, 1).
weight(137, 2).
weight(138, 6).
weight(139, 3).
weight(140, 3).
weight(141, 9).
weight(142, 7).
weight(143, 2).
weight(144, 2).
weight(145, 3).
weight(146, 2).
weight(147, 9).
weight(148, 7).
weight(149, 2).
weight(150, 7).
weight(151, 4).
weight(152, 8).
weight(153, 5).
weight(154, 7).
weight(155, 5).
weight(156, 2).
weight(157, 8).
weight(158, 8).
weight(159, 9).
weight(160, 9).
weight(161, 6).
weight(162, 8).
weight(163, 6).
weight(164, 8).
weight(165, 3).
weight(166, 7).
weight(167, 4).
weight(168, 4).
weight(169, 5).

{ choose(S) } :- set(S).
:- choose(S1), choose(S2), S1 < S2, in(S1,E), in(S2,E).
:~ not choose(S), weight(S,W). [W@1,S]
