elem(1..109).
set(1..169).
in(1, 5).
in(1, 10).
in(1, 14).
in(1, 15).
in(1, 28).
in(1, 29).
in(1, 31).
in(1, 33).
in(1, 34).
in(1, 36).
in(1, 37).
in(1, 38).
in(1, 39).
in(1, 44).
in(1, 45).
in(1, 48).
in(1, 53).
in(1, 54).
in(1, 55).
in(1, 57).
in(1, 58).
in(1, 60).
in(1, 68).
in(1, 69).
in(1, 73).
in(1, 74).
in(1, 75).
in(1, 79).
in(1, 81).
in(1, 84).
in(1, 90).
in(1, 91).
in(1, 94).
in(1, 97).
in(1, 102).
in(1, 105).
in(1, 109).
in(2, 1).
in(2, 2).
in(2, 6).
in(2, 7).
in(2, 9).
in(2, 10).
in(2, 13).
in(2, 18).
in(2, 19).
in(2, 20).
in(2, 22).
in(2, 25).
in(2, 26).
in(2, 28).
in(2, 33).
in(2, 34).
in(2, 35).
in(2, 37).
in(2, 38).
in(2, 40).
in(2, 41).
in(2, 43).
in(2, 44).
in(2, 51).
in(2, 53).
in(2, 56).
in(2, 60).
in(2, 62).
in(2, 63).
in(2, 79).
in(2, 82).
in(2, 85).
in(2, 87).
in(2, 88).
in(2, 91).
in(2, 92).
in(2, 95).
in(2, 98).
in(2, 99).
in(2, 101).
in(2, 103).
in(2, 105).
in(2, 108).
in(3, 1).
in(3, 8).
in(3, 10).
in(3, 12).
in(3, 17).
in(3, 21).
in(3, 22).
in(3, 28).
in(3, 35).
in(3, 38).
in(3, 39).
in(3, 40).
in(3, 41).
in(3, 42).
in(3, 46).
in(3, 48).
in(3, 50).
in(3, 52).
in(3, 54).
in(3, 61).
in(3, 63).
in(3, 65).
in(3, 73).
in(3, 74).
in(3, 77).
in(3, 79).
in(3, 82).
in(3, 89).
in(3, 92).
in(3, 97).
in(3, 98).
in(3, 99).
in(3, 100).
in(3, 106).
in(3, 109).
in(4, 3).
in(4, 5).
in(4, 6).
in(4, 9).
in(4, 12).
in(4, 13).
in(4, 14).
in(4, 17).
in(4, 21).
in(4, 23).
in(4, 25).
in(4, 29).
in(4, 33).
in(4, 35).
in(4, 36).
in(4, 40).
in(4, 42).
in(4, 43).
in(4, 48).
in(4, 50).
in(4, 54).
in(4, 57).
in(4, 59).
in(4, 60).
in(4, 62).
in(4, 66).
in(4, 67).
in(4, 70).
in(4, 71).
in(4, 72).
in(4, 79).
in(4, 82).
in(4, 88).
in(4, 89).
in(4, 90).
in(4, 91).
in(4, 96).
in(4, 98).
in(4, 99).
in(4, 101).
in(4, 106).
in(5, 2).
in(5, 4).
in(5, 8).
in(5, 11).
in(5, 13).
in(5, 14).
in(5, 16).
in(5, 23).
in(5, 24).
in(5, 27).
in(5, 30).
in(5, 37).
in(5, 41).
in(5, 42).
in(5, 46).
in(5, 54).
in(5, 55).
in(5, 56).
in(5, 57).
in(5, 58).
in(5, 60).
in(5, 61).
in(5, 63).
in(5, 67).
in(5, 75).
in(5, 77).
in(5, 87).
in(5, 88).
in(5, 94).
in(5, 96).
in(5, 98).
in(5, 103).
in(5, 105).
in(5, 107).
in(5, 108).
in(6, 1).
in(6, 5).
in(6, 10).
in(6, 11).
in(6, 12).
in(6, 15).
in(6, 20).
in(6, 26).
in(6, 27).
in(6, 31).
in(6, 33).
in(6, 34).
in(6, 35).
in(6, 38).
in(6, 42).
in(6, 43).
in(6, 47).
in(6, 48).
in(6, 50).
in(6, 52).
in(6, 53).
in(6, 54).
in(6, 62).
in(6, 64).
in(6, 68).
in(6, 69).
in(6, 71).
in(6, 74).
in(6, 78).
in(6, 86).
in(6, 92).
in(6, 94).
in(6, 95).
in(6, 98).
in(6, 100).
in(6, 102).
in(6, 109).
in(7, 3).
in(7, 5).
in(7, 10).
in(7, 11).
in(7, 13).
in(7, 14).
in(7, 17).
in(7, 19).
in(7, 20).
in(7, 21).
in(7, 23).
in(7, 26).
in(7, 31).
in(7, 32).
in(7, 33).
in(7, 34).
in(7, 35).
in(7, 36).
in(7, 38).
in(7, 42).
in(7, 43).
in(7, 44).
in(7, 46).
in(7, 49).
in(7, 51).
in(7, 52).
in(7, 53).
in(7, 57).
in(7, 59).
in(7, 61).
in(7, 62).
in(7, 71).
in(7, 76).
in(7, 85).
in(7, 86).
in(7, 87).
in(7, 89).
in(7, 92).
in(7, 94).
in(7, 104).
in(7, 108).
in(7, 109).
in(8, 4).
in(8, 7).
in(8, 11).
in(8, 12).
in(8, 16).
in(8, 23).
in(8, 25).
in(8, 30).
in(8, 34).
in(8, 38).
in(8, 42).
in(8, 43).
in(8, 44).
in(8, 45).
in(8, 47).
in(8, 50).
in(8, 52).
in(8, 55).
in(8, 58).
in(8, 59).
in(8, 62).
in(8, 63).
in(8, 64).
in(8, 69).
in(8, 71).
in(8, 73).
in(8, 74).
in(8, 76).
in(8, 77).
in(8, 81).
in(8, 84).
in(8, 87).
in(8, 89).
in(8, 90).
in(8, 92).
in(8, 98).
in(8, 101).
in(8, 102).
in(8, 105).
in(9, 10).
in(9, 12).
in(9, 15).
in(9, 17).
in(9, 22).
in(9, 23).
in(9, 31).
in(9, 33).
in(9, 37).
in(9, 41).
in(9, 43).
in(9, 44).
in(9, 46).
in(9, 47).
in(9, 50).
in(9, 51).
in(9, 53).
in(9, 56).
in(9, 62).
in(9, 63).
in(9, 65).
in(9, 67).
in(9, 72).
in(9, 79).
in(9, 84).
in(9, 88).
in(9, 95).
in(9, 97).
in(9, 100).
in(9, 103).
in(9, 104).
in(9, 105).
in(9, 106).
in(10, 6).
in(10, 7).
in(10, 8).
in(10, 9).
in(10, 21).
in(10, 23).
in(10, 29).
in(10, 37).
in(10, 40).
in(10, 41).
in(10, 42).
in(10, 43).
in(10, 44).
in(10, 46).
in(10, 47).
in(10, 48).
in(10, 49).
in(10, 55).
in(10, 57).
in(10, 58).
in(10, 60).
in(10, 61).
in(10, 62).
in(10, 68).
in(10, 69).
in(10, 70).
in(10, 71).
in(10, 72).
in(10, 75).
in(10, 79).
in(10, 81).
in(10, 84).
in(10, 86).
in(10, 87).
in(10, 90).
in(10, 91).
in(10, 94).
in(10, 97).
in(10, 98).
in(10, 100).
in(10, 103).
in(10, 105).
in(10, 106).
in(10, 108).
in(11, 12).
in(11, 16).
in(11, 17).
in(11, 20).
in(11, 23).
in(11, 28).
in(11, 30).
in(11, 31).
in(11, 33).
in(11, 35).
in(11, 36).
in(11, 39).
in(11, 41).
in(11, 50).
in(11, 58).
in(11, 60).
in(11, 61).
in(11, 65).
in(11, 67).
in(11, 71).
in(11, 72).
in(11, 73).
in(11, 79).
in(11, 80).
in(11, 81).
in(11, 88).
in(11, 89).
in(11, 91).
in(11, 92).
in(11, 100).
in(11, 105).
in(11, 108).
in(12, 6).
in(12, 7).
in(12, 10).
in(12, 11).
in(12, 15).
in(12, 18).
in(12, 24).
in(12, 26).
in(12, 28).
in(12, 30).
in(12, 31).
in(12, 34).
in(12, 38).
in(12, 39).
in(12, 40).
in(12, 41).
in(12, 43).
in(12, 45).
in(12, 49).
in(12, 54).
in(12, 57).
in(12, 59).
in(12, 62).
in(12, 63).
in(12, 65).
in(12, 67).
in(12, 70).
in(12, 71).
in(12, 77).
in(12, 79).
in(12, 80).
in(12, 81).
in(12, 82).
in(12, 83).
in(12, 85).
in(12, 86).
in(12, 87).
in(12, 90).
in(12, 94).
in(12, 95).
in(12, 102).
in(12, 107).
in(12, 109).
in(13, 6).
in(13, 7).
in(13, 13).
in(13, 14).
in(13, 17).
in(13, 23).
in(13, 26).
in(13, 30).
in(13, 32).
in(13, 33).
in(13, 36).
in(13, 37).
in(13, 38).
in(13, 40).
in(13, 41).
in(13, 46).
in(13, 47).
in(13, 55).
in(13, 56).
in(13, 57).
in(13, 59).
in(13, 63).
in(13, 67).
in(13, 68).
in(13, 70).
in(13, 72).
in(13, 76).
in(13, 78).
in(13, 79).
in(13, 81).
in(13, 82).
in(13, 83).
in(13, 84).
in(13, 85).
in(13, 86).
in(13, 88).
in(13, 89).
in(13, 91).
in(13, 92).
in(13, 99).
in(13, 102).
in(14, 3).
in(14, 5).
in(14, 7).
in(14, 8).
in(14, 9).
in(14, 12).
in(14, 16).
in(14, 19).
in(14, 20).
in(14, 24).
in(14, 25).
in(14, 26).
in(14, 27).
in(14, 34).
in(14, 37).
in(14, 41).
in(14, 43).
in(14, 44).
in(14, 45).
in(14, 53).
in(14, 54).
in(14, 55).
in(14, 60).
in(14, 65).
in(14, 68).
in(14, 69).
in(14, 72).
in(14, 73).
in(14, 75).
in(14, 76).
in(14, 80).
in(14, 84).
in(14, 87).
in(14, 95).
in(14, 96).
in(14, 98).
in(14, 99).
in(14, 100).
in(14, 102).
in(14, 103).
in(14, 104).
in(14, 105).
in(14, 108).
in(15, 9).
in(15, 12).
in(15, 13).
in(15, 16).
in(15, 25).
in(15, 29).
in(15, 30).
in(15, 33).
in(15, 36).
in(15, 44).
in(15, 46).
in(15, 51).
in(15, 55).
in(15, 57).
in(15, 60).
in(15, 64).
in(15, 69).
in(15, 78).
in(15, 82).
in(15, 90).
in(15, 97).
in(15, 101).
in(15, 105).
in(16, 5).
in(16, 8).
in(16, 9).
in(16, 11).
in(16, 19).
in(16, 20).
in(16, 22).
in(16, 24).
in(16, 25).
in(16, 26).
in(16, 27).
in(16, 29).
in(16, 35).
in(16, 37).
in(16, 40).
in(16, 45).
in(16, 50).
in(16, 53).
in(16, 56).
in(16, 57).
in(16, 58).
in(16, 62).
in(16, 63).
in(16, 66).
in(16, 67).
in(16, 70).
in(16, 78).
in(16, 79).
in(16, 80).
in(16, 81).
in(16, 84).
in(16, 87).
in(16, 88).
in(16, 95).
in(16, 97).
in(16, 98).
in(16, 102).
in(17, 3).
in(17, 5).
in(17, 11).
in(17, 15).
in(17, 19).
in(17, 22).
in(17, 25).
in(17, 32).
in(17, 33).
in(17, 39).
in(17, 41).
in(17, 47).
in(17, 50).
in(17, 52).
in(17, 53).
in(17, 56).
in(17, 61).
in(17, 63).
in(17, 67).
in(17, 70).
in(17, 71).
in(17, 74).
in(17, 75).
in(17, 78).
in(17, 87).
in(17, 89).
in(17, 92).
in(17, 96).
in(17, 100).
in(17, 104).
in(17, 105).
in(17, 106).
in(17, 109).
in(18, 3).
in(18, 5).
in(18, 17).
in(18, 22).
in(18, 23).
in(18, 28).
in(18, 29).
in(18, 31).
in(18, 32).
in(18, 36).
in(18, 37).
in(18, 39).
in(18, 40).
in(18, 41).
in(18, 42).
in(18, 43).
in(18, 46).
in(18, 48).
in(18, 49).
in(18, 51).
in(18, 52).
in(18, 53).
in(18, 55).
in(18, 57).
in(18, 58).
in(18, 60).
in(18, 67).
in(18, 69).
in(18, 72).
in(18, 73).
in(18, 74).
in(18, 77).
in(18, 85).
in(18, 88).
in(18, 92).
in(18, 93).
in(18, 94).
in(18, 97).
in(18, 98).
in(18, 104).
in(18, 105).
in(18, 107).
in(18, 108).
in(19, 1).
in(19, 4).
in(19, 8).
in(19, 10).
in(19, 11).
in(19, 14).
in(19, 16).
in(19, 17).
in(19, 18).
in(19, 21).
in(19, 28).
in(19, 31).
in(19, 35).
in(19, 38).
in(19, 40).
in(19, 41).
in(19, 42).
in(19, 48).
in(19, 50).
in(19, 52).
in(19, 54).
in(19, 59).
in(19, 60).
in(19, 61).
in(19, 62).
in(19, 64).
in(19, 66).
in(19, 71).
in(19, 73).
in(19, 77).
in(19, 78).
in(19, 82).
in(19, 83).
in(19, 84).
in(19, 87).
in(19, 89).
in(19, 92).
in(19, 95).
in(19, 101).
in(19, 107).
in(19, 109).
in(20, 9).
in(20, 11).
in(20, 12).
in(20, 14).
in(20, 18).
in(20, 20).
in(20, 21).
in(20, 22).
in(20, 23).
in(20, 33).
in(20, 39).
in(20, 42).
in(20, 43).
in(20, 45).
in(20, 47).
in(20, 53).
in(20, 55).
in(20, 58).
in(20, 61).
in(20, 62).
in(20, 69).
in(20, 71).
in(20, 72).
in(20, 73).
in(20, 77).
in(20, 80).
in(20, 85).
in(20, 87).
in(20, 88).
in(20, 90).
in(20, 92).
in(20, 93).
in(20, 95).
in(20, 96).
in(20, 97).
in(20, 101).
in(20, 106).
in(20, 107).
in(20, 108).
in(21, 3).
in(21, 4).
in(21, 6).
in(21, 11).
in(21, 13).
in(21, 14).
in(21, 18).
in(21, 19).
in(21, 20).
in(21, 21).
in(21, 25).
in(21, 26).
in(21, 27).
in(21, 32).
in(21, 33).
in(21, 36).
in(21, 39).
in(21, 41).
in(21, 43).
in(21, 46).
in(21, 50).
in(21, 53).
in(21, 59).
in(21, 63).
in(21, 69).
in(21, 70).
in(21, 72).
in(21, 73).
in(21, 74).
in(21, 78).
in(21, 80).
in(21, 81).
in(21, 82).
in(21, 84).
in(21, 88).
in(21, 100).
in(21, 102).
in(21, 104).
in(21, 105).
in(21, 107).
in(22, 4).
in(22, 5).
in(22, 6).
in(22, 7).
in(22, 8).
in(22, 10).
in(22, 14).
in(22, 15).
in(22, 17).
in(22, 18).
in(22, 19).
in(22, 22).
in(22, 30).
in(22, 31).
in(22, 32).
in(22, 33).
in(22, 34).
in(22, 38).
in(22, 43).
in(22, 44).
in(22, 45).
in(22, 48).
in(22, 49).
in(22, 52).
in(22, 53).
in(22, 55).
in(22, 62).
in(22, 67).
in(22, 68).
in(22, 69).
in(22, 71).
in(22, 72).
in(22, 73).
in(22, 75).
in(22, 76).
in(22, 79).
in(22, 83).
in(22, 86).
in(22, 87).
in(22, 90).
in(22, 93).
in(22, 94).
in(23, 1).
in(23, 5).
in(23, 7).
in(23, 8).
in(23, 9).
in(23, 13).
in(23, 15).
in(23, 16).
in(23, 17).
in(23, 19).
in(23, 20).
in(23, 22).
in(23, 23).
in(23, 24).
in(23, 25).
in(23, 26).
in(23, 28).
in(23, 31).
in(23, 35).
in(23, 39).
in(23, 46).
in(23, 47).
in(23, 48).
in(23, 53).
in(23, 56).
in(23, 57).
in(23, 58).
in(23, 64).
in(23, 65).
in(23, 66).
in(23, 67).
in(23, 69).
in(23, 70).
in(23, 76).
in(23, 79).
in(23, 81).
in(23, 84).
in(23, 85).
in(23, 86).
in(23, 87).
in(23, 90).
in(23, 95).
in(23, 101).
in(23, 103).
in(23, 104).
in(23, 105).
in(23, 108).
in(24, 6).
in(24, 7).
in(24, 10).
in(24, 11).
in(24, 13).
in(24, 15).
in(24, 16).
in(24, 21).
in(24, 22).
in(24, 23).
in(24, 24).
in(24, 27).
in(24, 31).
in(24, 32).
in(24, 44).
in(24, 45).
in(24, 46).
in(24, 48).
in(24, 49).
in(24, 50).
in(24, 51).
in(24, 52).
in(24, 58).
in(24, 61).
in(24, 62).
in(24, 63).
in(24, 65).
in(24, 66).
in(24, 70).
in(24, 74).
in(24, 78).
in(24, 80).
in(24, 87).
in(24, 91).
in(24, 93).
in(24, 94).
in(24, 97).
in(24, 98).
in(25, 3).
in(25, 6).
in(25, 8).
in(25, 11).
in(25, 16).
in(25, 18).
in(25, 21).
in(25, 22).
in(25, 23).
in(25, 24).
in(25, 26).
in(25, 27).
in(25, 33).
in(25, 35).
in(25, 37).
in(25, 42).
in(25, 49).
in(25, 51).
in(25, 52).
in(25, 54).
in(25, 55).
in(25, 57).
in(25, 61).
in(25, 63).
in(25, 71).
in(25, 73).
in(25, 75).
in(25, 78).
in(25, 81).
in(25, 83).
in(25, 86).
in(25, 87).
in(25, 88).
in(25, 90).
in(25, 93).
in(25, 95).
in(25, 99).
in(25, 102).
in(25, 103).
in(25, 107).
in(25, 108).
in(25, 109).
in(26, 1).
in(26, 2).
in(26, 3).
in(26, 4).
in(26, 5).
in(26, 13).
in(26, 17).
in(26, 18).
in(26, 19).
in(26, 24).
in(26, 26).
in(26, 30).
in(26, 36).
in(26, 37).
in(26, 43).
in(26, 46).
in(26, 47).
in(26, 49).
in(26, 51).
in(26, 52).
in(26, 53).
in(26, 55).
in(26, 56).
in(26, 57).
in(26, 59).
in(26, 64).
in(26, 68).
in(26, 72).
in(26, 73).
in(26, 75).
in(26, 76).
in(26, 81).
in(26, 82).
in(26, 83).
in(26, 84).
in(26, 86).
in(26, 92).
in(26, 96).
in(26, 97).
in(26, 98).
in(26, 99).
in(26, 102).
in(26, 103).
in(26, 104).
in(26, 105).
in(26, 108).
in(26, 109).
in(27, 1).
in(27, 7).
in(27, 10).
in(27, 11).
in(27, 13).
in(27, 16).
in(27, 18).
in(27, 19).
in(27, 20).
in(27, 22).
in(27, 25).
in(27, 30).
in(27, 34).
in(27, 35).
in(27, 37).
in(27, 42).
in(27, 48).
in(27, 51).
in(27, 53).
in(27, 55).
in(27, 63).
in(27, 65).
in(27, 80).
in(27, 83).
in(27, 84).
in(27, 86).
in(27, 91).
in(27, 93).
in(27, 95).
in(27, 97).
in(27, 98).
in(27, 100).
in(27, 102).
in(27, 104).
in(28, 5).
in(28, 8).
in(28, 9).
in(28, 16).
in(28, 17).
in(28, 18).
in(28, 19).
in(28, 21).
in(28, 24).
in(28, 28).
in(28, 30).
in(28, 37).
in(28, 38).
in(28, 42).
in(28, 43).
in(28, 46).
in(28, 47).
in(28, 49).
in(28, 50).
in(28, 51).
in(28, 52).
in(28, 55).
in(28, 57).
in(28, 68).
in(28, 70).
in(28, 74).
in(28, 75).
in(28, 76).
in(28, 77).
in(28, 83).
in(28, 85).
in(28, 88).
in(28, 89).
in(28, 91).
in(28, 94).
in(28, 98).
in(28, 99).
in(28, 100).
in(28, 101).
in(28, 103).
in(28, 104).
in(28, 107).
in(29, 4).
in(29, 6).
in(29, 8).
in(29, 9).
in(29, 10).
in(29, 12).
in(29, 17).
in(29, 18).
in(29, 28).
in(29, 35).
in(29, 41).
in(29, 43).
in(29, 46).
in(29, 48).
in(29, 50).
in(29, 51).
in(29, 56).
in(29, 59).
in(29, 61).
in(29, 62).
in(29, 63).
in(29, 65).
in(29, 66).
in(29, 67).
in(29, 69).
in(29, 76).
in(29, 80).
in(29, 82).
in(29, 86).
in(29, 88).
in(29, 93).
in(29, 95).
in(29, 97).
in(29, 100).
in(29, 105).
in(29, 109).
in(30, 5).
in(30, 14).
in(30, 15).
in(30, 17).
in(30, 21).
in(30, 26).
in(30, 27).
in(30, 28).
in(30, 39).
in(30, 40).
in(30, 42).
in(30, 45).
in(30, 50).
in(30, 51).
in(30, 52).
in(30, 54).
in(30, 63).
in(30, 66).
in(30, 70).
in(30, 71).
in(30, 74).
in(30, 79).
in(30, 80).
in(30, 85).
in(30, 86).
in(30, 90).
in(30, 91).
in(30, 99).
in(30, 103).
in(30, 104).
in(30, 108).
in(31, 1).
in(31, 3).
in(31, 4).
in(31, 6).
in(31, 9).
in(31, 10).
in(31, 11).
in(31, 13).
in(31, 15).
in(31, 16).
in(31, 24).
in(31, 27).
in(31, 29).
in(31, 30).
in(31, 33).
in(31, 39).
in(31, 45).
in(31, 46).
in(31, 51).
in(31, 52).
in(31, 54).
in(31, 55).
in(31, 59).
in(31, 61).
in(31, 63).
in(31, 64).
in(31, 68).
in(31, 69).
in(31, 71).
in(31, 74).
in(31, 79).
in(31, 80).
in(31, 85).
in(31, 86).
in(31, 87).
in(31, 89).
in(31, 90).
in(31, 91).
in(31, 93).
in(31, 95).
in(31, 97).
in(31, 99).
in(31, 101).
in(31, 103).
in(31, 105).
in(31, 106).
in(32, 2).
in(32, 3).
in(32, 5).
in(32, 7).
in(32, 9).
in(32, 11).
in(32, 15).
in(32, 20).
in(32, 28).
in(32, 29).
in(32, 30).
in(32, 31).
in(32, 32).
in(32, 33).
in(32, 36).
in(32, 37).
in(32, 39).
in(32, 41).
in(32, 44).
in(32, 47).
in(32, 52).
in(32, 64).
in(32, 65).
in(32, 66).
in(32, 71).
in(32, 73).
in(32, 75).
in(32, 76).
in(32, 78).
in(32, 87).
in(32, 93).
in(32, 95).
in(32, 101).
in(32, 102).
in(32, 105).
in(32, 106).
in(32, 108).
in(33, 1).
in(33, 7).
in(33, 8).
in(33, 10).
in(33, 11).
in(33, 13).
in(33, 15).
in(33, 16).
in(33, 19).
in(33, 21).
in(33, 23).
in(33, 31).
in(33, 33).
in(33, 34).
in(33, 35).
in(33, 38).
in(33, 48).
in(33, 52).
in(33, 54).
in(33, 55).
in(33, 59).
in(33, 61).
in(33, 63).
in(33, 64).
in(33, 68).
in(33, 69).
in(33, 70).
in(33, 73).
in(33, 74).
in(33, 75).
in(33, 77).
in(33, 85).
in(33, 86).
in(33, 87).
in(33, 88).
in(33, 93).
in(33, 95).
in(33, 99).
in(33, 100).
in(33, 102).
in(33, 105).
in(33, 106).
in(33, 107).
in(33, 109).
in(34, 4).
in(34, 10).
in(34, 11).
in(34, 12).
in(34, 18).
in(34, 22).
in(34, 26).
in(34, 27).
in(34, 31).
in(34, 32).
in(34, 36).
in(34, 45).
in(34, 46).
in(34, 47).
in(34, 55).
in(34, 58).
in(34, 59).
in(34, 64).
in(34, 65).
in(34, 66).
in(34, 67).
in(34, 68).
in(34, 69).
in(34, 75).
in(34, 76).
in(34, 79).
in(34, 80).
in(34, 85).
in(34, 86).
in(34, 89).
in(34, 91).
in(34, 97).
in(34, 103).
in(34, 104).
in(34, 106).
in(34, 107).
in(35, 2).
in(35, 4).
in(35, 7).
in(35, 8).
in(35, 9).
in(35, 14).
in(35, 17).
in(35, 18).
in(35, 22).
in(35, 24).
in(35, 25).
in(35, 26).
in(35, 28).
in(35, 31).
in(35, 35).
in(35, 37).
in(35, 38).
in(35, 43).
in(35, 48).
in(35, 49).
in(35, 50).
in(35, 54).
in(35, 55).
in(35, 61).
in(35, 64).
in(35, 66).
in(35, 68).
in(35, 71).
in(35, 75).
in(35, 77).
in(35, 79).
in(35, 81).
in(35, 89).
in(35, 97).
in(35, 98).
in(35, 99).
in(35, 101).
in(35, 103).
in(35, 105).
in(35, 107).
in(36, 2).
in(36, 4).
in(36, 5).
in(36, 6).
in(36, 7).
in(36, 8).
in(36, 9).
in(36, 12).
in(36, 19).
in(36, 20).
in(36, 22).
in(36, 23).
in(36, 25).
in(36, 28).
in(36, 31).
in(36, 34).
in(36, 37).
in(36, 38).
in(36, 39).
in(36, 42).
in(36, 46).
in(36, 49).
in(36, 51).
in(36, 55).
in(36, 56).
in(36, 58).
in(36, 60).
in(36, 61).
in(36, 63).
in(36, 66).
in(36, 69).
in(36, 76).
in(36, 79).
in(36, 82).
in(36, 84).
in(36, 86).
in(36, 90).
in(36, 92).
in(36, 94).
in(36, 95).
in(36, 96).
in(36, 97).
in(36, 103).
in(36, 108).
in(37, 1).
in(37, 6).
in(37, 10).
in(37, 12).
in(37, 22).
in(37, 25).
in(37, 31).
in(37, 34).
in(37, 36).
in(37, 37).
in(37, 38).
in(37, 40).
in(37, 41).
in(37, 43).
in(37, 48).
in(37, 51).
in(37, 52).
in(37, 54).
in(37, 62).
in(37, 65).
in(37, 69).
in(37, 73).
in(37, 75).
in(37, 76).
in(37, 80).
in(37, 81).
in(37, 84).
in(37, 86).
in(37, 87).
in(37, 89).
in(37, 91).
in(37, 95).
in(37, 97).
in(37, 101).
in(37, 103).
in(37, 107).
in(38, 2).
in(38, 3).
in(38, 5).
in(38, 8).
in(38, 9).
in(38, 10).
in(38, 12).
in(38, 17).
in(38, 24).
in(38, 26).
in(38, 27).
in(38, 30).
in(38, 37).
in(38, 41).
in(38, 42).
in(38, 51).
in(38, 53).
in(38, 55).
in(38, 56).
in(38, 57).
in(38, 60).
in(38, 61).
in(38, 68).
in(38, 72).
in(38, 73).
in(38, 79).
in(38, 89).
in(38, 93).
in(38, 95).
in(38, 97).
in(38, 99).
in(38, 100).
in(38, 101).
in(38, 102).
in(38, 105).
in(39, 1).
in(39, 2).
in(39, 3).
in(39, 4).
in(39, 8).
in(39, 9).
in(39, 10).
in(39, 20).
in(39, 22).
in(39, 23).
in(39, 24).
in(39, 25).
in(39, 32).
in(39, 33).
in(39, 34).
in(39, 36).
in(39, 41).
in(39, 43).
in(39, 52).
in(39, 54).
in(39, 58).
in(39, 64).
in(39, 65).
in(39, 67).
in(39, 69).
in(39, 70).
in(39, 74).
in(39, 82).
in(39, 83).
in(39, 84).
in(39, 87).
in(39, 88).
in(39, 104).
in(39, 109).
in(40, 4).
in(40, 8).
in(40, 9).
in(40, 13).
in(40, 14).
in(40, 18).
in(40, 20).
in(40, 22).
in(40, 23).
in(40, 29).
in(40, 30).
in(40, 33).
in(40, 35).
in(40, 41).
in(40, 43).
in(40, 45).
in(40, 46).
in(40, 47).
in(40, 50).
in(40, 51).
in(40, 53).
in(40, 54).
in(40, 55).
in(40, 60).
in(40, 61).
in(40, 62).
in(40, 65).
in(40, 69).
in(40, 73).
in(40, 76).
in(40, 79).
in(40, 86).
in(40, 87).
in(40, 90).
in(40, 93).
in(40, 96).
in(40, 99).
in(40, 103).
in(40, 105).
in(40, 106).
in(40, 107).
in(40, 108).
in(40, 109).
in(41, 1).
in(41, 5).
in(41, 9).
in(41, 15).
in(41, 16).
in(41, 17).
in(41, 18).
in(41, 19).
in(41, 20).
in(41, 25).
in(41, 26).
in(41, 29).
in(41, 36).
in(41, 37).
in(41, 43).
in(41, 47).
in(41, 48).
in(41, 51).
in(41, 57).
in(41, 59).
in(41, 64).
in(41, 65).
in(41, 66).
in(41, 70).
in(41, 71).
in(41, 74).
in(41, 77).
in(41, 81).
in(41, 83).
in(41, 84).
in(41, 85).
in(41, 90).
in(41, 92).
in(41, 93).
in(41, 98).
in(41, 100).
in(41, 107).
in(41, 108).
in(42, 2).
in(42, 3).
in(42, 7).
in(42, 12).
in(42, 13).
in(42, 14).
in(42, 20).
in(42, 27).
in(42, 28).
in(42, 35).
in(42, 37).
in(42, 38).
in(42, 40).
in(42, 41).
in(42, 42).
in(42, 47).
in(42, 58).
in(42, 59).
in(42, 60).
in(42, 65).
in(42, 67).
in(42, 73).
in(42, 76).
in(42, 78).
in(42, 80).
in(42, 81).
in(42, 82).
in(42, 86).
in(42, 88).
in(42, 90).
in(42, 94).
in(42, 97).
in(42, 106).
in(42, 107).
in(43, 1).
in(43, 2).
in(43, 5).
in(43, 11).
in(43, 15).
in(43, 17).
in(43, 21).
in(43, 23).
in(43, 34).
in(43, 35).
in(43, 39).
in(43, 40).
in(43, 41).
in(43, 43).
in(43, 45).
in(43, 46).
in(43, 58).
in(43, 61).
in(43, 69).
in(43, 70).
in(43, 71).
in(43, 79).
in(43, 81).
in(43, 84).
in(43, 85).
in(43, 86).
in(43, 90).
in(43, 93).
in(43, 95).
in(43, 96).
in(43, 100).
in(43, 106).
in(44, 1).
in(44, 6).
in(44, 8).
in(44, 12).
in(44, 20).
in(44, 25).
in(44, 36).
in(44, 37).
in(44, 40).
in(44, 43).
in(44, 46).
in(44, 47).
in(44, 53).
in(44, 55).
in(44, 56).
in(44, 58).
in(44, 59).
in(44, 63).
in(44, 65).
in(44, 68).
in(44, 69).
in(44, 70).
in(44, 71).
in(44, 72).
in(44, 73).
in(44, 74).
in(44, 75).
in(44, 76).
in(44, 85).
in(44, 89).
in(44, 90).
in(44, 97).
in(44, 99).
in(44, 100).
in(44, 102).
in(44, 106).
in(44, 107).
in(44, 109).
in(45, 4).
in(45, 5).
in(45, 6).
in(45, 11).
in(45, 13).
in(45, 14).
in(45, 19).
in(45, 20).
in(45, 21).
in(45, 22).
in(45, 23).
in(45, 25).
in(45, 26).
in(45, 37).
in(45, 39).
in(45, 40).
in(45, 41).
in(45, 45).
in(45, 49).
in(45, 51).
in(45, 56).
in(45, 61).
in(45, 67).
in(45, 68).
in(45, 70).
in(45, 71).
in(45, 72).
in(45, 76).
in(45, 85).
in(45, 86).
in(45, 96).
in(45, 97).
in(45, 100).
in(45, 101).
in(45, 104).
in(45, 105).
in(45, 107).
in(45, 108).
in(46, 8).
in(46, 10).
in(46, 11).
in(46, 15).
in(46, 18).
in(46, 20).
in(46, 26).
in(46, 27).
in(46, 28).
in(46, 29).
in(46, 31).
in(46, 33).
in(46, 36).
in(46, 38).
in(46, 39).
in(46, 42).
in(46, 45).
in(46, 46).
in(46, 47).
in(46, 49).
in(46, 50).
in(46, 53).
in(46, 60).
in(46, 61).
in(46, 62).
in(46, 63).
in(46, 66).
in(46, 68).
in(46, 77).
in(46, 80).
in(46, 86).
in(46, 87).
in(46, 91).
in(46, 92).
in(46, 95).
in(46, 96).
in(46, 101).
in(46, 102).
in(46, 104).
in(46, 108).
in(47, 1).
in(47, 2).
in(47, 6).
in(47, 16).
in(47, 17).
in(47, 19).
in(47, 22).
in(47, 24).
in(47, 26).
in(47, 29).
in(47, 31).
in(47, 32).
in(47, 33).
in(47, 36).
in(47, 38).
in(47, 39).
in(47, 40).
in(47, 41).
in(47, 49).
in(47, 51).
in(47, 52).
in(47, 54).
in(47, 56).
in(47, 60).
in(47, 63).
in(47, 67).
in(47, 68).
in(47, 76).
in(47, 78).
in(47, 79).
in(47, 80).
in(47, 81).
in(47, 84).
in(47, 85).
in(47, 90).
in(47, 91).
in(47, 93).
in(47, 95).
in(47, 97).
in(47, 98).
in(47, 101).
in(47, 105).
in(47, 107).
in(47, 108).
in(47, 109).
in(48, 1).
in(48, 4).
in(48, 6).
in(48, 16).
in(48, 17).
in(48, 20).
in(48, 23).
in(48, 24).
in(48, 28).
in(48, 35).
in(48, 36).
in(48, 44).
in(48, 47).
in(48, 50).
in(48, 51).
in(48, 56).
in(48, 58).
in(48, 59).
in(48, 60).
in(48, 62).
in(48, 63).
in(48, 66).
in(48, 68).
in(48, 70).
in(48, 74).
in(48, 77).
in(48, 80).
in(48, 82).
in(48, 85).
in(48, 89).
in(48, 90).
in(48, 91).
in(48, 93).
in(48, 95).
in(48, 108).
in(49, 3).
in(49, 4).
in(49, 8).
in(49, 10).
in(49, 12).
in(49, 14).
in(49, 20).
in(49, 21).
in(49, 22).
in(49, 25).
in(49, 29).
in(49, 33).
in(49, 34).
in(49, 35).
in(49, 37).
in(49, 39).
in(49, 46).
in(49, 50).
in(49, 57).
in(49, 58).
in(49, 60).
in(49, 63).
in(49, 67).
in(49, 68).
in(49, 71).
in(49, 73).
in(49, 75).
in(49, 79).
in(49, 81).
in(49, 82).
in(49, 85).
in(49, 91).
in(49, 92).
in(49, 101).
in(49, 102).
in(49, 104).
in(49, 106).
in(49, 107).
in(50, 1).
in(50, 2).
in(50, 3).
in(50, 4).
in(50, 5).
in(50, 8).
in(50, 10).
in(50, 12).
in(50, 13).
in(50, 14).
in(50, 17).
in(50, 19).
in(50, 21).
in(50, 33).
in(50, 35).
in(50, 38).
in(50, 42).
in(50, 43).
in(50, 45).
in(50, 49).
in(50, 57).
in(50, 58).
in(50, 63).
in(50, 66).
in(50, 71).
in(50, 76).
in(50, 88).
in(50, 91).
in(50, 95).
in(50, 102).
in(50, 104).
in(50, 107).
in(50, 109).
in(51, 1).
in(51, 2).
in(51, 5).
in(51, 8).
in(51, 10).
in(51, 15).
in(51, 16).
in(51, 20).
in(51, 24).
in(51, 26).
in(51, 28).
in(51, 31).
in(51, 32).
in(51, 38).
in(51, 40).
in(51, 49).
in(51, 52).
in(51, 54).
in(51, 60).
in(51, 61).
in(51, 64).
in(51, 79).
in(51, 85).
in(51, 87).
in(51, 91).
in(51, 97).
in(51, 98).
in(51, 101).
in(51, 103).
in(51, 104).
in(51, 106).
in(51, 107).
in(52, 1).
in(52, 8).
in(52, 9).
in(52, 11).
in(52, 12).
in(52, 19).
in(52, 20).
in(52, 21).
in(52, 26).
in(52, 28).
in(52, 29).
in(52, 30).
in(52, 33).
in(52, 34).
in(52, 37).
in(52, 38).
in(52, 39).
in(52, 45).
in(52, 52).
in(52, 54).
in(52, 55).
in(52, 56).
in(52, 58).
in(52, 61).
in(52, 64).
in(52, 68).
in(52, 69).
in(52, 71).
in(52, 72).
in(52, 74).
in(52, 78).
in(52, 87).
in(52, 94).
in(52, 95).
in(52, 96).
in(52, 98).
in(52, 100).
in(52, 101).
in(52, 103).
in(52, 105).
in(52, 106).
in(52, 109).
in(53, 7).
in(53, 8).
in(53, 13).
in(53, 17).
in(53, 20).
in(53, 23).
in(53, 27).
in(53, 29).
in(53, 35).
in(53, 40).
in(53, 43).
in(53, 45).
in(53, 49).
in(53, 50).
in(53, 52).
in(53, 54).
in(53, 55).
in(53, 58).
in(53, 60).
in(53, 69).
in(53, 74).
in(53, 75).
in(53, 77).
in(53, 78).
in(53, 85).
in(53, 91).
in(53, 92).
in(53, 93).
in(53, 98).
in(53, 101).
in(53, 109).
in(54, 2).
in(54, 6).
in(54, 7).
in(54, 10).
in(54, 11).
in(54, 18).
in(54, 19).
in(54, 21).
in(54, 25).
in(54, 26).
in(54, 37).
in(54, 39).
in(54, 44).
in(54, 45).
in(54, 49).
in(54, 51).
in(54, 53).
in(54, 54).
in(54, 58).
in(54, 59).
in(54, 60).
in(54, 61).
in(54, 67).
in(54, 73).
in(54, 76).
in(54, 77).
in(54, 79).
in(54, 81).
in(54, 87).
in(54, 90).
in(54, 94).
in(54, 95).
in(54, 97).
in(54, 106).
in(54, 107).
in(55, 5).
in(55, 7).
in(55, 9).
in(55, 13).
in(55, 15).
in(55, 18).
in(55, 19).
in(55, 23).
in(55, 25).
in(55, 27).
in(55, 29).
in(55, 32).
in(55, 37).
in(55, 39).
in(55, 40).
in(55, 41).
in(55, 42).
in(55, 43).
in(55, 44).
in(55, 46).
in(55, 48).
in(55, 54).
in(55, 55).
in(55, 56).
in(55, 58).
in(55, 63).
in(55, 65).
in(55, 67).
in(55, 71).
in(55, 73).
in(55, 77).
in(55, 90).
in(55, 93).
in(55, 94).
in(55, 98).
in(55, 104).
in(55, 105).
in(55, 107).
in(55, 108).
in(55, 109).
in(56, 7).
in(56, 8).
in(56, 10).
in(56, 11).
in(56, 12).
in(56, 13).
in(56, 15).
in(56, 16).
in(56, 17).
in(56, 18).
in(56, 19).
in(56, 20).
in(56, 26).
in(56, 29).
in(56, 30).
in(56, 33).
in(56, 36).
in(56, 37).
in(56, 39).
in(56, 42).
in(56, 44).
in(56, 46).
in(56, 47).
in(56, 51).
in(56, 54).
in(56, 56).
in(56, 59).
in(56, 60).
in(56, 61).
in(56, 68).
in(56, 71).
in(56, 73).
in(56, 78).
in(56, 80).
in(56, 84).
in(56, 85).
in(56, 86).
in(56, 91).
in(56, 92).
in(56, 94).
in(56, 99).
in(56, 101).
in(57, 1).
in(57, 3).
in(57, 8).
in(57, 12).
in(57, 21).
in(57, 22).
in(57, 24).
in(57, 27).
in(57, 31).
in(57, 32).
in(57, 33).
in(57, 37).
in(57, 42).
in(57, 43).
in(57, 45).
in(57, 46).
in(57, 49).
in(57, 50).
in(57, 52).
in(57, 55).
in(57, 57).
in(57, 59).
in(57, 61).
in(57, 62).
in(57, 63).
in(57, 67).
in(57, 72).
in(57, 73).
in(57, 75).
in(57, 79).
in(57, 83).
in(57, 84).
in(57, 85).
in(57, 87).
in(57, 91).
in(57, 92).
in(57, 95).
in(57, 99).
in(57, 102).
in(57, 105).
in(57, 108).
in(58, 1).
in(58, 5).
in(58, 10).
in(58, 11).
in(58, 12).
in(58, 14).
in(58, 18).
in(58, 20).
in(58, 21).
in(58, 22).
in(58, 23).
in(58, 27).
in(58, 30).
in(58, 32).
in(58, 41).
in(58, 42).
in(58, 43).
in(58, 48).
in(58, 49).
in(58, 56).
in(58, 65).
in(58, 66).
in(58, 67).
in(58, 71).
in(58, 72).
in(58, 73).
in(58, 74).
in(58, 75).
in(58, 76).
in(58, 80).
in(58, 81).
in(58, 84).
in(58, 86).
in(58, 87).
in(58, 94).
in(58, 95).
in(58, 96).
in(58, 99).
in(58, 104).
in(58, 105).
in(58, 107).
in(59, 1).
in(59, 3).
in(59, 7).
in(59, 11).
in(59, 12).
in(59, 19).
in(59, 21).
in(59, 25).
in(59, 26).
in(59, 29).
in(59, 31).
in(59, 33).
in(59, 34).
in(59, 36).
in(59, 37).
in(59, 43).
in(59, 46).
in(59, 47).
in(59, 48).
in(59, 52).
in(59, 54).
in(59, 57).
in(59, 58).
in(59, 59).
in(59, 65).
in(59, 66).
in(59, 67).
in(59, 68).
in(59, 72).
in(59, 76).
in(59, 77).
in(59, 79).
in(59, 82).
in(59, 84).
in(59, 86).
in(59, 91).
in(59, 96).
in(59, 98).
in(59, 100).
in(59, 104).
in(59, 105).
in(59, 108).
in(60, 2).
in(60, 4).
in(60, 5).
in(60, 6).
in(60, 10).
in(60, 12).
in(60, 14).
in(60, 19).
in(60, 24).
in(60, 26).
in(60, 28).
in(60, 31).
in(60, 32).
in(60, 34).
in(60, 40).
in(60, 41).
in(60, 43).
in(60, 48).
in(60, 49).
in(60, 50).
in(60, 52).
in(60, 55).
in(60, 56).
in(60, 61).
in(60, 64).
in(60, 68).
in(60, 69).
in(60, 70).
in(60, 71).
in(60, 75).
in(60, 76).
in(60, 78).
in(60, 80).
in(60, 81).
in(60, 82).
in(60, 83).
in(60, 84).
in(60, 85).
in(60, 86).
in(60, 87).
in(60, 93).
in(60, 95).
in(60, 96).
in(60, 97).
in(60, 98).
in(60, 100).
in(60, 104).
in(60, 106).
in(60, 108).
in(61, 8).
in(61, 17).
in(61, 20).
in(61, 21).
in(61, 22).
in(61, 24).
in(61, 29).
in(61, 33).
in(61, 34).
in(61, 35).
in(61, 36).
in(61, 41).
in(61, 43).
in(61, 46).
in(61, 48).
in(61, 49).
in(61, 51).
in(61, 52).
in(61, 53).
in(61, 54).
in(61, 60).
in(61, 66).
in(61, 69).
in(61, 70).
in(61, 73).
in(61, 79).
in(61, 85).
in(61, 86).
in(61, 87).
in(61, 92).
in(61, 93).
in(61, 95).
in(61, 96).
in(61, 97).
in(61, 99).
in(61, 108).
in(62, 1).
in(62, 2).
in(62, 3).
in(62, 4).
in(62, 6).
in(62, 8).
in(62, 9).
in(62, 14).
in(62, 16).
in(62, 17).
in(62, 22).
in(62, 23).
in(62, 24).
in(62, 29).
in(62, 31).
in(62, 32).
in(62, 36).
in(62, 37).
in(62, 41).
in(62, 45).
in(62, 50).
in(62, 54).
in(62, 56).
in(62, 57).
in(62, 61).
in(62, 65).
in(62, 68).
in(62, 73).
in(62, 77).
in(62, 78).
in(62, 85).
in(62, 87).
in(62, 89).
in(62, 92).
in(62, 99).
in(62, 100).
in(62, 104).
in(63, 3).
in(63, 5).
in(63, 6).
in(63, 7).
in(63, 11).
in(63, 15).
in(63, 17).
in(63, 18).
in(63, 19).
in(63, 20).
in(63, 23).
in(63, 26).
in(63, 29).
in(63, 31).
in(63, 33).
in(63, 36).
in(63, 37).
in(63, 40).
in(63, 41).
in(63, 49).
in(63, 54).
in(63, 60).
in(63, 61).
in(63, 65).
in(63, 71).
in(63, 72).
in(63, 73).
in(63, 75).
in(63, 76).
in(63, 81).
in(63, 82).
in(63, 89).
in(63, 100).
in(63, 106).
in(63, 108).
in(63, 109).
in(64, 1).
in(64, 6).
in(64, 9).
in(64, 12).
in(64, 19).
in(64, 20).
in(64, 21).
in(64, 22).
in(64, 25).
in(64, 26).
in(64, 27).
in(64, 34).
in(64, 35).
in(64, 36).
in(64, 45).
in(64, 46).
in(64, 54).
in(64, 59).
in(64, 62).
in(64, 63).
in(64, 64).
in(64, 65).
in(64, 69).
in(64, 72).
in(64, 75).
in(64, 77).
in(64, 81).
in(64, 82).
in(64, 86).
in(64, 98).
in(64, 99).
in(64, 103).
in(64, 104).
in(64, 105).
in(65, 3).
in(65, 4).
in(65, 5).
in(65, 7).
in(65, 9).
in(65, 11).
in(65, 14).
in(65, 15).
in(65, 18).
in(65, 25).
in(65, 26).
in(65, 28).
in(65, 34).
in(65, 37).
in(65, 40).
in(65, 41).
in(65, 43).
in(65, 56).
in(65, 57).
in(65, 59).
in(65, 60).
in(65, 61).
in(65, 65).
in(65, 67).
in(65, 69).
in(65, 72).
in(65, 76).
in(65, 80).
in(65, 82).
in(65, 84).
in(65, 85).
in(65, 86).
in(65, 91).
in(65, 93).
in(65, 99).
in(65, 101).
in(65, 104).
in(66, 3).
in(66, 4).
in(66, 8).
in(66, 12).
in(66, 13).
in(66, 15).
in(66, 16).
in(66, 19).
in(66, 22).
in(66, 24).
in(66, 27).
in(66, 34).
in(66, 35).
in(66, 36).
in(66, 38).
in(66, 44).
in(66, 47).
in(66, 51).
in(66, 55).
in(66, 57).
in(66, 60).
in(66, 64).
in(66, 66).
in(66, 68).
in(66, 73).
in(66, 76).
in(66, 80).
in(66, 83).
in(66, 88).
in(66, 89).
in(66, 91).
in(66, 93).
in(66, 97).
in(66, 98).
in(66, 100).
in(66, 102).
in(66, 104).
in(66, 106).
in(66, 107).
in(67, 1).
in(67, 3).
in(67, 4).
in(67, 10).
in(67, 11).
in(67, 15).
in(67, 16).
in(67, 18).
in(67, 22).
in(67, 30).
in(67, 32).
in(67, 33).
in(67, 38).
in(67, 46).
in(67, 47).
in(67, 51).
in(67, 56).
in(67, 57).
in(67, 58).
in(67, 59).
in(67, 63).
in(67, 71).
in(67, 73).
in(67, 75).
in(67, 76).
in(67, 78).
in(67, 80).
in(67, 81).
in(67, 84).
in(67, 85).
in(67, 88).
in(67, 92).
in(67, 96).
in(67, 97).
in(67, 99).
in(67, 100).
in(67, 101).
in(67, 104).
in(67, 105).
in(67, 109).
in(68, 1).
in(68, 9).
in(68, 12).
in(68, 15).
in(68, 17).
in(68, 24).
in(68, 27).
in(68, 32).
in(68, 33).
in(68, 35).
in(68, 36).
in(68, 38).
in(68, 41).
in(68, 47).
in(68, 53).
in(68, 60).
in(68, 61).
in(68, 64).
in(68, 71).
in(68, 74).
in(68, 76).
in(68, 79).
in(68, 80).
in(68, 81).
in(68, 88).
in(68, 91).
in(68, 93).
in(68, 95).
in(68, 96).
in(68, 97).
in(68, 101).
in(68, 102).
in(68, 104).
in(68, 105).
in(68, 106).
in(68, 109).
in(69, 4).
in(69, 12).
in(69, 16).
in(69, 19).
in(69, 21).
in(69, 23).
in(69, 29).
in(69, 32).
in(69, 45).
in(69, 46).
in(69, 48).
in(69, 49).
in(69, 50).
in(69, 51).
in(69, 52).
in(69, 59).
in(69, 65).
in(69, 67).
in(69, 71).
in(69, 72).
in(69, 74).
in(69, 75).
in(69, 86).
in(69, 92).
in(69, 97).
in(69, 98).
in(69, 99).
in(69, 102).
in(69, 104).
in(70, 1).
in(70, 5).
in(70, 8).
in(70, 11).
in(70, 12).
in(70, 13).
in(70, 18).
in(70, 19).
in(70, 22).
in(70, 25).
in(70, 38).
in(70, 39).
in(70, 40).
in(70, 46).
in(70, 48).
in(70, 53).
in(70, 59).
in(70, 63).
in(70, 64).
in(70, 65).
in(70, 66).
in(70, 79).
in(70, 80).
in(70, 81).
in(70, 82).
in(70, 92).
in(70, 94).
in(70, 95).
in(70, 97).
in(70, 101).
in(70, 109).
in(71, 2).
in(71, 4).
in(71, 8).
in(71, 9).
in(71, 10).
in(71, 13).
in(71, 17).
in(71, 21).
in(71, 22).
in(71, 23).
in(71, 24).
in(71, 25).
in(71, 28).
in(71, 29).
in(71, 32).
in(71, 33).
in(71, 35).
in(71, 36).
in(71, 42).
in(71, 43).
in(71, 46).
in(71, 47).
in(71, 48).
in(71, 49).
in(71, 52).
in(71, 55).
in(71, 59).
in(71, 60).
in(71, 62).
in(71, 65).
in(71, 72).
in(71, 74).
in(71, 75).
in(71, 78).
in(71, 81).
in(71, 82).
in(71, 91).
in(71, 93).
in(71, 94).
in(71, 96).
in(71, 97).
in(71, 99).
in(71, 100).
in(71, 103).
in(71, 105).
in(71, 106).
in(72, 5).
in(72, 7).
in(72, 8).
in(72, 11).
in(72, 17).
in(72, 23).
in(72, 24).
in(72, 29).
in(72, 32).
in(72, 37).
in(72, 38).
in(72, 40).
in(72, 42).
in(72, 45).
in(72, 53).
in(72, 58).
in(72, 66).
in(72, 68).
in(72, 69).
in(72, 74).
in(72, 76).
in(72, 81).
in(72, 85).
in(72, 86).
in(72, 90).
in(72, 91).
in(72, 95).
in(72, 98).
in(72, 99).
in(72, 108).
in(72, 109).
in(73, 2).
in(73, 6).
in(73, 7).
in(73, 10).
in(73, 11).
in(73, 14).
in(73, 15).
in(73, 16).
in(73, 21).
in(73, 22).
in(73, 26).
in(73, 27).
in(73, 32).
in(73, 35).
in(73, 37).
in(73, 38).
in(73, 40).
in(73, 41).
in(73, 44).
in(73, 48).
in(73, 49).
in(73, 50).
in(73, 58).
in(73, 60).
in(73, 64).
in(73, 66).
in(73, 67).
in(73, 68).
in(73, 69).
in(73, 70).
in(73, 72).
in(73, 74).
in(73, 78).
in(73, 79).
in(73, 80).
in(73, 81).
in(73, 83).
in(73, 86).
in(73, 88).
in(73, 92).
in(73, 94).
in(73, 96).
in(73, 97).
in(73, 100).
in(73, 103).
in(73, 104).
in(73, 106).
in(74, 6).
in(74, 8).
in(74, 9).
in(74, 10).
in(74, 11).
in(74, 16).
in(74, 17).
in(74, 19).
in(74, 20).
in(74, 22).
in(74, 25).
in(74, 29).
in(74, 31).
in(74, 32).
in(74, 35).
in(74, 37).
in(74, 38).
in(74, 39).
in(74, 41).
in(74, 43).
in(74, 47).
in(74, 50).
in(74, 53).
in(74, 54).
in(74, 55).
in(74, 58).
in(74, 60).
in(74, 61).
in(74, 62).
in(74, 64).
in(74, 77).
in(74, 81).
in(74, 83).
in(74, 91).
in(74, 95).
in(74, 97).
in(74, 101).
in(74, 102).
in(74, 106).
in(74, 107).
in(74, 108).
in(75, 2).
in(75, 3).
in(75, 4).
in(75, 5).
in(75, 9).
in(75, 10).
in(75, 12).
in(75, 14).
in(75, 18).
in(75, 20).
in(75, 21).
in(75, 24).
in(75, 27).
in(75, 30).
in(75, 32).
in(75, 34).
in(75, 43).
in(75, 44).
in(75, 45).
in(75, 50).
in(75, 56).
in(75, 59).
in(75, 61).
in(75, 63).
in(75, 64).
in(75, 68).
in(75, 70).
in(75, 79).
in(75, 80).
in(75, 83).
in(75, 87).
in(75, 91).
in(75, 94).
in(75, 104).
in(75, 105).
in(75, 107).
in(76, 1).
in(76, 4).
in(76, 9).
in(76, 14).
in(76, 15).
in(76, 19).
in(76, 22).
in(76, 23).
in(76, 24).
in(76, 25).
in(76, 28).
in(76, 36).
in(76, 37).
in(76, 40).
in(76, 41).
in(76, 43).
in(76, 44).
in(76, 46).
in(76, 51).
in(76, 52).
in(76, 54).
in(76, 59).
in(76, 65).
in(76, 66).
in(76, 68).
in(76, 74).
in(76, 75).
in(76, 76).
in(76, 77).
in(76, 82).
in(76, 83).
in(76, 84).
in(76, 86).
in(76, 90).
in(76, 91).
in(76, 92).
in(76, 97).
in(76, 100).
in(76, 104).
in(76, 109).
in(77, 1).
in(77, 5).
in(77, 7).
in(77, 9).
in(77, 11).
in(77, 12).
in(77, 20).
in(77, 22).
in(77, 24).
in(77, 35).
in(77, 36).
in(77, 39).
in(77, 41).
in(77, 44).
in(77, 45).
in(77, 48).
in(77, 49).
in(77, 50).
in(77, 61).
in(77, 65).
in(77, 66).
in(77, 68).
in(77, 70).
in(77, 71).
in(77, 76).
in(77, 80).
in(77, 82).
in(77, 87).
in(77, 90).
in(77, 93).
in(77, 94).
in(77, 97).
in(77, 100).
in(77, 105).
in(78, 2).
in(78, 4).
in(78, 6).
in(78, 7).
in(78, 10).
in(78, 13).
in(78, 15).
in(78, 16).
in(78, 21).
in(78, 29).
in(78, 31).
in(78, 37).
in(78, 38).
in(78, 40).
in(78, 45).
in(78, 46).
in(78, 47).
in(78, 48).
in(78, 50).
in(78, 53).
in(78, 54).
in(78, 60).
in(78, 63).
in(78, 65).
in(78, 67).
in(78, 71).
in(78, 73).
in(78, 77).
in(78, 79).
in(78, 82).
in(78, 84).
in(78, 88).
in(78, 95).
in(78, 98).
in(78, 99).
in(78, 100).
in(78, 101).
in(78, 107).
in(78, 109).
in(79, 6).
in(79, 9).
in(79, 11).
in(79, 16).
in(79, 18).
in(79, 23).
in(79, 26).
in(79, 27).
in(79, 29).
in(79, 34).
in(79, 44).
in(79, 45).
in(79, 48).
in(79, 54).
in(79, 56).
in(79, 61).
in(79, 63).
in(79, 64).
in(79, 70).
in(79, 71).
in(79, 74).
in(79, 77).
in(79, 81).
in(79, 89).
in(79, 90).
in(79, 99).
in(79, 101).
in(79, 102).
in(79, 103).
in(79, 105).
in(79, 108).
in(79, 109).
in(80, 6).
in(80, 7).
in(80, 10).
in(80, 12).
in(80, 13).
in(80, 17).
in(80, 18).
in(80, 20).
in(80, 23).
in(80, 24).
in(80, 28).
in(80, 45).
in(80, 47).
in(80, 51).
in(80, 53).
in(80, 58).
in(80, 59).
in(80, 61).
in(80, 62).
in(80, 64).
in(80, 65).
in(80, 68).
in(80, 70).
in(80, 71).
in(80, 79).
in(80, 80).
in(80, 82).
in(80, 83).
in(80, 84).
in(80, 87).
in(80, 90).
in(80, 91).
in(80, 92).
in(80, 93).
in(80, 94).
in(80, 97).
in(80, 104).
in(80, 108).
in(81, 2).
in(81, 4).
in(81, 5).
in(81, 6).
in(81, 13).
in(81, 15).
in(81, 16).
in(81, 24).
in(81, 26).
in(81, 27).
in(81, 28).
in(81, 32).
in(81, 33).
in(81, 35).
in(81, 38).
in(81, 41).
in(81, 43).
in(81, 47).
in(81, 48).
in(81, 49).
in(81, 52).
in(81, 53).
in(81, 55).
in(81, 58).
in(81, 59).
in(81, 62).
in(81, 68).
in(81, 70).
in(81, 73).
in(81, 74).
in(81, 78).
in(81, 79).
in(81, 81).
in(81, 89).
in(81, 92).
in(81, 94).
in(81, 100).
in(81, 102).
in(81, 104).
in(81, 105).
in(81, 109).
in(82, 1).
in(82, 2).
in(82, 7).
in(82, 9).
in(82, 10).
in(82, 11).
in(82, 12).
in(82, 15).
in(82, 17).
in(82, 20).
in(82, 22).
in(82, 23).
in(82, 24).
in(82, 27).
in(82, 29).
in(82, 31).
in(82, 33).
in(82, 35).
in(82, 43).
in(82, 44).
in(82, 45).
in(82, 48).
in(82, 50).
in(82, 51).
in(82, 54).
in(82, 55).
in(82, 60).
in(82, 61).
in(82, 63).
in(82, 64).
in(82, 66).
in(82, 68).
in(82, 71).
in(82, 74).
in(82, 75).
in(82, 78).
in(82, 79).
in(82, 82).
in(82, 83).
in(82, 88).
in(82, 89).
in(82, 90).
in(82, 92).
in(82, 93).
in(82, 94).
in(82, 105).
in(83, 1).
in(83, 2).
in(83, 4).
in(83, 6).
in(83, 8).
in(83, 10).
in(83, 12).
in(83, 13).
in(83, 15).
in(83, 23).
in(83, 25).
in(83, 28).
in(83, 35).
in(83, 36).
in(83, 39).
in(83, 42).
in(83, 44).
in(83, 45).
in(83, 48).
in(83, 49).
in(83, 51).
in(83, 55).
in(83, 57).
in(83, 60).
in(83, 61).
in(83, 64).
in(83, 67).
in(83, 71).
in(83, 73).
in(83, 75).
in(83, 81).
in(83, 84).
in(83, 87).
in(83, 90).
in(83, 102).
in(83, 104).
in(83, 108).
in(84, 3).
in(84, 13).
in(84, 22).
in(84, 24).
in(84, 25).
in(84, 26).
in(84, 27).
in(84, 30).
in(84, 31).
in(84, 34).
in(84, 35).
in(84, 36).
in(84, 42).
in(84, 43).
in(84, 44).
in(84, 45).
in(84, 48).
in(84, 50).
in(84, 53).
in(84, 59).
in(84, 62).
in(84, 64).
in(84, 67).
in(84, 68).
in(84, 69).
in(84, 71).
in(84, 73).
in(84, 76).
in(84, 77).
in(84, 80).
in(84, 85).
in(84, 86).
in(84, 87).
in(84, 89).
in(84, 92).
in(84, 93).
in(84, 98).
in(84, 101).
in(85, 3).
in(85, 5).
in(85, 14).
in(85, 18).
in(85, 22).
in(85, 23).
in(85, 25).
in(85, 31).
in(85, 32).
in(85, 33).
in(85, 34).
in(85, 39).
in(85, 40).
in(85, 41).
in(85, 44).
in(85, 46).
in(85, 49).
in(85, 54).
in(85, 59).
in(85, 60).
in(85, 62).
in(85, 63).
in(85, 70).
in(85, 72).
in(85, 73).
in(85, 82).
in(85, 87).
in(85, 89).
in(85, 91).
in(85, 93).
in(85, 99).
in(85, 102).
in(85, 104).
in(85, 106).
in(86, 1).
in(86, 2).
in(86, 4).
in(86, 6).
in(86, 11).
in(86, 12).
in(86, 17).
in(86, 18).
in(86, 19).
in(86, 20).
in(86, 23).
in(86, 25).
in(86, 27).
in(86, 28).
in(86, 29).
in(86, 35).
in(86, 36).
in(86, 37).
in(86, 38).
in(86, 46).
in(86, 47).
in(86, 51).
in(86, 57).
in(86, 63).
in(86, 65).
in(86, 67).
in(86, 74).
in(86, 75).
in(86, 76).
in(86, 78).
in(86, 79).
in(86, 82).
in(86, 84).
in(86, 85).
in(86, 88).
in(86, 92).
in(86, 93).
in(86, 94).
in(86, 98).
in(86, 99).
in(86, 102).
in(86, 106).
in(86, 107).
in(87, 1).
in(87, 4).
in(87, 5).
in(87, 18).
in(87, 19).
in(87, 23).
in(87, 28).
in(87, 31).
in(87, 36).
in(87, 38).
in(87, 39).
in(87, 41).
in(87, 43).
in(87, 45).
in(87, 47).
in(87, 48).
in(87, 50).
in(87, 59).
in(87, 60).
in(87, 63).
in(87, 66).
in(87, 70).
in(87, 74).
in(87, 76).
in(87, 77).
in(87, 79).
in(87, 80).
in(87, 81).
in(87, 82).
in(87, 85).
in(87, 86).
in(87, 89).
in(87, 90).
in(87, 92).
in(87, 102).
in(87, 103).
in(87, 105).
in(87, 107).
in(87, 109).
in(88, 1).
in(88, 4).
in(88, 13).
in(88, 15).
in(88, 24).
in(88, 25).
in(88, 28).
in(88, 29).
in(88, 31).
in(88, 33).
in(88, 35).
in(88, 36).
in(88, 42).
in(88, 43).
in(88, 45).
in(88, 50).
in(88, 53).
in(88, 55).
in(88, 56).
in(88, 57).
in(88, 59).
in(88, 61).
in(88, 64).
in(88, 67).
in(88, 69).
in(88, 70).
in(88, 73).
in(88, 75).
in(88, 79).
in(88, 82).
in(88, 83).
in(88, 88).
in(88, 90).
in(88, 99).
in(88, 100).
in(88, 103).
in(88, 106).
in(89, 1).
in(89, 3).
in(89, 5).
in(89, 6).
in(89, 7).
in(89, 13).
in(89, 14).
in(89, 20).
in(89, 26).
in(89, 38).
in(89, 39).
in(89, 41).
in(89, 42).
in(89, 47).
in(89, 48).
in(89, 50).
in(89, 54).
in(89, 59).
in(89, 60).
in(89, 63).
in(89, 64).
in(89, 66).
in(89, 71).
in(89, 72).
in(89, 73).
in(89, 75).
in(89, 80).
in(89, 82).
in(89, 84).
in(89, 88).
in(89, 91).
in(89, 93).
in(89, 98).
in(89, 100).
in(89, 102).
in(89, 105).
in(89, 107).
in(89, 108).
in(90, 4).
in(90, 10).
in(90, 11).
in(90, 13).
in(90, 19).
in(90, 20).
in(90, 24).
in(90, 25).
in(90, 27).
in(90, 29).
in(90, 33).
in(90, 35).
in(90, 38).
in(90, 43).
in(90, 44).
in(90, 46).
in(90, 47).
in(90, 49).
in(90, 53).
in(90, 54).
in(90, 56).
in(90, 66).
in(90, 67).
in(90, 68).
in(90, 71).
in(90, 72).
in(90, 76).
in(90, 88).
in(90, 91).
in(90, 95).
in(90, 101).
in(90, 102).
in(90, 103).
in(90, 105).
in(90, 106).
in(90, 108).
in(91, 1).
in(91, 2).
in(91, 3).
in(91, 10).
in(91, 11).
in(91, 12).
in(91, 14).
in(91, 15).
in(91, 17).
in(91, 23).
in(91, 27).
in(91, 31).
in(91, 32).
in(91, 36).
in(91, 37).
in(91, 42).
in(91, 44).
in(91, 46).
in(91, 50).
in(91, 55).
in(91, 61).
in(91, 65).
in(91, 69).
in(91, 70).
in(91, 74).
in(91, 76).
in(91, 77).
in(91, 79).
in(91, 84).
in(91, 85).
in(91, 89).
in(91, 93).
in(91, 95).
in(91, 97).
in(91, 99).
in(92, 1).
in(92, 3).
in(92, 7).
in(92, 14).
in(92, 15).
in(92, 19).
in(92, 25).
in(92, 28).
in(92, 30).
in(92, 31).
in(92, 35).
in(92, 36).
in(92, 38).
in(92, 39).
in(92, 40).
in(92, 44).
in(92, 62).
in(92, 69).
in(92, 72).
in(92, 73).
in(92, 74).
in(92, 78).
in(92, 80).
in(92, 84).
in(92, 87).
in(92, 89).
in(92, 93).
in(92, 99).
in(92, 101).
in(92, 103).
in(93, 2).
in(93, 4).
in(93, 6).
in(93, 11).
in(93, 13).
in(93, 18).
in(93, 20).
in(93, 22).
in(93, 30).
in(93, 32).
in(93, 34).
in(93, 35).
in(93, 37).
in(93, 39).
in(93, 44).
in(93, 48).
in(93, 49).
in(93, 50).
in(93, 55).
in(93, 63).
in(93, 66).
in(93, 68).
in(93, 69).
in(93, 72).
in(93, 79).
in(93, 80).
in(93, 82).
in(93, 95).
in(93, 98).
in(93, 104).
in(93, 108).
in(93, 109).
in(94, 1).
in(94, 2).
in(94, 3).
in(94, 13).
in(94, 15).
in(94, 20).
in(94, 21).
in(94, 23).
in(94, 27).
in(94, 29).
in(94, 30).
in(94, 31).
in(94, 32).
in(94, 38).
in(94, 41).
in(94, 45).
in(94, 51).
in(94, 56).
in(94, 57).
in(94, 58).
in(94, 61).
in(94, 63).
in(94, 64).
in(94, 67).
in(94, 68).
in(94, 69).
in(94, 71).
in(94, 79).
in(94, 81).
in(94, 82).
in(94, 86).
in(94, 87).
in(94, 90).
in(94, 91).
in(94, 94).
in(94, 96).
in(94, 98).
in(94, 101).
in(94, 105).
in(94, 107).
in(94, 108).
in(95, 2).
in(95, 3).
in(95, 6).
in(95, 7).
in(95, 12).
in(95, 13).
in(95, 15).
in(95, 25).
in(95, 26).
in(95, 27).
in(95, 35).
in(95, 36).
in(95, 37).
in(95, 38).
in(95, 40).
in(95, 44).
in(95, 47).
in(95, 50).
in(95, 51).
in(95, 52).
in(95, 53).
in(95, 54).
in(95, 55).
in(95, 58).
in(95, 59).
in(95, 63).
in(95, 66).
in(95, 67).
in(95, 70).
in(95, 71).
in(95, 73).
in(95, 75).
in(95, 80).
in(95, 81).
in(95, 83).
in(95, 86).
in(95, 95).
in(95, 100).
in(95, 101).
in(95, 105).
in(96, 4).
in(96, 6).
in(96, 10).
in(96, 17).
in(96, 23).
in(96, 25).
in(96, 26).
in(96, 27).
in(96, 29).
in(96, 30).
in(96, 41).
in(96, 42).
in(96, 43).
in(96, 46).
in(96, 49).
in(96, 51).
in(96, 57).
in(96, 58).
in(96, 67).
in(96, 68).
in(96, 70).
in(96, 73).
in(96, 74).
in(96, 76).
in(96, 78).
in(96, 82).
in(96, 84).
in(96, 88).
in(96, 89).
in(96, 93).
in(96, 95).
in(96, 96).
in(96, 97).
in(96, 105).
in(96, 106).
in(96, 107).
in(96, 109).
in(97, 2).
in(97, 4).
in(97, 5).
in(97, 10).
in(97, 11).
in(97, 15).
in(97, 16).
in(97, 20).
in(97, 24).
in(97, 26).
in(97, 27).
in(97, 29).
in(97, 30).
in(97, 35).
in(97, 38).
in(97, 41).
in(97, 43).
in(97, 44).
in(97, 46).
in(97, 47).
in(97, 51).
in(97, 53).
in(97, 57).
in(97, 60).
in(97, 61).
in(97, 62).
in(97, 63).
in(97, 65).
in(97, 67).
in(97, 72).
in(97, 73).
in(97, 79).
in(97, 81).
in(97, 86).
in(97, 88).
in(97, 90).
in(97, 91).
in(97, 94).
in(97, 97).
in(97, 104).
in(97, 106).
in(98, 2).
in(98, 5).
in(98, 6).
in(98, 7).
in(98, 9).
in(98, 12).
in(98, 16).
in(98, 18).
in(98, 23).
in(98, 28).
in(98, 32).
in(98, 33).
in(98, 35).
in(98, 38).
in(98, 40).
in(98, 41).
in(98, 46).
in(98, 47).
in(98, 55).
in(98, 59).
in(98, 63).
in(98, 64).
in(98, 65).
in(98, 66).
in(98, 73).
in(98, 78).
in(98, 79).
in(98, 81).
in(98, 83).
in(98, 84).
in(98, 88).
in(98, 89).
in(98, 92).
in(98, 94).
in(98, 98).
in(98, 100).
in(98, 102).
in(98, 103).
in(98, 104).
in(98, 107).
in(99, 3).
in(99, 10).
in(99, 11).
in(99, 13).
in(99, 14).
in(99, 16).
in(99, 18).
in(99, 19).
in(99, 20).
in(99, 21).
in(99, 24).
in(99, 26).
in(99, 27).
in(99, 28).
in(99, 29).
in(99, 32).
in(99, 35).
in(99, 39).
in(99, 42).
in(99, 44).
in(99, 50).
in(99, 51).
in(99, 54).
in(99, 55).
in(99, 57).
in(99, 59).
in(99, 62).
in(99, 63).
in(99, 71).
in(99, 77).
in(99, 78).
in(99, 80).
in(99, 86).
in(99, 88).
in(99, 91).
in(99, 93).
in(99, 96).
in(99, 99).
in(99, 108).
in(100, 1).
in(100, 2).
in(100, 3).
in(100, 4).
in(100, 9).
in(100, 15).
in(100, 28).
in(100, 29).
in(100, 30).
in(100, 35).
in(100, 39).
in(100, 42).
in(100, 43).
in(100, 46).
in(100, 54).
in(100, 55).
in(100, 58).
in(100, 63).
in(100, 65).
in(100, 67).
in(100, 72).
in(100, 76).
in(100, 81).
in(100, 82).
in(100, 85).
in(100, 86).
in(100, 87).
in(100, 90).
in(100, 102).
in(100, 107).
in(101, 2).
in(101, 5).
in(101, 8).
in(101, 11).
in(101, 12).
in(101, 15).
in(101, 20).
in(101, 23).
in(101, 24).
in(101, 27).
in(101, 30).
in(101, 31).
in(101, 33).
in(101, 34).
in(101, 36).
in(101, 37).
in(101, 38).
in(101, 41).
in(101, 44).
in(101, 45).
in(101, 46).
in(101, 48).
in(101, 58).
in(101, 64).
in(101, 70).
in(101, 71).
in(101, 72).
in(101, 78).
in(101, 79).
in(101, 80).
in(101, 81).
in(101, 84).
in(101, 86).
in(101, 88).
in(101, 90).
in(101, 92).
in(101, 98).
in(101, 101).
in(101, 103).
in(101, 104).
in(101, 105).
in(101, 106).
in(101, 108).
in(101, 109).
in(102, 3).
in(102, 5).
in(102, 8).
in(102, 11).
in(102, 12).
in(102, 16).
in(102, 19).
in(102, 21).
in(102, 23).
in(102, 25).
in(102, 28).
in(102, 29).
in(102, 30).
in(102, 41).
in(102, 47).
in(102, 49).
in(102, 56).
in(102, 58).
in(102, 67).
in(102, 71).
in(102, 72).
in(102, 88).
in(102, 96).
in(102, 97).
in(102, 103).
in(102, 107).
in(103, 4).
in(103, 8).
in(103, 10).
in(103, 12).
in(103, 15).
in(103, 22).
in(103, 24).
in(103, 26).
in(103, 28).
in(103, 31).
in(103, 32).
in(103, 41).
in(103, 42).
in(103, 48).
in(103, 51).
in(103, 53).
in(103, 55).
in(103, 59).
in(103, 60).
in(103, 62).
in(103, 65).
in(103, 71).
in(103, 73).
in(103, 75).
in(103, 77).
in(103, 78).
in(103, 79).
in(103, 83).
in(103, 86).
in(103, 87).
in(103, 90).
in(103, 96).
in(103, 101).
in(103, 103).
in(103, 107).
in(104, 3).
in(104, 6).
in(104, 8).
in(104, 9).
in(104, 13).
in(104, 17).
in(104, 18).
in(104, 22).
in(104, 23).
in(104, 27).
in(104, 28).
in(104, 29).
in(104, 33).
in(104, 35).
in(104, 38).
in(104, 46).
in(104, 50).
in(104, 51).
in(104, 57).
in(104, 58).
in(104, 61).
in(104, 62).
in(104, 67).
in(104, 70).
in(104, 74).
in(104, 77).
in(104, 78).
in(104, 81).
in(104, 83).
in(104, 84).
in(104, 89).
in(104, 90).
in(104, 98).
in(104, 99).
in(104, 104).
in(105, 6).
in(105, 7).
in(105, 10).
in(105, 13).
in(105, 14).
in(105, 15).
in(105, 16).
in(105, 22).
in(105, 27).
in(105, 30).
in(105, 31).
in(105, 34).
in(105, 39).
in(105, 44).
in(105, 47).
in(105, 49).
in(105, 52).
in(105, 53).
in(105, 54).
in(105, 56).
in(105, 61).
in(105, 66).
in(105, 76).
in(105, 77).
in(105, 79).
in(105, 84).
in(105, 86).
in(105, 89).
in(105, 94).
in(105, 103).
in(105, 108).
in(106, 1).
in(106, 2).
in(106, 6).
in(106, 11).
in(106, 12).
in(106, 15).
in(106, 18).
in(106, 19).
in(106, 20).
in(106, 22).
in(106, 27).
in(106, 30).
in(106, 33).
in(106, 37).
in(106, 41).
in(106, 42).
in(106, 43).
in(106, 47).
in(106, 50).
in(106, 53).
in(106, 54).
in(106, 58).
in(106, 61).
in(106, 62).
in(106, 65).
in(106, 67).
in(106, 69).
in(106, 72).
in(106, 77).
in(106, 82).
in(106, 85).
in(106, 88).
in(106, 90).
in(106, 93).
in(106, 103).
in(106, 107).
in(106, 108).
in(107, 1).
in(107, 4).
in(107, 7).
in(107, 11).
in(107, 12).
in(107, 13).
in(107, 16).
in(107, 23).
in(107, 29).
in(107, 30).
in(107, 33).
in(107, 34).
in(107, 36).
in(107, 38).
in(107, 42).
in(107, 43).
in(107, 47).
in(107, 50).
in(107, 57).
in(107, 58).
in(107, 62).
in(107, 63).
in(107, 65).
in(107, 71).
in(107, 73).
in(107, 75).
in(107, 78).
in(107, 80).
in(107, 82).
in(107, 83).
in(107, 91).
in(107, 92).
in(107, 93).
in(107, 95).
in(107, 96).
in(107, 97).
in(107, 98).
in(107, 100).
in(107, 102).
in(107, 107).
in(107, 109).
in(108, 5).
in(108, 6).
in(108, 12).
in(108, 14).
in(108, 20).
in(108, 22).
in(108, 27).
in(108, 29).
in(108, 30).
in(108, 36).
in(108, 37).
in(108, 38).
in(108, 39).
in(108, 40).
in(108, 42).
in(108, 45).
in(108, 53).
in(108, 55).
in(108, 58).
in(108, 59).
in(108, 66).
in(108, 69).
in(108, 70).
in(108, 71).
in(108, 74).
in(108, 76).
in(108, 82).
in(108, 91).
in(108, 95).
in(108, 99).
in(108, 106).
in(109, 3).
in(109, 5).
in(109, 7).
in(109, 9).
in(109, 13).
in(109, 15).
in(109, 19).
in(109, 21).
in(109, 22).
in(109, 27).
in(109, 28).
in(109, 32).
in(109, 33).
in(109, 34).
in(109, 35).
in(109, 37).
in(109, 46).
in(109, 52).
in(109, 54).
in(109, 62).
in(109, 64).
in(109, 69).
in(109, 71).
in(109, 72).
in(109, 76).
in(109, 84).
in(109, 86).
in(109, 87).
in(109, 88).
in(109, 91).
in(109, 93).
in(109, 94).
in(109, 95).
in(109, 97).
in(109, 100).
in(109, 101).
in(109, 103).
in(109, 104).
in(109, 105).
in(109, 106).
in(110, 3).
in(110, 5).
in(110, 6).
in(110, 10).
in(110, 13).
in(110, 14).
in(110, 15).
in(110, 16).
in(110, 17).
in(110, 19).
in(110, 25).
in(110, 26).
in(110, 27).
in(110, 28).
in(110, 31).
in(110, 38).
in(110, 39).
in(110, 40).
in(110, 43).
in(110, 45).
in(110, 46).
in(110, 49).
in(110, 59).
in(110, 64).
in(110, 73).
in(110, 74).
in(110, 77).
in(110, 78).
in(110, 85).
in(110, 92).
in(110, 93).
in(110, 96).
in(110, 100).
in(110, 107).
in(111, 1).
in(111, 3).
in(111, 4).
in(111, 5).
in(111, 12).
in(111, 15).
in(111, 17).
in(111, 20).
in(111, 21).
in(111, 23).
in(111, 26).
in(111, 29).
in(111, 30).
in(111, 33).
in(111, 35).
in(111, 38).
in(111, 42).
in(111, 45).
in(111, 49).
in(111, 52).
in(111, 55).
in(111, 56).
in(111, 58).
in(111, 61).
in(111, 62).
in(111, 63).
in(111, 69).
in(111, 71).
in(111, 72).
in(111, 81).
in(111, 82).
in(111, 95).
in(111, 96).
in(111, 101).
in(111, 102).
in(111, 103).
in(111, 104).
in(111, 107).
in(112, 3).
in(112, 5).
in(112, 11).
in(112, 14).
in(112, 18).
in(112, 19).
in(112, 22).
in(112, 23).
in(112, 30).
in(112, 32).
in(112, 33).
in(112, 41).
in(112, 42).
in(112, 49).
in(112, 54).
in(112, 55).
in(112, 56).
in(112, 57).
in(112, 58).
in(112, 65).
in(112, 66).
in(112, 67).
in(112, 68).
in(112, 70).
in(112, 76).
in(112, 82).
in(112, 84).
in(112, 85).
in(112, 86).
in(112, 89).
in(112, 92).
in(112, 101).
in(112, 104).
in(112, 105).
in(112, 107).
in(112, 109).
in(113, 2).
in(113, 3).
in(113, 10).
in(113, 15).
in(113, 16).
in(113, 18).
in(113, 21).
in(113, 24).
in(113, 29).
in(113, 30).
in(113, 32).
in(113, 33).
in(113, 36).
in(113, 38).
in(113, 39).
in(113, 41).
in(113, 42).
in(113, 46).
in(113, 49).
in(113, 50).
in(113, 51).
in(113, 53).
in(113, 57).
in(113, 59).
in(113, 62).
in(113, 67).
in(113, 73).
in(113, 76).
in(113, 84).
in(113, 85).
in(113, 89).
in(113, 101).
in(113, 102).
in(114, 12).
in(114, 15).
in(114, 21).
in(114, 22).
in(114, 24).
in(114, 26).
in(114, 27).
in(114, 28).
in(114, 33).
in(114, 38).
in(114, 39).
in(114, 40).
in(114, 42).
in(114, 43).
in(114, 45).
in(114, 46).
in(114, 56).
in(114, 57).
in(114, 67).
in(114, 70).
in(114, 71).
in(114, 75).
in(114, 79).
in(114, 81).
in(114, 84).
in(114, 88).
in(114, 89).
in(114, 91).
in(114, 94).
in(114, 96).
in(114, 98).
in(114, 105).
in(115, 1).
in(115, 4).
in(115, 7).
in(115, 9).
in(115, 16).
in(115, 17).
in(115, 19).
in(115, 21).
in(115, 22).
in(115, 23).
in(115, 25).
in(115, 28).
in(115, 32).
in(115, 34).
in(115, 38).
in(115, 39).
in(115, 41).
in(115, 49).
in(115, 52).
in(115, 53).
in(115, 54).
in(115, 55).
in(115, 57).
in(115, 63).
in(115, 66).
in(115, 69).
in(115, 73).
in(115, 75).
in(115, 79).
in(115, 80).
in(115, 81).
in(115, 84).
in(115, 85).
in(115, 86).
in(115, 87).
in(115, 90).
in(115, 94).
in(115, 100).
in(115, 103).
in(115, 104).
in(116, 2).
in(116, 7).
in(116, 10).
in(116, 13).
in(116, 14).
in(116, 18).
in(116, 20).
in(116, 21).
in(116, 22).
in(116, 24).
in(116, 25).
in(116, 26).
in(116, 27).
in(116, 28).
in(116, 30).
in(116, 32).
in(116, 36).
in(116, 37).
in(116, 41).
in(116, 42).
in(116, 48).
in(116, 49).
in(116, 50).
in(116, 54).
in(116, 67).
in(116, 68).
in(116, 71).
in(116, 77).
in(116, 78).
in(116, 79).
in(116, 84).
in(116, 86).
in(116, 93).
in(116, 94).
in(116, 95).
in(116, 100).
in(116, 101).
in(116, 107).
in(116, 109).
in(117, 4).
in(117, 6).
in(117, 9).
in(117, 10).
in(117, 11).
in(117, 19).
in(117, 25).
in(117, 26).
in(117, 27).
in(117, 30).
in(117, 31).
in(117, 35).
in(117, 40).
in(117, 41).
in(117, 42).
in(117, 46).
in(117, 48).
in(117, 55).
in(117, 56).
in(117, 58).
in(117, 62).
in(117, 63).
in(117, 64).
in(117, 69).
in(117, 72).
in(117, 81).
in(117, 86).
in(117, 87).
in(117, 88).
in(117, 91).
in(117, 92).
in(117, 95).
in(117, 96).
in(117, 98).
in(117, 101).
in(117, 105).
in(118, 5).
in(118, 6).
in(118, 7).
in(118, 10).
in(118, 12).
in(118, 13).
in(118, 14).
in(118, 16).
in(118, 18).
in(118, 22).
in(118, 25).
in(118, 27).
in(118, 32).
in(118, 39).
in(118, 56).
in(118, 58).
in(118, 62).
in(118, 63).
in(118, 64).
in(118, 65).
in(118, 67).
in(118, 73).
in(118, 74).
in(118, 82).
in(118, 83).
in(118, 86).
in(118, 96).
in(118, 98).
in(118, 104).
in(118, 105).
in(118, 106).
in(118, 107).
in(118, 108).
in(118, 109).
in(119, 1).
in(119, 5).
in(119, 7).
in(119, 11).
in(119, 15).
in(119, 17).
in(119, 21).
in(119, 24).
in(119, 25).
in(119, 26).
in(119, 28).
in(119, 30).
in(119, 34).
in(119, 35).
in(119, 36).
in(119, 40).
in(119, 41).
in(119, 42).
in(119, 46).
in(119, 48).
in(119, 49).
in(119, 52).
in(119, 58).
in(119, 65).
in(119, 67).
in(119, 72).
in(119, 74).
in(119, 75).
in(119, 76).
in(119, 80).
in(119, 81).
in(119, 83).
in(119, 85).
in(119, 86).
in(119, 88).
in(119, 92).
in(119, 94).
in(119, 95).
in(119, 105).
in(119, 106).
in(119, 109).
in(120, 3).
in(120, 6).
in(120, 8).
in(120, 9).
in(120, 10).
in(120, 15).
in(120, 23).
in(120, 28).
in(120, 34).
in(120, 35).
in(120, 41).
in(120, 43).
in(120, 49).
in(120, 52).
in(120, 55).
in(120, 61).
in(120, 62).
in(120, 67).
in(120, 72).
in(120, 75).
in(120, 76).
in(120, 77).
in(120, 78).
in(120, 80).
in(120, 88).
in(120, 91).
in(120, 95).
in(120, 96).
in(120, 97).
in(120, 102).
in(120, 103).
in(120, 106).
in(121, 1).
in(121, 5).
in(121, 6).
in(121, 12).
in(121, 15).
in(121, 16).
in(121, 18).
in(121, 19).
in(121, 23).
in(121, 24).
in(121, 25).
in(121, 27).
in(121, 29).
in(121, 30).
in(121, 32).
in(121, 34).
in(121, 36).
in(121, 43).
in(121, 53).
in(121, 56).
in(121, 62).
in(121, 63).
in(121, 64).
in(121, 65).
in(121, 67).
in(121, 69).
in(121, 71).
in(121, 77).
in(121, 78).
in(121, 79).
in(121, 80).
in(121, 83).
in(121, 85).
in(121, 89).
in(121, 91).
in(121, 92).
in(121, 96).
in(121, 99).
in(121, 101).
in(121, 102).
in(121, 103).
in(121, 107).
in(122, 1).
in(122, 4).
in(122, 7).
in(122, 9).
in(122, 10).
in(122, 14).
in(122, 19).
in(122, 21).
in(122, 24).
in(122, 28).
in(122, 29).
in(122, 30).
in(122, 35).
in(122, 40).
in(122, 41).
in(122, 44).
in(122, 50).
in(122, 51).
in(122, 54).
in(122, 57).
in(122, 58).
in(122, 61).
in(122, 63).
in(122, 64).
in(122, 69).
in(122, 70).
in(122, 73).
in(122, 74).
in(122, 79).
in(122, 80).
in(122, 81).
in(122, 87).
in(122, 89).
in(122, 91).
in(122, 100).
in(122, 102).
in(122, 103).
in(122, 109).
in(123, 1).
in(123, 4).
in(123, 7).
in(123, 8).
in(123, 9).
in(123, 10).
in(123, 11).
in(123, 14).
in(123, 18).
in(123, 19).
in(123, 20).
in(123, 25).
in(123, 26).
in(123, 27).
in(123, 33).
in(123, 35).
in(123, 37).
in(123, 42).
in(123, 44).
in(123, 46).
in(123, 47).
in(123, 48).
in(123, 49).
in(123, 51).
in(123, 52).
in(123, 55).
in(123, 56).
in(123, 65).
in(123, 67).
in(123, 68).
in(123, 72).
in(123, 74).
in(123, 79).
in(123, 83).
in(123, 86).
in(123, 87).
in(123, 91).
in(123, 92).
in(123, 93).
in(123, 99).
in(123, 103).
in(123, 109).
in(124, 1).
in(124, 5).
in(124, 6).
in(124, 9).
in(124, 11).
in(124, 12).
in(124, 18).
in(124, 20).
in(124, 21).
in(124, 23).
in(124, 35).
in(124, 37).
in(124, 41).
in(124, 42).
in(124, 47).
in(124, 50).
in(124, 53).
in(124, 54).
in(124, 55).
in(124, 63).
in(124, 64).
in(124, 66).
in(124, 68).
in(124, 69).
in(124, 73).
in(124, 75).
in(124, 76).
in(124, 80).
in(124, 83).
in(124, 85).
in(124, 90).
in(124, 93).
in(124, 95).
in(124, 97).
in(124, 101).
in(124, 102).
in(124, 104).
in(124, 107).
in(124, 108).
in(125, 1).
in(125, 2).
in(125, 4).
in(125, 6).
in(125, 8).
in(125, 9).
in(125, 15).
in(125, 18).
in(125, 20).
in(125, 21).
in(125, 24).
in(125, 26).
in(125, 28).
in(125, 33).
in(125, 37).
in(125, 40).
in(125, 41).
in(125, 42).
in(125, 43).
in(125, 51).
in(125, 55).
in(125, 59).
in(125, 61).
in(125, 62).
in(125, 66).
in(125, 67).
in(125, 68).
in(125, 69).
in(125, 70).
in(125, 75).
in(125, 80).
in(125, 81).
in(125, 84).
in(125, 87).
in(125, 90).
in(125, 92).
in(125, 94).
in(125, 101).
in(125, 102).
in(125, 109).
in(126, 1).
in(126, 2).
in(126, 4).
in(126, 10).
in(126, 12).
in(126, 15).
in(126, 19).
in(126, 21).
in(126, 26).
in(126, 33).
in(126, 36).
in(126, 39).
in(126, 40).
in(126, 42).
in(126, 43).
in(126, 47).
in(126, 48).
in(126, 51).
in(126, 52).
in(126, 54).
in(126, 55).
in(126, 58).
in(126, 61).
in(126, 62).
in(126, 64).
in(126, 65).
in(126, 67).
in(126, 69).
in(126, 71).
in(126, 72).
in(126, 75).
in(126, 78).
in(126, 79).
in(126, 84).
in(126, 86).
in(126, 87).
in(126, 92).
in(126, 95).
in(126, 97).
in(126, 99).
in(126, 101).
in(126, 105).
in(126, 107).
in(127, 2).
in(127, 4).
in(127, 8).
in(127, 9).
in(127, 10).
in(127, 11).
in(127, 13).
in(127, 16).
in(127, 28).
in(127, 29).
in(127, 35).
in(127, 36).
in(127, 38).
in(127, 42).
in(127, 43).
in(127, 44).
in(127, 45).
in(127, 58).
in(127, 63).
in(127, 64).
in(127, 68).
in(127, 69).
in(127, 71).
in(127, 73).
in(127, 76).
in(127, 80).
in(127, 82).
in(127, 86).
in(127, 89).
in(127, 91).
in(127, 92).
in(127, 94).
in(127, 96).
in(127, 97).
in(127, 98).
in(127, 104).
in(127, 105).
in(127, 108).
in(127, 109).
in(128, 1).
in(128, 3).
in(128, 6).
in(128, 7).
in(128, 8).
in(128, 10).
in(128, 13).
in(128, 19).
in(128, 20).
in(128, 22).
in(128, 23).
in(128, 25).
in(128, 26).
in(128, 33).
in(128, 34).
in(128, 35).
in(128, 39).
in(128, 41).
in(128, 43).
in(128, 46).
in(128, 48).
in(128, 53).
in(128, 54).
in(128, 58).
in(128, 62).
in(128, 64).
in(128, 66).
in(128, 67).
in(128, 71).
in(128, 72).
in(128, 73).
in(128, 74).
in(128, 76).
in(128, 78).
in(128, 85).
in(128, 92).
in(128, 97).
in(128, 102).
in(128, 105).
in(128, 107).
in(128, 108).
in(128, 109).
in(129, 1).
in(129, 2).
in(129, 4).
in(129, 6).
in(129, 8).
in(129, 9).
in(129, 12).
in(129, 22).
in(129, 23).
in(129, 29).
in(129, 30).
in(129, 32).
in(129, 33).
in(129, 35).
in(129, 42).
in(129, 45).
in(129, 46).
in(129, 47).
in(129, 49).
in(129, 50).
in(129, 51).
in(129, 54).
in(129, 59).
in(129, 65).
in(129, 69).
in(129, 72).
in(129, 75).
in(129, 76).
in(129, 80).
in(129, 81).
in(129, 83).
in(129, 85).
in(129, 86).
in(129, 90).
in(129, 97).
in(129, 98).
in(129, 100).
in(129, 101).
in(129, 103).
in(129, 105).
in(129, 107).
in(130, 3).
in(130, 6).
in(130, 9).
in(130, 12).
in(130, 19).
in(130, 20).
in(130, 22).
in(130, 24).
in(130, 27).
in(130, 28).
in(130, 30).
in(130, 33).
in(130, 35).
in(130, 36).
in(130, 37).
in(130, 46).
in(130, 48).
in(130, 56).
in(130, 58).
in(130, 61).
in(130, 66).
in(130, 70).
in(130, 74).
in(130, 76).
in(130, 85).
in(130, 86).
in(130, 89).
in(130, 90).
in(130, 91).
in(130, 97).
in(130, 105).
in(131, 3).
in(131, 7).
in(131, 8).
in(131, 11).
in(131, 12).
in(131, 14).
in(131, 15).
in(131, 16).
in(131, 17).
in(131, 20).
in(131, 22).
in(131, 25).
in(131, 26).
in(131, 27).
in(131, 28).
in(131, 29).
in(131, 37).
in(131, 41).
in(131, 42).
in(131, 49).
in(131, 50).
in(131, 51).
in(131, 57).
in(131, 58).
in(131, 60).
in(131, 63).
in(131, 64).
in(131, 67).
in(131, 68).
in(131, 69).
in(131, 71).
in(131, 74).
in(131, 76).
in(131, 78).
in(131, 87).
in(131, 90).
in(131, 91).
in(131, 95).
in(131, 102).
in(131, 105).
in(131, 107).
in(132, 6).
in(132, 7).
in(132, 10).
in(132, 11).
in(132, 12).
in(132, 13).
in(132, 15).
in(132, 16).
in(132, 17).
in(132, 18).
in(132, 22).
in(132, 23).
in(132, 24).
in(132, 25).
in(132, 26).
in(132, 29).
in(132, 35).
in(132, 36).
in(132, 39).
in(132, 41).
in(132, 43).
in(132, 45).
in(132, 47).
in(132, 48).
in(132, 49).
in(132, 50).
in(132, 53).
in(132, 58).
in(132, 59).
in(132, 60).
in(132, 64).
in(132, 67).
in(132, 70).
in(132, 71).
in(132, 75).
in(132, 80).
in(132, 81).
in(132, 82).
in(132, 85).
in(132, 87).
in(132, 89).
in(132, 90).
in(132, 91).
in(132, 92).
in(132, 97).
in(132, 98).
in(132, 99).
in(132, 101).
in(132, 102).
in(132, 105).
in(133, 1).
in(133, 5).
in(133, 6).
in(133, 12).
in(133, 13).
in(133, 15).
in(133, 20).
in(133, 21).
in(133, 22).
in(133, 24).
in(133, 28).
in(133, 29).
in(133, 33).
in(133, 40).
in(133, 41).
in(133, 46).
in(133, 47).
in(133, 50).
in(133, 54).
in(133, 57).
in(133, 58).
in(133, 59).
in(133, 67).
in(133, 68).
in(133, 73).
in(133, 75).
in(133, 77).
in(133, 80).
in(133, 83).
in(133, 85).
in(133, 86).
in(133, 89).
in(133, 91).
in(133, 95).
in(133, 96).
in(133, 97).
in(133, 101).
in(133, 102).
in(133, 103).
in(133, 105).
in(133, 106).
in(134, 4).
in(134, 5).
in(134, 8).
in(134, 9).
in(134, 12).
in(134, 13).
in(134, 23).
in(134, 26).
in(134, 29).
in(134, 34).
in(134, 41).
in(134, 42).
in(134, 44).
in(134, 45).
in(134, 48).
in(134, 49).
in(134, 54).
in(134, 55).
in(134, 57).
in(134, 59).
in(134, 61).
in(134, 62).
in(134, 63).
in(134, 65).
in(134, 66).
in(134, 68).
in(134, 71).
in(134, 73).
in(134, 82).
in(134, 87).
in(134, 90).
in(134, 91).
in(134, 95).
in(134, 96).
in(134, 99).
in(134, 101).
in(134, 103).
in(134, 106).
in(134, 107).
in(135, 1).
in(135, 2).
in(135, 3).
in(135, 5).
in(135, 7).
in(135, 11).
in(135, 16).
in(135, 19).
in(135, 20).
in(135, 24).
in(135, 34).
in(135, 37).
in(135, 38).
in(135, 41).
in(135, 42).
in(135, 45).
in(135, 50).
in(135, 60).
in(135, 61).
in(135, 68).
in(135, 69).
in(135, 71).
in(135, 78).
in(135, 81).
in(135, 82).
in(135, 85).
in(135, 86).
in(135, 87).
in(135, 88).
in(135, 91).
in(135, 93).
in(135, 96).
in(135, 101).
in(135, 103).
in(135, 105).
in(135, 109).
in(136, 2).
in(136, 3).
in(136, 5).
in(136, 6).
in(136, 7).
in(136, 8).
in(136, 9).
in(136, 12).
in(136, 14).
in(136, 17).
in(136, 18).
in(136, 20).
in(136, 26).
in(136, 37).
in(136, 38).
in(136, 43).
in(136, 46).
in(136, 48).
in(136, 51).
in(136, 52).
in(136, 55).
in(136, 61).
in(136, 62).
in(136, 65).
in(136, 69).
in(136, 73).
in(136, 77).
in(136, 78).
in(136, 80).
in(136, 81).
in(136, 85).
in(136, 86).
in(136, 87).
in(136, 90).
in(136, 91).
in(136, 94).
in(136, 96).
in(136, 98).
in(136, 101).
in(136, 104).
in(136, 105).
in(136, 109).
in(137, 1).
in(137, 10).
in(137, 15).
in(137, 18).
in(137, 22).
in(137, 25).
in(137, 26).
in(137, 32).
in(137, 36).
in(137, 37).
in(137, 38).
in(137, 41).
in(137, 42).
in(137, 46).
in(137, 49).
in(137, 50).
in(137, 57).
in(137, 63).
in(137, 71).
in(137, 73).
in(137, 76).
in(137, 81).
in(137, 89).
in(137, 93).
in(137, 94).
in(137, 97).
in(137, 102).
in(137, 103).
in(137, 108).
in(137, 109).
in(138, 3).
in(138, 5).
in(138, 6).
in(138, 14).
in(138, 15).
in(138, 18).
in(138, 20).
in(138, 21).
in(138, 23).
in(138, 24).
in(138, 25).
in(138, 27).
in(138, 28).
in(138, 30).
in(138, 39).
in(138, 41).
in(138, 43).
in(138, 47).
in(138, 50).
in(138, 53).
in(138, 59).
in(138, 61).
in(138, 62).
in(138, 68).
in(138, 69).
in(138, 71).
in(138, 72).
in(138, 74).
in(138, 76).
in(138, 78).
in(138, 80).
in(138, 83).
in(138, 87).
in(138, 88).
in(138, 89).
in(138, 94).
in(138, 99).
in(138, 100).
in(138, 101).
in(138, 103).
in(138, 104).
in(138, 106).
in(138, 109).
in(139, 3).
in(139, 4).
in(139, 6).
in(139, 7).
in(139, 12).
in(139, 18).
in(139, 20).
in(139, 21).
in(139, 22).
in(139, 23).
in(139, 25).
in(139, 26).
in(139, 31).
in(139, 34).
in(139, 35).
in(139, 36).
in(139, 38).
in(139, 40).
in(139, 42).
in(139, 43).
in(139, 44).
in(139, 45).
in(139, 51).
in(139, 61).
in(139, 63).
in(139, 64).
in(139, 68).
in(139, 69).
in(139, 71).
in(139, 75).
in(139, 83).
in(139, 87).
in(139, 89).
in(139, 91).
in(139, 93).
in(139, 94).
in(139, 96).
in(139, 101).
in(139, 102).
in(139, 105).
in(139, 106).
in(139, 108).
in(139, 109).
in(140, 1).
in(140, 3).
in(140, 4).
in(140, 7).
in(140, 11).
in(140, 15).
in(140, 16).
in(140, 17).
in(140, 23).
in(140, 30).
in(140, 31).
in(140, 33).
in(140, 36).
in(140, 38).
in(140, 42).
in(140, 43).
in(140, 46).
in(140, 47).
in(140, 48).
in(140, 51).
in(140, 52).
in(140, 57).
in(140, 60).
in(140, 61).
in(140, 65).
in(140, 66).
in(140, 69).
in(140, 72).
in(140, 73).
in(140, 74).
in(140, 75).
in(140, 76).
in(140, 77).
in(140, 78).
in(140, 79).
in(140, 85).
in(140, 87).
in(140, 91).
in(140, 94).
in(140, 106).
in(140, 107).
in(140, 108).
in(141, 1).
in(141, 4).
in(141, 6).
in(141, 10).
in(141, 12).
in(141, 13).
in(141, 14).
in(141, 15).
in(141, 17).
in(141, 18).
in(141, 21).
in(141, 24).
in(141, 27).
in(141, 28).
in(141, 38).
in(141, 40).
in(141, 41).
in(141, 43).
in(141, 48).
in(141, 49).
in(141, 50).
in(141, 51).
in(141, 52).
in(141, 54).
in(141, 55).
in(141, 60).
in(141, 63).
in(141, 70).
in(141, 74).
in(141, 81).
in(141, 87).
in(141, 88).
in(141, 92).
in(141, 101).
in(141, 108).
in(142, 11).
in(142, 14).
in(142, 22).
in(142, 27).
in(142, 30).
in(142, 32).
in(142, 36).
in(142, 37).
in(142, 41).
in(142, 42).
in(142, 44).
in(142, 47).
in(142, 49).
in(142, 55).
in(142, 56).
in(142, 60).
in(142, 63).
in(142, 68).
in(142, 71).
in(142, 76).
in(142, 78).
in(142, 79).
in(142, 81).
in(142, 82).
in(142, 83).
in(142, 87).
in(142, 89).
in(142, 91).
in(142, 92).
in(142, 94).
in(142, 97).
in(142, 98).
in(142, 99).
in(142, 100).
in(142, 102).
in(142, 109).
in(143, 2).
in(143, 3).
in(143, 7).
in(143, 9).
in(143, 10).
in(143, 13).
in(143, 14).
in(143, 18).
in(143, 20).
in(143, 21).
in(143, 25).
in(143, 32).
in(143, 33).
in(143, 36).
in(143, 45).
in(143, 47).
in(143, 48).
in(143, 50).
in(143, 51).
in(143, 56).
in(143, 63).
in(143, 65).
in(143, 66).
in(143, 70).
in(143, 72).
in(143, 75).
in(143, 76).
in(143, 77).
in(143, 83).
in(143, 85).
in(143, 88).
in(143, 90).
in(143, 97).
in(143, 99).
in(143, 100).
in(143, 101).
in(143, 102).
in(143, 103).
in(143, 108).
in(144, 1).
in(144, 3).
in(144, 5).
in(144, 12).
in(144, 14).
in(144, 15).
in(144, 26).
in(144, 29).
in(144, 33).
in(144, 36).
in(144, 38).
in(144, 39).
in(144, 44).
in(144, 49).
in(144, 50).
in(144, 51).
in(144, 53).
in(144, 55).
in(144, 58).
in(144, 60).
in(144, 62).
in(144, 63).
in(144, 64).
in(144, 66).
in(144, 68).
in(144, 69).
in(144, 75).
in(144, 76).
in(144, 78).
in(144, 83).
in(144, 84).
in(144, 88).
in(144, 92).
in(144, 94).
in(144, 96).
in(144, 97).
in(144, 106).
in(144, 107).
in(145, 3).
in(145, 6).
in(145, 10).
in(145, 12).
in(145, 14).
in(145, 15).
in(145, 19).
in(145, 20).
in(145, 22).
in(145, 23).
in(145, 29).
in(145, 33).
in(145, 34).
in(145, 39).
in(145, 40).
in(145, 46).
in(145, 50).
in(145, 53).
in(145, 62).
in(145, 66).
in(145, 67).
in(145, 70).
in(145, 72).
in(145, 73).
in(145, 74).
in(145, 82).
in(145, 85).
in(145, 88).
in(145, 92).
in(145, 97).
in(145, 99).
in(145, 103).
in(145, 106).
in(146, 10).
in(146, 13).
in(146, 15).
in(146, 21).
in(146, 23).
in(146, 25).
in(146, 27).
in(146, 29).
in(146, 32).
in(146, 39).
in(146, 40).
in(146, 42).
in(146, 49).
in(146, 52).
in(146, 53).
in(146, 59).
in(146, 62).
in(146, 76).
in(146, 77).
in(146, 82).
in(146, 84).
in(146, 87).
in(146, 89).
in(146, 92).
in(146, 97).
in(146, 98).
in(146, 99).
in(146, 100).
in(146, 101).
in(146, 103).
in(146, 106).
in(146, 108).
in(146, 109).
in(147, 1).
in(147, 3).
in(147, 6).
in(147, 8).
in(147, 11).
in(147, 19).
in(147, 30).
in(147, 34).
in(147, 37).
in(147, 41).
in(147, 46).
in(147, 47).
in(147, 48).
in(147, 50).
in(147, 59).
in(147, 61).
in(147, 66).
in(147, 71).
in(147, 73).
in(147, 76).
in(147, 78).
in(147, 80).
in(147, 83).
in(147, 84).
in(147, 85).
in(147, 88).
in(147, 89).
in(147, 91).
in(147, 95).
in(147, 98).
in(147, 102).
in(147, 106).
in(147, 107).
in(148, 5).
in(148, 7).
in(148, 8).
in(148, 12).
in(148, 13).
in(148, 15).
in(148, 18).
in(148, 19).
in(148, 23).
in(148, 25).
in(148, 26).
in(148, 29).
in(148, 30).
in(148, 43).
in(148, 44).
in(148, 50).
in(148, 51).
in(148, 54).
in(148, 61).
in(148, 62).
in(148, 68).
in(148, 69).
in(148, 70).
in(148, 71).
in(148, 74).
in(148, 79).
in(148, 83).
in(148, 85).
in(148, 86).
in(148, 91).
in(148, 93).
in(148, 95).
in(148, 96).
in(148, 99).
in(148, 100).
in(148, 105).
in(148, 106).
in(149, 3).
in(149, 5).
in(149, 7).
in(149, 8).
in(149, 9).
in(149, 10).
in(149, 11).
in(149, 19).
in(149, 24).
in(149, 26).
in(149, 27).
in(149, 28).
in(149, 30).
in(149, 31).
in(149, 41).
in(149, 47).
in(149, 49).
in(149, 51).
in(149, 56).
in(149, 62).
in(149, 71).
in(149, 72).
in(149, 73).
in(149, 77).
in(149, 78).
in(149, 79).
in(149, 80).
in(149, 84).
in(149, 91).
in(149, 93).
in(149, 94).
in(149, 99).
in(149, 102).
in(149, 104).
in(149, 107).
in(149, 108).
in(150, 2).
in(150, 4).
in(150, 8).
in(150, 18).
in(150, 19).
in(150, 20).
in(150, 23).
in(150, 26).
in(150, 27).
in(150, 29).
in(150, 31).
in(150, 32).
in(150, 34).
in(150, 37).
in(150, 41).
in(150, 49).
in(150, 51).
in(150, 53).
in(150, 55).
in(150, 57).
in(150, 59).
in(150, 60).
in(150, 61).
in(150, 63).
in(150, 76).
in(150, 78).
in(150, 80).
in(150, 81).
in(150, 83).
in(150, 88).
in(150, 92).
in(150, 93).
in(150, 94).
in(150, 95).
in(150, 96).
in(150, 100).
in(150, 102).
in(150, 103).
in(150, 104).
in(150, 105).
in(151, 2).
in(151, 3).
in(151, 4).
in(151, 5).
in(151, 6).
in(151, 7).
in(151, 8).
in(151, 10).
in(151, 11).
in(151, 15).
in(151, 18).
in(151, 19).
in(151, 22).
in(151, 24).
in(151, 25).
in(151, 26).
in(151, 27).
in(151, 31).
in(151, 32).
in(151, 33).
in(151, 35).
in(151, 38).
in(151, 40).
in(151, 41).
in(151, 44).
in(151, 46).
in(151, 48).
in(151, 52).
in(151, 53).
in(151, 55).
in(151, 57).
in(151, 63).
in(151, 66).
in(151, 67).
in(151, 69).
in(151, 71).
in(151, 72).
in(151, 74).
in(151, 80).
in(151, 84).
in(151, 85).
in(151, 86).
in(151, 88).
in(151, 96).
in(151, 98).
in(151, 99).
in(151, 100).
in(151, 105).
in(151, 108).
in(151, 109).
in(152, 6).
in(152, 7).
in(152, 8).
in(152, 9).
in(152, 10).
in(152, 22).
in(152, 23).
in(152, 26).
in(152, 29).
in(152, 33).
in(152, 34).
in(152, 40).
in(152, 42).
in(152, 46).
in(152, 47).
in(152, 48).
in(152, 50).
in(152, 52).
in(152, 54).
in(152, 56).
in(152, 59).
in(152, 62).
in(152, 63).
in(152, 65).
in(152, 74).
in(152, 82).
in(152, 86).
in(152, 94).
in(152, 95).
in(152, 98).
in(152, 103).
in(152, 104).
in(152, 107).
in(152, 108).
in(153, 3).
in(153, 4).
in(153, 8).
in(153, 9).
in(153, 11).
in(153, 12).
in(153, 18).
in(153, 21).
in(153, 25).
in(153, 30).
in(153, 34).
in(153, 38).
in(153, 39).
in(153, 42).
in(153, 48).
in(153, 49).
in(153, 53).
in(153, 54).
in(153, 56).
in(153, 58).
in(153, 66).
in(153, 67).
in(153, 70).
in(153, 71).
in(153, 73).
in(153, 74).
in(153, 77).
in(153, 79).
in(153, 86).
in(153, 87).
in(153, 90).
in(153, 92).
in(153, 93).
in(153, 94).
in(153, 95).
in(153, 101).
in(153, 102).
in(153, 105).
in(153, 108).
in(153, 109).
in(154, 3).
in(154, 4).
in(154, 12).
in(154, 15).
in(154, 17).
in(154, 20).
in(154, 30).
in(154, 33).
in(154, 41).
in(154, 45).
in(154, 51).
in(154, 56).
in(154, 57).
in(154, 61).
in(154, 62).
in(154, 65).
in(154, 66).
in(154, 70).
in(154, 73).
in(154, 74).
in(154, 75).
in(154, 76).
in(154, 81).
in(154, 82).
in(154, 87).
in(154, 88).
in(154, 93).
in(154, 94).
in(154, 96).
in(154, 98).
in(154, 99).
in(154, 101).
in(154, 102).
in(154, 106).
in(154, 108).
in(155, 6).
in(155, 9).
in(155, 14).
in(155, 15).
in(155, 16).
in(155, 18).
in(155, 20).
in(155, 24).
in(155, 27).
in(155, 40).
in(155, 42).
in(155, 43).
in(155, 44).
in(155, 54).
in(155, 58).
in(155, 59).
in(155, 60).
in(155, 62).
in(155, 63).
in(155, 65).
in(155, 70).
in(155, 75).
in(155, 82).
in(155, 83).
in(155, 85).
in(155, 87).
in(155, 91).
in(155, 93).
in(155, 94).
in(155, 101).
in(155, 103).
in(155, 108).
in(155, 109).
in(156, 1).
in(156, 3).
in(156, 8).
in(156, 10).
in(156, 15).
in(156, 17).
in(156, 18).
in(156, 19).
in(156, 21).
in(156, 23).
in(156, 25).
in(156, 26).
in(156, 31).
in(156, 38).
in(156, 41).
in(156, 42).
in(156, 45).
in(156, 46).
in(156, 47).
in(156, 49).
in(156, 50).
in(156, 51).
in(156, 57).
in(156, 58).
in(156, 60).
in(156, 64).
in(156, 67).
in(156, 70).
in(156, 72).
in(156, 79).
in(156, 80).
in(156, 85).
in(156, 86).
in(156, 91).
in(156, 96).
in(156, 97).
in(156, 100).
in(156, 109).
in(157, 2).
in(157, 8).
in(157, 10).
in(157, 11).
in(157, 12).
in(157, 14).
in(157, 15).
in(157, 18).
in(157, 19).
in(157, 20).
in(157, 24).
in(157, 29).
in(157, 31).
in(157, 34).
in(157, 41).
in(157, 46).
in(157, 51).
in(157, 55).
in(157, 68).
in(157, 75).
in(157, 81).
in(157, 88).
in(157, 90).
in(157, 93).
in(157, 100).
in(157, 102).
in(157, 105).
in(157, 106).
in(157, 107).
in(157, 109).
in(158, 2).
in(158, 5).
in(158, 7).
in(158, 8).
in(158, 9).
in(158, 18).
in(158, 20).
in(158, 22).
in(158, 23).
in(158, 25).
in(158, 26).
in(158, 29).
in(158, 31).
in(158, 33).
in(158, 36).
in(158, 37).
in(158, 38).
in(158, 40).
in(158, 42).
in(158, 44).
in(158, 50).
in(158, 61).
in(158, 65).
in(158, 70).
in(158, 71).
in(158, 72).
in(158, 78).
in(158, 79).
in(158, 85).
in(158, 86).
in(158, 89).
in(158, 90).
in(158, 95).
in(158, 98).
in(158, 99).
in(158, 100).
in(158, 104).
in(158, 105).
in(158, 107).
in(159, 2).
in(159, 4).
in(159, 8).
in(159, 10).
in(159, 13).
in(159, 14).
in(159, 15).
in(159, 16).
in(159, 19).
in(159, 20).
in(159, 28).
in(159, 29).
in(159, 30).
in(159, 35).
in(159, 38).
in(159, 39).
in(159, 41).
in(159, 47).
in(159, 51).
in(159, 52).
in(159, 56).
in(159, 59).
in(159, 60).
in(159, 64).
in(159, 65).
in(159, 67).
in(159, 68).
in(159, 70).
in(159, 71).
in(159, 76).
in(159, 77).
in(159, 79).
in(159, 82).
in(159, 83).
in(159, 89).
in(159, 90).
in(159, 96).
in(159, 98).
in(159, 100).
in(159, 104).
in(159, 106).
in(159, 107).
in(159, 109).
in(160, 3).
in(160, 6).
in(160, 13).
in(160, 14).
in(160, 18).
in(160, 22).
in(160, 24).
in(160, 27).
in(160, 28).
in(160, 29).
in(160, 31).
in(160, 33).
in(160, 35).
in(160, 39).
in(160, 44).
in(160, 50).
in(160, 51).
in(160, 54).
in(160, 57).
in(160, 60).
in(160, 65).
in(160, 66).
in(160, 71).
in(160, 75).
in(160, 76).
in(160, 78).
in(160, 82).
in(160, 83).
in(160, 84).
in(160, 87).
in(160, 88).
in(160, 90).
in(160, 91).
in(160, 97).
in(160, 105).
in(160, 107).
in(160, 108).
in(161, 1).
in(161, 2).
in(161, 3).
in(161, 5).
in(161, 8).
in(161, 9).
in(161, 12).
in(161, 13).
in(161, 14).
in(161, 15).
in(161, 16).
in(161, 18).
in(161, 26).
in(161, 28).
in(161, 29).
in(161, 31).
in(161, 32).
in(161, 33).
in(161, 35).
in(161, 38).
in(161, 40).
in(161, 41).
in(161, 42).
in(161, 44).
in(161, 45).
in(161, 46).
in(161, 50).
in(161, 52).
in(161, 54).
in(161, 55).
in(161, 60).
in(161, 61).
in(161, 62).
in(161, 67).
in(161, 68).
in(161, 69).
in(161, 71).
in(161, 73).
in(161, 75).
in(161, 82).
in(161, 83).
in(161, 85).
in(161, 86).
in(161, 87).
in(161, 88).
in(161, 95).
in(161, 109).
in(162, 6).
in(162, 12).
in(162, 19).
in(162, 21).
in(162, 22).
in(162, 24).
in(162, 31).
in(162, 33).
in(162, 36).
in(162, 37).
in(162, 40).
in(162, 51).
in(162, 54).
in(162, 57).
in(162, 58).
in(162, 63).
in(162, 67).
in(162, 69).
in(162, 71).
in(162, 75).
in(162, 76).
in(162, 77).
in(162, 79).
in(162, 84).
in(162, 85).
in(162, 87).
in(162, 89).
in(162, 92).
in(162, 95).
in(162, 100).
in(162, 102).
in(162, 103).
in(162, 108).
in(163, 1).
in(163, 3).
in(163, 4).
in(163, 5).
in(163, 9).
in(163, 12).
in(163, 23).
in(163, 29).
in(163, 38).
in(163, 41).
in(163, 43).
in(163, 47).
in(163, 49).
in(163, 51).
in(163, 56).
in(163, 60).
in(163, 61).
in(163, 68).
in(163, 69).
in(163, 74).
in(163, 76).
in(163, 78).
in(163, 79).
in(163, 82).
in(163, 84).
in(163, 86).
in(163, 87).
in(163, 91).
in(163, 97).
in(163, 98).
in(163, 99).
in(163, 100).
in(163, 105).
in(163, 106).
in(164, 1).
in(164, 4).
in(164, 7).
in(164, 9).
in(164, 10).
in(164, 13).
in(164, 14).
in(164, 15).
in(164, 16).
in(164, 19).
in(164, 22).
in(164, 23).
in(164, 24).
in(164, 35).
in(164, 39).
in(164, 40).
in(164, 41).
in(164, 47).
in(164, 48).
in(164, 49).
in(164, 51).
in(164, 53).
in(164, 56).
in(164, 57).
in(164, 60).
in(164, 63).
in(164, 65).
in(164, 71).
in(164, 72).
in(164, 77).
in(164, 80).
in(164, 81).
in(164, 83).
in(164, 85).
in(164, 88).
in(164, 89).
in(164, 90).
in(164, 91).
in(164, 93).
in(164, 96).
in(164, 97).
in(164, 98).
in(164, 101).
in(164, 102).
in(164, 105).
in(164, 108).
in(165, 4).
in(165, 5).
in(165, 6).
in(165, 13).
in(165, 33).
in(165, 35).
in(165, 36).
in(165, 37).
in(165, 39).
in(165, 41).
in(165, 43).
in(165, 47).
in(165, 50).
in(165, 55).
in(165, 59).
in(165, 62).
in(165, 67).
in(165, 68).
in(165, 75).
in(165, 77).
in(165, 88).
in(165, 89).
in(165, 91).
in(165, 93).
in(165, 95).
in(165, 97).
in(165, 103).
in(165, 107).
in(165, 108).
in(166, 3).
in(166, 4).
in(166, 5).
in(166, 15).
in(166, 16).
in(166, 19).
in(166, 20).
in(166, 23).
in(166, 25).
in(166, 26).
in(166, 30).
in(166, 32).
in(166, 35).
in(166, 42).
in(166, 44).
in(166, 45).
in(166, 48).
in(166, 53).
in(166, 57).
in(166, 59).
in(166, 60).
in(166, 64).
in(166, 67).
in(166, 70).
in(166, 71).
in(166, 72).
in(166, 74).
in(166, 75).
in(166, 76).
in(166, 78).
in(166, 80).
in(166, 84).
in(166, 85).
in(166, 88).
in(166, 96).
in(166, 99).
in(166, 101).
in(166, 105).
in(166, 108).
in(167, 3).
in(167, 12).
in(167, 13).
in(167, 15).
in(167, 22).
in(167, 23).
in(167, 25).
in(167, 27).
in(167, 28).
in(167, 35).
in(167, 36).
in(167, 38).
in(167, 40).
in(167, 42).
in(167, 43).
in(167, 47).
in(167, 51).
in(167, 56).
in(167, 58).
in(167, 59).
in(167, 66).
in(167, 72).
in(167, 74).
in(167, 78).
in(167, 86).
in(167, 96).
in(167, 98).
in(167, 103).
in(167, 108).
in(167, 109).
in(168, 1).
in(168, 9).
in(168, 11).
in(168, 12).
in(168, 17).
in(168, 20).
in(168, 23).
in(168, 24).
in(168, 27).
in(168, 37).
in(168, 42).
in(168, 45).
in(168, 48).
in(168, 49).
in(168, 54).
in(168, 63).
in(168, 64).
in(168, 66).
in(168, 70).
in(168, 72).
in(168, 74).
in(168, 75).
in(168, 77).
in(168, 79).
in(168, 85).
in(168, 87).
in(168, 90).
in(168, 94).
in(168, 95).
in(168, 98).
in(168, 99).
in(168, 100).
in(168, 101).
in(168, 102).
in(168, 106).
in(168, 107).
in(168, 108).
in(169, 1).
in(169, 3).
in(169, 8).
in(169, 9).
in(169, 13).
in(169, 15).
in(169, 16).
in(169, 18).
in(169, 19).
in(169, 28).
in(169, 38).
in(169, 48).
in(169, 50).
in(169, 54).
in(169, 56).
in(169, 61).
in(169, 63).
in(169, 66).
in(169, 68).
in(169, 70).
in(169, 73).
in(169, 80).
in(169, 81).
in(169, 82).
in(169, 83).
in(169, 86).
in(169, 93).
in(169, 100).
in(169, 101).
in(169, 103).
in(169, 105).
in(169, 108).
weight(1, 1).
weight(2, 3).
weight(3, 4).
weight(4, 9).
weight(5, 9).
weight(6, 7).
weight(7, 7).
weight(8, 6).
weight(9, 2).
weight(10, 8).
weight(11, 7).
weight(12, 1).
weight(13, 4).
weight(14, 4).
weight(15, 2).
weight(16, 1).
weight(17, 2).
weight(18, 1).
weight(19, 6).
weight(20, 5).
weight(21, 7).
weight(22, 1).
weight(23, 8).
weight(24, 3).
weight(25, 2).
weight(26, 5).
weight(27, 8).
weight(28, 8).
weight(29, 9).
weight(30, 5).
weight(31, 2).
weight(32, 7).
weight(33, 1).
weight(34, 6).
weight(35, 4).
weight(36, 7).
weight(37, 4).
weight(38, 3).
weight(39, 5).
weight(40, 7).
weight(41, 3).
weight(42, 4).
weight(43, 7).
weight(44, 8).
weight(45, 7).
weight(46, 1).
weight(47, 8).
weight(48, 8).
weight(49, 1).
weight(50, 6).
weight(51, 8).
weight(52, 2).
weight(53, 3).
weight(54, 9).
weight(55, 2).
weight(56, 1).
weight(57, 4).
weight(58, 6).
weight(59, 6).
weight(60, 6).
weight(61, 8).
weight(62, 8).
weight(63, 9).
weight(64, 2).
weight(65, 9).
weight(66, 5).
weight(67, 8).
weight(68, 6).
weight(69, 7).
weight(70, 2).
weight(71, 2).
weight(72, 5).
weight(73, 6).
weight(74, 5).
weight(75, 6).
weight(76, 6).
weight(77, 1).
weight(78, 8).
weight(79, 8).
weight(80, 4).
weight(81, 3).
weight(82, 2).
weight(83, 2).
weight(84, 3).
weight(85, 1).
weight(86, 7).
weight(87, 9).
weight(88, 3).
weight(89, 8).
weight(90, 8).
weight(91, 1).
weight(92, 8).
weight(93, 5).
weight(94, 4).
weight(95, 1).
weight(96, 4).
weight(97, 5).
weight(98, 5).
weight(99, 7).
weight(100, 5).
weight(101, 2).
weight(102, 1).
weight(103, 3).
weight(104, 7).
weight(105, 5).
weight(106, 3).
weight(107, 4).
weight(108, 5).
weight(109, 4).
weight(110, 1).
weight(111, 7).
weight(112, 9).
weight(113, 9).
weight(114, 3).
weight(115, 3).
weight(116, 9).
weight(117, 3).
weight(118, 5).
weight(119, 2).
weight(120, 2).
weight(121, 1).
weight(122, 7).
weight(123, 5).
weight(124, 4).
weight(125, 5).
weight(126, 3).
weight(127, 7).
weight(128, 1).
weight(129, 3).
weight(130, 2).
weight(131, 2).
weight(132, 5).
weight(133, 2).
weight(134, 9).
weight(135, 5).
weight(136, 3).
weight(137, 3).
weight(138, 8).
weight(139, 7).
weight(140, 3).
weight(141, 9).
weight(142, 6).
weight(143, 5).
weight(144, 1).
weight(145, 2).
weight(146, 5).
weight(147, 9).
weight(148, 9).
weight(149, 2).
weight(150, 5).
weight(151, 2).
weight(152, 9).
weight(153, 2).
weight(154, 4).
weight(155, 9).
weight(156, 8).
weight(157, 5).
weight(158, 5).
weight(159, 8).
weight(160, 6).
weight(161, 2).
weight(162, 4).
weight(163, 4).
weight(164, 4).
weight(165, 6).
weight(166, 7).
weight(167, 2).
weight(168, 9).
weight(169, 5).

{ choose(S) } :- set(S).
:- choose(S1), choose(S2), S1 < S2, in(S1,E), in(S2,E).
:~ not choose(S), weight(S,W). [W@1,S]
