elem(1..104).
set(1..162).
in(1, 2).
in(1, 3).
in(1, 4).
in(1, 6).
in(1, 7).
in(1, 8).
in(1, 10).
in(1, 17).
in(1, 23).
in(1, 33).
in(1, 37).
in(1, 39).
in(1, 40).
in(1, 42).
in(1, 43).
in(1, 51).
in(1, 55).
in(1, 57).
in(1, 59).
in(1, 60).
in(1, 62).
in(1, 64).
in(1, 71).
in(1, 72).
in(1, 73).
in(1, 78).
in(1, 80).
in(1, 81).
in(1, 83).
in(1, 84).
in(1, 87).
in(1, 90).
in(1, 91).
in(1, 93).
in(1, 94).
in(1, 101).
in(1, 104).
in(2, 2).
in(2, 3).
in(2, 4).
in(2, 5).
in(2, 8).
in(2, 10).
in(2, 15).
in(2, 18).
in(2, 20).
in(2, 21).
in(2, 27).
in(2, 28).
in(2, 30).
in(2, 33).
in(2, 39).
in(2, 43).
in(2, 44).
in(2, 47).
in(2, 48).
in(2, 49).
in(2, 50).
in(2, 56).
in(2, 57).
in(2, 58).
in(2, 65).
in(2, 70).
in(2, 71).
in(2, 73).
in(2, 75).
in(2, 78).
in(2, 79).
in(2, 82).
in(2, 83).
in(2, 88).
in(2, 91).
in(2, 92).
in(2, 94).
in(2, 95).
in(2, 99).
in(2, 102).
in(2, 103).
in(3, 9).
in(3, 10).
in(3, 12).
in(3, 18).
in(3, 20).
in(3, 24).
in(3, 27).
in(3, 30).
in(3, 31).
in(3, 35).
in(3, 40).
in(3, 42).
in(3, 44).
in(3, 49).
in(3, 50).
in(3, 51).
in(3, 53).
in(3, 57).
in(3, 59).
in(3, 66).
in(3, 67).
in(3, 68).
in(3, 72).
in(3, 73).
in(3, 76).
in(3, 77).
in(3, 80).
in(3, 82).
in(3, 86).
in(3, 94).
in(3, 95).
in(3, 97).
in(3, 99).
in(3, 101).
in(3, 102).
in(3, 103).
in(3, 104).
in(4, 2).
in(4, 6).
in(4, 11).
in(4, 26).
in(4, 28).
in(4, 30).
in(4, 33).
in(4, 36).
in(4, 37).
in(4, 38).
in(4, 39).
in(4, 43).
in(4, 44).
in(4, 49).
in(4, 53).
in(4, 56).
in(4, 62).
in(4, 68).
in(4, 70).
in(4, 72).
in(4, 75).
in(4, 79).
in(4, 80).
in(4, 81).
in(4, 82).
in(4, 85).
in(4, 86).
in(4, 87).
in(4, 96).
in(4, 99).
in(4, 101).
in(4, 103).
in(4, 104).
in(5, 8).
in(5, 18).
in(5, 20).
in(5, 21).
in(5, 25).
in(5, 27).
in(5, 35).
in(5, 42).
in(5, 43).
in(5, 45).
in(5, 54).
in(5, 59).
in(5, 62).
in(5, 65).
in(5, 67).
in(5, 69).
in(5, 71).
in(5, 73).
in(5, 75).
in(5, 77).
in(5, 78).
in(5, 79).
in(5, 80).
in(5, 84).
in(5, 86).
in(5, 87).
in(5, 91).
in(5, 100).
in(6, 1).
in(6, 5).
in(6, 6).
in(6, 8).
in(6, 13).
in(6, 20).
in(6, 21).
in(6, 22).
in(6, 30).
in(6, 33).
in(6, 35).
in(6, 37).
in(6, 43).
in(6, 46).
in(6, 55).
in(6, 59).
in(6, 60).
in(6, 61).
in(6, 66).
in(6, 70).
in(6, 71).
in(6, 73).
in(6, 77).
in(6, 80).
in(6, 82).
in(6, 89).
in(6, 90).
in(6, 91).
in(6, 93).
in(6, 94).
in(6, 99).
in(6, 101).
in(6, 102).
in(7, 9).
in(7, 11).
in(7, 15).
in(7, 22).
in(7, 23).
in(7, 26).
in(7, 27).
in(7, 31).
in(7, 35).
in(7, 37).
in(7, 39).
in(7, 41).
in(7, 46).
in(7, 47).
in(7, 52).
in(7, 54).
in(7, 58).
in(7, 60).
in(7, 68).
in(7, 70).
in(7, 71).
in(7, 73).
in(7, 74).
in(7, 79).
in(7, 82).
in(7, 83).
in(7, 86).
in(7, 89).
in(7, 92).
in(7, 95).
in(7, 103).
in(7, 104).
in(8, 2).
in(8, 5).
in(8, 6).
in(8, 7).
in(8, 11).
in(8, 12).
in(8, 18).
in(8, 21).
in(8, 22).
in(8, 23).
in(8, 24).
in(8, 29).
in(8, 31).
in(8, 42).
in(8, 45).
in(8, 47).
in(8, 49).
in(8, 52).
in(8, 56).
in(8, 57).
in(8, 62).
in(8, 63).
in(8, 67).
in(8, 69).
in(8, 70).
in(8, 73).
in(8, 75).
in(8, 76).
in(8, 85).
in(8, 93).
in(8, 95).
in(8, 99).
in(8, 103).
in(8, 104).
in(9, 2).
in(9, 6).
in(9, 14).
in(9, 16).
in(9, 20).
in(9, 22).
in(9, 28).
in(9, 29).
in(9, 31).
in(9, 32).
in(9, 33).
in(9, 34).
in(9, 38).
in(9, 40).
in(9, 42).
in(9, 46).
in(9, 55).
in(9, 59).
in(9, 62).
in(9, 63).
in(9, 64).
in(9, 66).
in(9, 78).
in(9, 80).
in(9, 86).
in(9, 87).
in(9, 89).
in(9, 91).
in(9, 93).
in(9, 94).
in(9, 101).
in(10, 4).
in(10, 7).
in(10, 8).
in(10, 10).
in(10, 13).
in(10, 15).
in(10, 22).
in(10, 23).
in(10, 24).
in(10, 25).
in(10, 32).
in(10, 39).
in(10, 41).
in(10, 43).
in(10, 47).
in(10, 49).
in(10, 51).
in(10, 52).
in(10, 53).
in(10, 59).
in(10, 61).
in(10, 62).
in(10, 67).
in(10, 70).
in(10, 73).
in(10, 75).
in(10, 81).
in(10, 85).
in(10, 89).
in(10, 94).
in(10, 95).
in(10, 96).
in(10, 98).
in(10, 100).
in(10, 104).
in(11, 1).
in(11, 3).
in(11, 11).
in(11, 13).
in(11, 14).
in(11, 16).
in(11, 17).
in(11, 19).
in(11, 25).
in(11, 28).
in(11, 32).
in(11, 34).
in(11, 35).
in(11, 40).
in(11, 41).
in(11, 43).
in(11, 45).
in(11, 49).
in(11, 50).
in(11, 51).
in(11, 52).
in(11, 53).
in(11, 55).
in(11, 64).
in(11, 68).
in(11, 70).
in(11, 78).
in(11, 79).
in(11, 81).
in(11, 84).
in(11, 90).
in(11, 92).
in(11, 96).
in(11, 97).
in(11, 99).
in(11, 100).
in(11, 101).
in(12, 1).
in(12, 3).
in(12, 4).
in(12, 14).
in(12, 15).
in(12, 21).
in(12, 25).
in(12, 26).
in(12, 29).
in(12, 32).
in(12, 34).
in(12, 37).
in(12, 40).
in(12, 42).
in(12, 45).
in(12, 47).
in(12, 51).
in(12, 52).
in(12, 55).
in(12, 57).
in(12, 58).
in(12, 60).
in(12, 61).
in(12, 64).
in(12, 66).
in(12, 68).
in(12, 69).
in(12, 70).
in(12, 73).
in(12, 77).
in(12, 80).
in(12, 89).
in(12, 91).
in(12, 96).
in(12, 98).
in(12, 102).
in(12, 104).
in(13, 2).
in(13, 3).
in(13, 4).
in(13, 6).
in(13, 9).
in(13, 14).
in(13, 16).
in(13, 17).
in(13, 18).
in(13, 21).
in(13, 23).
in(13, 27).
in(13, 31).
in(13, 32).
in(13, 36).
in(13, 37).
in(13, 38).
in(13, 41).
in(13, 42).
in(13, 43).
in(13, 45).
in(13, 47).
in(13, 51).
in(13, 52).
in(13, 53).
in(13, 59).
in(13, 60).
in(13, 62).
in(13, 69).
in(13, 72).
in(13, 75).
in(13, 76).
in(13, 77).
in(13, 90).
in(13, 91).
in(13, 94).
in(13, 97).
in(13, 101).
in(13, 102).
in(14, 5).
in(14, 6).
in(14, 7).
in(14, 8).
in(14, 11).
in(14, 12).
in(14, 16).
in(14, 17).
in(14, 18).
in(14, 19).
in(14, 22).
in(14, 26).
in(14, 30).
in(14, 36).
in(14, 37).
in(14, 38).
in(14, 39).
in(14, 40).
in(14, 42).
in(14, 43).
in(14, 45).
in(14, 47).
in(14, 52).
in(14, 56).
in(14, 57).
in(14, 62).
in(14, 63).
in(14, 67).
in(14, 68).
in(14, 69).
in(14, 75).
in(14, 81).
in(14, 83).
in(14, 86).
in(14, 98).
in(14, 99).
in(14, 101).
in(14, 104).
in(15, 1).
in(15, 2).
in(15, 4).
in(15, 13).
in(15, 17).
in(15, 18).
in(15, 19).
in(15, 21).
in(15, 22).
in(15, 26).
in(15, 27).
in(15, 28).
in(15, 30).
in(15, 31).
in(15, 35).
in(15, 38).
in(15, 39).
in(15, 40).
in(15, 44).
in(15, 45).
in(15, 46).
in(15, 51).
in(15, 54).
in(15, 56).
in(15, 57).
in(15, 58).
in(15, 61).
in(15, 65).
in(15, 70).
in(15, 71).
in(15, 73).
in(15, 76).
in(15, 79).
in(15, 80).
in(15, 89).
in(15, 92).
in(15, 95).
in(15, 98).
in(15, 100).
in(15, 101).
in(16, 2).
in(16, 7).
in(16, 11).
in(16, 14).
in(16, 16).
in(16, 17).
in(16, 19).
in(16, 20).
in(16, 22).
in(16, 25).
in(16, 27).
in(16, 30).
in(16, 31).
in(16, 33).
in(16, 39).
in(16, 40).
in(16, 42).
in(16, 43).
in(16, 44).
in(16, 46).
in(16, 47).
in(16, 54).
in(16, 55).
in(16, 58).
in(16, 59).
in(16, 60).
in(16, 62).
in(16, 65).
in(16, 67).
in(16, 70).
in(16, 71).
in(16, 72).
in(16, 76).
in(16, 79).
in(16, 82).
in(16, 85).
in(16, 86).
in(16, 87).
in(16, 88).
in(16, 89).
in(16, 90).
in(16, 97).
in(16, 98).
in(16, 99).
in(16, 102).
in(16, 104).
in(17, 3).
in(17, 5).
in(17, 6).
in(17, 9).
in(17, 15).
in(17, 19).
in(17, 22).
in(17, 30).
in(17, 31).
in(17, 32).
in(17, 34).
in(17, 39).
in(17, 43).
in(17, 51).
in(17, 56).
in(17, 57).
in(17, 61).
in(17, 63).
in(17, 64).
in(17, 66).
in(17, 68).
in(17, 69).
in(17, 70).
in(17, 71).
in(17, 72).
in(17, 74).
in(17, 76).
in(17, 80).
in(17, 81).
in(17, 83).
in(17, 87).
in(17, 92).
in(17, 93).
in(17, 95).
in(17, 96).
in(17, 97).
in(17, 98).
in(17, 102).
in(17, 104).
in(18, 4).
in(18, 8).
in(18, 9).
in(18, 11).
in(18, 13).
in(18, 15).
in(18, 17).
in(18, 18).
in(18, 21).
in(18, 22).
in(18, 23).
in(18, 24).
in(18, 29).
in(18, 31).
in(18, 33).
in(18, 37).
in(18, 41).
in(18, 42).
in(18, 46).
in(18, 50).
in(18, 51).
in(18, 55).
in(18, 62).
in(18, 64).
in(18, 67).
in(18, 70).
in(18, 72).
in(18, 76).
in(18, 79).
in(18, 80).
in(18, 81).
in(18, 87).
in(18, 88).
in(18, 91).
in(18, 98).
in(18, 99).
in(19, 1).
in(19, 2).
in(19, 5).
in(19, 10).
in(19, 13).
in(19, 14).
in(19, 15).
in(19, 16).
in(19, 20).
in(19, 25).
in(19, 26).
in(19, 27).
in(19, 28).
in(19, 29).
in(19, 30).
in(19, 32).
in(19, 34).
in(19, 37).
in(19, 39).
in(19, 41).
in(19, 43).
in(19, 45).
in(19, 47).
in(19, 49).
in(19, 55).
in(19, 59).
in(19, 64).
in(19, 65).
in(19, 67).
in(19, 76).
in(19, 77).
in(19, 82).
in(19, 86).
in(19, 87).
in(19, 88).
in(19, 89).
in(19, 90).
in(19, 94).
in(19, 96).
in(19, 97).
in(19, 98).
in(19, 100).
in(19, 103).
in(19, 104).
in(20, 7).
in(20, 11).
in(20, 15).
in(20, 19).
in(20, 23).
in(20, 30).
in(20, 32).
in(20, 38).
in(20, 42).
in(20, 44).
in(20, 45).
in(20, 50).
in(20, 54).
in(20, 59).
in(20, 60).
in(20, 62).
in(20, 67).
in(20, 70).
in(20, 75).
in(20, 77).
in(20, 79).
in(20, 86).
in(20, 90).
in(20, 92).
in(20, 93).
in(20, 96).
in(20, 100).
in(20, 101).
in(20, 103).
in(21, 2).
in(21, 4).
in(21, 13).
in(21, 15).
in(21, 19).
in(21, 28).
in(21, 31).
in(21, 37).
in(21, 38).
in(21, 40).
in(21, 41).
in(21, 42).
in(21, 43).
in(21, 45).
in(21, 47).
in(21, 49).
in(21, 51).
in(21, 56).
in(21, 60).
in(21, 61).
in(21, 64).
in(21, 67).
in(21, 69).
in(21, 70).
in(21, 72).
in(21, 73).
in(21, 74).
in(21, 75).
in(21, 81).
in(21, 83).
in(21, 86).
in(21, 94).
in(21, 96).
in(21, 97).
in(21, 99).
in(21, 101).
in(22, 3).
in(22, 5).
in(22, 6).
in(22, 8).
in(22, 10).
in(22, 12).
in(22, 15).
in(22, 17).
in(22, 19).
in(22, 20).
in(22, 26).
in(22, 28).
in(22, 31).
in(22, 39).
in(22, 43).
in(22, 46).
in(22, 47).
in(22, 49).
in(22, 50).
in(22, 51).
in(22, 53).
in(22, 55).
in(22, 60).
in(22, 61).
in(22, 64).
in(22, 67).
in(22, 70).
in(22, 77).
in(22, 79).
in(22, 80).
in(22, 82).
in(22, 85).
in(22, 87).
in(22, 88).
in(22, 91).
in(22, 94).
in(22, 100).
in(22, 103).
in(23, 1).
in(23, 2).
in(23, 6).
in(23, 11).
in(23, 13).
in(23, 15).
in(23, 18).
in(23, 19).
in(23, 21).
in(23, 24).
in(23, 26).
in(23, 29).
in(23, 31).
in(23, 32).
in(23, 37).
in(23, 42).
in(23, 43).
in(23, 44).
in(23, 48).
in(23, 49).
in(23, 50).
in(23, 56).
in(23, 58).
in(23, 59).
in(23, 61).
in(23, 66).
in(23, 67).
in(23, 70).
in(23, 81).
in(23, 85).
in(23, 88).
in(23, 94).
in(23, 99).
in(23, 102).
in(24, 1).
in(24, 3).
in(24, 4).
in(24, 10).
in(24, 14).
in(24, 15).
in(24, 16).
in(24, 20).
in(24, 22).
in(24, 27).
in(24, 33).
in(24, 35).
in(24, 37).
in(24, 40).
in(24, 42).
in(24, 44).
in(24, 48).
in(24, 50).
in(24, 54).
in(24, 55).
in(24, 61).
in(24, 62).
in(24, 63).
in(24, 65).
in(24, 67).
in(24, 68).
in(24, 69).
in(24, 72).
in(24, 74).
in(24, 80).
in(24, 83).
in(24, 84).
in(24, 85).
in(24, 89).
in(24, 90).
in(24, 91).
in(24, 95).
in(24, 97).
in(24, 98).
in(24, 102).
in(24, 103).
in(25, 1).
in(25, 4).
in(25, 6).
in(25, 9).
in(25, 11).
in(25, 12).
in(25, 15).
in(25, 22).
in(25, 24).
in(25, 26).
in(25, 31).
in(25, 33).
in(25, 34).
in(25, 40).
in(25, 41).
in(25, 43).
in(25, 44).
in(25, 47).
in(25, 49).
in(25, 51).
in(25, 52).
in(25, 53).
in(25, 57).
in(25, 59).
in(25, 63).
in(25, 66).
in(25, 68).
in(25, 77).
in(25, 88).
in(25, 89).
in(25, 98).
in(25, 104).
in(26, 1).
in(26, 2).
in(26, 7).
in(26, 8).
in(26, 9).
in(26, 12).
in(26, 14).
in(26, 18).
in(26, 19).
in(26, 20).
in(26, 23).
in(26, 25).
in(26, 33).
in(26, 34).
in(26, 35).
in(26, 36).
in(26, 39).
in(26, 42).
in(26, 43).
in(26, 44).
in(26, 50).
in(26, 53).
in(26, 54).
in(26, 55).
in(26, 57).
in(26, 58).
in(26, 61).
in(26, 65).
in(26, 67).
in(26, 72).
in(26, 76).
in(26, 77).
in(26, 82).
in(26, 86).
in(26, 88).
in(26, 89).
in(26, 90).
in(26, 91).
in(26, 94).
in(26, 97).
in(26, 102).
in(27, 2).
in(27, 3).
in(27, 9).
in(27, 14).
in(27, 18).
in(27, 20).
in(27, 22).
in(27, 25).
in(27, 28).
in(27, 30).
in(27, 33).
in(27, 37).
in(27, 38).
in(27, 46).
in(27, 56).
in(27, 57).
in(27, 63).
in(27, 64).
in(27, 66).
in(27, 71).
in(27, 72).
in(27, 74).
in(27, 75).
in(27, 78).
in(27, 79).
in(27, 81).
in(27, 83).
in(27, 86).
in(27, 87).
in(27, 88).
in(27, 90).
in(27, 91).
in(27, 92).
in(27, 93).
in(27, 94).
in(27, 96).
in(27, 99).
in(27, 102).
in(28, 2).
in(28, 4).
in(28, 5).
in(28, 8).
in(28, 10).
in(28, 11).
in(28, 14).
in(28, 17).
in(28, 18).
in(28, 21).
in(28, 27).
in(28, 28).
in(28, 33).
in(28, 34).
in(28, 35).
in(28, 36).
in(28, 39).
in(28, 42).
in(28, 44).
in(28, 53).
in(28, 54).
in(28, 56).
in(28, 57).
in(28, 58).
in(28, 59).
in(28, 60).
in(28, 61).
in(28, 63).
in(28, 66).
in(28, 72).
in(28, 73).
in(28, 76).
in(28, 77).
in(28, 84).
in(28, 87).
in(28, 88).
in(28, 89).
in(28, 90).
in(28, 93).
in(28, 95).
in(28, 97).
in(28, 98).
in(28, 101).
in(29, 1).
in(29, 10).
in(29, 11).
in(29, 14).
in(29, 22).
in(29, 24).
in(29, 30).
in(29, 43).
in(29, 50).
in(29, 51).
in(29, 52).
in(29, 57).
in(29, 58).
in(29, 61).
in(29, 65).
in(29, 67).
in(29, 69).
in(29, 76).
in(29, 78).
in(29, 80).
in(29, 84).
in(29, 85).
in(29, 86).
in(29, 90).
in(29, 91).
in(29, 95).
in(29, 98).
in(29, 100).
in(29, 101).
in(30, 1).
in(30, 4).
in(30, 5).
in(30, 6).
in(30, 9).
in(30, 10).
in(30, 21).
in(30, 22).
in(30, 26).
in(30, 27).
in(30, 28).
in(30, 29).
in(30, 32).
in(30, 33).
in(30, 36).
in(30, 38).
in(30, 41).
in(30, 45).
in(30, 47).
in(30, 48).
in(30, 50).
in(30, 51).
in(30, 56).
in(30, 57).
in(30, 60).
in(30, 66).
in(30, 71).
in(30, 73).
in(30, 80).
in(30, 81).
in(30, 85).
in(30, 86).
in(30, 93).
in(30, 100).
in(31, 2).
in(31, 3).
in(31, 4).
in(31, 7).
in(31, 10).
in(31, 17).
in(31, 19).
in(31, 20).
in(31, 27).
in(31, 33).
in(31, 34).
in(31, 35).
in(31, 39).
in(31, 46).
in(31, 47).
in(31, 49).
in(31, 52).
in(31, 55).
in(31, 57).
in(31, 61).
in(31, 62).
in(31, 63).
in(31, 70).
in(31, 86).
in(31, 87).
in(31, 90).
in(31, 92).
in(31, 93).
in(31, 95).
in(31, 97).
in(31, 98).
in(31, 100).
in(31, 102).
in(31, 104).
in(32, 3).
in(32, 5).
in(32, 8).
in(32, 11).
in(32, 12).
in(32, 14).
in(32, 21).
in(32, 26).
in(32, 29).
in(32, 45).
in(32, 52).
in(32, 54).
in(32, 56).
in(32, 58).
in(32, 60).
in(32, 61).
in(32, 66).
in(32, 68).
in(32, 71).
in(32, 74).
in(32, 84).
in(32, 85).
in(32, 87).
in(32, 89).
in(32, 95).
in(32, 104).
in(33, 1).
in(33, 2).
in(33, 10).
in(33, 11).
in(33, 12).
in(33, 22).
in(33, 24).
in(33, 28).
in(33, 29).
in(33, 31).
in(33, 33).
in(33, 40).
in(33, 45).
in(33, 48).
in(33, 50).
in(33, 57).
in(33, 59).
in(33, 61).
in(33, 63).
in(33, 66).
in(33, 67).
in(33, 69).
in(33, 70).
in(33, 71).
in(33, 72).
in(33, 75).
in(33, 79).
in(33, 81).
in(33, 87).
in(33, 88).
in(33, 90).
in(33, 95).
in(33, 96).
in(33, 99).
in(33, 100).
in(33, 102).
in(33, 104).
in(34, 6).
in(34, 9).
in(34, 10).
in(34, 11).
in(34, 12).
in(34, 17).
in(34, 22).
in(34, 27).
in(34, 28).
in(34, 32).
in(34, 37).
in(34, 39).
in(34, 40).
in(34, 41).
in(34, 42).
in(34, 43).
in(34, 45).
in(34, 46).
in(34, 48).
in(34, 49).
in(34, 51).
in(34, 52).
in(34, 57).
in(34, 63).
in(34, 67).
in(34, 68).
in(34, 79).
in(34, 81).
in(34, 83).
in(34, 84).
in(34, 85).
in(34, 94).
in(34, 96).
in(34, 99).
in(34, 103).
in(35, 1).
in(35, 2).
in(35, 3).
in(35, 4).
in(35, 7).
in(35, 11).
in(35, 19).
in(35, 23).
in(35, 24).
in(35, 25).
in(35, 27).
in(35, 28).
in(35, 31).
in(35, 34).
in(35, 37).
in(35, 38).
in(35, 41).
in(35, 55).
in(35, 57).
in(35, 60).
in(35, 61).
in(35, 68).
in(35, 77).
in(35, 79).
in(35, 80).
in(35, 83).
in(35, 85).
in(35, 86).
in(35, 87).
in(35, 90).
in(35, 91).
in(35, 92).
in(35, 93).
in(35, 98).
in(36, 7).
in(36, 8).
in(36, 9).
in(36, 11).
in(36, 15).
in(36, 16).
in(36, 17).
in(36, 20).
in(36, 23).
in(36, 26).
in(36, 28).
in(36, 31).
in(36, 34).
in(36, 35).
in(36, 40).
in(36, 47).
in(36, 48).
in(36, 49).
in(36, 53).
in(36, 54).
in(36, 56).
in(36, 57).
in(36, 59).
in(36, 61).
in(36, 67).
in(36, 70).
in(36, 74).
in(36, 75).
in(36, 77).
in(36, 81).
in(36, 82).
in(36, 84).
in(36, 91).
in(36, 95).
in(36, 98).
in(36, 100).
in(36, 102).
in(37, 2).
in(37, 3).
in(37, 7).
in(37, 10).
in(37, 11).
in(37, 16).
in(37, 18).
in(37, 20).
in(37, 23).
in(37, 29).
in(37, 33).
in(37, 39).
in(37, 42).
in(37, 44).
in(37, 47).
in(37, 48).
in(37, 50).
in(37, 51).
in(37, 56).
in(37, 60).
in(37, 61).
in(37, 65).
in(37, 67).
in(37, 72).
in(37, 74).
in(37, 77).
in(37, 80).
in(37, 82).
in(37, 84).
in(37, 87).
in(37, 88).
in(37, 92).
in(37, 93).
in(37, 96).
in(37, 99).
in(37, 104).
in(38, 2).
in(38, 3).
in(38, 6).
in(38, 8).
in(38, 13).
in(38, 16).
in(38, 18).
in(38, 19).
in(38, 21).
in(38, 25).
in(38, 29).
in(38, 30).
in(38, 32).
in(38, 33).
in(38, 40).
in(38, 43).
in(38, 50).
in(38, 56).
in(38, 59).
in(38, 60).
in(38, 63).
in(38, 64).
in(38, 66).
in(38, 70).
in(38, 72).
in(38, 75).
in(38, 76).
in(38, 85).
in(38, 86).
in(38, 88).
in(38, 90).
in(38, 91).
in(38, 94).
in(38, 96).
in(38, 98).
in(39, 2).
in(39, 4).
in(39, 5).
in(39, 7).
in(39, 11).
in(39, 14).
in(39, 15).
in(39, 16).
in(39, 17).
in(39, 19).
in(39, 25).
in(39, 33).
in(39, 35).
in(39, 37).
in(39, 40).
in(39, 41).
in(39, 42).
in(39, 44).
in(39, 45).
in(39, 46).
in(39, 50).
in(39, 52).
in(39, 53).
in(39, 59).
in(39, 60).
in(39, 62).
in(39, 63).
in(39, 64).
in(39, 68).
in(39, 69).
in(39, 72).
in(39, 74).
in(39, 75).
in(39, 77).
in(39, 78).
in(39, 80).
in(39, 81).
in(39, 89).
in(39, 90).
in(39, 91).
in(39, 100).
in(39, 102).
in(40, 1).
in(40, 2).
in(40, 8).
in(40, 10).
in(40, 19).
in(40, 27).
in(40, 29).
in(40, 31).
in(40, 35).
in(40, 39).
in(40, 42).
in(40, 48).
in(40, 50).
in(40, 56).
in(40, 60).
in(40, 61).
in(40, 62).
in(40, 73).
in(40, 75).
in(40, 76).
in(40, 84).
in(40, 88).
in(40, 89).
in(40, 91).
in(40, 92).
in(40, 94).
in(40, 95).
in(40, 96).
in(40, 97).
in(40, 102).
in(40, 103).
in(41, 3).
in(41, 6).
in(41, 10).
in(41, 11).
in(41, 13).
in(41, 14).
in(41, 16).
in(41, 27).
in(41, 30).
in(41, 32).
in(41, 33).
in(41, 34).
in(41, 37).
in(41, 39).
in(41, 40).
in(41, 47).
in(41, 49).
in(41, 52).
in(41, 54).
in(41, 55).
in(41, 58).
in(41, 59).
in(41, 60).
in(41, 62).
in(41, 64).
in(41, 68).
in(41, 71).
in(41, 75).
in(41, 77).
in(41, 80).
in(41, 82).
in(41, 86).
in(41, 88).
in(41, 93).
in(41, 95).
in(41, 96).
in(41, 99).
in(41, 100).
in(42, 2).
in(42, 3).
in(42, 6).
in(42, 18).
in(42, 24).
in(42, 27).
in(42, 32).
in(42, 34).
in(42, 36).
in(42, 37).
in(42, 38).
in(42, 39).
in(42, 49).
in(42, 52).
in(42, 53).
in(42, 54).
in(42, 57).
in(42, 58).
in(42, 60).
in(42, 67).
in(42, 69).
in(42, 72).
in(42, 73).
in(42, 76).
in(42, 77).
in(42, 78).
in(42, 79).
in(42, 86).
in(42, 87).
in(42, 90).
in(42, 94).
in(42, 96).
in(42, 100).
in(42, 101).
in(42, 104).
in(43, 2).
in(43, 5).
in(43, 10).
in(43, 12).
in(43, 13).
in(43, 15).
in(43, 17).
in(43, 27).
in(43, 28).
in(43, 29).
in(43, 31).
in(43, 38).
in(43, 43).
in(43, 47).
in(43, 48).
in(43, 51).
in(43, 52).
in(43, 61).
in(43, 63).
in(43, 64).
in(43, 65).
in(43, 68).
in(43, 70).
in(43, 72).
in(43, 76).
in(43, 78).
in(43, 87).
in(43, 89).
in(43, 92).
in(43, 94).
in(43, 97).
in(43, 99).
in(43, 100).
in(44, 1).
in(44, 2).
in(44, 6).
in(44, 7).
in(44, 8).
in(44, 13).
in(44, 18).
in(44, 26).
in(44, 28).
in(44, 35).
in(44, 43).
in(44, 44).
in(44, 52).
in(44, 55).
in(44, 59).
in(44, 64).
in(44, 65).
in(44, 66).
in(44, 68).
in(44, 75).
in(44, 82).
in(44, 83).
in(44, 85).
in(44, 89).
in(44, 100).
in(44, 102).
in(44, 103).
in(45, 5).
in(45, 11).
in(45, 12).
in(45, 13).
in(45, 15).
in(45, 17).
in(45, 18).
in(45, 19).
in(45, 20).
in(45, 21).
in(45, 22).
in(45, 29).
in(45, 36).
in(45, 37).
in(45, 38).
in(45, 42).
in(45, 47).
in(45, 51).
in(45, 52).
in(45, 53).
in(45, 60).
in(45, 62).
in(45, 63).
in(45, 64).
in(45, 70).
in(45, 72).
in(45, 73).
in(45, 74).
in(45, 79).
in(45, 83).
in(45, 84).
in(45, 86).
in(45, 87).
in(45, 89).
in(45, 92).
in(45, 93).
in(45, 98).
in(45, 99).
in(45, 102).
in(45, 103).
in(46, 6).
in(46, 18).
in(46, 23).
in(46, 27).
in(46, 29).
in(46, 33).
in(46, 35).
in(46, 38).
in(46, 48).
in(46, 49).
in(46, 52).
in(46, 54).
in(46, 58).
in(46, 59).
in(46, 60).
in(46, 61).
in(46, 65).
in(46, 68).
in(46, 75).
in(46, 76).
in(46, 79).
in(46, 80).
in(46, 81).
in(46, 85).
in(46, 88).
in(46, 90).
in(46, 93).
in(46, 94).
in(46, 95).
in(46, 96).
in(46, 97).
in(46, 98).
in(46, 103).
in(47, 3).
in(47, 6).
in(47, 11).
in(47, 15).
in(47, 17).
in(47, 21).
in(47, 22).
in(47, 29).
in(47, 32).
in(47, 40).
in(47, 41).
in(47, 43).
in(47, 48).
in(47, 52).
in(47, 53).
in(47, 56).
in(47, 61).
in(47, 63).
in(47, 70).
in(47, 71).
in(47, 77).
in(47, 79).
in(47, 80).
in(47, 81).
in(47, 86).
in(47, 91).
in(47, 94).
in(47, 98).
in(47, 103).
in(47, 104).
in(48, 4).
in(48, 6).
in(48, 9).
in(48, 12).
in(48, 13).
in(48, 14).
in(48, 15).
in(48, 16).
in(48, 19).
in(48, 22).
in(48, 27).
in(48, 30).
in(48, 31).
in(48, 32).
in(48, 33).
in(48, 36).
in(48, 37).
in(48, 39).
in(48, 40).
in(48, 43).
in(48, 44).
in(48, 55).
in(48, 56).
in(48, 57).
in(48, 59).
in(48, 60).
in(48, 63).
in(48, 66).
in(48, 67).
in(48, 70).
in(48, 71).
in(48, 73).
in(48, 86).
in(48, 87).
in(48, 91).
in(48, 92).
in(48, 96).
in(48, 97).
in(48, 98).
in(48, 104).
in(49, 2).
in(49, 4).
in(49, 5).
in(49, 7).
in(49, 8).
in(49, 11).
in(49, 13).
in(49, 17).
in(49, 21).
in(49, 22).
in(49, 24).
in(49, 28).
in(49, 35).
in(49, 36).
in(49, 39).
in(49, 40).
in(49, 41).
in(49, 43).
in(49, 45).
in(49, 46).
in(49, 47).
in(49, 48).
in(49, 50).
in(49, 52).
in(49, 53).
in(49, 55).
in(49, 56).
in(49, 57).
in(49, 59).
in(49, 60).
in(49, 61).
in(49, 62).
in(49, 64).
in(49, 65).
in(49, 67).
in(49, 68).
in(49, 69).
in(49, 70).
in(49, 72).
in(49, 75).
in(49, 77).
in(49, 78).
in(49, 92).
in(49, 93).
in(49, 95).
in(49, 98).
in(49, 100).
in(49, 102).
in(50, 2).
in(50, 3).
in(50, 4).
in(50, 8).
in(50, 11).
in(50, 12).
in(50, 13).
in(50, 14).
in(50, 15).
in(50, 18).
in(50, 20).
in(50, 26).
in(50, 30).
in(50, 33).
in(50, 34).
in(50, 37).
in(50, 38).
in(50, 42).
in(50, 43).
in(50, 44).
in(50, 48).
in(50, 49).
in(50, 52).
in(50, 53).
in(50, 60).
in(50, 66).
in(50, 72).
in(50, 74).
in(50, 78).
in(50, 79).
in(50, 80).
in(50, 85).
in(50, 87).
in(50, 89).
in(50, 90).
in(50, 92).
in(50, 93).
in(50, 97).
in(50, 101).
in(50, 103).
in(50, 104).
in(51, 2).
in(51, 3).
in(51, 16).
in(51, 17).
in(51, 20).
in(51, 26).
in(51, 29).
in(51, 30).
in(51, 36).
in(51, 40).
in(51, 41).
in(51, 42).
in(51, 46).
in(51, 48).
in(51, 49).
in(51, 51).
in(51, 53).
in(51, 56).
in(51, 57).
in(51, 58).
in(51, 60).
in(51, 61).
in(51, 67).
in(51, 71).
in(51, 76).
in(51, 79).
in(51, 80).
in(51, 92).
in(51, 95).
in(51, 97).
in(51, 98).
in(51, 101).
in(52, 8).
in(52, 16).
in(52, 20).
in(52, 24).
in(52, 27).
in(52, 29).
in(52, 30).
in(52, 31).
in(52, 33).
in(52, 35).
in(52, 37).
in(52, 38).
in(52, 41).
in(52, 44).
in(52, 46).
in(52, 51).
in(52, 52).
in(52, 56).
in(52, 57).
in(52, 59).
in(52, 60).
in(52, 61).
in(52, 63).
in(52, 65).
in(52, 67).
in(52, 68).
in(52, 69).
in(52, 71).
in(52, 74).
in(52, 75).
in(52, 76).
in(52, 81).
in(52, 84).
in(52, 85).
in(52, 87).
in(52, 95).
in(52, 101).
in(52, 102).
in(53, 3).
in(53, 4).
in(53, 7).
in(53, 8).
in(53, 10).
in(53, 15).
in(53, 17).
in(53, 19).
in(53, 20).
in(53, 28).
in(53, 32).
in(53, 34).
in(53, 38).
in(53, 44).
in(53, 52).
in(53, 54).
in(53, 56).
in(53, 58).
in(53, 60).
in(53, 62).
in(53, 65).
in(53, 73).
in(53, 74).
in(53, 75).
in(53, 77).
in(53, 79).
in(53, 80).
in(53, 85).
in(53, 88).
in(53, 90).
in(53, 93).
in(53, 97).
in(53, 101).
in(53, 102).
in(53, 103).
in(54, 1).
in(54, 4).
in(54, 6).
in(54, 7).
in(54, 10).
in(54, 11).
in(54, 13).
in(54, 15).
in(54, 18).
in(54, 19).
in(54, 21).
in(54, 24).
in(54, 26).
in(54, 27).
in(54, 28).
in(54, 31).
in(54, 34).
in(54, 37).
in(54, 40).
in(54, 45).
in(54, 48).
in(54, 54).
in(54, 58).
in(54, 69).
in(54, 72).
in(54, 76).
in(54, 79).
in(54, 81).
in(54, 83).
in(54, 85).
in(54, 87).
in(54, 88).
in(54, 90).
in(54, 96).
in(54, 97).
in(54, 99).
in(54, 100).
in(54, 102).
in(54, 104).
in(55, 4).
in(55, 5).
in(55, 14).
in(55, 15).
in(55, 21).
in(55, 23).
in(55, 24).
in(55, 28).
in(55, 34).
in(55, 37).
in(55, 41).
in(55, 42).
in(55, 44).
in(55, 52).
in(55, 54).
in(55, 55).
in(55, 56).
in(55, 61).
in(55, 63).
in(55, 68).
in(55, 70).
in(55, 73).
in(55, 79).
in(55, 80).
in(55, 85).
in(55, 87).
in(55, 88).
in(55, 90).
in(55, 91).
in(55, 96).
in(55, 100).
in(56, 3).
in(56, 4).
in(56, 9).
in(56, 10).
in(56, 11).
in(56, 12).
in(56, 23).
in(56, 27).
in(56, 28).
in(56, 35).
in(56, 38).
in(56, 47).
in(56, 49).
in(56, 50).
in(56, 52).
in(56, 53).
in(56, 58).
in(56, 59).
in(56, 61).
in(56, 64).
in(56, 72).
in(56, 77).
in(56, 78).
in(56, 87).
in(56, 91).
in(56, 92).
in(56, 93).
in(56, 94).
in(56, 96).
in(57, 6).
in(57, 9).
in(57, 10).
in(57, 12).
in(57, 13).
in(57, 14).
in(57, 16).
in(57, 19).
in(57, 29).
in(57, 31).
in(57, 32).
in(57, 34).
in(57, 40).
in(57, 43).
in(57, 44).
in(57, 45).
in(57, 47).
in(57, 48).
in(57, 52).
in(57, 54).
in(57, 61).
in(57, 62).
in(57, 63).
in(57, 65).
in(57, 71).
in(57, 73).
in(57, 76).
in(57, 78).
in(57, 79).
in(57, 82).
in(57, 83).
in(57, 87).
in(57, 88).
in(57, 92).
in(57, 93).
in(57, 94).
in(57, 96).
in(57, 104).
in(58, 4).
in(58, 5).
in(58, 8).
in(58, 12).
in(58, 18).
in(58, 19).
in(58, 21).
in(58, 24).
in(58, 27).
in(58, 28).
in(58, 33).
in(58, 35).
in(58, 36).
in(58, 42).
in(58, 44).
in(58, 50).
in(58, 54).
in(58, 60).
in(58, 61).
in(58, 62).
in(58, 63).
in(58, 64).
in(58, 68).
in(58, 70).
in(58, 72).
in(58, 74).
in(58, 75).
in(58, 79).
in(58, 86).
in(58, 90).
in(58, 94).
in(58, 96).
in(58, 98).
in(58, 100).
in(58, 101).
in(58, 102).
in(58, 104).
in(59, 5).
in(59, 7).
in(59, 8).
in(59, 11).
in(59, 17).
in(59, 20).
in(59, 21).
in(59, 22).
in(59, 26).
in(59, 27).
in(59, 28).
in(59, 29).
in(59, 30).
in(59, 34).
in(59, 37).
in(59, 39).
in(59, 42).
in(59, 44).
in(59, 49).
in(59, 50).
in(59, 52).
in(59, 53).
in(59, 55).
in(59, 56).
in(59, 59).
in(59, 61).
in(59, 68).
in(59, 69).
in(59, 72).
in(59, 96).
in(59, 98).
in(59, 101).
in(59, 102).
in(59, 103).
in(60, 2).
in(60, 3).
in(60, 5).
in(60, 6).
in(60, 8).
in(60, 17).
in(60, 19).
in(60, 27).
in(60, 31).
in(60, 35).
in(60, 36).
in(60, 40).
in(60, 44).
in(60, 49).
in(60, 52).
in(60, 57).
in(60, 58).
in(60, 61).
in(60, 63).
in(60, 65).
in(60, 69).
in(60, 70).
in(60, 75).
in(60, 78).
in(60, 83).
in(60, 85).
in(60, 91).
in(60, 92).
in(60, 93).
in(61, 1).
in(61, 5).
in(61, 6).
in(61, 7).
in(61, 10).
in(61, 14).
in(61, 15).
in(61, 17).
in(61, 22).
in(61, 43).
in(61, 50).
in(61, 51).
in(61, 52).
in(61, 60).
in(61, 62).
in(61, 63).
in(61, 64).
in(61, 65).
in(61, 68).
in(61, 71).
in(61, 78).
in(61, 79).
in(61, 80).
in(61, 81).
in(61, 85).
in(61, 89).
in(61, 93).
in(61, 94).
in(61, 96).
in(61, 99).
in(61, 100).
in(61, 101).
in(61, 103).
in(61, 104).
in(62, 3).
in(62, 7).
in(62, 10).
in(62, 12).
in(62, 18).
in(62, 20).
in(62, 22).
in(62, 23).
in(62, 29).
in(62, 31).
in(62, 32).
in(62, 33).
in(62, 34).
in(62, 37).
in(62, 38).
in(62, 42).
in(62, 43).
in(62, 45).
in(62, 48).
in(62, 52).
in(62, 56).
in(62, 59).
in(62, 62).
in(62, 65).
in(62, 67).
in(62, 69).
in(62, 74).
in(62, 76).
in(62, 77).
in(62, 82).
in(62, 86).
in(62, 87).
in(62, 93).
in(62, 95).
in(62, 98).
in(62, 100).
in(62, 101).
in(63, 2).
in(63, 4).
in(63, 8).
in(63, 9).
in(63, 11).
in(63, 15).
in(63, 16).
in(63, 26).
in(63, 34).
in(63, 36).
in(63, 37).
in(63, 43).
in(63, 44).
in(63, 47).
in(63, 48).
in(63, 51).
in(63, 53).
in(63, 54).
in(63, 56).
in(63, 57).
in(63, 58).
in(63, 61).
in(63, 64).
in(63, 65).
in(63, 68).
in(63, 71).
in(63, 72).
in(63, 74).
in(63, 77).
in(63, 80).
in(63, 81).
in(63, 82).
in(63, 83).
in(63, 84).
in(63, 92).
in(63, 96).
in(63, 99).
in(63, 102).
in(63, 104).
in(64, 1).
in(64, 2).
in(64, 4).
in(64, 6).
in(64, 7).
in(64, 12).
in(64, 14).
in(64, 15).
in(64, 16).
in(64, 17).
in(64, 19).
in(64, 25).
in(64, 26).
in(64, 27).
in(64, 28).
in(64, 31).
in(64, 32).
in(64, 34).
in(64, 35).
in(64, 37).
in(64, 42).
in(64, 43).
in(64, 51).
in(64, 53).
in(64, 54).
in(64, 57).
in(64, 62).
in(64, 63).
in(64, 66).
in(64, 67).
in(64, 71).
in(64, 81).
in(64, 90).
in(64, 93).
in(64, 96).
in(64, 101).
in(64, 102).
in(65, 8).
in(65, 11).
in(65, 12).
in(65, 15).
in(65, 18).
in(65, 21).
in(65, 40).
in(65, 44).
in(65, 47).
in(65, 49).
in(65, 53).
in(65, 71).
in(65, 72).
in(65, 73).
in(65, 83).
in(65, 85).
in(65, 90).
in(65, 94).
in(65, 97).
in(65, 98).
in(65, 99).
in(66, 1).
in(66, 2).
in(66, 9).
in(66, 15).
in(66, 23).
in(66, 24).
in(66, 25).
in(66, 28).
in(66, 32).
in(66, 34).
in(66, 35).
in(66, 38).
in(66, 42).
in(66, 43).
in(66, 50).
in(66, 52).
in(66, 54).
in(66, 57).
in(66, 59).
in(66, 60).
in(66, 63).
in(66, 66).
in(66, 67).
in(66, 71).
in(66, 78).
in(66, 82).
in(66, 87).
in(66, 94).
in(66, 95).
in(66, 96).
in(66, 100).
in(66, 102).
in(66, 103).
in(66, 104).
in(67, 1).
in(67, 3).
in(67, 9).
in(67, 10).
in(67, 14).
in(67, 20).
in(67, 24).
in(67, 28).
in(67, 33).
in(67, 34).
in(67, 36).
in(67, 39).
in(67, 43).
in(67, 44).
in(67, 47).
in(67, 49).
in(67, 54).
in(67, 55).
in(67, 59).
in(67, 60).
in(67, 62).
in(67, 63).
in(67, 67).
in(67, 68).
in(67, 69).
in(67, 72).
in(67, 73).
in(67, 75).
in(67, 76).
in(67, 77).
in(67, 79).
in(67, 80).
in(67, 83).
in(67, 84).
in(67, 85).
in(67, 87).
in(67, 92).
in(67, 93).
in(67, 94).
in(67, 95).
in(67, 102).
in(68, 1).
in(68, 2).
in(68, 10).
in(68, 12).
in(68, 15).
in(68, 16).
in(68, 17).
in(68, 19).
in(68, 22).
in(68, 23).
in(68, 24).
in(68, 25).
in(68, 34).
in(68, 39).
in(68, 40).
in(68, 42).
in(68, 44).
in(68, 47).
in(68, 48).
in(68, 50).
in(68, 53).
in(68, 60).
in(68, 61).
in(68, 64).
in(68, 65).
in(68, 67).
in(68, 68).
in(68, 69).
in(68, 71).
in(68, 76).
in(68, 77).
in(68, 78).
in(68, 79).
in(68, 83).
in(68, 84).
in(68, 85).
in(68, 95).
in(68, 98).
in(68, 101).
in(68, 102).
in(69, 2).
in(69, 5).
in(69, 6).
in(69, 9).
in(69, 14).
in(69, 15).
in(69, 20).
in(69, 22).
in(69, 26).
in(69, 27).
in(69, 28).
in(69, 38).
in(69, 40).
in(69, 45).
in(69, 47).
in(69, 49).
in(69, 51).
in(69, 57).
in(69, 58).
in(69, 65).
in(69, 68).
in(69, 70).
in(69, 71).
in(69, 74).
in(69, 76).
in(69, 80).
in(69, 83).
in(69, 84).
in(69, 89).
in(69, 91).
in(69, 94).
in(69, 95).
in(69, 98).
in(69, 100).
in(70, 3).
in(70, 4).
in(70, 5).
in(70, 8).
in(70, 9).
in(70, 10).
in(70, 14).
in(70, 17).
in(70, 18).
in(70, 23).
in(70, 24).
in(70, 25).
in(70, 27).
in(70, 28).
in(70, 35).
in(70, 38).
in(70, 39).
in(70, 40).
in(70, 43).
in(70, 46).
in(70, 47).
in(70, 49).
in(70, 51).
in(70, 55).
in(70, 64).
in(70, 68).
in(70, 70).
in(70, 71).
in(70, 73).
in(70, 76).
in(70, 77).
in(70, 78).
in(70, 80).
in(70, 81).
in(70, 87).
in(70, 88).
in(70, 90).
in(70, 93).
in(70, 95).
in(70, 97).
in(70, 98).
in(70, 99).
in(71, 2).
in(71, 3).
in(71, 4).
in(71, 5).
in(71, 7).
in(71, 10).
in(71, 12).
in(71, 18).
in(71, 20).
in(71, 21).
in(71, 22).
in(71, 36).
in(71, 37).
in(71, 41).
in(71, 42).
in(71, 43).
in(71, 52).
in(71, 58).
in(71, 59).
in(71, 61).
in(71, 62).
in(71, 63).
in(71, 64).
in(71, 65).
in(71, 66).
in(71, 69).
in(71, 70).
in(71, 73).
in(71, 74).
in(71, 94).
in(71, 101).
in(71, 102).
in(72, 1).
in(72, 9).
in(72, 13).
in(72, 16).
in(72, 18).
in(72, 21).
in(72, 24).
in(72, 31).
in(72, 39).
in(72, 41).
in(72, 42).
in(72, 46).
in(72, 61).
in(72, 64).
in(72, 68).
in(72, 69).
in(72, 71).
in(72, 73).
in(72, 74).
in(72, 76).
in(72, 83).
in(72, 84).
in(72, 86).
in(72, 90).
in(72, 91).
in(72, 92).
in(72, 97).
in(72, 98).
in(72, 99).
in(72, 104).
in(73, 1).
in(73, 4).
in(73, 8).
in(73, 18).
in(73, 22).
in(73, 24).
in(73, 27).
in(73, 30).
in(73, 32).
in(73, 35).
in(73, 46).
in(73, 47).
in(73, 51).
in(73, 56).
in(73, 57).
in(73, 60).
in(73, 61).
in(73, 64).
in(73, 71).
in(73, 72).
in(73, 73).
in(73, 78).
in(73, 81).
in(73, 90).
in(73, 93).
in(73, 95).
in(73, 104).
in(74, 6).
in(74, 7).
in(74, 13).
in(74, 14).
in(74, 15).
in(74, 23).
in(74, 25).
in(74, 26).
in(74, 28).
in(74, 32).
in(74, 34).
in(74, 36).
in(74, 38).
in(74, 40).
in(74, 46).
in(74, 50).
in(74, 52).
in(74, 58).
in(74, 59).
in(74, 60).
in(74, 61).
in(74, 67).
in(74, 69).
in(74, 71).
in(74, 72).
in(74, 73).
in(74, 76).
in(74, 78).
in(74, 79).
in(74, 81).
in(74, 82).
in(74, 84).
in(74, 85).
in(74, 87).
in(74, 90).
in(74, 93).
in(74, 97).
in(74, 98).
in(74, 100).
in(74, 101).
in(74, 102).
in(75, 2).
in(75, 4).
in(75, 6).
in(75, 8).
in(75, 10).
in(75, 12).
in(75, 14).
in(75, 15).
in(75, 16).
in(75, 17).
in(75, 25).
in(75, 26).
in(75, 27).
in(75, 28).
in(75, 30).
in(75, 36).
in(75, 37).
in(75, 39).
in(75, 40).
in(75, 42).
in(75, 45).
in(75, 46).
in(75, 50).
in(75, 54).
in(75, 57).
in(75, 59).
in(75, 60).
in(75, 68).
in(75, 69).
in(75, 71).
in(75, 79).
in(75, 85).
in(75, 87).
in(75, 88).
in(75, 95).
in(75, 97).
in(75, 98).
in(75, 102).
in(75, 103).
in(75, 104).
in(76, 2).
in(76, 6).
in(76, 9).
in(76, 11).
in(76, 13).
in(76, 18).
in(76, 19).
in(76, 22).
in(76, 24).
in(76, 26).
in(76, 28).
in(76, 29).
in(76, 36).
in(76, 39).
in(76, 40).
in(76, 42).
in(76, 44).
in(76, 50).
in(76, 53).
in(76, 55).
in(76, 59).
in(76, 63).
in(76, 65).
in(76, 70).
in(76, 75).
in(76, 83).
in(76, 85).
in(76, 87).
in(76, 92).
in(76, 94).
in(76, 97).
in(76, 102).
in(77, 1).
in(77, 4).
in(77, 9).
in(77, 13).
in(77, 15).
in(77, 17).
in(77, 18).
in(77, 28).
in(77, 31).
in(77, 33).
in(77, 34).
in(77, 40).
in(77, 41).
in(77, 47).
in(77, 49).
in(77, 50).
in(77, 52).
in(77, 53).
in(77, 65).
in(77, 66).
in(77, 69).
in(77, 70).
in(77, 71).
in(77, 75).
in(77, 76).
in(77, 81).
in(77, 82).
in(77, 86).
in(77, 90).
in(77, 91).
in(77, 92).
in(77, 93).
in(77, 104).
in(78, 5).
in(78, 6).
in(78, 11).
in(78, 12).
in(78, 15).
in(78, 16).
in(78, 18).
in(78, 19).
in(78, 22).
in(78, 24).
in(78, 25).
in(78, 26).
in(78, 27).
in(78, 28).
in(78, 30).
in(78, 32).
in(78, 38).
in(78, 39).
in(78, 40).
in(78, 41).
in(78, 44).
in(78, 45).
in(78, 46).
in(78, 47).
in(78, 51).
in(78, 54).
in(78, 57).
in(78, 60).
in(78, 65).
in(78, 66).
in(78, 67).
in(78, 76).
in(78, 77).
in(78, 79).
in(78, 86).
in(78, 87).
in(78, 89).
in(78, 96).
in(78, 97).
in(78, 100).
in(78, 101).
in(78, 102).
in(78, 104).
in(79, 2).
in(79, 3).
in(79, 10).
in(79, 14).
in(79, 15).
in(79, 17).
in(79, 19).
in(79, 20).
in(79, 27).
in(79, 37).
in(79, 40).
in(79, 42).
in(79, 44).
in(79, 46).
in(79, 48).
in(79, 52).
in(79, 55).
in(79, 57).
in(79, 62).
in(79, 63).
in(79, 64).
in(79, 65).
in(79, 69).
in(79, 75).
in(79, 80).
in(79, 82).
in(79, 83).
in(79, 85).
in(79, 92).
in(79, 93).
in(79, 94).
in(79, 100).
in(79, 101).
in(79, 102).
in(80, 2).
in(80, 6).
in(80, 7).
in(80, 8).
in(80, 10).
in(80, 11).
in(80, 16).
in(80, 24).
in(80, 26).
in(80, 28).
in(80, 33).
in(80, 34).
in(80, 35).
in(80, 40).
in(80, 42).
in(80, 43).
in(80, 48).
in(80, 49).
in(80, 50).
in(80, 51).
in(80, 52).
in(80, 56).
in(80, 59).
in(80, 60).
in(80, 63).
in(80, 66).
in(80, 69).
in(80, 76).
in(80, 78).
in(80, 80).
in(80, 81).
in(80, 84).
in(80, 85).
in(80, 92).
in(80, 93).
in(80, 99).
in(80, 100).
in(80, 104).
in(81, 8).
in(81, 17).
in(81, 21).
in(81, 22).
in(81, 23).
in(81, 24).
in(81, 25).
in(81, 33).
in(81, 36).
in(81, 37).
in(81, 40).
in(81, 41).
in(81, 42).
in(81, 45).
in(81, 47).
in(81, 54).
in(81, 58).
in(81, 63).
in(81, 66).
in(81, 67).
in(81, 68).
in(81, 73).
in(81, 74).
in(81, 75).
in(81, 76).
in(81, 78).
in(81, 83).
in(81, 86).
in(81, 90).
in(81, 91).
in(81, 92).
in(81, 93).
in(81, 94).
in(81, 97).
in(81, 98).
in(81, 99).
in(81, 102).
in(81, 103).
in(81, 104).
in(82, 3).
in(82, 6).
in(82, 8).
in(82, 11).
in(82, 14).
in(82, 19).
in(82, 21).
in(82, 23).
in(82, 27).
in(82, 30).
in(82, 34).
in(82, 37).
in(82, 40).
in(82, 42).
in(82, 43).
in(82, 46).
in(82, 47).
in(82, 53).
in(82, 56).
in(82, 57).
in(82, 58).
in(82, 64).
in(82, 65).
in(82, 66).
in(82, 67).
in(82, 71).
in(82, 73).
in(82, 74).
in(82, 76).
in(82, 80).
in(82, 83).
in(82, 84).
in(82, 91).
in(82, 95).
in(82, 97).
in(82, 98).
in(82, 99).
in(82, 101).
in(82, 102).
in(83, 1).
in(83, 3).
in(83, 4).
in(83, 6).
in(83, 11).
in(83, 12).
in(83, 14).
in(83, 24).
in(83, 25).
in(83, 29).
in(83, 32).
in(83, 34).
in(83, 42).
in(83, 45).
in(83, 51).
in(83, 53).
in(83, 54).
in(83, 55).
in(83, 62).
in(83, 67).
in(83, 69).
in(83, 73).
in(83, 78).
in(83, 79).
in(83, 82).
in(83, 94).
in(83, 95).
in(83, 99).
in(83, 104).
in(84, 7).
in(84, 14).
in(84, 18).
in(84, 27).
in(84, 33).
in(84, 37).
in(84, 41).
in(84, 47).
in(84, 48).
in(84, 51).
in(84, 54).
in(84, 55).
in(84, 58).
in(84, 60).
in(84, 62).
in(84, 63).
in(84, 66).
in(84, 70).
in(84, 71).
in(84, 73).
in(84, 74).
in(84, 75).
in(84, 76).
in(84, 78).
in(84, 81).
in(84, 82).
in(84, 99).
in(84, 100).
in(84, 102).
in(85, 3).
in(85, 5).
in(85, 6).
in(85, 8).
in(85, 9).
in(85, 16).
in(85, 21).
in(85, 23).
in(85, 26).
in(85, 30).
in(85, 34).
in(85, 37).
in(85, 39).
in(85, 44).
in(85, 48).
in(85, 50).
in(85, 51).
in(85, 52).
in(85, 53).
in(85, 58).
in(85, 62).
in(85, 63).
in(85, 64).
in(85, 69).
in(85, 72).
in(85, 78).
in(85, 79).
in(85, 80).
in(85, 83).
in(85, 86).
in(85, 87).
in(85, 89).
in(85, 91).
in(85, 94).
in(85, 95).
in(85, 98).
in(85, 99).
in(85, 100).
in(85, 103).
in(86, 2).
in(86, 3).
in(86, 5).
in(86, 7).
in(86, 16).
in(86, 20).
in(86, 22).
in(86, 23).
in(86, 27).
in(86, 34).
in(86, 36).
in(86, 40).
in(86, 41).
in(86, 42).
in(86, 43).
in(86, 46).
in(86, 56).
in(86, 65).
in(86, 66).
in(86, 68).
in(86, 69).
in(86, 70).
in(86, 72).
in(86, 73).
in(86, 75).
in(86, 77).
in(86, 78).
in(86, 81).
in(86, 82).
in(86, 90).
in(86, 91).
in(86, 98).
in(86, 99).
in(86, 101).
in(86, 102).
in(87, 4).
in(87, 5).
in(87, 8).
in(87, 9).
in(87, 10).
in(87, 14).
in(87, 18).
in(87, 20).
in(87, 22).
in(87, 23).
in(87, 25).
in(87, 30).
in(87, 31).
in(87, 33).
in(87, 34).
in(87, 38).
in(87, 43).
in(87, 44).
in(87, 46).
in(87, 48).
in(87, 49).
in(87, 53).
in(87, 54).
in(87, 57).
in(87, 60).
in(87, 63).
in(87, 65).
in(87, 69).
in(87, 70).
in(87, 74).
in(87, 78).
in(87, 80).
in(87, 81).
in(87, 83).
in(87, 84).
in(87, 87).
in(87, 104).
in(88, 6).
in(88, 7).
in(88, 9).
in(88, 10).
in(88, 12).
in(88, 18).
in(88, 22).
in(88, 29).
in(88, 30).
in(88, 33).
in(88, 37).
in(88, 40).
in(88, 41).
in(88, 43).
in(88, 49).
in(88, 50).
in(88, 53).
in(88, 55).
in(88, 58).
in(88, 59).
in(88, 64).
in(88, 66).
in(88, 68).
in(88, 72).
in(88, 80).
in(88, 83).
in(88, 84).
in(88, 87).
in(88, 88).
in(88, 89).
in(88, 91).
in(88, 93).
in(88, 94).
in(88, 95).
in(88, 99).
in(88, 100).
in(89, 12).
in(89, 13).
in(89, 21).
in(89, 32).
in(89, 33).
in(89, 36).
in(89, 37).
in(89, 44).
in(89, 46).
in(89, 48).
in(89, 51).
in(89, 52).
in(89, 53).
in(89, 61).
in(89, 63).
in(89, 64).
in(89, 70).
in(89, 73).
in(89, 75).
in(89, 78).
in(89, 85).
in(89, 90).
in(89, 93).
in(89, 96).
in(89, 103).
in(89, 104).
in(90, 1).
in(90, 3).
in(90, 4).
in(90, 6).
in(90, 9).
in(90, 10).
in(90, 12).
in(90, 13).
in(90, 14).
in(90, 15).
in(90, 16).
in(90, 28).
in(90, 31).
in(90, 33).
in(90, 37).
in(90, 38).
in(90, 39).
in(90, 40).
in(90, 47).
in(90, 48).
in(90, 51).
in(90, 55).
in(90, 56).
in(90, 57).
in(90, 58).
in(90, 66).
in(90, 71).
in(90, 79).
in(90, 86).
in(90, 87).
in(90, 91).
in(90, 92).
in(90, 93).
in(90, 96).
in(90, 99).
in(90, 102).
in(91, 1).
in(91, 3).
in(91, 4).
in(91, 7).
in(91, 9).
in(91, 10).
in(91, 11).
in(91, 12).
in(91, 13).
in(91, 21).
in(91, 22).
in(91, 24).
in(91, 25).
in(91, 26).
in(91, 27).
in(91, 31).
in(91, 33).
in(91, 37).
in(91, 39).
in(91, 42).
in(91, 43).
in(91, 48).
in(91, 50).
in(91, 51).
in(91, 57).
in(91, 63).
in(91, 65).
in(91, 67).
in(91, 70).
in(91, 71).
in(91, 72).
in(91, 77).
in(91, 81).
in(91, 84).
in(91, 87).
in(91, 89).
in(91, 91).
in(91, 98).
in(91, 102).
in(92, 3).
in(92, 7).
in(92, 8).
in(92, 14).
in(92, 15).
in(92, 16).
in(92, 21).
in(92, 23).
in(92, 27).
in(92, 31).
in(92, 32).
in(92, 33).
in(92, 36).
in(92, 39).
in(92, 40).
in(92, 44).
in(92, 46).
in(92, 48).
in(92, 49).
in(92, 50).
in(92, 54).
in(92, 57).
in(92, 67).
in(92, 77).
in(92, 78).
in(92, 79).
in(92, 80).
in(92, 81).
in(92, 82).
in(92, 83).
in(92, 84).
in(92, 85).
in(92, 88).
in(92, 92).
in(92, 93).
in(92, 94).
in(92, 97).
in(92, 98).
in(92, 100).
in(93, 3).
in(93, 7).
in(93, 8).
in(93, 10).
in(93, 12).
in(93, 14).
in(93, 18).
in(93, 19).
in(93, 25).
in(93, 26).
in(93, 27).
in(93, 32).
in(93, 34).
in(93, 36).
in(93, 40).
in(93, 44).
in(93, 52).
in(93, 53).
in(93, 58).
in(93, 62).
in(93, 63).
in(93, 66).
in(93, 67).
in(93, 68).
in(93, 70).
in(93, 74).
in(93, 77).
in(93, 81).
in(93, 83).
in(93, 86).
in(93, 91).
in(94, 5).
in(94, 6).
in(94, 7).
in(94, 10).
in(94, 11).
in(94, 14).
in(94, 15).
in(94, 16).
in(94, 23).
in(94, 25).
in(94, 28).
in(94, 30).
in(94, 33).
in(94, 39).
in(94, 44).
in(94, 45).
in(94, 64).
in(94, 65).
in(94, 71).
in(94, 75).
in(94, 76).
in(94, 77).
in(94, 79).
in(94, 87).
in(94, 90).
in(94, 92).
in(94, 93).
in(94, 95).
in(94, 98).
in(94, 103).
in(95, 4).
in(95, 17).
in(95, 19).
in(95, 21).
in(95, 22).
in(95, 23).
in(95, 24).
in(95, 26).
in(95, 28).
in(95, 29).
in(95, 32).
in(95, 35).
in(95, 37).
in(95, 39).
in(95, 41).
in(95, 44).
in(95, 45).
in(95, 46).
in(95, 47).
in(95, 48).
in(95, 49).
in(95, 53).
in(95, 54).
in(95, 57).
in(95, 58).
in(95, 61).
in(95, 66).
in(95, 69).
in(95, 71).
in(95, 73).
in(95, 74).
in(95, 76).
in(95, 77).
in(95, 82).
in(95, 84).
in(95, 86).
in(95, 89).
in(95, 93).
in(95, 97).
in(95, 98).
in(96, 1).
in(96, 3).
in(96, 4).
in(96, 6).
in(96, 10).
in(96, 14).
in(96, 17).
in(96, 29).
in(96, 30).
in(96, 34).
in(96, 40).
in(96, 41).
in(96, 46).
in(96, 49).
in(96, 51).
in(96, 55).
in(96, 59).
in(96, 66).
in(96, 71).
in(96, 72).
in(96, 74).
in(96, 81).
in(96, 85).
in(96, 87).
in(96, 96).
in(96, 98).
in(96, 102).
in(96, 104).
in(97, 8).
in(97, 10).
in(97, 11).
in(97, 15).
in(97, 17).
in(97, 19).
in(97, 22).
in(97, 23).
in(97, 27).
in(97, 34).
in(97, 37).
in(97, 38).
in(97, 47).
in(97, 48).
in(97, 54).
in(97, 55).
in(97, 61).
in(97, 69).
in(97, 75).
in(97, 78).
in(97, 82).
in(97, 85).
in(97, 88).
in(97, 90).
in(97, 94).
in(97, 97).
in(97, 99).
in(97, 103).
in(97, 104).
in(98, 2).
in(98, 8).
in(98, 9).
in(98, 10).
in(98, 16).
in(98, 17).
in(98, 18).
in(98, 33).
in(98, 42).
in(98, 44).
in(98, 57).
in(98, 58).
in(98, 60).
in(98, 66).
in(98, 67).
in(98, 69).
in(98, 70).
in(98, 71).
in(98, 75).
in(98, 76).
in(98, 86).
in(98, 89).
in(98, 91).
in(98, 92).
in(98, 96).
in(98, 97).
in(98, 98).
in(98, 103).
in(98, 104).
in(99, 3).
in(99, 4).
in(99, 7).
in(99, 9).
in(99, 11).
in(99, 12).
in(99, 14).
in(99, 16).
in(99, 19).
in(99, 21).
in(99, 22).
in(99, 24).
in(99, 25).
in(99, 27).
in(99, 28).
in(99, 30).
in(99, 32).
in(99, 34).
in(99, 37).
in(99, 38).
in(99, 41).
in(99, 43).
in(99, 46).
in(99, 48).
in(99, 54).
in(99, 56).
in(99, 59).
in(99, 63).
in(99, 64).
in(99, 66).
in(99, 72).
in(99, 75).
in(99, 84).
in(99, 85).
in(99, 91).
in(99, 94).
in(99, 96).
in(99, 97).
in(99, 102).
in(100, 6).
in(100, 7).
in(100, 10).
in(100, 11).
in(100, 12).
in(100, 18).
in(100, 19).
in(100, 21).
in(100, 26).
in(100, 30).
in(100, 31).
in(100, 37).
in(100, 38).
in(100, 39).
in(100, 40).
in(100, 41).
in(100, 46).
in(100, 48).
in(100, 53).
in(100, 57).
in(100, 59).
in(100, 60).
in(100, 62).
in(100, 67).
in(100, 68).
in(100, 72).
in(100, 73).
in(100, 74).
in(100, 76).
in(100, 77).
in(100, 81).
in(100, 85).
in(100, 89).
in(100, 96).
in(100, 97).
in(100, 98).
in(100, 99).
in(100, 101).
in(100, 102).
in(101, 3).
in(101, 6).
in(101, 8).
in(101, 11).
in(101, 13).
in(101, 19).
in(101, 20).
in(101, 22).
in(101, 25).
in(101, 31).
in(101, 33).
in(101, 35).
in(101, 38).
in(101, 39).
in(101, 41).
in(101, 43).
in(101, 48).
in(101, 49).
in(101, 51).
in(101, 56).
in(101, 57).
in(101, 60).
in(101, 61).
in(101, 63).
in(101, 66).
in(101, 69).
in(101, 71).
in(101, 72).
in(101, 73).
in(101, 76).
in(101, 77).
in(101, 79).
in(101, 84).
in(101, 91).
in(101, 93).
in(101, 94).
in(101, 98).
in(101, 100).
in(102, 3).
in(102, 12).
in(102, 16).
in(102, 18).
in(102, 19).
in(102, 21).
in(102, 25).
in(102, 26).
in(102, 30).
in(102, 32).
in(102, 42).
in(102, 45).
in(102, 46).
in(102, 47).
in(102, 48).
in(102, 51).
in(102, 52).
in(102, 53).
in(102, 54).
in(102, 56).
in(102, 59).
in(102, 65).
in(102, 66).
in(102, 68).
in(102, 69).
in(102, 70).
in(102, 71).
in(102, 73).
in(102, 75).
in(102, 76).
in(102, 77).
in(102, 78).
in(102, 79).
in(102, 80).
in(102, 81).
in(102, 83).
in(102, 88).
in(102, 90).
in(102, 96).
in(102, 100).
in(102, 101).
in(102, 103).
in(103, 5).
in(103, 8).
in(103, 9).
in(103, 10).
in(103, 11).
in(103, 15).
in(103, 16).
in(103, 24).
in(103, 26).
in(103, 27).
in(103, 31).
in(103, 32).
in(103, 40).
in(103, 42).
in(103, 46).
in(103, 48).
in(103, 54).
in(103, 58).
in(103, 60).
in(103, 62).
in(103, 64).
in(103, 65).
in(103, 66).
in(103, 68).
in(103, 70).
in(103, 76).
in(103, 77).
in(103, 80).
in(103, 82).
in(103, 90).
in(103, 93).
in(103, 94).
in(103, 102).
in(104, 2).
in(104, 11).
in(104, 13).
in(104, 18).
in(104, 19).
in(104, 21).
in(104, 23).
in(104, 26).
in(104, 27).
in(104, 28).
in(104, 29).
in(104, 34).
in(104, 37).
in(104, 43).
in(104, 44).
in(104, 45).
in(104, 62).
in(104, 63).
in(104, 64).
in(104, 65).
in(104, 67).
in(104, 68).
in(104, 69).
in(104, 70).
in(104, 75).
in(104, 77).
in(104, 80).
in(104, 85).
in(104, 88).
in(104, 95).
in(104, 102).
in(104, 103).
in(104, 104).
in(105, 2).
in(105, 8).
in(105, 9).
in(105, 10).
in(105, 12).
in(105, 13).
in(105, 15).
in(105, 17).
in(105, 19).
in(105, 20).
in(105, 21).
in(105, 26).
in(105, 27).
in(105, 28).
in(105, 29).
in(105, 30).
in(105, 39).
in(105, 41).
in(105, 42).
in(105, 43).
in(105, 58).
in(105, 60).
in(105, 63).
in(105, 64).
in(105, 77).
in(105, 78).
in(105, 79).
in(105, 80).
in(105, 83).
in(105, 91).
in(105, 95).
in(105, 98).
in(105, 99).
in(105, 104).
in(106, 4).
in(106, 9).
in(106, 12).
in(106, 13).
in(106, 20).
in(106, 23).
in(106, 31).
in(106, 32).
in(106, 33).
in(106, 34).
in(106, 38).
in(106, 39).
in(106, 42).
in(106, 44).
in(106, 45).
in(106, 46).
in(106, 53).
in(106, 57).
in(106, 58).
in(106, 59).
in(106, 64).
in(106, 66).
in(106, 68).
in(106, 70).
in(106, 74).
in(106, 78).
in(106, 79).
in(106, 80).
in(106, 84).
in(106, 89).
in(106, 91).
in(106, 92).
in(106, 93).
in(106, 94).
in(106, 95).
in(106, 100).
in(106, 102).
in(106, 104).
in(107, 1).
in(107, 7).
in(107, 8).
in(107, 9).
in(107, 10).
in(107, 12).
in(107, 15).
in(107, 19).
in(107, 20).
in(107, 21).
in(107, 23).
in(107, 25).
in(107, 27).
in(107, 30).
in(107, 31).
in(107, 33).
in(107, 35).
in(107, 42).
in(107, 45).
in(107, 46).
in(107, 47).
in(107, 48).
in(107, 52).
in(107, 54).
in(107, 56).
in(107, 57).
in(107, 58).
in(107, 70).
in(107, 72).
in(107, 73).
in(107, 75).
in(107, 77).
in(107, 80).
in(107, 86).
in(107, 87).
in(107, 89).
in(107, 90).
in(107, 93).
in(107, 95).
in(107, 96).
in(107, 98).
in(107, 101).
in(107, 102).
in(108, 6).
in(108, 10).
in(108, 11).
in(108, 13).
in(108, 22).
in(108, 30).
in(108, 31).
in(108, 35).
in(108, 38).
in(108, 39).
in(108, 43).
in(108, 46).
in(108, 48).
in(108, 50).
in(108, 51).
in(108, 53).
in(108, 54).
in(108, 57).
in(108, 58).
in(108, 61).
in(108, 66).
in(108, 67).
in(108, 69).
in(108, 70).
in(108, 71).
in(108, 77).
in(108, 78).
in(108, 79).
in(108, 85).
in(108, 86).
in(108, 88).
in(108, 89).
in(108, 90).
in(108, 95).
in(108, 96).
in(108, 100).
in(108, 102).
in(108, 103).
in(108, 104).
in(109, 4).
in(109, 10).
in(109, 13).
in(109, 16).
in(109, 17).
in(109, 18).
in(109, 19).
in(109, 22).
in(109, 25).
in(109, 30).
in(109, 31).
in(109, 37).
in(109, 38).
in(109, 41).
in(109, 43).
in(109, 51).
in(109, 54).
in(109, 59).
in(109, 62).
in(109, 63).
in(109, 66).
in(109, 68).
in(109, 72).
in(109, 74).
in(109, 75).
in(109, 81).
in(109, 84).
in(109, 85).
in(109, 87).
in(109, 90).
in(109, 92).
in(109, 93).
in(109, 95).
in(109, 99).
in(110, 1).
in(110, 2).
in(110, 3).
in(110, 10).
in(110, 13).
in(110, 16).
in(110, 17).
in(110, 20).
in(110, 22).
in(110, 24).
in(110, 25).
in(110, 28).
in(110, 29).
in(110, 31).
in(110, 34).
in(110, 35).
in(110, 38).
in(110, 43).
in(110, 45).
in(110, 46).
in(110, 47).
in(110, 57).
in(110, 61).
in(110, 65).
in(110, 67).
in(110, 70).
in(110, 72).
in(110, 73).
in(110, 75).
in(110, 76).
in(110, 77).
in(110, 79).
in(110, 80).
in(110, 84).
in(110, 85).
in(110, 87).
in(110, 89).
in(110, 97).
in(110, 101).
in(110, 102).
in(110, 103).
in(111, 2).
in(111, 5).
in(111, 6).
in(111, 7).
in(111, 10).
in(111, 11).
in(111, 13).
in(111, 14).
in(111, 22).
in(111, 24).
in(111, 31).
in(111, 32).
in(111, 35).
in(111, 37).
in(111, 39).
in(111, 40).
in(111, 45).
in(111, 47).
in(111, 48).
in(111, 51).
in(111, 53).
in(111, 55).
in(111, 60).
in(111, 61).
in(111, 62).
in(111, 64).
in(111, 65).
in(111, 66).
in(111, 69).
in(111, 72).
in(111, 73).
in(111, 74).
in(111, 75).
in(111, 77).
in(111, 89).
in(111, 96).
in(111, 98).
in(111, 101).
in(111, 103).
in(112, 2).
in(112, 5).
in(112, 10).
in(112, 12).
in(112, 14).
in(112, 20).
in(112, 21).
in(112, 22).
in(112, 25).
in(112, 27).
in(112, 29).
in(112, 33).
in(112, 39).
in(112, 40).
in(112, 41).
in(112, 47).
in(112, 52).
in(112, 55).
in(112, 56).
in(112, 59).
in(112, 63).
in(112, 72).
in(112, 78).
in(112, 79).
in(112, 91).
in(112, 93).
in(112, 95).
in(112, 97).
in(112, 99).
in(112, 102).
in(113, 3).
in(113, 9).
in(113, 12).
in(113, 16).
in(113, 31).
in(113, 33).
in(113, 38).
in(113, 39).
in(113, 40).
in(113, 43).
in(113, 44).
in(113, 50).
in(113, 54).
in(113, 56).
in(113, 58).
in(113, 60).
in(113, 63).
in(113, 64).
in(113, 67).
in(113, 70).
in(113, 71).
in(113, 76).
in(113, 82).
in(113, 87).
in(113, 88).
in(113, 89).
in(113, 91).
in(113, 92).
in(113, 93).
in(113, 101).
in(114, 3).
in(114, 6).
in(114, 13).
in(114, 16).
in(114, 18).
in(114, 19).
in(114, 21).
in(114, 22).
in(114, 23).
in(114, 28).
in(114, 32).
in(114, 36).
in(114, 38).
in(114, 41).
in(114, 43).
in(114, 44).
in(114, 45).
in(114, 46).
in(114, 47).
in(114, 55).
in(114, 57).
in(114, 63).
in(114, 64).
in(114, 66).
in(114, 72).
in(114, 73).
in(114, 74).
in(114, 75).
in(114, 76).
in(114, 77).
in(114, 80).
in(114, 86).
in(114, 91).
in(114, 94).
in(114, 95).
in(114, 96).
in(114, 97).
in(114, 101).
in(114, 103).
in(114, 104).
in(115, 3).
in(115, 4).
in(115, 5).
in(115, 7).
in(115, 10).
in(115, 11).
in(115, 16).
in(115, 19).
in(115, 25).
in(115, 27).
in(115, 28).
in(115, 32).
in(115, 33).
in(115, 34).
in(115, 37).
in(115, 43).
in(115, 44).
in(115, 51).
in(115, 53).
in(115, 58).
in(115, 63).
in(115, 66).
in(115, 67).
in(115, 70).
in(115, 71).
in(115, 72).
in(115, 74).
in(115, 77).
in(115, 82).
in(115, 83).
in(115, 87).
in(115, 95).
in(115, 97).
in(115, 98).
in(115, 102).
in(116, 1).
in(116, 8).
in(116, 11).
in(116, 13).
in(116, 19).
in(116, 26).
in(116, 32).
in(116, 39).
in(116, 47).
in(116, 48).
in(116, 51).
in(116, 54).
in(116, 55).
in(116, 57).
in(116, 60).
in(116, 62).
in(116, 64).
in(116, 66).
in(116, 67).
in(116, 68).
in(116, 75).
in(116, 83).
in(116, 88).
in(116, 93).
in(116, 104).
in(117, 2).
in(117, 6).
in(117, 7).
in(117, 10).
in(117, 12).
in(117, 14).
in(117, 20).
in(117, 21).
in(117, 22).
in(117, 23).
in(117, 24).
in(117, 25).
in(117, 27).
in(117, 32).
in(117, 33).
in(117, 36).
in(117, 40).
in(117, 42).
in(117, 43).
in(117, 45).
in(117, 49).
in(117, 52).
in(117, 53).
in(117, 54).
in(117, 63).
in(117, 68).
in(117, 74).
in(117, 80).
in(117, 83).
in(117, 86).
in(117, 89).
in(117, 92).
in(117, 93).
in(117, 95).
in(117, 100).
in(118, 3).
in(118, 9).
in(118, 12).
in(118, 13).
in(118, 16).
in(118, 20).
in(118, 23).
in(118, 26).
in(118, 28).
in(118, 36).
in(118, 38).
in(118, 41).
in(118, 42).
in(118, 59).
in(118, 64).
in(118, 67).
in(118, 76).
in(118, 79).
in(118, 82).
in(118, 84).
in(118, 86).
in(118, 93).
in(118, 97).
in(118, 103).
in(118, 104).
in(119, 2).
in(119, 8).
in(119, 9).
in(119, 12).
in(119, 14).
in(119, 18).
in(119, 19).
in(119, 21).
in(119, 30).
in(119, 33).
in(119, 37).
in(119, 41).
in(119, 42).
in(119, 43).
in(119, 44).
in(119, 46).
in(119, 50).
in(119, 52).
in(119, 58).
in(119, 59).
in(119, 60).
in(119, 61).
in(119, 70).
in(119, 71).
in(119, 74).
in(119, 75).
in(119, 78).
in(119, 80).
in(119, 88).
in(119, 91).
in(119, 95).
in(119, 97).
in(119, 99).
in(119, 102).
in(119, 103).
in(120, 3).
in(120, 4).
in(120, 5).
in(120, 11).
in(120, 14).
in(120, 18).
in(120, 20).
in(120, 25).
in(120, 33).
in(120, 34).
in(120, 39).
in(120, 41).
in(120, 43).
in(120, 45).
in(120, 46).
in(120, 52).
in(120, 53).
in(120, 59).
in(120, 62).
in(120, 63).
in(120, 64).
in(120, 66).
in(120, 68).
in(120, 70).
in(120, 74).
in(120, 77).
in(120, 83).
in(120, 86).
in(120, 87).
in(120, 91).
in(120, 93).
in(120, 94).
in(120, 99).
in(120, 100).
in(120, 101).
in(121, 3).
in(121, 4).
in(121, 6).
in(121, 11).
in(121, 12).
in(121, 14).
in(121, 15).
in(121, 16).
in(121, 23).
in(121, 29).
in(121, 32).
in(121, 33).
in(121, 34).
in(121, 35).
in(121, 36).
in(121, 37).
in(121, 39).
in(121, 41).
in(121, 42).
in(121, 44).
in(121, 49).
in(121, 50).
in(121, 51).
in(121, 55).
in(121, 56).
in(121, 68).
in(121, 75).
in(121, 77).
in(121, 78).
in(121, 89).
in(121, 94).
in(121, 98).
in(121, 99).
in(121, 102).
in(122, 7).
in(122, 8).
in(122, 17).
in(122, 22).
in(122, 24).
in(122, 28).
in(122, 29).
in(122, 33).
in(122, 34).
in(122, 36).
in(122, 41).
in(122, 42).
in(122, 44).
in(122, 45).
in(122, 50).
in(122, 51).
in(122, 52).
in(122, 57).
in(122, 62).
in(122, 63).
in(122, 65).
in(122, 67).
in(122, 71).
in(122, 73).
in(122, 75).
in(122, 78).
in(122, 80).
in(122, 82).
in(122, 84).
in(122, 87).
in(122, 89).
in(122, 91).
in(122, 92).
in(122, 93).
in(122, 97).
in(122, 100).
in(122, 102).
in(123, 1).
in(123, 3).
in(123, 8).
in(123, 9).
in(123, 10).
in(123, 11).
in(123, 13).
in(123, 14).
in(123, 15).
in(123, 16).
in(123, 17).
in(123, 21).
in(123, 23).
in(123, 24).
in(123, 27).
in(123, 31).
in(123, 32).
in(123, 33).
in(123, 37).
in(123, 42).
in(123, 43).
in(123, 52).
in(123, 53).
in(123, 54).
in(123, 58).
in(123, 61).
in(123, 63).
in(123, 66).
in(123, 68).
in(123, 72).
in(123, 73).
in(123, 88).
in(123, 94).
in(123, 96).
in(123, 98).
in(123, 104).
in(124, 5).
in(124, 6).
in(124, 10).
in(124, 12).
in(124, 17).
in(124, 19).
in(124, 24).
in(124, 27).
in(124, 28).
in(124, 30).
in(124, 31).
in(124, 32).
in(124, 38).
in(124, 39).
in(124, 40).
in(124, 44).
in(124, 45).
in(124, 52).
in(124, 55).
in(124, 57).
in(124, 58).
in(124, 64).
in(124, 68).
in(124, 72).
in(124, 74).
in(124, 80).
in(124, 82).
in(124, 84).
in(124, 85).
in(124, 91).
in(124, 95).
in(124, 96).
in(124, 100).
in(125, 1).
in(125, 3).
in(125, 4).
in(125, 5).
in(125, 7).
in(125, 11).
in(125, 16).
in(125, 24).
in(125, 29).
in(125, 32).
in(125, 33).
in(125, 34).
in(125, 35).
in(125, 37).
in(125, 38).
in(125, 40).
in(125, 41).
in(125, 43).
in(125, 45).
in(125, 47).
in(125, 49).
in(125, 50).
in(125, 51).
in(125, 52).
in(125, 58).
in(125, 59).
in(125, 61).
in(125, 65).
in(125, 70).
in(125, 71).
in(125, 72).
in(125, 73).
in(125, 75).
in(125, 76).
in(125, 77).
in(125, 80).
in(125, 82).
in(125, 89).
in(125, 91).
in(125, 93).
in(125, 95).
in(125, 97).
in(125, 99).
in(125, 102).
in(126, 2).
in(126, 3).
in(126, 4).
in(126, 6).
in(126, 11).
in(126, 12).
in(126, 13).
in(126, 16).
in(126, 18).
in(126, 19).
in(126, 21).
in(126, 24).
in(126, 26).
in(126, 29).
in(126, 32).
in(126, 33).
in(126, 35).
in(126, 37).
in(126, 40).
in(126, 42).
in(126, 46).
in(126, 49).
in(126, 54).
in(126, 55).
in(126, 60).
in(126, 62).
in(126, 65).
in(126, 67).
in(126, 70).
in(126, 71).
in(126, 72).
in(126, 78).
in(126, 83).
in(126, 92).
in(126, 94).
in(126, 95).
in(126, 97).
in(126, 101).
in(126, 103).
in(127, 4).
in(127, 7).
in(127, 8).
in(127, 14).
in(127, 23).
in(127, 24).
in(127, 25).
in(127, 30).
in(127, 34).
in(127, 41).
in(127, 42).
in(127, 44).
in(127, 47).
in(127, 48).
in(127, 49).
in(127, 50).
in(127, 51).
in(127, 55).
in(127, 60).
in(127, 71).
in(127, 73).
in(127, 74).
in(127, 81).
in(127, 82).
in(127, 83).
in(127, 85).
in(127, 86).
in(127, 87).
in(127, 89).
in(127, 90).
in(127, 92).
in(127, 99).
in(127, 104).
in(128, 1).
in(128, 3).
in(128, 7).
in(128, 8).
in(128, 10).
in(128, 11).
in(128, 14).
in(128, 15).
in(128, 17).
in(128, 18).
in(128, 22).
in(128, 23).
in(128, 28).
in(128, 31).
in(128, 32).
in(128, 40).
in(128, 47).
in(128, 49).
in(128, 50).
in(128, 52).
in(128, 53).
in(128, 54).
in(128, 58).
in(128, 59).
in(128, 62).
in(128, 65).
in(128, 67).
in(128, 68).
in(128, 70).
in(128, 72).
in(128, 76).
in(128, 77).
in(128, 82).
in(128, 91).
in(128, 102).
in(129, 3).
in(129, 7).
in(129, 12).
in(129, 16).
in(129, 17).
in(129, 23).
in(129, 24).
in(129, 26).
in(129, 27).
in(129, 33).
in(129, 38).
in(129, 40).
in(129, 41).
in(129, 42).
in(129, 43).
in(129, 45).
in(129, 49).
in(129, 50).
in(129, 60).
in(129, 61).
in(129, 63).
in(129, 64).
in(129, 66).
in(129, 67).
in(129, 69).
in(129, 73).
in(129, 75).
in(129, 76).
in(129, 80).
in(129, 82).
in(129, 83).
in(129, 85).
in(129, 89).
in(129, 93).
in(129, 94).
in(129, 95).
in(129, 96).
in(129, 98).
in(129, 99).
in(129, 102).
in(130, 8).
in(130, 9).
in(130, 10).
in(130, 19).
in(130, 22).
in(130, 25).
in(130, 27).
in(130, 29).
in(130, 30).
in(130, 32).
in(130, 35).
in(130, 39).
in(130, 41).
in(130, 45).
in(130, 52).
in(130, 59).
in(130, 60).
in(130, 71).
in(130, 74).
in(130, 76).
in(130, 78).
in(130, 81).
in(130, 84).
in(130, 86).
in(130, 91).
in(130, 94).
in(130, 95).
in(130, 98).
in(130, 99).
in(130, 100).
in(130, 101).
in(130, 102).
in(130, 103).
in(131, 4).
in(131, 6).
in(131, 7).
in(131, 11).
in(131, 13).
in(131, 15).
in(131, 16).
in(131, 19).
in(131, 21).
in(131, 33).
in(131, 35).
in(131, 36).
in(131, 37).
in(131, 43).
in(131, 47).
in(131, 49).
in(131, 56).
in(131, 58).
in(131, 59).
in(131, 71).
in(131, 72).
in(131, 73).
in(131, 75).
in(131, 78).
in(131, 79).
in(131, 83).
in(131, 84).
in(131, 85).
in(131, 88).
in(131, 90).
in(131, 91).
in(131, 92).
in(131, 96).
in(131, 101).
in(131, 102).
in(131, 104).
in(132, 2).
in(132, 3).
in(132, 7).
in(132, 12).
in(132, 15).
in(132, 22).
in(132, 23).
in(132, 29).
in(132, 30).
in(132, 33).
in(132, 35).
in(132, 38).
in(132, 41).
in(132, 48).
in(132, 50).
in(132, 61).
in(132, 62).
in(132, 63).
in(132, 65).
in(132, 66).
in(132, 69).
in(132, 70).
in(132, 82).
in(132, 84).
in(132, 87).
in(132, 91).
in(132, 93).
in(132, 94).
in(132, 95).
in(132, 97).
in(132, 100).
in(132, 102).
in(132, 104).
in(133, 5).
in(133, 7).
in(133, 10).
in(133, 11).
in(133, 13).
in(133, 14).
in(133, 16).
in(133, 20).
in(133, 22).
in(133, 25).
in(133, 26).
in(133, 29).
in(133, 33).
in(133, 40).
in(133, 42).
in(133, 43).
in(133, 45).
in(133, 49).
in(133, 51).
in(133, 53).
in(133, 54).
in(133, 58).
in(133, 63).
in(133, 70).
in(133, 72).
in(133, 75).
in(133, 84).
in(133, 85).
in(133, 86).
in(133, 89).
in(133, 91).
in(133, 93).
in(133, 94).
in(133, 95).
in(133, 96).
in(133, 97).
in(133, 99).
in(133, 101).
in(134, 2).
in(134, 8).
in(134, 12).
in(134, 14).
in(134, 21).
in(134, 25).
in(134, 28).
in(134, 31).
in(134, 32).
in(134, 33).
in(134, 34).
in(134, 35).
in(134, 36).
in(134, 38).
in(134, 40).
in(134, 41).
in(134, 42).
in(134, 43).
in(134, 47).
in(134, 48).
in(134, 49).
in(134, 51).
in(134, 52).
in(134, 56).
in(134, 62).
in(134, 67).
in(134, 68).
in(134, 71).
in(134, 72).
in(134, 74).
in(134, 79).
in(134, 81).
in(134, 83).
in(134, 86).
in(134, 88).
in(134, 92).
in(134, 95).
in(134, 96).
in(134, 102).
in(134, 104).
in(135, 2).
in(135, 4).
in(135, 11).
in(135, 13).
in(135, 17).
in(135, 20).
in(135, 23).
in(135, 24).
in(135, 25).
in(135, 27).
in(135, 33).
in(135, 35).
in(135, 39).
in(135, 43).
in(135, 45).
in(135, 46).
in(135, 53).
in(135, 54).
in(135, 60).
in(135, 61).
in(135, 63).
in(135, 69).
in(135, 74).
in(135, 75).
in(135, 77).
in(135, 79).
in(135, 83).
in(135, 84).
in(135, 90).
in(135, 93).
in(135, 101).
in(135, 102).
in(135, 103).
in(136, 2).
in(136, 4).
in(136, 5).
in(136, 6).
in(136, 10).
in(136, 11).
in(136, 16).
in(136, 20).
in(136, 23).
in(136, 27).
in(136, 28).
in(136, 29).
in(136, 30).
in(136, 32).
in(136, 34).
in(136, 37).
in(136, 41).
in(136, 44).
in(136, 45).
in(136, 46).
in(136, 51).
in(136, 57).
in(136, 59).
in(136, 63).
in(136, 66).
in(136, 67).
in(136, 75).
in(136, 78).
in(136, 81).
in(136, 84).
in(136, 85).
in(136, 90).
in(136, 100).
in(136, 101).
in(136, 103).
in(136, 104).
in(137, 1).
in(137, 2).
in(137, 6).
in(137, 7).
in(137, 13).
in(137, 14).
in(137, 19).
in(137, 21).
in(137, 22).
in(137, 25).
in(137, 31).
in(137, 32).
in(137, 43).
in(137, 46).
in(137, 48).
in(137, 49).
in(137, 50).
in(137, 60).
in(137, 66).
in(137, 67).
in(137, 69).
in(137, 72).
in(137, 77).
in(137, 81).
in(137, 83).
in(137, 86).
in(137, 89).
in(137, 91).
in(137, 94).
in(137, 95).
in(137, 100).
in(137, 103).
in(138, 11).
in(138, 15).
in(138, 18).
in(138, 21).
in(138, 22).
in(138, 23).
in(138, 27).
in(138, 36).
in(138, 37).
in(138, 40).
in(138, 59).
in(138, 61).
in(138, 63).
in(138, 66).
in(138, 82).
in(138, 85).
in(138, 87).
in(138, 90).
in(138, 91).
in(138, 96).
in(138, 98).
in(138, 99).
in(138, 100).
in(138, 101).
in(138, 102).
in(138, 103).
in(139, 1).
in(139, 2).
in(139, 4).
in(139, 7).
in(139, 8).
in(139, 14).
in(139, 15).
in(139, 21).
in(139, 22).
in(139, 24).
in(139, 30).
in(139, 33).
in(139, 37).
in(139, 45).
in(139, 46).
in(139, 47).
in(139, 58).
in(139, 65).
in(139, 68).
in(139, 71).
in(139, 76).
in(139, 78).
in(139, 81).
in(139, 83).
in(139, 86).
in(139, 89).
in(139, 90).
in(139, 94).
in(139, 96).
in(139, 97).
in(139, 99).
in(139, 100).
in(139, 103).
in(139, 104).
in(140, 3).
in(140, 16).
in(140, 18).
in(140, 19).
in(140, 21).
in(140, 23).
in(140, 24).
in(140, 26).
in(140, 28).
in(140, 31).
in(140, 34).
in(140, 36).
in(140, 37).
in(140, 38).
in(140, 39).
in(140, 48).
in(140, 49).
in(140, 52).
in(140, 54).
in(140, 60).
in(140, 69).
in(140, 71).
in(140, 73).
in(140, 79).
in(140, 84).
in(140, 86).
in(140, 87).
in(140, 92).
in(140, 93).
in(140, 95).
in(140, 98).
in(140, 103).
in(140, 104).
in(141, 1).
in(141, 2).
in(141, 3).
in(141, 5).
in(141, 6).
in(141, 7).
in(141, 8).
in(141, 16).
in(141, 18).
in(141, 20).
in(141, 21).
in(141, 23).
in(141, 24).
in(141, 26).
in(141, 27).
in(141, 29).
in(141, 31).
in(141, 33).
in(141, 36).
in(141, 37).
in(141, 40).
in(141, 41).
in(141, 42).
in(141, 44).
in(141, 46).
in(141, 49).
in(141, 52).
in(141, 53).
in(141, 54).
in(141, 59).
in(141, 63).
in(141, 73).
in(141, 80).
in(141, 81).
in(141, 82).
in(141, 85).
in(141, 90).
in(141, 91).
in(141, 95).
in(141, 99).
in(142, 1).
in(142, 2).
in(142, 4).
in(142, 8).
in(142, 11).
in(142, 14).
in(142, 17).
in(142, 19).
in(142, 25).
in(142, 26).
in(142, 30).
in(142, 31).
in(142, 35).
in(142, 36).
in(142, 44).
in(142, 50).
in(142, 56).
in(142, 57).
in(142, 59).
in(142, 61).
in(142, 65).
in(142, 69).
in(142, 70).
in(142, 71).
in(142, 73).
in(142, 75).
in(142, 78).
in(142, 80).
in(142, 83).
in(142, 86).
in(142, 88).
in(142, 93).
in(142, 101).
in(142, 102).
in(142, 104).
in(143, 2).
in(143, 5).
in(143, 9).
in(143, 11).
in(143, 24).
in(143, 25).
in(143, 26).
in(143, 30).
in(143, 33).
in(143, 34).
in(143, 35).
in(143, 36).
in(143, 38).
in(143, 40).
in(143, 44).
in(143, 46).
in(143, 55).
in(143, 61).
in(143, 64).
in(143, 67).
in(143, 76).
in(143, 81).
in(143, 86).
in(143, 88).
in(143, 94).
in(143, 95).
in(143, 96).
in(143, 97).
in(143, 101).
in(144, 3).
in(144, 6).
in(144, 7).
in(144, 8).
in(144, 15).
in(144, 16).
in(144, 17).
in(144, 21).
in(144, 24).
in(144, 25).
in(144, 28).
in(144, 32).
in(144, 34).
in(144, 40).
in(144, 41).
in(144, 42).
in(144, 43).
in(144, 49).
in(144, 55).
in(144, 58).
in(144, 59).
in(144, 60).
in(144, 62).
in(144, 65).
in(144, 69).
in(144, 72).
in(144, 84).
in(144, 87).
in(144, 88).
in(144, 89).
in(144, 93).
in(144, 96).
in(144, 97).
in(144, 98).
in(144, 99).
in(144, 103).
in(145, 4).
in(145, 5).
in(145, 7).
in(145, 11).
in(145, 15).
in(145, 17).
in(145, 23).
in(145, 24).
in(145, 25).
in(145, 30).
in(145, 31).
in(145, 38).
in(145, 40).
in(145, 46).
in(145, 49).
in(145, 55).
in(145, 61).
in(145, 63).
in(145, 65).
in(145, 68).
in(145, 70).
in(145, 73).
in(145, 74).
in(145, 75).
in(145, 77).
in(145, 78).
in(145, 83).
in(145, 90).
in(145, 91).
in(145, 92).
in(145, 93).
in(145, 96).
in(145, 97).
in(145, 102).
in(145, 103).
in(145, 104).
in(146, 4).
in(146, 5).
in(146, 7).
in(146, 12).
in(146, 15).
in(146, 17).
in(146, 19).
in(146, 24).
in(146, 26).
in(146, 27).
in(146, 31).
in(146, 35).
in(146, 36).
in(146, 41).
in(146, 43).
in(146, 44).
in(146, 46).
in(146, 47).
in(146, 48).
in(146, 49).
in(146, 51).
in(146, 55).
in(146, 63).
in(146, 64).
in(146, 66).
in(146, 67).
in(146, 68).
in(146, 76).
in(146, 77).
in(146, 78).
in(146, 83).
in(146, 84).
in(146, 85).
in(146, 86).
in(146, 90).
in(146, 91).
in(146, 92).
in(146, 97).
in(146, 101).
in(147, 1).
in(147, 2).
in(147, 6).
in(147, 8).
in(147, 9).
in(147, 14).
in(147, 15).
in(147, 16).
in(147, 19).
in(147, 20).
in(147, 21).
in(147, 22).
in(147, 25).
in(147, 27).
in(147, 29).
in(147, 31).
in(147, 32).
in(147, 38).
in(147, 42).
in(147, 46).
in(147, 47).
in(147, 55).
in(147, 56).
in(147, 57).
in(147, 58).
in(147, 69).
in(147, 70).
in(147, 77).
in(147, 80).
in(147, 85).
in(147, 91).
in(147, 92).
in(147, 93).
in(147, 94).
in(147, 96).
in(147, 99).
in(148, 5).
in(148, 6).
in(148, 8).
in(148, 10).
in(148, 23).
in(148, 24).
in(148, 27).
in(148, 31).
in(148, 32).
in(148, 39).
in(148, 40).
in(148, 41).
in(148, 45).
in(148, 47).
in(148, 48).
in(148, 54).
in(148, 55).
in(148, 56).
in(148, 59).
in(148, 61).
in(148, 63).
in(148, 68).
in(148, 70).
in(148, 77).
in(148, 78).
in(148, 79).
in(148, 81).
in(148, 82).
in(148, 83).
in(148, 84).
in(148, 85).
in(148, 87).
in(148, 88).
in(148, 89).
in(148, 91).
in(148, 92).
in(148, 95).
in(148, 96).
in(148, 98).
in(148, 99).
in(148, 101).
in(149, 4).
in(149, 8).
in(149, 12).
in(149, 13).
in(149, 17).
in(149, 21).
in(149, 23).
in(149, 25).
in(149, 26).
in(149, 38).
in(149, 39).
in(149, 44).
in(149, 57).
in(149, 64).
in(149, 65).
in(149, 68).
in(149, 70).
in(149, 80).
in(149, 87).
in(149, 89).
in(149, 90).
in(149, 91).
in(149, 97).
in(149, 98).
in(149, 100).
in(150, 1).
in(150, 4).
in(150, 7).
in(150, 15).
in(150, 16).
in(150, 17).
in(150, 20).
in(150, 21).
in(150, 28).
in(150, 29).
in(150, 34).
in(150, 41).
in(150, 46).
in(150, 48).
in(150, 50).
in(150, 52).
in(150, 55).
in(150, 56).
in(150, 58).
in(150, 60).
in(150, 62).
in(150, 67).
in(150, 71).
in(150, 72).
in(150, 73).
in(150, 75).
in(150, 76).
in(150, 77).
in(150, 78).
in(150, 79).
in(150, 87).
in(150, 101).
in(151, 1).
in(151, 4).
in(151, 8).
in(151, 10).
in(151, 12).
in(151, 13).
in(151, 16).
in(151, 19).
in(151, 23).
in(151, 26).
in(151, 30).
in(151, 33).
in(151, 40).
in(151, 43).
in(151, 52).
in(151, 54).
in(151, 58).
in(151, 61).
in(151, 64).
in(151, 67).
in(151, 69).
in(151, 76).
in(151, 82).
in(151, 86).
in(151, 89).
in(151, 90).
in(151, 99).
in(151, 104).
in(152, 2).
in(152, 4).
in(152, 5).
in(152, 6).
in(152, 7).
in(152, 9).
in(152, 10).
in(152, 12).
in(152, 18).
in(152, 22).
in(152, 26).
in(152, 28).
in(152, 29).
in(152, 31).
in(152, 36).
in(152, 39).
in(152, 41).
in(152, 48).
in(152, 49).
in(152, 50).
in(152, 53).
in(152, 56).
in(152, 57).
in(152, 60).
in(152, 68).
in(152, 69).
in(152, 72).
in(152, 80).
in(152, 81).
in(152, 83).
in(152, 85).
in(152, 86).
in(152, 89).
in(152, 90).
in(152, 93).
in(152, 94).
in(152, 96).
in(152, 97).
in(152, 99).
in(152, 101).
in(152, 102).
in(152, 103).
in(153, 4).
in(153, 6).
in(153, 14).
in(153, 19).
in(153, 24).
in(153, 25).
in(153, 31).
in(153, 34).
in(153, 37).
in(153, 39).
in(153, 41).
in(153, 42).
in(153, 45).
in(153, 49).
in(153, 50).
in(153, 51).
in(153, 53).
in(153, 55).
in(153, 57).
in(153, 58).
in(153, 60).
in(153, 63).
in(153, 66).
in(153, 69).
in(153, 72).
in(153, 73).
in(153, 74).
in(153, 77).
in(153, 78).
in(153, 79).
in(153, 83).
in(153, 93).
in(153, 94).
in(153, 95).
in(153, 101).
in(154, 3).
in(154, 7).
in(154, 9).
in(154, 10).
in(154, 11).
in(154, 12).
in(154, 14).
in(154, 17).
in(154, 19).
in(154, 21).
in(154, 22).
in(154, 25).
in(154, 26).
in(154, 29).
in(154, 30).
in(154, 32).
in(154, 35).
in(154, 36).
in(154, 43).
in(154, 46).
in(154, 49).
in(154, 51).
in(154, 54).
in(154, 57).
in(154, 58).
in(154, 59).
in(154, 60).
in(154, 66).
in(154, 72).
in(154, 73).
in(154, 75).
in(154, 77).
in(154, 79).
in(154, 80).
in(154, 83).
in(154, 85).
in(154, 87).
in(154, 90).
in(154, 94).
in(154, 97).
in(154, 98).
in(154, 99).
in(154, 100).
in(155, 12).
in(155, 15).
in(155, 16).
in(155, 17).
in(155, 20).
in(155, 23).
in(155, 24).
in(155, 29).
in(155, 30).
in(155, 33).
in(155, 35).
in(155, 39).
in(155, 40).
in(155, 42).
in(155, 44).
in(155, 50).
in(155, 57).
in(155, 60).
in(155, 61).
in(155, 63).
in(155, 66).
in(155, 68).
in(155, 71).
in(155, 76).
in(155, 77).
in(155, 78).
in(155, 80).
in(155, 82).
in(155, 83).
in(155, 88).
in(155, 92).
in(155, 94).
in(155, 98).
in(155, 100).
in(155, 103).
in(156, 4).
in(156, 5).
in(156, 7).
in(156, 8).
in(156, 9).
in(156, 24).
in(156, 25).
in(156, 34).
in(156, 35).
in(156, 39).
in(156, 42).
in(156, 50).
in(156, 58).
in(156, 66).
in(156, 67).
in(156, 73).
in(156, 78).
in(156, 80).
in(156, 83).
in(156, 85).
in(156, 86).
in(156, 87).
in(156, 94).
in(156, 96).
in(156, 99).
in(156, 100).
in(156, 101).
in(157, 2).
in(157, 5).
in(157, 7).
in(157, 8).
in(157, 10).
in(157, 21).
in(157, 22).
in(157, 29).
in(157, 33).
in(157, 37).
in(157, 43).
in(157, 45).
in(157, 50).
in(157, 53).
in(157, 56).
in(157, 57).
in(157, 61).
in(157, 64).
in(157, 67).
in(157, 68).
in(157, 69).
in(157, 74).
in(157, 78).
in(157, 83).
in(157, 91).
in(157, 92).
in(157, 93).
in(157, 94).
in(157, 98).
in(157, 103).
in(158, 2).
in(158, 3).
in(158, 9).
in(158, 20).
in(158, 25).
in(158, 26).
in(158, 31).
in(158, 33).
in(158, 35).
in(158, 37).
in(158, 41).
in(158, 45).
in(158, 46).
in(158, 53).
in(158, 66).
in(158, 67).
in(158, 69).
in(158, 78).
in(158, 82).
in(158, 93).
in(158, 99).
in(158, 102).
in(158, 103).
in(159, 4).
in(159, 5).
in(159, 6).
in(159, 9).
in(159, 12).
in(159, 15).
in(159, 16).
in(159, 20).
in(159, 24).
in(159, 25).
in(159, 28).
in(159, 31).
in(159, 38).
in(159, 41).
in(159, 42).
in(159, 43).
in(159, 47).
in(159, 48).
in(159, 51).
in(159, 55).
in(159, 57).
in(159, 59).
in(159, 60).
in(159, 67).
in(159, 69).
in(159, 71).
in(159, 77).
in(159, 81).
in(159, 82).
in(159, 83).
in(159, 90).
in(159, 91).
in(159, 92).
in(159, 95).
in(159, 96).
in(159, 101).
in(159, 104).
in(160, 4).
in(160, 5).
in(160, 7).
in(160, 8).
in(160, 15).
in(160, 22).
in(160, 30).
in(160, 33).
in(160, 35).
in(160, 37).
in(160, 39).
in(160, 40).
in(160, 43).
in(160, 44).
in(160, 45).
in(160, 48).
in(160, 49).
in(160, 52).
in(160, 54).
in(160, 55).
in(160, 57).
in(160, 58).
in(160, 59).
in(160, 66).
in(160, 68).
in(160, 75).
in(160, 78).
in(160, 85).
in(160, 87).
in(160, 98).
in(160, 102).
in(161, 3).
in(161, 5).
in(161, 6).
in(161, 7).
in(161, 13).
in(161, 14).
in(161, 20).
in(161, 26).
in(161, 29).
in(161, 34).
in(161, 44).
in(161, 48).
in(161, 50).
in(161, 51).
in(161, 53).
in(161, 55).
in(161, 67).
in(161, 70).
in(161, 71).
in(161, 74).
in(161, 79).
in(161, 84).
in(161, 96).
in(162, 1).
in(162, 7).
in(162, 8).
in(162, 13).
in(162, 14).
in(162, 17).
in(162, 22).
in(162, 27).
in(162, 31).
in(162, 35).
in(162, 37).
in(162, 38).
in(162, 40).
in(162, 41).
in(162, 42).
in(162, 43).
in(162, 44).
in(162, 46).
in(162, 49).
in(162, 52).
in(162, 53).
in(162, 56).
in(162, 61).
in(162, 62).
in(162, 63).
in(162, 66).
in(162, 70).
in(162, 75).
in(162, 77).
in(162, 81).
in(162, 84).
in(162, 85).
in(162, 94).
weight(1, 8).
weight(2, 7).
weight(3, 5).
weight(4, 3).
weight(5, 1).
weight(6, 6).
weight(7, 5).
weight(8, 7).
weight(9, 5).
weight(10, 7).
weight(11, 9).
weight(12, 3).
weight(13, 3).
weight(14, 1).
weight(15, 4).
weight(16, 7).
weight(17, 8).
weight(18, 2).
weight(19, 3).
weight(20, 2).
weight(21, 1).
weight(22, 4).
weight(23, 4).
weight(24, 4).
weight(25, 1).
weight(26, 3).
weight(27, 7).
weight(28, 8).
weight(29, 1).
weight(30, 4).
weight(31, 2).
weight(32, 9).
weight(33, 5).
weight(34, 3).
weight(35, 9).
weight(36, 3).
weight(37, 1).
weight(38, 3).
weight(39, 5).
weight(40, 3).
weight(41, 5).
weight(42, 6).
weight(43, 4).
weight(44, 9).
weight(45, 8).
weight(46, 2).
weight(47, 6).
weight(48, 9).
weight(49, 7).
weight(50, 9).
weight(51, 5).
weight(52, 1).
weight(53, 4).
weight(54, 2).
weight(55, 5).
weight(56, 7).
weight(57, 1).
weight(58, 2).
weight(59, 4).
weight(60, 7).
weight(61, 5).
weight(62, 8).
weight(63, 9).
weight(64, 6).
weight(65, 2).
weight(66, 6).
weight(67, 9).
weight(68, 7).
weight(69, 5).
weight(70, 4).
weight(71, 7).
weight(72, 2).
weight(73, 3).
weight(74, 1).
weight(75, 9).
weight(76, 9).
weight(77, 2).
weight(78, 1).
weight(79, 3).
weight(80, 6).
weight(81, 8).
weight(82, 9).
weight(83, 9).
weight(84, 4).
weight(85, 2).
weight(86, 9).
weight(87, 2).
weight(88, 4).
weight(89, 2).
weight(90, 2).
weight(91, 9).
weight(92, 7).
weight(93, 9).
weight(94, 1).
weight(95, 5).
weight(96, 2).
weight(97, 3).
weight(98, 5).
weight(99, 2).
weight(100, 8).
weight(101, 4).
weight(102, 6).
weight(103, 2).
weight(104, 9).
weight(105, 5).
weight(106, 8).
weight(107, 3).
weight(108, 7).
weight(109, 2).
weight(110, 7).
weight(111, 7).
weight(112, 9).
weight(113, 6).
weight(114, 3).
weight(115, 8).
weight(116, 9).
weight(117, 4).
weight(118, 9).
weight(119, 4).
weight(120, 2).
weight(121, 2).
weight(122, 1).
weight(123, 6).
weight(124, 9).
weight(125, 6).
weight(126, 6).
weight(127, 2).
weight(128, 6).
weight(129, 9).
weight(130, 4).
weight(131, 9).
weight(132, 9).
weight(133, 1).
weight(134, 8).
weight(135, 3).
weight(136, 9).
weight(137, 4).
weight(138, 4).
weight(139, 2).
weight(140, 8).
weight(141, 5).
weight(142, 4).
weight(143, 6).
weight(144, 9).
weight(145, 6).
weight(146, 8).
weight(147, 8).
weight(148, 2).
weight(149, 7).
weight(150, 3).
weight(151, 2).
weight(152, 1).
weight(153, 1).
weight(154, 9).
weight(155, 5).
weight(156, 9).
weight(157, 4).
weight(158, 3).
weight(159, 1).
weight(160, 4).
weight(161, 1).
weight(162, 6).

{ choose(S) } :- set(S).
:- choose(S1), choose(S2), S1 < S2, in(S1,E), in(S2,E).
:~ not choose(S), weight(S,W). [W@1,S]
