elem(1..127).
set(1..199).
in(1, 5).
in(1, 10).
in(1, 14).
in(1, 17).
in(1, 19).
in(1, 21).
in(1, 22).
in(1, 23).
in(1, 27).
in(1, 29).
in(1, 30).
in(1, 32).
in(1, 33).
in(1, 34).
in(1, 37).
in(1, 38).
in(1, 41).
in(1, 44).
in(1, 45).
in(1, 47).
in(1, 54).
in(1, 55).
in(1, 56).
in(1, 57).
in(1, 58).
in(1, 61).
in(1, 62).
in(1, 64).
in(1, 65).
in(1, 66).
in(1, 73).
in(1, 76).
in(1, 77).
in(1, 82).
in(1, 84).
in(1, 85).
in(1, 86).
in(1, 87).
in(1, 88).
in(1, 90).
in(1, 95).
in(1, 96).
in(1, 101).
in(1, 103).
in(1, 108).
in(1, 112).
in(1, 114).
in(1, 115).
in(1, 116).
in(1, 117).
in(1, 118).
in(1, 119).
in(1, 122).
in(1, 123).
in(1, 124).
in(2, 1).
in(2, 6).
in(2, 10).
in(2, 11).
in(2, 13).
in(2, 15).
in(2, 18).
in(2, 20).
in(2, 21).
in(2, 22).
in(2, 23).
in(2, 24).
in(2, 25).
in(2, 27).
in(2, 30).
in(2, 33).
in(2, 36).
in(2, 37).
in(2, 40).
in(2, 41).
in(2, 43).
in(2, 48).
in(2, 51).
in(2, 52).
in(2, 60).
in(2, 62).
in(2, 63).
in(2, 66).
in(2, 67).
in(2, 70).
in(2, 71).
in(2, 76).
in(2, 78).
in(2, 79).
in(2, 80).
in(2, 81).
in(2, 85).
in(2, 86).
in(2, 88).
in(2, 89).
in(2, 90).
in(2, 94).
in(2, 95).
in(2, 97).
in(2, 99).
in(2, 103).
in(2, 106).
in(2, 108).
in(2, 109).
in(2, 112).
in(2, 113).
in(2, 116).
in(2, 117).
in(2, 119).
in(2, 120).
in(2, 121).
in(2, 123).
in(2, 126).
in(2, 127).
in(3, 1).
in(3, 3).
in(3, 6).
in(3, 8).
in(3, 9).
in(3, 10).
in(3, 11).
in(3, 16).
in(3, 18).
in(3, 20).
in(3, 21).
in(3, 23).
in(3, 27).
in(3, 29).
in(3, 32).
in(3, 37).
in(3, 38).
in(3, 41).
in(3, 45).
in(3, 47).
in(3, 49).
in(3, 50).
in(3, 51).
in(3, 55).
in(3, 58).
in(3, 60).
in(3, 62).
in(3, 65).
in(3, 67).
in(3, 68).
in(3, 69).
in(3, 71).
in(3, 72).
in(3, 73).
in(3, 76).
in(3, 77).
in(3, 78).
in(3, 79).
in(3, 80).
in(3, 81).
in(3, 82).
in(3, 83).
in(3, 85).
in(3, 86).
in(3, 87).
in(3, 89).
in(3, 90).
in(3, 93).
in(3, 94).
in(3, 95).
in(3, 97).
in(3, 98).
in(3, 103).
in(3, 107).
in(3, 112).
in(3, 113).
in(3, 114).
in(3, 115).
in(3, 120).
in(3, 125).
in(3, 127).
in(4, 1).
in(4, 2).
in(4, 4).
in(4, 7).
in(4, 8).
in(4, 9).
in(4, 10).
in(4, 11).
in(4, 12).
in(4, 13).
in(4, 16).
in(4, 17).
in(4, 20).
in(4, 25).
in(4, 27).
in(4, 30).
in(4, 32).
in(4, 35).
in(4, 38).
in(4, 40).
in(4, 41).
in(4, 42).
in(4, 43).
in(4, 47).
in(4, 49).
in(4, 52).
in(4, 53).
in(4, 54).
in(4, 55).
in(4, 60).
in(4, 62).
in(4, 64).
in(4, 66).
in(4, 67).
in(4, 68).
in(4, 70).
in(4, 71).
in(4, 75).
in(4, 76).
in(4, 77).
in(4, 80).
in(4, 81).
in(4, 82).
in(4, 83).
in(4, 84).
in(4, 85).
in(4, 86).
in(4, 88).
in(4, 89).
in(4, 90).
in(4, 91).
in(4, 93).
in(4, 95).
in(4, 97).
in(4, 98).
in(4, 99).
in(4, 101).
in(4, 102).
in(4, 105).
in(4, 107).
in(4, 114).
in(4, 116).
in(4, 119).
in(4, 120).
in(4, 121).
in(4, 122).
in(4, 123).
in(5, 1).
in(5, 2).
in(5, 3).
in(5, 4).
in(5, 5).
in(5, 9).
in(5, 10).
in(5, 15).
in(5, 17).
in(5, 20).
in(5, 21).
in(5, 24).
in(5, 27).
in(5, 29).
in(5, 32).
in(5, 34).
in(5, 35).
in(5, 38).
in(5, 45).
in(5, 46).
in(5, 48).
in(5, 49).
in(5, 50).
in(5, 51).
in(5, 53).
in(5, 54).
in(5, 56).
in(5, 57).
in(5, 58).
in(5, 63).
in(5, 66).
in(5, 70).
in(5, 72).
in(5, 74).
in(5, 75).
in(5, 76).
in(5, 77).
in(5, 78).
in(5, 79).
in(5, 80).
in(5, 82).
in(5, 83).
in(5, 84).
in(5, 85).
in(5, 86).
in(5, 92).
in(5, 94).
in(5, 95).
in(5, 96).
in(5, 99).
in(5, 100).
in(5, 106).
in(5, 111).
in(5, 112).
in(5, 113).
in(5, 119).
in(5, 122).
in(5, 123).
in(5, 124).
in(6, 1).
in(6, 3).
in(6, 4).
in(6, 5).
in(6, 7).
in(6, 8).
in(6, 9).
in(6, 10).
in(6, 11).
in(6, 13).
in(6, 15).
in(6, 16).
in(6, 17).
in(6, 18).
in(6, 20).
in(6, 21).
in(6, 24).
in(6, 28).
in(6, 29).
in(6, 30).
in(6, 32).
in(6, 39).
in(6, 44).
in(6, 46).
in(6, 47).
in(6, 50).
in(6, 52).
in(6, 53).
in(6, 54).
in(6, 55).
in(6, 56).
in(6, 60).
in(6, 68).
in(6, 72).
in(6, 73).
in(6, 75).
in(6, 76).
in(6, 81).
in(6, 84).
in(6, 86).
in(6, 87).
in(6, 88).
in(6, 89).
in(6, 90).
in(6, 92).
in(6, 93).
in(6, 96).
in(6, 101).
in(6, 104).
in(6, 105).
in(6, 106).
in(6, 107).
in(6, 108).
in(6, 110).
in(6, 112).
in(6, 113).
in(6, 114).
in(6, 115).
in(6, 116).
in(6, 117).
in(6, 118).
in(6, 121).
in(6, 122).
in(6, 123).
in(6, 124).
in(7, 1).
in(7, 3).
in(7, 7).
in(7, 8).
in(7, 9).
in(7, 12).
in(7, 14).
in(7, 15).
in(7, 17).
in(7, 21).
in(7, 26).
in(7, 27).
in(7, 34).
in(7, 41).
in(7, 43).
in(7, 44).
in(7, 46).
in(7, 47).
in(7, 51).
in(7, 52).
in(7, 53).
in(7, 54).
in(7, 55).
in(7, 56).
in(7, 59).
in(7, 60).
in(7, 61).
in(7, 62).
in(7, 64).
in(7, 67).
in(7, 68).
in(7, 69).
in(7, 70).
in(7, 71).
in(7, 72).
in(7, 74).
in(7, 81).
in(7, 83).
in(7, 85).
in(7, 86).
in(7, 87).
in(7, 89).
in(7, 90).
in(7, 92).
in(7, 96).
in(7, 97).
in(7, 98).
in(7, 99).
in(7, 103).
in(7, 104).
in(7, 109).
in(7, 115).
in(7, 118).
in(7, 122).
in(7, 125).
in(7, 127).
in(8, 4).
in(8, 5).
in(8, 9).
in(8, 10).
in(8, 12).
in(8, 13).
in(8, 14).
in(8, 18).
in(8, 23).
in(8, 24).
in(8, 26).
in(8, 27).
in(8, 29).
in(8, 31).
in(8, 33).
in(8, 34).
in(8, 39).
in(8, 40).
in(8, 41).
in(8, 42).
in(8, 45).
in(8, 46).
in(8, 48).
in(8, 49).
in(8, 50).
in(8, 51).
in(8, 52).
in(8, 57).
in(8, 59).
in(8, 62).
in(8, 63).
in(8, 68).
in(8, 69).
in(8, 71).
in(8, 72).
in(8, 75).
in(8, 78).
in(8, 79).
in(8, 80).
in(8, 83).
in(8, 84).
in(8, 85).
in(8, 87).
in(8, 88).
in(8, 97).
in(8, 98).
in(8, 100).
in(8, 101).
in(8, 103).
in(8, 106).
in(8, 107).
in(8, 108).
in(8, 109).
in(8, 110).
in(8, 111).
in(8, 113).
in(8, 116).
in(8, 118).
in(8, 120).
in(8, 123).
in(8, 125).
in(8, 126).
in(8, 127).
in(9, 3).
in(9, 10).
in(9, 11).
in(9, 12).
in(9, 16).
in(9, 18).
in(9, 23).
in(9, 24).
in(9, 25).
in(9, 30).
in(9, 37).
in(9, 41).
in(9, 42).
in(9, 43).
in(9, 44).
in(9, 45).
in(9, 48).
in(9, 55).
in(9, 56).
in(9, 58).
in(9, 59).
in(9, 60).
in(9, 62).
in(9, 64).
in(9, 66).
in(9, 67).
in(9, 68).
in(9, 70).
in(9, 73).
in(9, 74).
in(9, 75).
in(9, 78).
in(9, 79).
in(9, 80).
in(9, 82).
in(9, 85).
in(9, 87).
in(9, 88).
in(9, 90).
in(9, 91).
in(9, 93).
in(9, 94).
in(9, 95).
in(9, 96).
in(9, 104).
in(9, 106).
in(9, 108).
in(9, 111).
in(9, 113).
in(9, 114).
in(9, 118).
in(9, 119).
in(9, 125).
in(10, 2).
in(10, 3).
in(10, 4).
in(10, 7).
in(10, 8).
in(10, 12).
in(10, 13).
in(10, 14).
in(10, 15).
in(10, 17).
in(10, 19).
in(10, 26).
in(10, 27).
in(10, 29).
in(10, 30).
in(10, 31).
in(10, 33).
in(10, 36).
in(10, 40).
in(10, 41).
in(10, 42).
in(10, 43).
in(10, 46).
in(10, 52).
in(10, 57).
in(10, 58).
in(10, 63).
in(10, 67).
in(10, 71).
in(10, 72).
in(10, 73).
in(10, 76).
in(10, 77).
in(10, 79).
in(10, 80).
in(10, 82).
in(10, 84).
in(10, 88).
in(10, 94).
in(10, 98).
in(10, 102).
in(10, 104).
in(10, 108).
in(10, 109).
in(10, 110).
in(10, 111).
in(10, 114).
in(10, 116).
in(10, 121).
in(10, 122).
in(10, 123).
in(10, 124).
in(10, 125).
in(10, 126).
in(10, 127).
in(11, 2).
in(11, 4).
in(11, 5).
in(11, 6).
in(11, 11).
in(11, 15).
in(11, 16).
in(11, 18).
in(11, 20).
in(11, 23).
in(11, 25).
in(11, 32).
in(11, 34).
in(11, 35).
in(11, 37).
in(11, 38).
in(11, 41).
in(11, 43).
in(11, 45).
in(11, 46).
in(11, 48).
in(11, 49).
in(11, 51).
in(11, 53).
in(11, 55).
in(11, 57).
in(11, 60).
in(11, 61).
in(11, 69).
in(11, 70).
in(11, 71).
in(11, 73).
in(11, 79).
in(11, 83).
in(11, 90).
in(11, 94).
in(11, 100).
in(11, 101).
in(11, 104).
in(11, 106).
in(11, 107).
in(11, 108).
in(11, 110).
in(11, 114).
in(11, 120).
in(11, 121).
in(11, 122).
in(11, 127).
in(12, 1).
in(12, 2).
in(12, 3).
in(12, 5).
in(12, 6).
in(12, 7).
in(12, 11).
in(12, 12).
in(12, 14).
in(12, 15).
in(12, 16).
in(12, 17).
in(12, 18).
in(12, 22).
in(12, 23).
in(12, 26).
in(12, 30).
in(12, 32).
in(12, 39).
in(12, 40).
in(12, 42).
in(12, 47).
in(12, 48).
in(12, 52).
in(12, 53).
in(12, 54).
in(12, 63).
in(12, 65).
in(12, 66).
in(12, 67).
in(12, 70).
in(12, 71).
in(12, 75).
in(12, 76).
in(12, 79).
in(12, 80).
in(12, 81).
in(12, 82).
in(12, 84).
in(12, 85).
in(12, 86).
in(12, 87).
in(12, 88).
in(12, 89).
in(12, 90).
in(12, 91).
in(12, 92).
in(12, 93).
in(12, 98).
in(12, 99).
in(12, 105).
in(12, 107).
in(12, 108).
in(12, 110).
in(12, 111).
in(12, 112).
in(12, 113).
in(12, 114).
in(12, 117).
in(12, 119).
in(12, 123).
in(12, 124).
in(12, 126).
in(13, 2).
in(13, 3).
in(13, 5).
in(13, 6).
in(13, 9).
in(13, 10).
in(13, 13).
in(13, 14).
in(13, 18).
in(13, 19).
in(13, 21).
in(13, 25).
in(13, 27).
in(13, 35).
in(13, 36).
in(13, 37).
in(13, 39).
in(13, 41).
in(13, 42).
in(13, 48).
in(13, 52).
in(13, 53).
in(13, 54).
in(13, 55).
in(13, 56).
in(13, 57).
in(13, 61).
in(13, 63).
in(13, 65).
in(13, 67).
in(13, 69).
in(13, 78).
in(13, 80).
in(13, 81).
in(13, 82).
in(13, 83).
in(13, 85).
in(13, 86).
in(13, 87).
in(13, 88).
in(13, 89).
in(13, 90).
in(13, 91).
in(13, 93).
in(13, 97).
in(13, 98).
in(13, 105).
in(13, 110).
in(13, 111).
in(13, 114).
in(13, 115).
in(13, 119).
in(13, 120).
in(13, 121).
in(13, 122).
in(13, 123).
in(13, 125).
in(14, 2).
in(14, 6).
in(14, 8).
in(14, 9).
in(14, 12).
in(14, 14).
in(14, 15).
in(14, 16).
in(14, 21).
in(14, 23).
in(14, 25).
in(14, 27).
in(14, 28).
in(14, 29).
in(14, 30).
in(14, 31).
in(14, 33).
in(14, 42).
in(14, 44).
in(14, 46).
in(14, 47).
in(14, 48).
in(14, 49).
in(14, 51).
in(14, 52).
in(14, 56).
in(14, 58).
in(14, 63).
in(14, 68).
in(14, 69).
in(14, 70).
in(14, 73).
in(14, 80).
in(14, 82).
in(14, 84).
in(14, 85).
in(14, 86).
in(14, 87).
in(14, 88).
in(14, 89).
in(14, 93).
in(14, 101).
in(14, 102).
in(14, 104).
in(14, 105).
in(14, 109).
in(14, 110).
in(14, 112).
in(14, 113).
in(14, 116).
in(14, 117).
in(14, 118).
in(14, 120).
in(14, 121).
in(14, 122).
in(14, 124).
in(14, 125).
in(14, 126).
in(14, 127).
in(15, 11).
in(15, 13).
in(15, 17).
in(15, 18).
in(15, 19).
in(15, 25).
in(15, 29).
in(15, 30).
in(15, 33).
in(15, 35).
in(15, 36).
in(15, 39).
in(15, 40).
in(15, 43).
in(15, 44).
in(15, 45).
in(15, 46).
in(15, 47).
in(15, 50).
in(15, 52).
in(15, 53).
in(15, 55).
in(15, 56).
in(15, 58).
in(15, 60).
in(15, 62).
in(15, 65).
in(15, 66).
in(15, 67).
in(15, 70).
in(15, 72).
in(15, 77).
in(15, 79).
in(15, 81).
in(15, 86).
in(15, 87).
in(15, 88).
in(15, 90).
in(15, 91).
in(15, 92).
in(15, 94).
in(15, 95).
in(15, 98).
in(15, 99).
in(15, 101).
in(15, 105).
in(15, 111).
in(15, 113).
in(15, 117).
in(15, 119).
in(15, 121).
in(15, 123).
in(15, 127).
in(16, 4).
in(16, 6).
in(16, 9).
in(16, 10).
in(16, 14).
in(16, 17).
in(16, 22).
in(16, 23).
in(16, 25).
in(16, 26).
in(16, 29).
in(16, 31).
in(16, 32).
in(16, 37).
in(16, 38).
in(16, 39).
in(16, 44).
in(16, 51).
in(16, 53).
in(16, 54).
in(16, 55).
in(16, 56).
in(16, 60).
in(16, 63).
in(16, 64).
in(16, 65).
in(16, 68).
in(16, 70).
in(16, 72).
in(16, 73).
in(16, 74).
in(16, 75).
in(16, 79).
in(16, 82).
in(16, 85).
in(16, 87).
in(16, 91).
in(16, 94).
in(16, 95).
in(16, 96).
in(16, 97).
in(16, 98).
in(16, 99).
in(16, 100).
in(16, 106).
in(16, 108).
in(16, 111).
in(16, 114).
in(16, 117).
in(16, 122).
in(16, 123).
in(16, 126).
in(17, 3).
in(17, 9).
in(17, 10).
in(17, 15).
in(17, 16).
in(17, 17).
in(17, 18).
in(17, 19).
in(17, 21).
in(17, 24).
in(17, 25).
in(17, 27).
in(17, 29).
in(17, 30).
in(17, 32).
in(17, 34).
in(17, 36).
in(17, 37).
in(17, 40).
in(17, 45).
in(17, 46).
in(17, 49).
in(17, 53).
in(17, 54).
in(17, 58).
in(17, 59).
in(17, 63).
in(17, 64).
in(17, 65).
in(17, 68).
in(17, 72).
in(17, 73).
in(17, 76).
in(17, 78).
in(17, 80).
in(17, 84).
in(17, 85).
in(17, 87).
in(17, 88).
in(17, 90).
in(17, 91).
in(17, 92).
in(17, 93).
in(17, 96).
in(17, 98).
in(17, 100).
in(17, 108).
in(17, 111).
in(17, 113).
in(17, 114).
in(17, 115).
in(17, 120).
in(17, 122).
in(17, 123).
in(17, 125).
in(18, 2).
in(18, 3).
in(18, 4).
in(18, 5).
in(18, 6).
in(18, 12).
in(18, 16).
in(18, 17).
in(18, 22).
in(18, 24).
in(18, 26).
in(18, 28).
in(18, 31).
in(18, 33).
in(18, 35).
in(18, 37).
in(18, 44).
in(18, 46).
in(18, 49).
in(18, 53).
in(18, 54).
in(18, 61).
in(18, 62).
in(18, 63).
in(18, 66).
in(18, 69).
in(18, 73).
in(18, 76).
in(18, 77).
in(18, 80).
in(18, 81).
in(18, 82).
in(18, 83).
in(18, 88).
in(18, 92).
in(18, 97).
in(18, 99).
in(18, 105).
in(18, 106).
in(18, 109).
in(18, 110).
in(18, 111).
in(18, 112).
in(18, 113).
in(18, 115).
in(18, 117).
in(18, 127).
in(19, 2).
in(19, 3).
in(19, 4).
in(19, 6).
in(19, 7).
in(19, 12).
in(19, 14).
in(19, 17).
in(19, 18).
in(19, 23).
in(19, 24).
in(19, 25).
in(19, 26).
in(19, 33).
in(19, 34).
in(19, 35).
in(19, 36).
in(19, 37).
in(19, 38).
in(19, 42).
in(19, 43).
in(19, 46).
in(19, 47).
in(19, 50).
in(19, 51).
in(19, 56).
in(19, 62).
in(19, 63).
in(19, 65).
in(19, 68).
in(19, 69).
in(19, 71).
in(19, 72).
in(19, 76).
in(19, 77).
in(19, 79).
in(19, 80).
in(19, 81).
in(19, 82).
in(19, 83).
in(19, 85).
in(19, 87).
in(19, 91).
in(19, 94).
in(19, 96).
in(19, 97).
in(19, 99).
in(19, 102).
in(19, 103).
in(19, 104).
in(19, 106).
in(19, 108).
in(19, 109).
in(19, 111).
in(19, 113).
in(19, 114).
in(19, 119).
in(19, 120).
in(19, 121).
in(19, 123).
in(19, 124).
in(20, 1).
in(20, 3).
in(20, 4).
in(20, 5).
in(20, 7).
in(20, 8).
in(20, 11).
in(20, 12).
in(20, 13).
in(20, 18).
in(20, 19).
in(20, 20).
in(20, 21).
in(20, 24).
in(20, 28).
in(20, 30).
in(20, 31).
in(20, 32).
in(20, 33).
in(20, 34).
in(20, 36).
in(20, 41).
in(20, 43).
in(20, 44).
in(20, 47).
in(20, 49).
in(20, 55).
in(20, 56).
in(20, 59).
in(20, 60).
in(20, 63).
in(20, 66).
in(20, 67).
in(20, 68).
in(20, 70).
in(20, 71).
in(20, 73).
in(20, 75).
in(20, 76).
in(20, 77).
in(20, 79).
in(20, 84).
in(20, 90).
in(20, 92).
in(20, 95).
in(20, 96).
in(20, 102).
in(20, 103).
in(20, 104).
in(20, 105).
in(20, 108).
in(20, 109).
in(20, 110).
in(20, 111).
in(20, 112).
in(20, 116).
in(20, 119).
in(20, 122).
in(20, 124).
in(20, 126).
in(20, 127).
in(21, 3).
in(21, 5).
in(21, 6).
in(21, 9).
in(21, 10).
in(21, 16).
in(21, 19).
in(21, 20).
in(21, 23).
in(21, 25).
in(21, 26).
in(21, 27).
in(21, 29).
in(21, 30).
in(21, 32).
in(21, 34).
in(21, 37).
in(21, 38).
in(21, 39).
in(21, 42).
in(21, 43).
in(21, 44).
in(21, 46).
in(21, 49).
in(21, 55).
in(21, 56).
in(21, 57).
in(21, 58).
in(21, 59).
in(21, 61).
in(21, 62).
in(21, 63).
in(21, 65).
in(21, 68).
in(21, 71).
in(21, 74).
in(21, 77).
in(21, 79).
in(21, 80).
in(21, 81).
in(21, 82).
in(21, 84).
in(21, 86).
in(21, 87).
in(21, 88).
in(21, 93).
in(21, 96).
in(21, 97).
in(21, 99).
in(21, 100).
in(21, 101).
in(21, 104).
in(21, 105).
in(21, 106).
in(21, 108).
in(21, 109).
in(21, 112).
in(21, 115).
in(21, 118).
in(21, 121).
in(21, 123).
in(21, 124).
in(21, 127).
in(22, 2).
in(22, 3).
in(22, 5).
in(22, 6).
in(22, 9).
in(22, 11).
in(22, 12).
in(22, 13).
in(22, 14).
in(22, 15).
in(22, 16).
in(22, 17).
in(22, 18).
in(22, 21).
in(22, 24).
in(22, 25).
in(22, 26).
in(22, 30).
in(22, 31).
in(22, 32).
in(22, 34).
in(22, 36).
in(22, 39).
in(22, 41).
in(22, 51).
in(22, 53).
in(22, 55).
in(22, 59).
in(22, 60).
in(22, 63).
in(22, 64).
in(22, 66).
in(22, 69).
in(22, 75).
in(22, 78).
in(22, 79).
in(22, 80).
in(22, 83).
in(22, 85).
in(22, 88).
in(22, 89).
in(22, 90).
in(22, 92).
in(22, 93).
in(22, 96).
in(22, 99).
in(22, 100).
in(22, 104).
in(22, 108).
in(22, 109).
in(22, 111).
in(22, 112).
in(22, 116).
in(22, 117).
in(22, 120).
in(22, 122).
in(22, 125).
in(22, 126).
in(22, 127).
in(23, 2).
in(23, 3).
in(23, 6).
in(23, 7).
in(23, 12).
in(23, 14).
in(23, 15).
in(23, 16).
in(23, 20).
in(23, 21).
in(23, 22).
in(23, 27).
in(23, 30).
in(23, 32).
in(23, 43).
in(23, 44).
in(23, 47).
in(23, 48).
in(23, 49).
in(23, 50).
in(23, 51).
in(23, 52).
in(23, 56).
in(23, 57).
in(23, 58).
in(23, 60).
in(23, 62).
in(23, 65).
in(23, 67).
in(23, 69).
in(23, 70).
in(23, 74).
in(23, 75).
in(23, 81).
in(23, 82).
in(23, 84).
in(23, 85).
in(23, 86).
in(23, 88).
in(23, 90).
in(23, 91).
in(23, 96).
in(23, 98).
in(23, 103).
in(23, 104).
in(23, 107).
in(23, 109).
in(23, 111).
in(23, 112).
in(23, 117).
in(23, 118).
in(23, 123).
in(23, 125).
in(24, 5).
in(24, 6).
in(24, 7).
in(24, 12).
in(24, 16).
in(24, 18).
in(24, 19).
in(24, 20).
in(24, 22).
in(24, 23).
in(24, 25).
in(24, 27).
in(24, 29).
in(24, 33).
in(24, 34).
in(24, 35).
in(24, 37).
in(24, 38).
in(24, 39).
in(24, 41).
in(24, 42).
in(24, 43).
in(24, 51).
in(24, 53).
in(24, 55).
in(24, 56).
in(24, 58).
in(24, 59).
in(24, 61).
in(24, 63).
in(24, 64).
in(24, 68).
in(24, 69).
in(24, 75).
in(24, 80).
in(24, 83).
in(24, 84).
in(24, 86).
in(24, 88).
in(24, 89).
in(24, 90).
in(24, 98).
in(24, 100).
in(24, 101).
in(24, 103).
in(24, 104).
in(24, 105).
in(24, 106).
in(24, 113).
in(24, 114).
in(24, 118).
in(24, 123).
in(24, 124).
in(24, 126).
in(25, 3).
in(25, 4).
in(25, 5).
in(25, 7).
in(25, 8).
in(25, 11).
in(25, 15).
in(25, 16).
in(25, 18).
in(25, 19).
in(25, 20).
in(25, 23).
in(25, 28).
in(25, 31).
in(25, 38).
in(25, 40).
in(25, 42).
in(25, 44).
in(25, 49).
in(25, 51).
in(25, 52).
in(25, 53).
in(25, 55).
in(25, 58).
in(25, 60).
in(25, 61).
in(25, 62).
in(25, 67).
in(25, 68).
in(25, 73).
in(25, 74).
in(25, 75).
in(25, 78).
in(25, 81).
in(25, 84).
in(25, 85).
in(25, 87).
in(25, 90).
in(25, 92).
in(25, 93).
in(25, 94).
in(25, 96).
in(25, 100).
in(25, 101).
in(25, 104).
in(25, 105).
in(25, 109).
in(25, 112).
in(25, 116).
in(25, 117).
in(25, 123).
in(25, 124).
in(25, 126).
in(25, 127).
in(26, 3).
in(26, 4).
in(26, 5).
in(26, 6).
in(26, 7).
in(26, 13).
in(26, 14).
in(26, 15).
in(26, 19).
in(26, 24).
in(26, 26).
in(26, 29).
in(26, 30).
in(26, 31).
in(26, 34).
in(26, 35).
in(26, 36).
in(26, 39).
in(26, 41).
in(26, 45).
in(26, 46).
in(26, 48).
in(26, 51).
in(26, 52).
in(26, 53).
in(26, 55).
in(26, 57).
in(26, 68).
in(26, 71).
in(26, 74).
in(26, 78).
in(26, 82).
in(26, 85).
in(26, 86).
in(26, 90).
in(26, 91).
in(26, 92).
in(26, 104).
in(26, 107).
in(26, 108).
in(26, 109).
in(26, 111).
in(26, 112).
in(26, 115).
in(26, 119).
in(26, 121).
in(26, 122).
in(26, 126).
in(26, 127).
in(27, 2).
in(27, 5).
in(27, 7).
in(27, 8).
in(27, 11).
in(27, 12).
in(27, 14).
in(27, 15).
in(27, 16).
in(27, 17).
in(27, 18).
in(27, 19).
in(27, 24).
in(27, 27).
in(27, 28).
in(27, 33).
in(27, 34).
in(27, 37).
in(27, 42).
in(27, 44).
in(27, 48).
in(27, 50).
in(27, 51).
in(27, 53).
in(27, 59).
in(27, 60).
in(27, 62).
in(27, 63).
in(27, 66).
in(27, 67).
in(27, 68).
in(27, 69).
in(27, 71).
in(27, 72).
in(27, 73).
in(27, 75).
in(27, 78).
in(27, 83).
in(27, 87).
in(27, 88).
in(27, 89).
in(27, 90).
in(27, 92).
in(27, 93).
in(27, 97).
in(27, 103).
in(27, 104).
in(27, 106).
in(27, 108).
in(27, 112).
in(27, 119).
in(27, 122).
in(27, 124).
in(27, 125).
in(27, 127).
in(28, 1).
in(28, 2).
in(28, 5).
in(28, 6).
in(28, 9).
in(28, 10).
in(28, 12).
in(28, 13).
in(28, 15).
in(28, 18).
in(28, 19).
in(28, 21).
in(28, 24).
in(28, 25).
in(28, 30).
in(28, 32).
in(28, 33).
in(28, 37).
in(28, 39).
in(28, 40).
in(28, 41).
in(28, 42).
in(28, 45).
in(28, 46).
in(28, 47).
in(28, 49).
in(28, 50).
in(28, 52).
in(28, 53).
in(28, 54).
in(28, 55).
in(28, 58).
in(28, 59).
in(28, 62).
in(28, 63).
in(28, 65).
in(28, 66).
in(28, 73).
in(28, 76).
in(28, 79).
in(28, 84).
in(28, 85).
in(28, 86).
in(28, 87).
in(28, 88).
in(28, 94).
in(28, 99).
in(28, 105).
in(28, 106).
in(28, 108).
in(28, 109).
in(28, 111).
in(28, 112).
in(28, 118).
in(28, 119).
in(28, 121).
in(28, 122).
in(28, 124).
in(28, 125).
in(28, 126).
in(28, 127).
in(29, 1).
in(29, 5).
in(29, 6).
in(29, 9).
in(29, 11).
in(29, 14).
in(29, 15).
in(29, 17).
in(29, 18).
in(29, 21).
in(29, 23).
in(29, 25).
in(29, 26).
in(29, 29).
in(29, 31).
in(29, 32).
in(29, 35).
in(29, 37).
in(29, 38).
in(29, 39).
in(29, 41).
in(29, 46).
in(29, 48).
in(29, 51).
in(29, 52).
in(29, 54).
in(29, 56).
in(29, 60).
in(29, 62).
in(29, 64).
in(29, 65).
in(29, 66).
in(29, 67).
in(29, 70).
in(29, 78).
in(29, 79).
in(29, 80).
in(29, 81).
in(29, 84).
in(29, 85).
in(29, 86).
in(29, 87).
in(29, 90).
in(29, 92).
in(29, 95).
in(29, 96).
in(29, 98).
in(29, 101).
in(29, 103).
in(29, 112).
in(29, 114).
in(29, 116).
in(29, 119).
in(29, 120).
in(29, 124).
in(29, 125).
in(29, 126).
in(29, 127).
in(30, 7).
in(30, 8).
in(30, 12).
in(30, 13).
in(30, 14).
in(30, 15).
in(30, 16).
in(30, 18).
in(30, 21).
in(30, 25).
in(30, 27).
in(30, 30).
in(30, 32).
in(30, 34).
in(30, 35).
in(30, 39).
in(30, 40).
in(30, 41).
in(30, 43).
in(30, 44).
in(30, 45).
in(30, 46).
in(30, 55).
in(30, 59).
in(30, 62).
in(30, 68).
in(30, 74).
in(30, 78).
in(30, 79).
in(30, 81).
in(30, 82).
in(30, 86).
in(30, 90).
in(30, 91).
in(30, 96).
in(30, 97).
in(30, 102).
in(30, 103).
in(30, 105).
in(30, 107).
in(30, 108).
in(30, 112).
in(30, 113).
in(30, 118).
in(30, 120).
in(30, 121).
in(30, 124).
in(30, 125).
in(30, 126).
in(30, 127).
in(31, 2).
in(31, 4).
in(31, 6).
in(31, 7).
in(31, 8).
in(31, 9).
in(31, 10).
in(31, 11).
in(31, 12).
in(31, 13).
in(31, 15).
in(31, 16).
in(31, 23).
in(31, 30).
in(31, 32).
in(31, 33).
in(31, 34).
in(31, 36).
in(31, 37).
in(31, 38).
in(31, 40).
in(31, 42).
in(31, 48).
in(31, 49).
in(31, 52).
in(31, 54).
in(31, 56).
in(31, 57).
in(31, 59).
in(31, 60).
in(31, 66).
in(31, 67).
in(31, 69).
in(31, 71).
in(31, 73).
in(31, 77).
in(31, 81).
in(31, 84).
in(31, 92).
in(31, 93).
in(31, 102).
in(31, 108).
in(31, 110).
in(31, 112).
in(31, 113).
in(31, 118).
in(31, 122).
in(31, 125).
in(32, 1).
in(32, 8).
in(32, 12).
in(32, 15).
in(32, 17).
in(32, 19).
in(32, 21).
in(32, 24).
in(32, 31).
in(32, 34).
in(32, 35).
in(32, 42).
in(32, 46).
in(32, 48).
in(32, 49).
in(32, 53).
in(32, 55).
in(32, 56).
in(32, 58).
in(32, 59).
in(32, 62).
in(32, 64).
in(32, 67).
in(32, 68).
in(32, 74).
in(32, 76).
in(32, 77).
in(32, 78).
in(32, 79).
in(32, 81).
in(32, 84).
in(32, 89).
in(32, 90).
in(32, 92).
in(32, 96).
in(32, 97).
in(32, 98).
in(32, 103).
in(32, 106).
in(32, 110).
in(32, 114).
in(32, 115).
in(32, 116).
in(32, 117).
in(32, 119).
in(32, 120).
in(32, 123).
in(32, 124).
in(32, 125).
in(32, 127).
in(33, 1).
in(33, 5).
in(33, 6).
in(33, 7).
in(33, 8).
in(33, 9).
in(33, 10).
in(33, 13).
in(33, 14).
in(33, 17).
in(33, 18).
in(33, 19).
in(33, 20).
in(33, 22).
in(33, 23).
in(33, 24).
in(33, 29).
in(33, 30).
in(33, 32).
in(33, 36).
in(33, 37).
in(33, 42).
in(33, 45).
in(33, 47).
in(33, 52).
in(33, 53).
in(33, 57).
in(33, 58).
in(33, 63).
in(33, 64).
in(33, 65).
in(33, 66).
in(33, 69).
in(33, 70).
in(33, 72).
in(33, 77).
in(33, 78).
in(33, 82).
in(33, 87).
in(33, 89).
in(33, 92).
in(33, 93).
in(33, 95).
in(33, 97).
in(33, 98).
in(33, 99).
in(33, 101).
in(33, 103).
in(33, 104).
in(33, 105).
in(33, 107).
in(33, 109).
in(33, 118).
in(33, 119).
in(33, 120).
in(33, 121).
in(33, 122).
in(33, 124).
in(33, 125).
in(33, 127).
in(34, 1).
in(34, 2).
in(34, 5).
in(34, 8).
in(34, 9).
in(34, 12).
in(34, 15).
in(34, 17).
in(34, 19).
in(34, 26).
in(34, 27).
in(34, 30).
in(34, 31).
in(34, 32).
in(34, 34).
in(34, 36).
in(34, 37).
in(34, 40).
in(34, 41).
in(34, 42).
in(34, 43).
in(34, 46).
in(34, 48).
in(34, 52).
in(34, 53).
in(34, 56).
in(34, 57).
in(34, 59).
in(34, 60).
in(34, 65).
in(34, 73).
in(34, 80).
in(34, 81).
in(34, 85).
in(34, 86).
in(34, 87).
in(34, 89).
in(34, 90).
in(34, 99).
in(34, 100).
in(34, 101).
in(34, 110).
in(34, 112).
in(34, 113).
in(34, 114).
in(34, 115).
in(34, 116).
in(34, 117).
in(34, 124).
in(34, 125).
in(34, 127).
in(35, 3).
in(35, 4).
in(35, 9).
in(35, 13).
in(35, 16).
in(35, 17).
in(35, 20).
in(35, 26).
in(35, 29).
in(35, 32).
in(35, 33).
in(35, 36).
in(35, 38).
in(35, 40).
in(35, 43).
in(35, 44).
in(35, 45).
in(35, 46).
in(35, 48).
in(35, 56).
in(35, 57).
in(35, 59).
in(35, 65).
in(35, 67).
in(35, 68).
in(35, 81).
in(35, 85).
in(35, 86).
in(35, 90).
in(35, 92).
in(35, 93).
in(35, 94).
in(35, 99).
in(35, 101).
in(35, 102).
in(35, 103).
in(35, 108).
in(35, 109).
in(35, 112).
in(35, 113).
in(35, 114).
in(35, 124).
in(35, 126).
in(36, 1).
in(36, 2).
in(36, 9).
in(36, 12).
in(36, 14).
in(36, 15).
in(36, 16).
in(36, 17).
in(36, 26).
in(36, 28).
in(36, 39).
in(36, 40).
in(36, 41).
in(36, 43).
in(36, 44).
in(36, 45).
in(36, 46).
in(36, 47).
in(36, 49).
in(36, 54).
in(36, 56).
in(36, 62).
in(36, 64).
in(36, 65).
in(36, 66).
in(36, 70).
in(36, 71).
in(36, 72).
in(36, 73).
in(36, 75).
in(36, 76).
in(36, 77).
in(36, 78).
in(36, 79).
in(36, 81).
in(36, 82).
in(36, 84).
in(36, 86).
in(36, 87).
in(36, 90).
in(36, 91).
in(36, 93).
in(36, 96).
in(36, 101).
in(36, 106).
in(36, 109).
in(36, 110).
in(36, 113).
in(36, 119).
in(36, 120).
in(36, 122).
in(36, 124).
in(36, 125).
in(37, 1).
in(37, 4).
in(37, 5).
in(37, 6).
in(37, 7).
in(37, 15).
in(37, 19).
in(37, 23).
in(37, 27).
in(37, 29).
in(37, 30).
in(37, 31).
in(37, 32).
in(37, 33).
in(37, 35).
in(37, 39).
in(37, 41).
in(37, 43).
in(37, 44).
in(37, 45).
in(37, 46).
in(37, 50).
in(37, 55).
in(37, 59).
in(37, 66).
in(37, 67).
in(37, 70).
in(37, 72).
in(37, 73).
in(37, 80).
in(37, 81).
in(37, 83).
in(37, 85).
in(37, 86).
in(37, 88).
in(37, 91).
in(37, 93).
in(37, 98).
in(37, 99).
in(37, 100).
in(37, 101).
in(37, 102).
in(37, 104).
in(37, 106).
in(37, 109).
in(37, 110).
in(37, 111).
in(37, 114).
in(37, 115).
in(37, 116).
in(37, 117).
in(37, 122).
in(37, 126).
in(38, 3).
in(38, 4).
in(38, 5).
in(38, 7).
in(38, 8).
in(38, 9).
in(38, 10).
in(38, 12).
in(38, 14).
in(38, 15).
in(38, 22).
in(38, 24).
in(38, 28).
in(38, 30).
in(38, 32).
in(38, 34).
in(38, 37).
in(38, 38).
in(38, 39).
in(38, 40).
in(38, 47).
in(38, 50).
in(38, 51).
in(38, 52).
in(38, 55).
in(38, 56).
in(38, 59).
in(38, 65).
in(38, 66).
in(38, 67).
in(38, 69).
in(38, 70).
in(38, 71).
in(38, 74).
in(38, 75).
in(38, 76).
in(38, 78).
in(38, 79).
in(38, 80).
in(38, 85).
in(38, 86).
in(38, 89).
in(38, 92).
in(38, 93).
in(38, 96).
in(38, 99).
in(38, 100).
in(38, 102).
in(38, 104).
in(38, 106).
in(38, 108).
in(38, 113).
in(38, 114).
in(38, 115).
in(38, 119).
in(38, 123).
in(38, 125).
in(38, 126).
in(39, 1).
in(39, 2).
in(39, 3).
in(39, 8).
in(39, 11).
in(39, 12).
in(39, 14).
in(39, 16).
in(39, 17).
in(39, 19).
in(39, 28).
in(39, 30).
in(39, 35).
in(39, 38).
in(39, 39).
in(39, 41).
in(39, 42).
in(39, 43).
in(39, 46).
in(39, 47).
in(39, 49).
in(39, 51).
in(39, 54).
in(39, 55).
in(39, 56).
in(39, 57).
in(39, 63).
in(39, 65).
in(39, 66).
in(39, 67).
in(39, 69).
in(39, 70).
in(39, 71).
in(39, 73).
in(39, 76).
in(39, 78).
in(39, 80).
in(39, 83).
in(39, 84).
in(39, 86).
in(39, 87).
in(39, 88).
in(39, 91).
in(39, 92).
in(39, 95).
in(39, 97).
in(39, 100).
in(39, 101).
in(39, 104).
in(39, 106).
in(39, 108).
in(39, 111).
in(39, 112).
in(39, 116).
in(39, 117).
in(39, 119).
in(39, 120).
in(39, 127).
in(40, 4).
in(40, 5).
in(40, 11).
in(40, 13).
in(40, 14).
in(40, 16).
in(40, 18).
in(40, 20).
in(40, 24).
in(40, 25).
in(40, 26).
in(40, 31).
in(40, 32).
in(40, 35).
in(40, 37).
in(40, 38).
in(40, 39).
in(40, 40).
in(40, 42).
in(40, 43).
in(40, 44).
in(40, 45).
in(40, 50).
in(40, 53).
in(40, 54).
in(40, 55).
in(40, 57).
in(40, 58).
in(40, 60).
in(40, 62).
in(40, 65).
in(40, 66).
in(40, 67).
in(40, 69).
in(40, 71).
in(40, 76).
in(40, 77).
in(40, 79).
in(40, 80).
in(40, 82).
in(40, 85).
in(40, 86).
in(40, 88).
in(40, 89).
in(40, 93).
in(40, 94).
in(40, 99).
in(40, 100).
in(40, 102).
in(40, 103).
in(40, 106).
in(40, 107).
in(40, 108).
in(40, 109).
in(40, 110).
in(40, 112).
in(40, 117).
in(40, 118).
in(40, 119).
in(40, 124).
in(41, 8).
in(41, 11).
in(41, 12).
in(41, 15).
in(41, 16).
in(41, 17).
in(41, 18).
in(41, 21).
in(41, 24).
in(41, 27).
in(41, 29).
in(41, 30).
in(41, 32).
in(41, 33).
in(41, 37).
in(41, 38).
in(41, 42).
in(41, 43).
in(41, 45).
in(41, 48).
in(41, 49).
in(41, 50).
in(41, 51).
in(41, 52).
in(41, 57).
in(41, 58).
in(41, 60).
in(41, 67).
in(41, 69).
in(41, 70).
in(41, 72).
in(41, 74).
in(41, 75).
in(41, 76).
in(41, 80).
in(41, 81).
in(41, 91).
in(41, 93).
in(41, 94).
in(41, 98).
in(41, 103).
in(41, 106).
in(41, 107).
in(41, 109).
in(41, 112).
in(41, 116).
in(41, 119).
in(41, 120).
in(41, 121).
in(41, 124).
in(42, 3).
in(42, 7).
in(42, 8).
in(42, 9).
in(42, 10).
in(42, 11).
in(42, 12).
in(42, 16).
in(42, 17).
in(42, 19).
in(42, 20).
in(42, 25).
in(42, 26).
in(42, 27).
in(42, 29).
in(42, 32).
in(42, 34).
in(42, 35).
in(42, 36).
in(42, 37).
in(42, 39).
in(42, 41).
in(42, 42).
in(42, 44).
in(42, 45).
in(42, 46).
in(42, 47).
in(42, 49).
in(42, 52).
in(42, 55).
in(42, 57).
in(42, 61).
in(42, 63).
in(42, 64).
in(42, 65).
in(42, 69).
in(42, 72).
in(42, 75).
in(42, 76).
in(42, 77).
in(42, 79).
in(42, 80).
in(42, 82).
in(42, 84).
in(42, 85).
in(42, 89).
in(42, 90).
in(42, 96).
in(42, 97).
in(42, 99).
in(42, 104).
in(42, 108).
in(42, 112).
in(42, 113).
in(42, 114).
in(42, 116).
in(42, 118).
in(42, 123).
in(42, 126).
in(43, 1).
in(43, 4).
in(43, 5).
in(43, 8).
in(43, 14).
in(43, 15).
in(43, 16).
in(43, 18).
in(43, 19).
in(43, 20).
in(43, 26).
in(43, 27).
in(43, 28).
in(43, 30).
in(43, 31).
in(43, 34).
in(43, 35).
in(43, 37).
in(43, 41).
in(43, 42).
in(43, 43).
in(43, 44).
in(43, 45).
in(43, 46).
in(43, 49).
in(43, 51).
in(43, 52).
in(43, 53).
in(43, 55).
in(43, 56).
in(43, 57).
in(43, 58).
in(43, 59).
in(43, 63).
in(43, 70).
in(43, 71).
in(43, 72).
in(43, 76).
in(43, 78).
in(43, 87).
in(43, 89).
in(43, 93).
in(43, 94).
in(43, 97).
in(43, 98).
in(43, 99).
in(43, 100).
in(43, 101).
in(43, 103).
in(43, 106).
in(43, 107).
in(43, 111).
in(43, 112).
in(43, 115).
in(43, 116).
in(43, 118).
in(43, 120).
in(43, 121).
in(43, 122).
in(43, 123).
in(43, 124).
in(44, 1).
in(44, 8).
in(44, 9).
in(44, 11).
in(44, 12).
in(44, 17).
in(44, 18).
in(44, 20).
in(44, 22).
in(44, 24).
in(44, 25).
in(44, 28).
in(44, 36).
in(44, 38).
in(44, 39).
in(44, 41).
in(44, 45).
in(44, 46).
in(44, 51).
in(44, 52).
in(44, 54).
in(44, 55).
in(44, 57).
in(44, 59).
in(44, 60).
in(44, 61).
in(44, 65).
in(44, 68).
in(44, 70).
in(44, 71).
in(44, 75).
in(44, 76).
in(44, 79).
in(44, 80).
in(44, 81).
in(44, 82).
in(44, 84).
in(44, 85).
in(44, 87).
in(44, 88).
in(44, 95).
in(44, 98).
in(44, 99).
in(44, 100).
in(44, 101).
in(44, 106).
in(44, 107).
in(44, 114).
in(44, 118).
in(44, 120).
in(44, 122).
in(44, 123).
in(44, 127).
in(45, 1).
in(45, 3).
in(45, 8).
in(45, 11).
in(45, 12).
in(45, 23).
in(45, 26).
in(45, 27).
in(45, 34).
in(45, 36).
in(45, 38).
in(45, 39).
in(45, 40).
in(45, 41).
in(45, 42).
in(45, 45).
in(45, 50).
in(45, 53).
in(45, 55).
in(45, 57).
in(45, 58).
in(45, 61).
in(45, 64).
in(45, 65).
in(45, 66).
in(45, 68).
in(45, 70).
in(45, 72).
in(45, 73).
in(45, 74).
in(45, 79).
in(45, 83).
in(45, 88).
in(45, 89).
in(45, 91).
in(45, 92).
in(45, 96).
in(45, 97).
in(45, 99).
in(45, 101).
in(45, 102).
in(45, 104).
in(45, 109).
in(45, 111).
in(45, 115).
in(45, 116).
in(45, 117).
in(45, 118).
in(45, 120).
in(45, 123).
in(45, 126).
in(46, 4).
in(46, 8).
in(46, 12).
in(46, 14).
in(46, 16).
in(46, 17).
in(46, 18).
in(46, 22).
in(46, 23).
in(46, 24).
in(46, 31).
in(46, 34).
in(46, 38).
in(46, 39).
in(46, 42).
in(46, 43).
in(46, 44).
in(46, 46).
in(46, 47).
in(46, 48).
in(46, 51).
in(46, 52).
in(46, 53).
in(46, 55).
in(46, 59).
in(46, 60).
in(46, 65).
in(46, 68).
in(46, 72).
in(46, 76).
in(46, 78).
in(46, 80).
in(46, 82).
in(46, 86).
in(46, 95).
in(46, 98).
in(46, 100).
in(46, 101).
in(46, 102).
in(46, 105).
in(46, 107).
in(46, 108).
in(46, 109).
in(46, 110).
in(46, 111).
in(46, 112).
in(46, 116).
in(46, 119).
in(46, 122).
in(46, 124).
in(46, 125).
in(46, 126).
in(47, 5).
in(47, 9).
in(47, 10).
in(47, 11).
in(47, 14).
in(47, 19).
in(47, 20).
in(47, 22).
in(47, 23).
in(47, 24).
in(47, 26).
in(47, 28).
in(47, 30).
in(47, 32).
in(47, 34).
in(47, 35).
in(47, 36).
in(47, 37).
in(47, 38).
in(47, 42).
in(47, 43).
in(47, 45).
in(47, 46).
in(47, 49).
in(47, 51).
in(47, 53).
in(47, 55).
in(47, 57).
in(47, 58).
in(47, 62).
in(47, 63).
in(47, 64).
in(47, 66).
in(47, 68).
in(47, 69).
in(47, 71).
in(47, 73).
in(47, 74).
in(47, 75).
in(47, 79).
in(47, 80).
in(47, 83).
in(47, 88).
in(47, 90).
in(47, 93).
in(47, 95).
in(47, 96).
in(47, 97).
in(47, 103).
in(47, 104).
in(47, 106).
in(47, 107).
in(47, 110).
in(47, 111).
in(47, 112).
in(47, 113).
in(47, 114).
in(47, 115).
in(47, 119).
in(47, 121).
in(47, 125).
in(47, 127).
in(48, 2).
in(48, 4).
in(48, 5).
in(48, 6).
in(48, 12).
in(48, 14).
in(48, 16).
in(48, 20).
in(48, 23).
in(48, 24).
in(48, 26).
in(48, 28).
in(48, 29).
in(48, 31).
in(48, 32).
in(48, 34).
in(48, 35).
in(48, 41).
in(48, 44).
in(48, 48).
in(48, 49).
in(48, 50).
in(48, 51).
in(48, 54).
in(48, 55).
in(48, 56).
in(48, 58).
in(48, 59).
in(48, 60).
in(48, 61).
in(48, 64).
in(48, 65).
in(48, 68).
in(48, 72).
in(48, 73).
in(48, 74).
in(48, 75).
in(48, 76).
in(48, 78).
in(48, 79).
in(48, 80).
in(48, 81).
in(48, 83).
in(48, 85).
in(48, 89).
in(48, 90).
in(48, 94).
in(48, 95).
in(48, 100).
in(48, 103).
in(48, 104).
in(48, 107).
in(48, 108).
in(48, 109).
in(48, 110).
in(48, 111).
in(48, 112).
in(48, 116).
in(48, 117).
in(48, 119).
in(48, 122).
in(48, 127).
in(49, 2).
in(49, 7).
in(49, 9).
in(49, 10).
in(49, 11).
in(49, 16).
in(49, 17).
in(49, 18).
in(49, 19).
in(49, 20).
in(49, 21).
in(49, 24).
in(49, 26).
in(49, 28).
in(49, 35).
in(49, 38).
in(49, 42).
in(49, 44).
in(49, 47).
in(49, 48).
in(49, 50).
in(49, 53).
in(49, 54).
in(49, 57).
in(49, 58).
in(49, 61).
in(49, 62).
in(49, 64).
in(49, 66).
in(49, 69).
in(49, 72).
in(49, 73).
in(49, 77).
in(49, 79).
in(49, 82).
in(49, 87).
in(49, 89).
in(49, 94).
in(49, 96).
in(49, 98).
in(49, 99).
in(49, 101).
in(49, 105).
in(49, 106).
in(49, 110).
in(49, 111).
in(49, 116).
in(49, 117).
in(49, 120).
in(49, 121).
in(49, 122).
in(49, 124).
in(49, 125).
in(49, 126).
in(50, 4).
in(50, 5).
in(50, 8).
in(50, 9).
in(50, 11).
in(50, 13).
in(50, 15).
in(50, 17).
in(50, 21).
in(50, 22).
in(50, 23).
in(50, 25).
in(50, 28).
in(50, 30).
in(50, 31).
in(50, 32).
in(50, 34).
in(50, 35).
in(50, 39).
in(50, 40).
in(50, 43).
in(50, 46).
in(50, 50).
in(50, 51).
in(50, 56).
in(50, 61).
in(50, 62).
in(50, 64).
in(50, 70).
in(50, 74).
in(50, 77).
in(50, 79).
in(50, 80).
in(50, 82).
in(50, 83).
in(50, 84).
in(50, 86).
in(50, 89).
in(50, 91).
in(50, 92).
in(50, 94).
in(50, 95).
in(50, 99).
in(50, 101).
in(50, 103).
in(50, 104).
in(50, 111).
in(50, 113).
in(50, 114).
in(50, 122).
in(50, 124).
in(50, 127).
in(51, 3).
in(51, 5).
in(51, 7).
in(51, 9).
in(51, 12).
in(51, 15).
in(51, 20).
in(51, 21).
in(51, 22).
in(51, 23).
in(51, 24).
in(51, 25).
in(51, 27).
in(51, 28).
in(51, 30).
in(51, 32).
in(51, 33).
in(51, 35).
in(51, 37).
in(51, 42).
in(51, 44).
in(51, 45).
in(51, 48).
in(51, 52).
in(51, 56).
in(51, 60).
in(51, 62).
in(51, 63).
in(51, 64).
in(51, 67).
in(51, 69).
in(51, 70).
in(51, 71).
in(51, 72).
in(51, 74).
in(51, 75).
in(51, 77).
in(51, 78).
in(51, 82).
in(51, 85).
in(51, 86).
in(51, 87).
in(51, 88).
in(51, 89).
in(51, 91).
in(51, 92).
in(51, 94).
in(51, 95).
in(51, 96).
in(51, 97).
in(51, 99).
in(51, 100).
in(51, 101).
in(51, 102).
in(51, 103).
in(51, 104).
in(51, 105).
in(51, 107).
in(51, 108).
in(51, 109).
in(51, 110).
in(51, 111).
in(51, 113).
in(51, 114).
in(51, 117).
in(51, 118).
in(51, 119).
in(51, 120).
in(51, 124).
in(51, 127).
in(52, 1).
in(52, 4).
in(52, 5).
in(52, 6).
in(52, 8).
in(52, 10).
in(52, 13).
in(52, 14).
in(52, 17).
in(52, 23).
in(52, 24).
in(52, 28).
in(52, 29).
in(52, 33).
in(52, 34).
in(52, 39).
in(52, 42).
in(52, 43).
in(52, 46).
in(52, 47).
in(52, 48).
in(52, 51).
in(52, 53).
in(52, 63).
in(52, 64).
in(52, 68).
in(52, 70).
in(52, 71).
in(52, 73).
in(52, 80).
in(52, 86).
in(52, 90).
in(52, 92).
in(52, 93).
in(52, 98).
in(52, 99).
in(52, 100).
in(52, 101).
in(52, 105).
in(52, 106).
in(52, 109).
in(52, 110).
in(52, 112).
in(52, 113).
in(52, 116).
in(52, 120).
in(52, 122).
in(52, 125).
in(52, 127).
in(53, 2).
in(53, 3).
in(53, 5).
in(53, 7).
in(53, 8).
in(53, 10).
in(53, 11).
in(53, 12).
in(53, 13).
in(53, 14).
in(53, 18).
in(53, 21).
in(53, 22).
in(53, 24).
in(53, 31).
in(53, 38).
in(53, 39).
in(53, 42).
in(53, 45).
in(53, 46).
in(53, 49).
in(53, 50).
in(53, 51).
in(53, 53).
in(53, 56).
in(53, 57).
in(53, 69).
in(53, 71).
in(53, 72).
in(53, 74).
in(53, 75).
in(53, 82).
in(53, 87).
in(53, 88).
in(53, 89).
in(53, 90).
in(53, 91).
in(53, 92).
in(53, 93).
in(53, 96).
in(53, 99).
in(53, 100).
in(53, 102).
in(53, 103).
in(53, 105).
in(53, 106).
in(53, 107).
in(53, 108).
in(53, 109).
in(53, 111).
in(53, 112).
in(53, 113).
in(53, 114).
in(53, 116).
in(53, 120).
in(53, 122).
in(53, 123).
in(53, 124).
in(54, 2).
in(54, 3).
in(54, 5).
in(54, 8).
in(54, 9).
in(54, 10).
in(54, 11).
in(54, 13).
in(54, 15).
in(54, 16).
in(54, 25).
in(54, 26).
in(54, 31).
in(54, 32).
in(54, 35).
in(54, 38).
in(54, 39).
in(54, 40).
in(54, 41).
in(54, 51).
in(54, 52).
in(54, 53).
in(54, 55).
in(54, 62).
in(54, 66).
in(54, 68).
in(54, 69).
in(54, 72).
in(54, 74).
in(54, 75).
in(54, 78).
in(54, 80).
in(54, 81).
in(54, 84).
in(54, 87).
in(54, 88).
in(54, 91).
in(54, 94).
in(54, 96).
in(54, 97).
in(54, 98).
in(54, 99).
in(54, 100).
in(54, 105).
in(54, 107).
in(54, 108).
in(54, 109).
in(54, 114).
in(54, 115).
in(54, 117).
in(54, 121).
in(54, 123).
in(54, 125).
in(55, 2).
in(55, 6).
in(55, 7).
in(55, 8).
in(55, 13).
in(55, 18).
in(55, 19).
in(55, 20).
in(55, 22).
in(55, 25).
in(55, 27).
in(55, 31).
in(55, 34).
in(55, 41).
in(55, 44).
in(55, 45).
in(55, 46).
in(55, 47).
in(55, 49).
in(55, 57).
in(55, 58).
in(55, 61).
in(55, 64).
in(55, 67).
in(55, 70).
in(55, 72).
in(55, 75).
in(55, 79).
in(55, 80).
in(55, 81).
in(55, 83).
in(55, 84).
in(55, 87).
in(55, 88).
in(55, 89).
in(55, 90).
in(55, 91).
in(55, 93).
in(55, 94).
in(55, 95).
in(55, 100).
in(55, 104).
in(55, 105).
in(55, 107).
in(55, 108).
in(55, 111).
in(55, 112).
in(55, 113).
in(55, 114).
in(55, 115).
in(55, 116).
in(55, 117).
in(55, 118).
in(55, 120).
in(55, 121).
in(55, 122).
in(55, 125).
in(55, 126).
in(56, 1).
in(56, 3).
in(56, 4).
in(56, 5).
in(56, 8).
in(56, 9).
in(56, 11).
in(56, 12).
in(56, 14).
in(56, 15).
in(56, 17).
in(56, 18).
in(56, 19).
in(56, 22).
in(56, 26).
in(56, 28).
in(56, 31).
in(56, 33).
in(56, 36).
in(56, 38).
in(56, 40).
in(56, 43).
in(56, 49).
in(56, 50).
in(56, 51).
in(56, 52).
in(56, 53).
in(56, 54).
in(56, 56).
in(56, 57).
in(56, 59).
in(56, 60).
in(56, 64).
in(56, 65).
in(56, 66).
in(56, 67).
in(56, 70).
in(56, 76).
in(56, 78).
in(56, 88).
in(56, 92).
in(56, 93).
in(56, 94).
in(56, 96).
in(56, 97).
in(56, 99).
in(56, 102).
in(56, 103).
in(56, 104).
in(56, 108).
in(56, 113).
in(56, 116).
in(56, 117).
in(56, 119).
in(56, 121).
in(56, 122).
in(56, 123).
in(57, 1).
in(57, 3).
in(57, 5).
in(57, 12).
in(57, 16).
in(57, 23).
in(57, 25).
in(57, 26).
in(57, 29).
in(57, 34).
in(57, 35).
in(57, 37).
in(57, 42).
in(57, 44).
in(57, 46).
in(57, 50).
in(57, 51).
in(57, 52).
in(57, 53).
in(57, 54).
in(57, 55).
in(57, 58).
in(57, 60).
in(57, 61).
in(57, 62).
in(57, 64).
in(57, 65).
in(57, 66).
in(57, 68).
in(57, 69).
in(57, 70).
in(57, 72).
in(57, 74).
in(57, 75).
in(57, 78).
in(57, 79).
in(57, 80).
in(57, 81).
in(57, 83).
in(57, 85).
in(57, 86).
in(57, 92).
in(57, 95).
in(57, 96).
in(57, 101).
in(57, 102).
in(57, 105).
in(57, 107).
in(57, 109).
in(57, 111).
in(57, 114).
in(57, 116).
in(57, 121).
in(57, 122).
in(57, 126).
in(57, 127).
in(58, 2).
in(58, 4).
in(58, 5).
in(58, 10).
in(58, 16).
in(58, 18).
in(58, 19).
in(58, 23).
in(58, 25).
in(58, 27).
in(58, 31).
in(58, 35).
in(58, 36).
in(58, 38).
in(58, 41).
in(58, 44).
in(58, 49).
in(58, 51).
in(58, 53).
in(58, 54).
in(58, 55).
in(58, 56).
in(58, 57).
in(58, 60).
in(58, 64).
in(58, 66).
in(58, 67).
in(58, 73).
in(58, 74).
in(58, 75).
in(58, 79).
in(58, 80).
in(58, 83).
in(58, 85).
in(58, 86).
in(58, 92).
in(58, 95).
in(58, 96).
in(58, 99).
in(58, 101).
in(58, 102).
in(58, 104).
in(58, 106).
in(58, 109).
in(58, 110).
in(58, 111).
in(58, 113).
in(58, 114).
in(58, 115).
in(58, 119).
in(58, 120).
in(58, 123).
in(58, 124).
in(58, 125).
in(59, 3).
in(59, 7).
in(59, 8).
in(59, 10).
in(59, 12).
in(59, 14).
in(59, 15).
in(59, 16).
in(59, 19).
in(59, 20).
in(59, 22).
in(59, 23).
in(59, 27).
in(59, 28).
in(59, 29).
in(59, 34).
in(59, 38).
in(59, 39).
in(59, 41).
in(59, 49).
in(59, 50).
in(59, 51).
in(59, 52).
in(59, 58).
in(59, 61).
in(59, 63).
in(59, 64).
in(59, 67).
in(59, 69).
in(59, 70).
in(59, 71).
in(59, 72).
in(59, 73).
in(59, 81).
in(59, 83).
in(59, 84).
in(59, 87).
in(59, 89).
in(59, 90).
in(59, 91).
in(59, 93).
in(59, 95).
in(59, 96).
in(59, 98).
in(59, 99).
in(59, 100).
in(59, 105).
in(59, 106).
in(59, 108).
in(59, 109).
in(59, 110).
in(59, 111).
in(59, 113).
in(59, 117).
in(59, 118).
in(59, 119).
in(59, 121).
in(59, 125).
in(59, 127).
in(60, 3).
in(60, 6).
in(60, 8).
in(60, 11).
in(60, 12).
in(60, 15).
in(60, 19).
in(60, 20).
in(60, 24).
in(60, 25).
in(60, 29).
in(60, 32).
in(60, 36).
in(60, 39).
in(60, 40).
in(60, 41).
in(60, 42).
in(60, 48).
in(60, 49).
in(60, 50).
in(60, 51).
in(60, 52).
in(60, 53).
in(60, 54).
in(60, 55).
in(60, 56).
in(60, 59).
in(60, 60).
in(60, 62).
in(60, 65).
in(60, 66).
in(60, 67).
in(60, 68).
in(60, 69).
in(60, 73).
in(60, 77).
in(60, 83).
in(60, 84).
in(60, 85).
in(60, 88).
in(60, 89).
in(60, 90).
in(60, 92).
in(60, 93).
in(60, 95).
in(60, 96).
in(60, 98).
in(60, 99).
in(60, 100).
in(60, 105).
in(60, 106).
in(60, 109).
in(60, 110).
in(60, 112).
in(60, 114).
in(60, 115).
in(60, 117).
in(60, 118).
in(60, 121).
in(61, 1).
in(61, 3).
in(61, 4).
in(61, 14).
in(61, 15).
in(61, 17).
in(61, 19).
in(61, 20).
in(61, 25).
in(61, 28).
in(61, 30).
in(61, 32).
in(61, 38).
in(61, 39).
in(61, 41).
in(61, 43).
in(61, 45).
in(61, 46).
in(61, 48).
in(61, 54).
in(61, 55).
in(61, 57).
in(61, 59).
in(61, 60).
in(61, 63).
in(61, 66).
in(61, 67).
in(61, 72).
in(61, 73).
in(61, 75).
in(61, 77).
in(61, 78).
in(61, 79).
in(61, 80).
in(61, 82).
in(61, 83).
in(61, 84).
in(61, 85).
in(61, 87).
in(61, 89).
in(61, 90).
in(61, 91).
in(61, 92).
in(61, 93).
in(61, 94).
in(61, 96).
in(61, 98).
in(61, 101).
in(61, 102).
in(61, 104).
in(61, 105).
in(61, 108).
in(61, 109).
in(61, 112).
in(61, 114).
in(61, 116).
in(61, 117).
in(61, 118).
in(61, 120).
in(61, 121).
in(61, 123).
in(62, 3).
in(62, 13).
in(62, 16).
in(62, 18).
in(62, 20).
in(62, 27).
in(62, 28).
in(62, 30).
in(62, 31).
in(62, 32).
in(62, 37).
in(62, 38).
in(62, 39).
in(62, 41).
in(62, 48).
in(62, 49).
in(62, 52).
in(62, 54).
in(62, 55).
in(62, 56).
in(62, 61).
in(62, 65).
in(62, 66).
in(62, 69).
in(62, 70).
in(62, 71).
in(62, 74).
in(62, 75).
in(62, 76).
in(62, 78).
in(62, 80).
in(62, 81).
in(62, 86).
in(62, 89).
in(62, 90).
in(62, 93).
in(62, 97).
in(62, 100).
in(62, 101).
in(62, 104).
in(62, 106).
in(62, 107).
in(62, 108).
in(62, 111).
in(62, 114).
in(62, 116).
in(62, 117).
in(62, 120).
in(62, 126).
in(62, 127).
in(63, 3).
in(63, 4).
in(63, 6).
in(63, 8).
in(63, 11).
in(63, 12).
in(63, 14).
in(63, 15).
in(63, 16).
in(63, 20).
in(63, 21).
in(63, 22).
in(63, 28).
in(63, 30).
in(63, 32).
in(63, 34).
in(63, 35).
in(63, 36).
in(63, 39).
in(63, 40).
in(63, 42).
in(63, 45).
in(63, 48).
in(63, 49).
in(63, 51).
in(63, 53).
in(63, 58).
in(63, 62).
in(63, 63).
in(63, 70).
in(63, 72).
in(63, 76).
in(63, 77).
in(63, 78).
in(63, 82).
in(63, 84).
in(63, 85).
in(63, 88).
in(63, 90).
in(63, 91).
in(63, 95).
in(63, 102).
in(63, 105).
in(63, 108).
in(63, 109).
in(63, 110).
in(63, 111).
in(63, 113).
in(63, 114).
in(63, 116).
in(63, 118).
in(63, 123).
in(63, 124).
in(63, 126).
in(63, 127).
in(64, 1).
in(64, 4).
in(64, 5).
in(64, 8).
in(64, 9).
in(64, 10).
in(64, 11).
in(64, 12).
in(64, 13).
in(64, 15).
in(64, 18).
in(64, 19).
in(64, 24).
in(64, 25).
in(64, 29).
in(64, 31).
in(64, 32).
in(64, 36).
in(64, 38).
in(64, 44).
in(64, 46).
in(64, 47).
in(64, 50).
in(64, 51).
in(64, 54).
in(64, 56).
in(64, 57).
in(64, 63).
in(64, 67).
in(64, 68).
in(64, 71).
in(64, 73).
in(64, 76).
in(64, 77).
in(64, 80).
in(64, 84).
in(64, 85).
in(64, 86).
in(64, 88).
in(64, 90).
in(64, 92).
in(64, 95).
in(64, 98).
in(64, 100).
in(64, 102).
in(64, 104).
in(64, 105).
in(64, 106).
in(64, 107).
in(64, 110).
in(64, 111).
in(64, 115).
in(64, 117).
in(64, 118).
in(64, 119).
in(64, 120).
in(64, 122).
in(64, 124).
in(64, 126).
in(65, 1).
in(65, 4).
in(65, 6).
in(65, 7).
in(65, 10).
in(65, 12).
in(65, 15).
in(65, 20).
in(65, 21).
in(65, 26).
in(65, 31).
in(65, 33).
in(65, 34).
in(65, 37).
in(65, 38).
in(65, 39).
in(65, 40).
in(65, 42).
in(65, 43).
in(65, 45).
in(65, 49).
in(65, 51).
in(65, 52).
in(65, 53).
in(65, 55).
in(65, 57).
in(65, 59).
in(65, 63).
in(65, 66).
in(65, 67).
in(65, 68).
in(65, 71).
in(65, 72).
in(65, 75).
in(65, 76).
in(65, 77).
in(65, 79).
in(65, 80).
in(65, 81).
in(65, 82).
in(65, 91).
in(65, 94).
in(65, 96).
in(65, 97).
in(65, 99).
in(65, 100).
in(65, 102).
in(65, 107).
in(65, 108).
in(65, 116).
in(65, 117).
in(65, 118).
in(65, 120).
in(65, 122).
in(65, 127).
in(66, 1).
in(66, 5).
in(66, 6).
in(66, 7).
in(66, 8).
in(66, 10).
in(66, 11).
in(66, 12).
in(66, 18).
in(66, 20).
in(66, 22).
in(66, 24).
in(66, 27).
in(66, 30).
in(66, 31).
in(66, 32).
in(66, 33).
in(66, 38).
in(66, 41).
in(66, 43).
in(66, 46).
in(66, 47).
in(66, 48).
in(66, 50).
in(66, 52).
in(66, 55).
in(66, 60).
in(66, 62).
in(66, 63).
in(66, 66).
in(66, 67).
in(66, 68).
in(66, 70).
in(66, 79).
in(66, 80).
in(66, 86).
in(66, 87).
in(66, 88).
in(66, 89).
in(66, 90).
in(66, 94).
in(66, 95).
in(66, 96).
in(66, 98).
in(66, 99).
in(66, 102).
in(66, 105).
in(66, 110).
in(66, 111).
in(66, 112).
in(66, 113).
in(66, 115).
in(66, 118).
in(66, 126).
in(66, 127).
in(67, 1).
in(67, 3).
in(67, 6).
in(67, 9).
in(67, 10).
in(67, 12).
in(67, 14).
in(67, 20).
in(67, 21).
in(67, 22).
in(67, 27).
in(67, 28).
in(67, 29).
in(67, 31).
in(67, 32).
in(67, 34).
in(67, 35).
in(67, 37).
in(67, 42).
in(67, 45).
in(67, 50).
in(67, 51).
in(67, 53).
in(67, 54).
in(67, 57).
in(67, 58).
in(67, 61).
in(67, 62).
in(67, 63).
in(67, 72).
in(67, 77).
in(67, 78).
in(67, 79).
in(67, 80).
in(67, 82).
in(67, 83).
in(67, 84).
in(67, 85).
in(67, 87).
in(67, 89).
in(67, 96).
in(67, 98).
in(67, 104).
in(67, 105).
in(67, 106).
in(67, 107).
in(67, 111).
in(67, 112).
in(67, 113).
in(67, 116).
in(67, 120).
in(67, 121).
in(67, 125).
in(67, 126).
in(68, 4).
in(68, 5).
in(68, 13).
in(68, 15).
in(68, 16).
in(68, 18).
in(68, 23).
in(68, 26).
in(68, 28).
in(68, 31).
in(68, 34).
in(68, 35).
in(68, 36).
in(68, 37).
in(68, 42).
in(68, 43).
in(68, 50).
in(68, 57).
in(68, 59).
in(68, 62).
in(68, 64).
in(68, 65).
in(68, 68).
in(68, 69).
in(68, 71).
in(68, 74).
in(68, 75).
in(68, 84).
in(68, 85).
in(68, 86).
in(68, 89).
in(68, 90).
in(68, 92).
in(68, 100).
in(68, 103).
in(68, 106).
in(68, 109).
in(68, 110).
in(68, 113).
in(68, 116).
in(68, 118).
in(68, 120).
in(69, 2).
in(69, 3).
in(69, 4).
in(69, 6).
in(69, 10).
in(69, 13).
in(69, 16).
in(69, 17).
in(69, 18).
in(69, 20).
in(69, 27).
in(69, 31).
in(69, 32).
in(69, 34).
in(69, 35).
in(69, 36).
in(69, 38).
in(69, 39).
in(69, 41).
in(69, 46).
in(69, 48).
in(69, 52).
in(69, 59).
in(69, 60).
in(69, 63).
in(69, 64).
in(69, 67).
in(69, 68).
in(69, 71).
in(69, 73).
in(69, 74).
in(69, 75).
in(69, 77).
in(69, 79).
in(69, 81).
in(69, 82).
in(69, 87).
in(69, 88).
in(69, 91).
in(69, 92).
in(69, 93).
in(69, 94).
in(69, 96).
in(69, 97).
in(69, 100).
in(69, 103).
in(69, 106).
in(69, 107).
in(69, 111).
in(69, 115).
in(69, 117).
in(69, 118).
in(69, 123).
in(69, 125).
in(69, 126).
in(69, 127).
in(70, 2).
in(70, 3).
in(70, 4).
in(70, 5).
in(70, 7).
in(70, 8).
in(70, 11).
in(70, 13).
in(70, 15).
in(70, 17).
in(70, 18).
in(70, 19).
in(70, 21).
in(70, 25).
in(70, 27).
in(70, 28).
in(70, 29).
in(70, 30).
in(70, 31).
in(70, 32).
in(70, 36).
in(70, 37).
in(70, 38).
in(70, 39).
in(70, 40).
in(70, 45).
in(70, 47).
in(70, 48).
in(70, 52).
in(70, 53).
in(70, 54).
in(70, 55).
in(70, 58).
in(70, 59).
in(70, 61).
in(70, 64).
in(70, 65).
in(70, 66).
in(70, 67).
in(70, 68).
in(70, 71).
in(70, 73).
in(70, 80).
in(70, 81).
in(70, 83).
in(70, 86).
in(70, 88).
in(70, 89).
in(70, 93).
in(70, 94).
in(70, 95).
in(70, 102).
in(70, 105).
in(70, 112).
in(70, 113).
in(70, 115).
in(70, 119).
in(70, 120).
in(70, 126).
in(71, 6).
in(71, 11).
in(71, 13).
in(71, 18).
in(71, 23).
in(71, 26).
in(71, 27).
in(71, 28).
in(71, 30).
in(71, 36).
in(71, 39).
in(71, 40).
in(71, 42).
in(71, 46).
in(71, 48).
in(71, 50).
in(71, 53).
in(71, 59).
in(71, 61).
in(71, 62).
in(71, 69).
in(71, 72).
in(71, 75).
in(71, 76).
in(71, 77).
in(71, 83).
in(71, 84).
in(71, 86).
in(71, 88).
in(71, 90).
in(71, 95).
in(71, 97).
in(71, 98).
in(71, 101).
in(71, 102).
in(71, 103).
in(71, 106).
in(71, 107).
in(71, 109).
in(71, 111).
in(71, 114).
in(71, 116).
in(71, 120).
in(71, 121).
in(71, 123).
in(71, 124).
in(71, 125).
in(71, 126).
in(72, 4).
in(72, 6).
in(72, 8).
in(72, 11).
in(72, 13).
in(72, 15).
in(72, 17).
in(72, 18).
in(72, 19).
in(72, 22).
in(72, 24).
in(72, 26).
in(72, 32).
in(72, 33).
in(72, 34).
in(72, 35).
in(72, 38).
in(72, 39).
in(72, 43).
in(72, 46).
in(72, 47).
in(72, 48).
in(72, 49).
in(72, 50).
in(72, 51).
in(72, 52).
in(72, 53).
in(72, 54).
in(72, 55).
in(72, 56).
in(72, 57).
in(72, 58).
in(72, 59).
in(72, 60).
in(72, 66).
in(72, 68).
in(72, 69).
in(72, 70).
in(72, 75).
in(72, 76).
in(72, 78).
in(72, 82).
in(72, 83).
in(72, 84).
in(72, 85).
in(72, 87).
in(72, 88).
in(72, 90).
in(72, 91).
in(72, 92).
in(72, 96).
in(72, 97).
in(72, 101).
in(72, 102).
in(72, 108).
in(72, 113).
in(72, 114).
in(72, 116).
in(72, 119).
in(72, 121).
in(72, 122).
in(72, 123).
in(72, 124).
in(73, 1).
in(73, 2).
in(73, 3).
in(73, 5).
in(73, 7).
in(73, 10).
in(73, 11).
in(73, 13).
in(73, 15).
in(73, 17).
in(73, 20).
in(73, 21).
in(73, 23).
in(73, 24).
in(73, 26).
in(73, 27).
in(73, 28).
in(73, 33).
in(73, 35).
in(73, 38).
in(73, 39).
in(73, 42).
in(73, 43).
in(73, 44).
in(73, 45).
in(73, 46).
in(73, 47).
in(73, 48).
in(73, 50).
in(73, 52).
in(73, 56).
in(73, 61).
in(73, 63).
in(73, 67).
in(73, 69).
in(73, 71).
in(73, 72).
in(73, 74).
in(73, 76).
in(73, 77).
in(73, 78).
in(73, 79).
in(73, 80).
in(73, 82).
in(73, 84).
in(73, 91).
in(73, 93).
in(73, 95).
in(73, 97).
in(73, 100).
in(73, 103).
in(73, 104).
in(73, 107).
in(73, 108).
in(73, 114).
in(73, 118).
in(73, 120).
in(73, 121).
in(73, 125).
in(73, 127).
in(74, 1).
in(74, 3).
in(74, 4).
in(74, 7).
in(74, 8).
in(74, 9).
in(74, 10).
in(74, 14).
in(74, 17).
in(74, 19).
in(74, 25).
in(74, 27).
in(74, 28).
in(74, 31).
in(74, 34).
in(74, 36).
in(74, 39).
in(74, 40).
in(74, 41).
in(74, 42).
in(74, 46).
in(74, 50).
in(74, 52).
in(74, 55).
in(74, 64).
in(74, 69).
in(74, 71).
in(74, 74).
in(74, 76).
in(74, 77).
in(74, 79).
in(74, 80).
in(74, 82).
in(74, 83).
in(74, 86).
in(74, 88).
in(74, 89).
in(74, 93).
in(74, 97).
in(74, 98).
in(74, 103).
in(74, 104).
in(74, 106).
in(74, 110).
in(74, 112).
in(74, 115).
in(74, 117).
in(74, 118).
in(74, 119).
in(74, 121).
in(74, 123).
in(74, 124).
in(74, 125).
in(74, 127).
in(75, 2).
in(75, 7).
in(75, 10).
in(75, 11).
in(75, 12).
in(75, 13).
in(75, 16).
in(75, 20).
in(75, 22).
in(75, 23).
in(75, 25).
in(75, 28).
in(75, 29).
in(75, 35).
in(75, 39).
in(75, 40).
in(75, 41).
in(75, 42).
in(75, 44).
in(75, 45).
in(75, 46).
in(75, 47).
in(75, 48).
in(75, 49).
in(75, 51).
in(75, 53).
in(75, 54).
in(75, 55).
in(75, 59).
in(75, 61).
in(75, 62).
in(75, 65).
in(75, 66).
in(75, 67).
in(75, 68).
in(75, 70).
in(75, 72).
in(75, 73).
in(75, 75).
in(75, 76).
in(75, 78).
in(75, 79).
in(75, 83).
in(75, 84).
in(75, 87).
in(75, 91).
in(75, 94).
in(75, 103).
in(75, 104).
in(75, 110).
in(75, 111).
in(75, 114).
in(75, 116).
in(75, 119).
in(75, 122).
in(75, 125).
in(75, 127).
in(76, 1).
in(76, 2).
in(76, 3).
in(76, 8).
in(76, 9).
in(76, 12).
in(76, 13).
in(76, 14).
in(76, 17).
in(76, 19).
in(76, 20).
in(76, 24).
in(76, 26).
in(76, 27).
in(76, 29).
in(76, 30).
in(76, 31).
in(76, 33).
in(76, 36).
in(76, 41).
in(76, 42).
in(76, 47).
in(76, 50).
in(76, 51).
in(76, 52).
in(76, 53).
in(76, 56).
in(76, 57).
in(76, 59).
in(76, 60).
in(76, 61).
in(76, 62).
in(76, 63).
in(76, 65).
in(76, 66).
in(76, 68).
in(76, 72).
in(76, 74).
in(76, 75).
in(76, 78).
in(76, 79).
in(76, 80).
in(76, 81).
in(76, 86).
in(76, 88).
in(76, 89).
in(76, 91).
in(76, 92).
in(76, 94).
in(76, 95).
in(76, 96).
in(76, 100).
in(76, 103).
in(76, 108).
in(76, 109).
in(76, 113).
in(76, 115).
in(76, 116).
in(76, 120).
in(76, 121).
in(76, 122).
in(76, 123).
in(76, 126).
in(77, 3).
in(77, 6).
in(77, 7).
in(77, 8).
in(77, 10).
in(77, 11).
in(77, 14).
in(77, 20).
in(77, 21).
in(77, 22).
in(77, 23).
in(77, 30).
in(77, 33).
in(77, 34).
in(77, 37).
in(77, 38).
in(77, 39).
in(77, 40).
in(77, 43).
in(77, 44).
in(77, 48).
in(77, 49).
in(77, 53).
in(77, 54).
in(77, 56).
in(77, 57).
in(77, 59).
in(77, 62).
in(77, 65).
in(77, 66).
in(77, 68).
in(77, 70).
in(77, 71).
in(77, 73).
in(77, 74).
in(77, 77).
in(77, 78).
in(77, 82).
in(77, 85).
in(77, 86).
in(77, 87).
in(77, 91).
in(77, 92).
in(77, 95).
in(77, 98).
in(77, 99).
in(77, 107).
in(77, 111).
in(77, 116).
in(77, 117).
in(77, 120).
in(77, 122).
in(77, 123).
in(77, 124).
in(77, 125).
in(77, 127).
in(78, 2).
in(78, 4).
in(78, 5).
in(78, 6).
in(78, 10).
in(78, 12).
in(78, 13).
in(78, 17).
in(78, 18).
in(78, 20).
in(78, 21).
in(78, 23).
in(78, 24).
in(78, 25).
in(78, 30).
in(78, 31).
in(78, 34).
in(78, 36).
in(78, 38).
in(78, 40).
in(78, 41).
in(78, 42).
in(78, 44).
in(78, 45).
in(78, 46).
in(78, 48).
in(78, 50).
in(78, 51).
in(78, 58).
in(78, 59).
in(78, 61).
in(78, 69).
in(78, 70).
in(78, 71).
in(78, 73).
in(78, 75).
in(78, 76).
in(78, 77).
in(78, 79).
in(78, 80).
in(78, 85).
in(78, 87).
in(78, 89).
in(78, 90).
in(78, 91).
in(78, 94).
in(78, 95).
in(78, 96).
in(78, 107).
in(78, 108).
in(78, 109).
in(78, 112).
in(78, 117).
in(78, 119).
in(78, 120).
in(78, 123).
in(78, 124).
in(79, 1).
in(79, 2).
in(79, 3).
in(79, 5).
in(79, 6).
in(79, 7).
in(79, 9).
in(79, 15).
in(79, 16).
in(79, 19).
in(79, 23).
in(79, 26).
in(79, 27).
in(79, 28).
in(79, 29).
in(79, 30).
in(79, 35).
in(79, 38).
in(79, 43).
in(79, 45).
in(79, 47).
in(79, 49).
in(79, 50).
in(79, 53).
in(79, 56).
in(79, 65).
in(79, 66).
in(79, 70).
in(79, 72).
in(79, 73).
in(79, 74).
in(79, 77).
in(79, 80).
in(79, 81).
in(79, 89).
in(79, 91).
in(79, 92).
in(79, 94).
in(79, 95).
in(79, 97).
in(79, 98).
in(79, 101).
in(79, 104).
in(79, 105).
in(79, 111).
in(79, 114).
in(79, 116).
in(79, 117).
in(79, 118).
in(79, 119).
in(79, 120).
in(79, 122).
in(79, 124).
in(80, 3).
in(80, 4).
in(80, 5).
in(80, 7).
in(80, 12).
in(80, 13).
in(80, 14).
in(80, 16).
in(80, 17).
in(80, 20).
in(80, 22).
in(80, 25).
in(80, 26).
in(80, 28).
in(80, 31).
in(80, 32).
in(80, 35).
in(80, 39).
in(80, 40).
in(80, 42).
in(80, 43).
in(80, 44).
in(80, 46).
in(80, 51).
in(80, 56).
in(80, 60).
in(80, 64).
in(80, 65).
in(80, 69).
in(80, 70).
in(80, 72).
in(80, 76).
in(80, 78).
in(80, 80).
in(80, 83).
in(80, 84).
in(80, 88).
in(80, 91).
in(80, 92).
in(80, 94).
in(80, 96).
in(80, 97).
in(80, 98).
in(80, 99).
in(80, 101).
in(80, 103).
in(80, 105).
in(80, 106).
in(80, 108).
in(80, 110).
in(80, 111).
in(80, 113).
in(80, 115).
in(80, 119).
in(80, 120).
in(80, 121).
in(80, 124).
in(80, 125).
in(80, 126).
in(81, 1).
in(81, 6).
in(81, 7).
in(81, 10).
in(81, 12).
in(81, 14).
in(81, 20).
in(81, 21).
in(81, 23).
in(81, 25).
in(81, 27).
in(81, 29).
in(81, 34).
in(81, 37).
in(81, 41).
in(81, 43).
in(81, 44).
in(81, 45).
in(81, 46).
in(81, 47).
in(81, 53).
in(81, 54).
in(81, 56).
in(81, 57).
in(81, 58).
in(81, 61).
in(81, 63).
in(81, 66).
in(81, 69).
in(81, 74).
in(81, 75).
in(81, 81).
in(81, 83).
in(81, 86).
in(81, 87).
in(81, 90).
in(81, 91).
in(81, 93).
in(81, 95).
in(81, 99).
in(81, 101).
in(81, 102).
in(81, 103).
in(81, 105).
in(81, 107).
in(81, 108).
in(81, 109).
in(81, 111).
in(81, 112).
in(81, 114).
in(81, 115).
in(81, 118).
in(81, 120).
in(81, 122).
in(81, 123).
in(81, 124).
in(81, 125).
in(82, 1).
in(82, 2).
in(82, 5).
in(82, 6).
in(82, 7).
in(82, 15).
in(82, 16).
in(82, 17).
in(82, 19).
in(82, 24).
in(82, 25).
in(82, 30).
in(82, 31).
in(82, 34).
in(82, 35).
in(82, 36).
in(82, 38).
in(82, 39).
in(82, 40).
in(82, 41).
in(82, 42).
in(82, 44).
in(82, 45).
in(82, 47).
in(82, 48).
in(82, 49).
in(82, 51).
in(82, 52).
in(82, 54).
in(82, 56).
in(82, 58).
in(82, 62).
in(82, 63).
in(82, 64).
in(82, 66).
in(82, 67).
in(82, 69).
in(82, 71).
in(82, 72).
in(82, 74).
in(82, 78).
in(82, 80).
in(82, 81).
in(82, 82).
in(82, 83).
in(82, 84).
in(82, 85).
in(82, 86).
in(82, 87).
in(82, 89).
in(82, 90).
in(82, 93).
in(82, 94).
in(82, 96).
in(82, 101).
in(82, 102).
in(82, 103).
in(82, 106).
in(82, 108).
in(82, 109).
in(82, 110).
in(82, 112).
in(82, 113).
in(82, 116).
in(82, 126).
in(83, 1).
in(83, 10).
in(83, 12).
in(83, 14).
in(83, 15).
in(83, 18).
in(83, 19).
in(83, 20).
in(83, 22).
in(83, 24).
in(83, 26).
in(83, 27).
in(83, 28).
in(83, 29).
in(83, 30).
in(83, 31).
in(83, 32).
in(83, 34).
in(83, 38).
in(83, 39).
in(83, 49).
in(83, 52).
in(83, 57).
in(83, 59).
in(83, 60).
in(83, 61).
in(83, 62).
in(83, 63).
in(83, 66).
in(83, 69).
in(83, 71).
in(83, 73).
in(83, 74).
in(83, 75).
in(83, 76).
in(83, 77).
in(83, 78).
in(83, 80).
in(83, 81).
in(83, 83).
in(83, 84).
in(83, 85).
in(83, 86).
in(83, 88).
in(83, 90).
in(83, 93).
in(83, 96).
in(83, 98).
in(83, 100).
in(83, 101).
in(83, 103).
in(83, 108).
in(83, 109).
in(83, 112).
in(83, 113).
in(83, 115).
in(83, 116).
in(83, 118).
in(83, 120).
in(83, 121).
in(83, 124).
in(83, 125).
in(83, 126).
in(83, 127).
in(84, 1).
in(84, 3).
in(84, 4).
in(84, 6).
in(84, 7).
in(84, 8).
in(84, 9).
in(84, 10).
in(84, 13).
in(84, 14).
in(84, 16).
in(84, 17).
in(84, 22).
in(84, 24).
in(84, 26).
in(84, 27).
in(84, 28).
in(84, 34).
in(84, 35).
in(84, 36).
in(84, 37).
in(84, 39).
in(84, 40).
in(84, 44).
in(84, 46).
in(84, 47).
in(84, 48).
in(84, 51).
in(84, 52).
in(84, 54).
in(84, 55).
in(84, 56).
in(84, 57).
in(84, 62).
in(84, 63).
in(84, 65).
in(84, 66).
in(84, 71).
in(84, 81).
in(84, 84).
in(84, 87).
in(84, 88).
in(84, 91).
in(84, 92).
in(84, 93).
in(84, 94).
in(84, 96).
in(84, 99).
in(84, 102).
in(84, 104).
in(84, 105).
in(84, 106).
in(84, 108).
in(84, 113).
in(84, 114).
in(84, 117).
in(84, 118).
in(84, 119).
in(84, 122).
in(84, 124).
in(84, 125).
in(84, 127).
in(85, 3).
in(85, 4).
in(85, 5).
in(85, 7).
in(85, 9).
in(85, 12).
in(85, 13).
in(85, 15).
in(85, 16).
in(85, 18).
in(85, 19).
in(85, 22).
in(85, 23).
in(85, 29).
in(85, 32).
in(85, 34).
in(85, 35).
in(85, 36).
in(85, 37).
in(85, 39).
in(85, 40).
in(85, 41).
in(85, 44).
in(85, 46).
in(85, 47).
in(85, 51).
in(85, 52).
in(85, 56).
in(85, 61).
in(85, 63).
in(85, 64).
in(85, 66).
in(85, 67).
in(85, 68).
in(85, 71).
in(85, 73).
in(85, 74).
in(85, 77).
in(85, 79).
in(85, 80).
in(85, 81).
in(85, 86).
in(85, 87).
in(85, 89).
in(85, 93).
in(85, 96).
in(85, 97).
in(85, 102).
in(85, 104).
in(85, 106).
in(85, 107).
in(85, 113).
in(85, 115).
in(85, 117).
in(85, 118).
in(85, 120).
in(85, 121).
in(85, 124).
in(85, 125).
in(85, 126).
in(85, 127).
in(86, 2).
in(86, 5).
in(86, 7).
in(86, 9).
in(86, 11).
in(86, 13).
in(86, 14).
in(86, 18).
in(86, 23).
in(86, 25).
in(86, 26).
in(86, 27).
in(86, 33).
in(86, 34).
in(86, 35).
in(86, 36).
in(86, 37).
in(86, 38).
in(86, 40).
in(86, 43).
in(86, 44).
in(86, 45).
in(86, 47).
in(86, 48).
in(86, 49).
in(86, 54).
in(86, 55).
in(86, 56).
in(86, 57).
in(86, 59).
in(86, 64).
in(86, 65).
in(86, 67).
in(86, 68).
in(86, 71).
in(86, 73).
in(86, 74).
in(86, 75).
in(86, 76).
in(86, 79).
in(86, 84).
in(86, 85).
in(86, 87).
in(86, 88).
in(86, 98).
in(86, 102).
in(86, 103).
in(86, 104).
in(86, 106).
in(86, 110).
in(86, 115).
in(86, 117).
in(86, 119).
in(86, 121).
in(86, 123).
in(86, 125).
in(86, 126).
in(87, 2).
in(87, 7).
in(87, 10).
in(87, 11).
in(87, 13).
in(87, 16).
in(87, 18).
in(87, 19).
in(87, 22).
in(87, 23).
in(87, 25).
in(87, 28).
in(87, 31).
in(87, 37).
in(87, 38).
in(87, 41).
in(87, 44).
in(87, 45).
in(87, 50).
in(87, 54).
in(87, 60).
in(87, 63).
in(87, 68).
in(87, 75).
in(87, 76).
in(87, 77).
in(87, 78).
in(87, 81).
in(87, 83).
in(87, 84).
in(87, 87).
in(87, 90).
in(87, 92).
in(87, 94).
in(87, 95).
in(87, 96).
in(87, 97).
in(87, 101).
in(87, 102).
in(87, 103).
in(87, 104).
in(87, 105).
in(87, 106).
in(87, 108).
in(87, 110).
in(87, 111).
in(87, 114).
in(87, 117).
in(87, 118).
in(87, 120).
in(87, 122).
in(87, 123).
in(87, 125).
in(87, 126).
in(87, 127).
in(88, 1).
in(88, 2).
in(88, 3).
in(88, 5).
in(88, 7).
in(88, 8).
in(88, 9).
in(88, 10).
in(88, 16).
in(88, 19).
in(88, 23).
in(88, 28).
in(88, 29).
in(88, 31).
in(88, 32).
in(88, 36).
in(88, 39).
in(88, 41).
in(88, 42).
in(88, 44).
in(88, 47).
in(88, 48).
in(88, 51).
in(88, 52).
in(88, 53).
in(88, 54).
in(88, 55).
in(88, 56).
in(88, 58).
in(88, 59).
in(88, 60).
in(88, 63).
in(88, 65).
in(88, 66).
in(88, 68).
in(88, 70).
in(88, 71).
in(88, 72).
in(88, 78).
in(88, 80).
in(88, 81).
in(88, 85).
in(88, 89).
in(88, 90).
in(88, 92).
in(88, 94).
in(88, 97).
in(88, 98).
in(88, 99).
in(88, 100).
in(88, 103).
in(88, 107).
in(88, 108).
in(88, 110).
in(88, 111).
in(88, 118).
in(88, 120).
in(88, 125).
in(89, 1).
in(89, 2).
in(89, 3).
in(89, 4).
in(89, 6).
in(89, 11).
in(89, 18).
in(89, 19).
in(89, 20).
in(89, 22).
in(89, 23).
in(89, 25).
in(89, 28).
in(89, 31).
in(89, 34).
in(89, 37).
in(89, 39).
in(89, 40).
in(89, 42).
in(89, 43).
in(89, 47).
in(89, 49).
in(89, 52).
in(89, 53).
in(89, 57).
in(89, 61).
in(89, 64).
in(89, 65).
in(89, 67).
in(89, 68).
in(89, 72).
in(89, 73).
in(89, 77).
in(89, 79).
in(89, 81).
in(89, 85).
in(89, 87).
in(89, 89).
in(89, 94).
in(89, 95).
in(89, 99).
in(89, 102).
in(89, 105).
in(89, 107).
in(89, 108).
in(89, 109).
in(89, 110).
in(89, 112).
in(89, 114).
in(89, 115).
in(89, 116).
in(89, 117).
in(89, 118).
in(89, 120).
in(89, 121).
in(89, 123).
in(89, 126).
in(89, 127).
in(90, 4).
in(90, 5).
in(90, 6).
in(90, 10).
in(90, 16).
in(90, 19).
in(90, 20).
in(90, 21).
in(90, 23).
in(90, 24).
in(90, 25).
in(90, 27).
in(90, 28).
in(90, 30).
in(90, 31).
in(90, 38).
in(90, 40).
in(90, 41).
in(90, 42).
in(90, 43).
in(90, 46).
in(90, 47).
in(90, 49).
in(90, 51).
in(90, 52).
in(90, 54).
in(90, 55).
in(90, 56).
in(90, 57).
in(90, 58).
in(90, 59).
in(90, 60).
in(90, 65).
in(90, 69).
in(90, 70).
in(90, 77).
in(90, 79).
in(90, 81).
in(90, 83).
in(90, 91).
in(90, 94).
in(90, 97).
in(90, 99).
in(90, 100).
in(90, 101).
in(90, 103).
in(90, 104).
in(90, 106).
in(90, 107).
in(90, 108).
in(90, 109).
in(90, 111).
in(90, 112).
in(90, 113).
in(90, 115).
in(90, 116).
in(90, 118).
in(90, 122).
in(90, 124).
in(90, 125).
in(90, 126).
in(91, 1).
in(91, 2).
in(91, 7).
in(91, 8).
in(91, 9).
in(91, 10).
in(91, 11).
in(91, 12).
in(91, 25).
in(91, 27).
in(91, 28).
in(91, 29).
in(91, 33).
in(91, 39).
in(91, 41).
in(91, 43).
in(91, 44).
in(91, 47).
in(91, 48).
in(91, 49).
in(91, 52).
in(91, 53).
in(91, 54).
in(91, 55).
in(91, 57).
in(91, 59).
in(91, 61).
in(91, 62).
in(91, 65).
in(91, 66).
in(91, 69).
in(91, 73).
in(91, 75).
in(91, 77).
in(91, 80).
in(91, 81).
in(91, 82).
in(91, 84).
in(91, 90).
in(91, 94).
in(91, 96).
in(91, 97).
in(91, 103).
in(91, 104).
in(91, 105).
in(91, 107).
in(91, 108).
in(91, 109).
in(91, 110).
in(91, 111).
in(91, 114).
in(91, 115).
in(91, 122).
in(91, 126).
in(92, 2).
in(92, 3).
in(92, 5).
in(92, 6).
in(92, 9).
in(92, 14).
in(92, 18).
in(92, 19).
in(92, 20).
in(92, 24).
in(92, 26).
in(92, 27).
in(92, 28).
in(92, 30).
in(92, 31).
in(92, 32).
in(92, 33).
in(92, 35).
in(92, 38).
in(92, 39).
in(92, 40).
in(92, 42).
in(92, 43).
in(92, 44).
in(92, 46).
in(92, 50).
in(92, 51).
in(92, 53).
in(92, 54).
in(92, 55).
in(92, 57).
in(92, 60).
in(92, 61).
in(92, 62).
in(92, 64).
in(92, 66).
in(92, 67).
in(92, 68).
in(92, 69).
in(92, 70).
in(92, 71).
in(92, 73).
in(92, 74).
in(92, 76).
in(92, 78).
in(92, 82).
in(92, 86).
in(92, 87).
in(92, 88).
in(92, 89).
in(92, 90).
in(92, 91).
in(92, 94).
in(92, 102).
in(92, 103).
in(92, 106).
in(92, 109).
in(92, 110).
in(92, 111).
in(92, 123).
in(92, 124).
in(92, 125).
in(92, 127).
in(93, 6).
in(93, 7).
in(93, 8).
in(93, 14).
in(93, 15).
in(93, 16).
in(93, 17).
in(93, 19).
in(93, 20).
in(93, 27).
in(93, 29).
in(93, 31).
in(93, 32).
in(93, 33).
in(93, 34).
in(93, 36).
in(93, 41).
in(93, 42).
in(93, 45).
in(93, 49).
in(93, 50).
in(93, 53).
in(93, 54).
in(93, 55).
in(93, 59).
in(93, 61).
in(93, 62).
in(93, 63).
in(93, 65).
in(93, 66).
in(93, 67).
in(93, 68).
in(93, 71).
in(93, 73).
in(93, 74).
in(93, 75).
in(93, 77).
in(93, 81).
in(93, 83).
in(93, 84).
in(93, 86).
in(93, 87).
in(93, 91).
in(93, 92).
in(93, 95).
in(93, 96).
in(93, 97).
in(93, 103).
in(93, 104).
in(93, 106).
in(93, 107).
in(93, 109).
in(93, 111).
in(93, 114).
in(93, 116).
in(93, 118).
in(93, 121).
in(93, 122).
in(93, 124).
in(93, 125).
in(94, 2).
in(94, 5).
in(94, 6).
in(94, 10).
in(94, 11).
in(94, 14).
in(94, 16).
in(94, 17).
in(94, 19).
in(94, 20).
in(94, 22).
in(94, 23).
in(94, 24).
in(94, 25).
in(94, 31).
in(94, 35).
in(94, 36).
in(94, 39).
in(94, 41).
in(94, 42).
in(94, 43).
in(94, 45).
in(94, 46).
in(94, 48).
in(94, 51).
in(94, 52).
in(94, 56).
in(94, 57).
in(94, 60).
in(94, 62).
in(94, 63).
in(94, 66).
in(94, 70).
in(94, 72).
in(94, 75).
in(94, 84).
in(94, 85).
in(94, 86).
in(94, 87).
in(94, 90).
in(94, 92).
in(94, 93).
in(94, 95).
in(94, 99).
in(94, 100).
in(94, 102).
in(94, 107).
in(94, 108).
in(94, 111).
in(94, 113).
in(94, 114).
in(94, 115).
in(94, 117).
in(94, 118).
in(94, 119).
in(94, 122).
in(94, 123).
in(94, 127).
in(95, 3).
in(95, 4).
in(95, 5).
in(95, 6).
in(95, 8).
in(95, 11).
in(95, 12).
in(95, 13).
in(95, 15).
in(95, 18).
in(95, 21).
in(95, 22).
in(95, 23).
in(95, 25).
in(95, 27).
in(95, 28).
in(95, 29).
in(95, 30).
in(95, 32).
in(95, 34).
in(95, 35).
in(95, 37).
in(95, 38).
in(95, 39).
in(95, 40).
in(95, 41).
in(95, 42).
in(95, 43).
in(95, 44).
in(95, 47).
in(95, 48).
in(95, 49).
in(95, 52).
in(95, 56).
in(95, 57).
in(95, 58).
in(95, 59).
in(95, 61).
in(95, 63).
in(95, 64).
in(95, 66).
in(95, 69).
in(95, 70).
in(95, 72).
in(95, 73).
in(95, 75).
in(95, 77).
in(95, 81).
in(95, 83).
in(95, 85).
in(95, 88).
in(95, 89).
in(95, 90).
in(95, 93).
in(95, 94).
in(95, 96).
in(95, 97).
in(95, 98).
in(95, 100).
in(95, 102).
in(95, 104).
in(95, 107).
in(95, 108).
in(95, 109).
in(95, 110).
in(95, 111).
in(95, 112).
in(95, 116).
in(95, 117).
in(95, 118).
in(95, 120).
in(95, 121).
in(95, 125).
in(95, 126).
in(96, 3).
in(96, 4).
in(96, 7).
in(96, 11).
in(96, 13).
in(96, 15).
in(96, 16).
in(96, 18).
in(96, 19).
in(96, 20).
in(96, 21).
in(96, 23).
in(96, 25).
in(96, 26).
in(96, 27).
in(96, 30).
in(96, 31).
in(96, 32).
in(96, 33).
in(96, 36).
in(96, 37).
in(96, 38).
in(96, 41).
in(96, 42).
in(96, 43).
in(96, 44).
in(96, 45).
in(96, 59).
in(96, 62).
in(96, 65).
in(96, 67).
in(96, 69).
in(96, 70).
in(96, 72).
in(96, 74).
in(96, 79).
in(96, 81).
in(96, 84).
in(96, 87).
in(96, 89).
in(96, 97).
in(96, 98).
in(96, 101).
in(96, 102).
in(96, 103).
in(96, 107).
in(96, 111).
in(96, 112).
in(96, 115).
in(96, 116).
in(96, 117).
in(96, 119).
in(96, 121).
in(96, 122).
in(96, 127).
in(97, 4).
in(97, 11).
in(97, 12).
in(97, 13).
in(97, 15).
in(97, 17).
in(97, 19).
in(97, 20).
in(97, 22).
in(97, 24).
in(97, 26).
in(97, 28).
in(97, 31).
in(97, 32).
in(97, 33).
in(97, 35).
in(97, 38).
in(97, 39).
in(97, 40).
in(97, 42).
in(97, 43).
in(97, 44).
in(97, 50).
in(97, 52).
in(97, 54).
in(97, 55).
in(97, 57).
in(97, 58).
in(97, 60).
in(97, 62).
in(97, 63).
in(97, 66).
in(97, 67).
in(97, 69).
in(97, 70).
in(97, 75).
in(97, 76).
in(97, 77).
in(97, 78).
in(97, 79).
in(97, 81).
in(97, 82).
in(97, 85).
in(97, 86).
in(97, 88).
in(97, 90).
in(97, 91).
in(97, 93).
in(97, 95).
in(97, 98).
in(97, 100).
in(97, 101).
in(97, 102).
in(97, 106).
in(97, 111).
in(97, 112).
in(97, 113).
in(97, 116).
in(97, 117).
in(97, 119).
in(97, 120).
in(97, 122).
in(97, 124).
in(97, 125).
in(97, 127).
in(98, 2).
in(98, 3).
in(98, 5).
in(98, 7).
in(98, 8).
in(98, 10).
in(98, 11).
in(98, 12).
in(98, 13).
in(98, 16).
in(98, 18).
in(98, 21).
in(98, 25).
in(98, 26).
in(98, 27).
in(98, 29).
in(98, 33).
in(98, 34).
in(98, 35).
in(98, 37).
in(98, 39).
in(98, 44).
in(98, 45).
in(98, 47).
in(98, 49).
in(98, 51).
in(98, 53).
in(98, 54).
in(98, 56).
in(98, 57).
in(98, 58).
in(98, 61).
in(98, 62).
in(98, 63).
in(98, 66).
in(98, 72).
in(98, 73).
in(98, 75).
in(98, 76).
in(98, 78).
in(98, 79).
in(98, 81).
in(98, 93).
in(98, 96).
in(98, 97).
in(98, 98).
in(98, 100).
in(98, 101).
in(98, 106).
in(98, 108).
in(98, 116).
in(98, 117).
in(98, 118).
in(98, 119).
in(98, 122).
in(98, 125).
in(98, 127).
in(99, 1).
in(99, 2).
in(99, 3).
in(99, 5).
in(99, 7).
in(99, 18).
in(99, 19).
in(99, 22).
in(99, 23).
in(99, 25).
in(99, 28).
in(99, 32).
in(99, 36).
in(99, 37).
in(99, 41).
in(99, 42).
in(99, 44).
in(99, 45).
in(99, 46).
in(99, 48).
in(99, 49).
in(99, 52).
in(99, 54).
in(99, 57).
in(99, 58).
in(99, 60).
in(99, 61).
in(99, 63).
in(99, 67).
in(99, 69).
in(99, 74).
in(99, 75).
in(99, 76).
in(99, 79).
in(99, 83).
in(99, 84).
in(99, 85).
in(99, 89).
in(99, 90).
in(99, 92).
in(99, 93).
in(99, 96).
in(99, 99).
in(99, 101).
in(99, 104).
in(99, 108).
in(99, 113).
in(99, 116).
in(99, 117).
in(99, 121).
in(99, 123).
in(99, 124).
in(99, 126).
in(100, 1).
in(100, 2).
in(100, 8).
in(100, 10).
in(100, 14).
in(100, 19).
in(100, 21).
in(100, 22).
in(100, 23).
in(100, 24).
in(100, 25).
in(100, 27).
in(100, 29).
in(100, 30).
in(100, 33).
in(100, 45).
in(100, 46).
in(100, 57).
in(100, 58).
in(100, 60).
in(100, 61).
in(100, 63).
in(100, 64).
in(100, 65).
in(100, 68).
in(100, 70).
in(100, 71).
in(100, 77).
in(100, 79).
in(100, 85).
in(100, 86).
in(100, 87).
in(100, 88).
in(100, 89).
in(100, 90).
in(100, 91).
in(100, 93).
in(100, 97).
in(100, 98).
in(100, 99).
in(100, 100).
in(100, 102).
in(100, 103).
in(100, 105).
in(100, 111).
in(100, 113).
in(100, 116).
in(100, 117).
in(100, 122).
in(100, 123).
in(100, 124).
in(100, 127).
in(101, 1).
in(101, 2).
in(101, 5).
in(101, 6).
in(101, 9).
in(101, 14).
in(101, 15).
in(101, 20).
in(101, 23).
in(101, 25).
in(101, 35).
in(101, 37).
in(101, 39).
in(101, 41).
in(101, 44).
in(101, 45).
in(101, 49).
in(101, 50).
in(101, 54).
in(101, 56).
in(101, 58).
in(101, 64).
in(101, 66).
in(101, 67).
in(101, 69).
in(101, 74).
in(101, 78).
in(101, 79).
in(101, 81).
in(101, 83).
in(101, 84).
in(101, 85).
in(101, 87).
in(101, 90).
in(101, 91).
in(101, 97).
in(101, 103).
in(101, 104).
in(101, 106).
in(101, 108).
in(101, 114).
in(101, 119).
in(101, 120).
in(101, 121).
in(101, 122).
in(101, 123).
in(101, 124).
in(101, 126).
in(102, 5).
in(102, 6).
in(102, 10).
in(102, 11).
in(102, 12).
in(102, 14).
in(102, 17).
in(102, 18).
in(102, 21).
in(102, 23).
in(102, 24).
in(102, 27).
in(102, 28).
in(102, 30).
in(102, 32).
in(102, 34).
in(102, 36).
in(102, 40).
in(102, 41).
in(102, 43).
in(102, 46).
in(102, 48).
in(102, 49).
in(102, 55).
in(102, 60).
in(102, 63).
in(102, 64).
in(102, 65).
in(102, 66).
in(102, 67).
in(102, 69).
in(102, 70).
in(102, 71).
in(102, 72).
in(102, 73).
in(102, 76).
in(102, 78).
in(102, 79).
in(102, 80).
in(102, 81).
in(102, 82).
in(102, 84).
in(102, 91).
in(102, 92).
in(102, 97).
in(102, 98).
in(102, 99).
in(102, 101).
in(102, 102).
in(102, 104).
in(102, 107).
in(102, 108).
in(102, 110).
in(102, 113).
in(102, 114).
in(102, 118).
in(102, 119).
in(102, 120).
in(102, 121).
in(102, 122).
in(102, 123).
in(102, 126).
in(102, 127).
in(103, 1).
in(103, 2).
in(103, 3).
in(103, 4).
in(103, 6).
in(103, 7).
in(103, 9).
in(103, 10).
in(103, 11).
in(103, 12).
in(103, 13).
in(103, 16).
in(103, 20).
in(103, 23).
in(103, 26).
in(103, 28).
in(103, 29).
in(103, 31).
in(103, 33).
in(103, 34).
in(103, 36).
in(103, 37).
in(103, 40).
in(103, 42).
in(103, 47).
in(103, 54).
in(103, 55).
in(103, 63).
in(103, 64).
in(103, 67).
in(103, 69).
in(103, 70).
in(103, 72).
in(103, 76).
in(103, 77).
in(103, 78).
in(103, 83).
in(103, 88).
in(103, 90).
in(103, 91).
in(103, 92).
in(103, 95).
in(103, 96).
in(103, 97).
in(103, 102).
in(103, 103).
in(103, 104).
in(103, 105).
in(103, 109).
in(103, 112).
in(103, 113).
in(103, 114).
in(103, 118).
in(103, 120).
in(103, 123).
in(103, 125).
in(104, 2).
in(104, 3).
in(104, 5).
in(104, 7).
in(104, 9).
in(104, 10).
in(104, 13).
in(104, 16).
in(104, 21).
in(104, 23).
in(104, 24).
in(104, 25).
in(104, 26).
in(104, 29).
in(104, 33).
in(104, 39).
in(104, 41).
in(104, 51).
in(104, 56).
in(104, 57).
in(104, 61).
in(104, 63).
in(104, 64).
in(104, 65).
in(104, 66).
in(104, 68).
in(104, 69).
in(104, 70).
in(104, 73).
in(104, 81).
in(104, 82).
in(104, 83).
in(104, 85).
in(104, 89).
in(104, 92).
in(104, 95).
in(104, 97).
in(104, 101).
in(104, 103).
in(104, 104).
in(104, 105).
in(104, 109).
in(104, 117).
in(104, 118).
in(104, 126).
in(105, 2).
in(105, 3).
in(105, 4).
in(105, 8).
in(105, 10).
in(105, 11).
in(105, 14).
in(105, 15).
in(105, 16).
in(105, 19).
in(105, 20).
in(105, 22).
in(105, 24).
in(105, 26).
in(105, 28).
in(105, 29).
in(105, 30).
in(105, 31).
in(105, 32).
in(105, 33).
in(105, 38).
in(105, 39).
in(105, 40).
in(105, 43).
in(105, 46).
in(105, 48).
in(105, 50).
in(105, 51).
in(105, 53).
in(105, 57).
in(105, 58).
in(105, 59).
in(105, 60).
in(105, 61).
in(105, 62).
in(105, 68).
in(105, 72).
in(105, 73).
in(105, 74).
in(105, 79).
in(105, 81).
in(105, 85).
in(105, 89).
in(105, 93).
in(105, 96).
in(105, 99).
in(105, 105).
in(105, 109).
in(105, 110).
in(105, 113).
in(105, 115).
in(105, 116).
in(105, 117).
in(105, 118).
in(105, 122).
in(105, 123).
in(105, 124).
in(105, 126).
in(106, 4).
in(106, 6).
in(106, 8).
in(106, 9).
in(106, 11).
in(106, 13).
in(106, 18).
in(106, 19).
in(106, 21).
in(106, 22).
in(106, 23).
in(106, 25).
in(106, 32).
in(106, 35).
in(106, 37).
in(106, 38).
in(106, 40).
in(106, 41).
in(106, 42).
in(106, 52).
in(106, 59).
in(106, 60).
in(106, 61).
in(106, 63).
in(106, 64).
in(106, 66).
in(106, 67).
in(106, 68).
in(106, 72).
in(106, 74).
in(106, 80).
in(106, 83).
in(106, 86).
in(106, 92).
in(106, 93).
in(106, 94).
in(106, 97).
in(106, 100).
in(106, 101).
in(106, 106).
in(106, 108).
in(106, 112).
in(106, 117).
in(106, 120).
in(106, 121).
in(106, 122).
in(107, 1).
in(107, 4).
in(107, 5).
in(107, 8).
in(107, 13).
in(107, 14).
in(107, 16).
in(107, 17).
in(107, 18).
in(107, 22).
in(107, 23).
in(107, 24).
in(107, 27).
in(107, 37).
in(107, 46).
in(107, 47).
in(107, 51).
in(107, 54).
in(107, 55).
in(107, 57).
in(107, 58).
in(107, 61).
in(107, 64).
in(107, 66).
in(107, 67).
in(107, 68).
in(107, 70).
in(107, 71).
in(107, 73).
in(107, 74).
in(107, 77).
in(107, 79).
in(107, 80).
in(107, 83).
in(107, 85).
in(107, 87).
in(107, 88).
in(107, 91).
in(107, 92).
in(107, 94).
in(107, 97).
in(107, 98).
in(107, 99).
in(107, 101).
in(107, 103).
in(107, 112).
in(107, 116).
in(107, 117).
in(107, 118).
in(107, 120).
in(107, 121).
in(107, 122).
in(107, 123).
in(108, 3).
in(108, 4).
in(108, 9).
in(108, 10).
in(108, 15).
in(108, 16).
in(108, 19).
in(108, 21).
in(108, 22).
in(108, 25).
in(108, 26).
in(108, 29).
in(108, 32).
in(108, 38).
in(108, 39).
in(108, 42).
in(108, 46).
in(108, 49).
in(108, 50).
in(108, 51).
in(108, 52).
in(108, 59).
in(108, 60).
in(108, 61).
in(108, 62).
in(108, 66).
in(108, 68).
in(108, 70).
in(108, 72).
in(108, 76).
in(108, 80).
in(108, 82).
in(108, 83).
in(108, 85).
in(108, 87).
in(108, 89).
in(108, 90).
in(108, 91).
in(108, 92).
in(108, 94).
in(108, 95).
in(108, 96).
in(108, 97).
in(108, 98).
in(108, 101).
in(108, 104).
in(108, 106).
in(108, 107).
in(108, 108).
in(108, 114).
in(108, 117).
in(108, 119).
in(108, 120).
in(108, 122).
in(108, 124).
in(108, 126).
in(109, 3).
in(109, 4).
in(109, 6).
in(109, 10).
in(109, 15).
in(109, 16).
in(109, 19).
in(109, 22).
in(109, 24).
in(109, 28).
in(109, 29).
in(109, 31).
in(109, 32).
in(109, 39).
in(109, 40).
in(109, 45).
in(109, 46).
in(109, 47).
in(109, 48).
in(109, 50).
in(109, 52).
in(109, 57).
in(109, 63).
in(109, 64).
in(109, 65).
in(109, 66).
in(109, 67).
in(109, 68).
in(109, 71).
in(109, 75).
in(109, 81).
in(109, 82).
in(109, 83).
in(109, 84).
in(109, 85).
in(109, 90).
in(109, 91).
in(109, 93).
in(109, 97).
in(109, 98).
in(109, 99).
in(109, 100).
in(109, 103).
in(109, 110).
in(109, 112).
in(109, 113).
in(109, 114).
in(109, 116).
in(109, 117).
in(109, 121).
in(110, 2).
in(110, 6).
in(110, 8).
in(110, 9).
in(110, 12).
in(110, 13).
in(110, 14).
in(110, 16).
in(110, 18).
in(110, 19).
in(110, 21).
in(110, 23).
in(110, 24).
in(110, 26).
in(110, 27).
in(110, 29).
in(110, 30).
in(110, 31).
in(110, 32).
in(110, 35).
in(110, 36).
in(110, 37).
in(110, 38).
in(110, 39).
in(110, 45).
in(110, 46).
in(110, 48).
in(110, 51).
in(110, 53).
in(110, 57).
in(110, 61).
in(110, 62).
in(110, 66).
in(110, 67).
in(110, 68).
in(110, 69).
in(110, 70).
in(110, 75).
in(110, 80).
in(110, 82).
in(110, 83).
in(110, 86).
in(110, 89).
in(110, 92).
in(110, 96).
in(110, 97).
in(110, 98).
in(110, 99).
in(110, 102).
in(110, 103).
in(110, 104).
in(110, 106).
in(110, 112).
in(110, 115).
in(110, 119).
in(110, 126).
in(111, 1).
in(111, 2).
in(111, 3).
in(111, 4).
in(111, 5).
in(111, 6).
in(111, 7).
in(111, 9).
in(111, 15).
in(111, 16).
in(111, 23).
in(111, 24).
in(111, 28).
in(111, 29).
in(111, 30).
in(111, 31).
in(111, 35).
in(111, 36).
in(111, 37).
in(111, 38).
in(111, 40).
in(111, 46).
in(111, 49).
in(111, 50).
in(111, 52).
in(111, 53).
in(111, 54).
in(111, 55).
in(111, 56).
in(111, 62).
in(111, 63).
in(111, 64).
in(111, 66).
in(111, 67).
in(111, 69).
in(111, 70).
in(111, 71).
in(111, 74).
in(111, 76).
in(111, 77).
in(111, 80).
in(111, 81).
in(111, 82).
in(111, 85).
in(111, 86).
in(111, 87).
in(111, 90).
in(111, 91).
in(111, 93).
in(111, 95).
in(111, 99).
in(111, 101).
in(111, 103).
in(111, 111).
in(111, 113).
in(111, 114).
in(111, 121).
in(111, 123).
in(111, 124).
in(111, 126).
in(111, 127).
in(112, 1).
in(112, 3).
in(112, 6).
in(112, 8).
in(112, 9).
in(112, 12).
in(112, 13).
in(112, 15).
in(112, 19).
in(112, 20).
in(112, 23).
in(112, 24).
in(112, 26).
in(112, 28).
in(112, 29).
in(112, 31).
in(112, 34).
in(112, 35).
in(112, 43).
in(112, 48).
in(112, 49).
in(112, 50).
in(112, 51).
in(112, 53).
in(112, 57).
in(112, 59).
in(112, 61).
in(112, 62).
in(112, 64).
in(112, 65).
in(112, 68).
in(112, 69).
in(112, 70).
in(112, 72).
in(112, 73).
in(112, 75).
in(112, 76).
in(112, 78).
in(112, 79).
in(112, 86).
in(112, 89).
in(112, 90).
in(112, 94).
in(112, 103).
in(112, 105).
in(112, 108).
in(112, 112).
in(112, 114).
in(112, 115).
in(112, 117).
in(112, 118).
in(112, 123).
in(112, 124).
in(112, 126).
in(113, 3).
in(113, 4).
in(113, 5).
in(113, 7).
in(113, 12).
in(113, 14).
in(113, 15).
in(113, 18).
in(113, 24).
in(113, 27).
in(113, 29).
in(113, 32).
in(113, 36).
in(113, 37).
in(113, 40).
in(113, 41).
in(113, 42).
in(113, 44).
in(113, 46).
in(113, 47).
in(113, 51).
in(113, 53).
in(113, 54).
in(113, 56).
in(113, 57).
in(113, 61).
in(113, 63).
in(113, 65).
in(113, 66).
in(113, 67).
in(113, 68).
in(113, 69).
in(113, 74).
in(113, 75).
in(113, 77).
in(113, 78).
in(113, 83).
in(113, 88).
in(113, 89).
in(113, 90).
in(113, 91).
in(113, 92).
in(113, 93).
in(113, 94).
in(113, 96).
in(113, 98).
in(113, 101).
in(113, 102).
in(113, 104).
in(113, 108).
in(113, 110).
in(113, 111).
in(113, 113).
in(113, 114).
in(113, 115).
in(113, 116).
in(113, 118).
in(113, 121).
in(113, 123).
in(113, 124).
in(113, 125).
in(113, 126).
in(114, 7).
in(114, 9).
in(114, 10).
in(114, 12).
in(114, 14).
in(114, 15).
in(114, 17).
in(114, 18).
in(114, 20).
in(114, 23).
in(114, 25).
in(114, 26).
in(114, 28).
in(114, 31).
in(114, 32).
in(114, 33).
in(114, 36).
in(114, 38).
in(114, 39).
in(114, 40).
in(114, 42).
in(114, 46).
in(114, 48).
in(114, 49).
in(114, 52).
in(114, 55).
in(114, 57).
in(114, 60).
in(114, 61).
in(114, 62).
in(114, 65).
in(114, 67).
in(114, 73).
in(114, 74).
in(114, 75).
in(114, 81).
in(114, 85).
in(114, 87).
in(114, 89).
in(114, 91).
in(114, 94).
in(114, 97).
in(114, 99).
in(114, 103).
in(114, 104).
in(114, 105).
in(114, 106).
in(114, 117).
in(114, 119).
in(114, 121).
in(114, 127).
in(115, 1).
in(115, 2).
in(115, 4).
in(115, 7).
in(115, 9).
in(115, 10).
in(115, 12).
in(115, 13).
in(115, 14).
in(115, 15).
in(115, 16).
in(115, 19).
in(115, 20).
in(115, 21).
in(115, 23).
in(115, 24).
in(115, 26).
in(115, 27).
in(115, 29).
in(115, 31).
in(115, 32).
in(115, 33).
in(115, 37).
in(115, 38).
in(115, 39).
in(115, 40).
in(115, 43).
in(115, 45).
in(115, 46).
in(115, 47).
in(115, 48).
in(115, 55).
in(115, 58).
in(115, 60).
in(115, 64).
in(115, 65).
in(115, 67).
in(115, 74).
in(115, 76).
in(115, 79).
in(115, 80).
in(115, 82).
in(115, 85).
in(115, 86).
in(115, 88).
in(115, 93).
in(115, 99).
in(115, 100).
in(115, 101).
in(115, 103).
in(115, 104).
in(115, 106).
in(115, 111).
in(115, 113).
in(115, 118).
in(115, 124).
in(115, 127).
in(116, 2).
in(116, 6).
in(116, 8).
in(116, 11).
in(116, 12).
in(116, 14).
in(116, 15).
in(116, 21).
in(116, 22).
in(116, 23).
in(116, 24).
in(116, 25).
in(116, 26).
in(116, 34).
in(116, 35).
in(116, 40).
in(116, 45).
in(116, 47).
in(116, 48).
in(116, 51).
in(116, 52).
in(116, 54).
in(116, 55).
in(116, 57).
in(116, 59).
in(116, 63).
in(116, 74).
in(116, 75).
in(116, 77).
in(116, 81).
in(116, 84).
in(116, 88).
in(116, 89).
in(116, 91).
in(116, 92).
in(116, 93).
in(116, 95).
in(116, 96).
in(116, 97).
in(116, 98).
in(116, 99).
in(116, 101).
in(116, 106).
in(116, 107).
in(116, 108).
in(116, 112).
in(116, 113).
in(116, 114).
in(116, 117).
in(116, 118).
in(116, 123).
in(116, 124).
in(116, 125).
in(116, 127).
in(117, 2).
in(117, 3).
in(117, 9).
in(117, 11).
in(117, 12).
in(117, 13).
in(117, 16).
in(117, 17).
in(117, 18).
in(117, 19).
in(117, 21).
in(117, 22).
in(117, 23).
in(117, 26).
in(117, 29).
in(117, 30).
in(117, 32).
in(117, 33).
in(117, 34).
in(117, 37).
in(117, 39).
in(117, 41).
in(117, 43).
in(117, 45).
in(117, 49).
in(117, 50).
in(117, 53).
in(117, 55).
in(117, 57).
in(117, 58).
in(117, 61).
in(117, 62).
in(117, 63).
in(117, 66).
in(117, 67).
in(117, 69).
in(117, 71).
in(117, 72).
in(117, 76).
in(117, 77).
in(117, 82).
in(117, 83).
in(117, 85).
in(117, 87).
in(117, 89).
in(117, 93).
in(117, 94).
in(117, 95).
in(117, 96).
in(117, 98).
in(117, 102).
in(117, 103).
in(117, 104).
in(117, 109).
in(117, 110).
in(117, 111).
in(117, 118).
in(117, 120).
in(117, 123).
in(117, 125).
in(117, 127).
in(118, 1).
in(118, 2).
in(118, 4).
in(118, 7).
in(118, 9).
in(118, 11).
in(118, 12).
in(118, 13).
in(118, 15).
in(118, 16).
in(118, 18).
in(118, 25).
in(118, 27).
in(118, 28).
in(118, 31).
in(118, 33).
in(118, 35).
in(118, 36).
in(118, 37).
in(118, 38).
in(118, 39).
in(118, 40).
in(118, 41).
in(118, 43).
in(118, 44).
in(118, 45).
in(118, 48).
in(118, 49).
in(118, 51).
in(118, 53).
in(118, 54).
in(118, 57).
in(118, 58).
in(118, 61).
in(118, 66).
in(118, 67).
in(118, 68).
in(118, 69).
in(118, 70).
in(118, 72).
in(118, 75).
in(118, 76).
in(118, 81).
in(118, 90).
in(118, 91).
in(118, 92).
in(118, 93).
in(118, 94).
in(118, 95).
in(118, 96).
in(118, 98).
in(118, 99).
in(118, 100).
in(118, 101).
in(118, 103).
in(118, 104).
in(118, 105).
in(118, 106).
in(118, 107).
in(118, 111).
in(118, 116).
in(118, 119).
in(118, 120).
in(118, 121).
in(118, 122).
in(118, 125).
in(119, 1).
in(119, 5).
in(119, 6).
in(119, 9).
in(119, 10).
in(119, 13).
in(119, 15).
in(119, 19).
in(119, 22).
in(119, 23).
in(119, 24).
in(119, 25).
in(119, 27).
in(119, 29).
in(119, 31).
in(119, 32).
in(119, 34).
in(119, 36).
in(119, 37).
in(119, 39).
in(119, 41).
in(119, 42).
in(119, 43).
in(119, 49).
in(119, 50).
in(119, 51).
in(119, 53).
in(119, 54).
in(119, 55).
in(119, 56).
in(119, 57).
in(119, 62).
in(119, 64).
in(119, 67).
in(119, 68).
in(119, 73).
in(119, 74).
in(119, 75).
in(119, 76).
in(119, 78).
in(119, 82).
in(119, 83).
in(119, 84).
in(119, 85).
in(119, 90).
in(119, 91).
in(119, 93).
in(119, 97).
in(119, 98).
in(119, 99).
in(119, 102).
in(119, 103).
in(119, 105).
in(119, 109).
in(119, 114).
in(119, 115).
in(119, 118).
in(119, 119).
in(119, 123).
in(119, 124).
in(119, 125).
in(120, 4).
in(120, 10).
in(120, 15).
in(120, 19).
in(120, 20).
in(120, 21).
in(120, 23).
in(120, 24).
in(120, 28).
in(120, 29).
in(120, 32).
in(120, 34).
in(120, 35).
in(120, 37).
in(120, 39).
in(120, 40).
in(120, 42).
in(120, 43).
in(120, 46).
in(120, 49).
in(120, 50).
in(120, 51).
in(120, 52).
in(120, 53).
in(120, 54).
in(120, 55).
in(120, 56).
in(120, 58).
in(120, 63).
in(120, 64).
in(120, 69).
in(120, 72).
in(120, 74).
in(120, 75).
in(120, 78).
in(120, 79).
in(120, 80).
in(120, 84).
in(120, 86).
in(120, 89).
in(120, 91).
in(120, 98).
in(120, 102).
in(120, 105).
in(120, 106).
in(120, 107).
in(120, 108).
in(120, 109).
in(120, 117).
in(120, 119).
in(120, 120).
in(120, 124).
in(121, 3).
in(121, 10).
in(121, 11).
in(121, 12).
in(121, 16).
in(121, 18).
in(121, 21).
in(121, 23).
in(121, 27).
in(121, 28).
in(121, 31).
in(121, 35).
in(121, 36).
in(121, 37).
in(121, 38).
in(121, 39).
in(121, 40).
in(121, 44).
in(121, 50).
in(121, 52).
in(121, 60).
in(121, 61).
in(121, 62).
in(121, 63).
in(121, 66).
in(121, 68).
in(121, 69).
in(121, 70).
in(121, 71).
in(121, 73).
in(121, 75).
in(121, 79).
in(121, 82).
in(121, 87).
in(121, 91).
in(121, 92).
in(121, 94).
in(121, 95).
in(121, 96).
in(121, 97).
in(121, 100).
in(121, 102).
in(121, 107).
in(121, 108).
in(121, 109).
in(121, 110).
in(121, 112).
in(121, 116).
in(121, 118).
in(121, 119).
in(121, 122).
in(121, 124).
in(121, 126).
in(121, 127).
in(122, 9).
in(122, 10).
in(122, 15).
in(122, 16).
in(122, 17).
in(122, 24).
in(122, 25).
in(122, 27).
in(122, 28).
in(122, 32).
in(122, 33).
in(122, 35).
in(122, 38).
in(122, 39).
in(122, 45).
in(122, 51).
in(122, 53).
in(122, 59).
in(122, 61).
in(122, 62).
in(122, 63).
in(122, 65).
in(122, 67).
in(122, 71).
in(122, 73).
in(122, 77).
in(122, 78).
in(122, 80).
in(122, 82).
in(122, 84).
in(122, 85).
in(122, 86).
in(122, 87).
in(122, 89).
in(122, 92).
in(122, 94).
in(122, 98).
in(122, 100).
in(122, 101).
in(122, 104).
in(122, 105).
in(122, 107).
in(122, 108).
in(122, 111).
in(122, 117).
in(122, 118).
in(122, 119).
in(122, 120).
in(122, 122).
in(122, 123).
in(122, 124).
in(122, 125).
in(122, 127).
in(123, 4).
in(123, 7).
in(123, 9).
in(123, 11).
in(123, 13).
in(123, 16).
in(123, 17).
in(123, 19).
in(123, 23).
in(123, 24).
in(123, 26).
in(123, 27).
in(123, 32).
in(123, 39).
in(123, 40).
in(123, 41).
in(123, 42).
in(123, 44).
in(123, 45).
in(123, 46).
in(123, 48).
in(123, 49).
in(123, 50).
in(123, 58).
in(123, 60).
in(123, 61).
in(123, 62).
in(123, 63).
in(123, 65).
in(123, 67).
in(123, 68).
in(123, 71).
in(123, 77).
in(123, 83).
in(123, 86).
in(123, 92).
in(123, 93).
in(123, 94).
in(123, 95).
in(123, 96).
in(123, 98).
in(123, 100).
in(123, 105).
in(123, 107).
in(123, 109).
in(123, 110).
in(123, 112).
in(123, 114).
in(123, 117).
in(123, 119).
in(123, 120).
in(123, 121).
in(123, 122).
in(123, 124).
in(123, 126).
in(123, 127).
in(124, 1).
in(124, 2).
in(124, 6).
in(124, 7).
in(124, 12).
in(124, 14).
in(124, 17).
in(124, 20).
in(124, 21).
in(124, 23).
in(124, 24).
in(124, 25).
in(124, 27).
in(124, 28).
in(124, 29).
in(124, 37).
in(124, 42).
in(124, 44).
in(124, 45).
in(124, 46).
in(124, 51).
in(124, 54).
in(124, 56).
in(124, 57).
in(124, 58).
in(124, 61).
in(124, 63).
in(124, 67).
in(124, 71).
in(124, 72).
in(124, 75).
in(124, 76).
in(124, 80).
in(124, 81).
in(124, 89).
in(124, 91).
in(124, 93).
in(124, 96).
in(124, 98).
in(124, 100).
in(124, 101).
in(124, 102).
in(124, 103).
in(124, 104).
in(124, 110).
in(124, 114).
in(124, 116).
in(124, 117).
in(124, 120).
in(124, 127).
in(125, 4).
in(125, 7).
in(125, 9).
in(125, 13).
in(125, 14).
in(125, 16).
in(125, 20).
in(125, 21).
in(125, 23).
in(125, 26).
in(125, 27).
in(125, 28).
in(125, 29).
in(125, 32).
in(125, 37).
in(125, 38).
in(125, 40).
in(125, 41).
in(125, 43).
in(125, 48).
in(125, 50).
in(125, 52).
in(125, 54).
in(125, 55).
in(125, 58).
in(125, 59).
in(125, 60).
in(125, 64).
in(125, 65).
in(125, 67).
in(125, 68).
in(125, 69).
in(125, 70).
in(125, 73).
in(125, 74).
in(125, 77).
in(125, 79).
in(125, 83).
in(125, 85).
in(125, 87).
in(125, 97).
in(125, 102).
in(125, 103).
in(125, 106).
in(125, 108).
in(125, 110).
in(125, 113).
in(125, 115).
in(125, 120).
in(125, 121).
in(125, 122).
in(126, 3).
in(126, 4).
in(126, 5).
in(126, 6).
in(126, 7).
in(126, 10).
in(126, 11).
in(126, 12).
in(126, 15).
in(126, 16).
in(126, 18).
in(126, 19).
in(126, 20).
in(126, 21).
in(126, 23).
in(126, 25).
in(126, 26).
in(126, 27).
in(126, 28).
in(126, 29).
in(126, 30).
in(126, 31).
in(126, 34).
in(126, 36).
in(126, 37).
in(126, 48).
in(126, 49).
in(126, 52).
in(126, 53).
in(126, 54).
in(126, 55).
in(126, 56).
in(126, 61).
in(126, 64).
in(126, 66).
in(126, 68).
in(126, 69).
in(126, 73).
in(126, 76).
in(126, 77).
in(126, 79).
in(126, 82).
in(126, 83).
in(126, 84).
in(126, 88).
in(126, 91).
in(126, 92).
in(126, 93).
in(126, 95).
in(126, 100).
in(126, 101).
in(126, 104).
in(126, 106).
in(126, 107).
in(126, 109).
in(126, 111).
in(126, 112).
in(126, 114).
in(126, 115).
in(126, 117).
in(126, 121).
in(126, 122).
in(126, 123).
in(126, 127).
in(127, 1).
in(127, 4).
in(127, 8).
in(127, 11).
in(127, 18).
in(127, 19).
in(127, 25).
in(127, 27).
in(127, 28).
in(127, 31).
in(127, 34).
in(127, 35).
in(127, 40).
in(127, 42).
in(127, 44).
in(127, 46).
in(127, 49).
in(127, 50).
in(127, 53).
in(127, 54).
in(127, 55).
in(127, 56).
in(127, 57).
in(127, 58).
in(127, 60).
in(127, 65).
in(127, 66).
in(127, 67).
in(127, 69).
in(127, 70).
in(127, 75).
in(127, 81).
in(127, 83).
in(127, 87).
in(127, 89).
in(127, 92).
in(127, 98).
in(127, 100).
in(127, 101).
in(127, 102).
in(127, 106).
in(127, 107).
in(127, 108).
in(127, 109).
in(127, 111).
in(127, 113).
in(127, 115).
in(127, 117).
in(127, 119).
in(127, 122).
in(127, 123).
in(127, 124).
in(127, 126).
in(128, 1).
in(128, 4).
in(128, 5).
in(128, 6).
in(128, 7).
in(128, 8).
in(128, 9).
in(128, 10).
in(128, 17).
in(128, 18).
in(128, 20).
in(128, 27).
in(128, 28).
in(128, 32).
in(128, 33).
in(128, 35).
in(128, 36).
in(128, 37).
in(128, 40).
in(128, 42).
in(128, 43).
in(128, 46).
in(128, 49).
in(128, 52).
in(128, 54).
in(128, 55).
in(128, 57).
in(128, 58).
in(128, 59).
in(128, 60).
in(128, 62).
in(128, 71).
in(128, 73).
in(128, 75).
in(128, 76).
in(128, 79).
in(128, 80).
in(128, 82).
in(128, 83).
in(128, 86).
in(128, 89).
in(128, 90).
in(128, 91).
in(128, 94).
in(128, 96).
in(128, 97).
in(128, 98).
in(128, 100).
in(128, 104).
in(128, 105).
in(128, 107).
in(128, 110).
in(128, 111).
in(128, 112).
in(128, 113).
in(128, 114).
in(128, 115).
in(128, 118).
in(128, 119).
in(128, 120).
in(128, 122).
in(128, 123).
in(128, 124).
in(128, 127).
in(129, 2).
in(129, 3).
in(129, 4).
in(129, 6).
in(129, 8).
in(129, 14).
in(129, 16).
in(129, 18).
in(129, 22).
in(129, 23).
in(129, 26).
in(129, 30).
in(129, 31).
in(129, 35).
in(129, 36).
in(129, 40).
in(129, 52).
in(129, 53).
in(129, 54).
in(129, 59).
in(129, 60).
in(129, 63).
in(129, 64).
in(129, 66).
in(129, 69).
in(129, 72).
in(129, 73).
in(129, 75).
in(129, 76).
in(129, 77).
in(129, 79).
in(129, 80).
in(129, 81).
in(129, 82).
in(129, 95).
in(129, 97).
in(129, 98).
in(129, 99).
in(129, 100).
in(129, 101).
in(129, 104).
in(129, 105).
in(129, 106).
in(129, 108).
in(129, 109).
in(129, 112).
in(129, 113).
in(129, 115).
in(129, 119).
in(129, 121).
in(129, 122).
in(129, 125).
in(129, 126).
in(129, 127).
in(130, 3).
in(130, 8).
in(130, 14).
in(130, 16).
in(130, 18).
in(130, 19).
in(130, 20).
in(130, 21).
in(130, 22).
in(130, 26).
in(130, 29).
in(130, 31).
in(130, 33).
in(130, 34).
in(130, 36).
in(130, 41).
in(130, 43).
in(130, 45).
in(130, 46).
in(130, 47).
in(130, 48).
in(130, 50).
in(130, 53).
in(130, 54).
in(130, 60).
in(130, 61).
in(130, 62).
in(130, 63).
in(130, 69).
in(130, 73).
in(130, 78).
in(130, 79).
in(130, 83).
in(130, 84).
in(130, 85).
in(130, 86).
in(130, 89).
in(130, 91).
in(130, 93).
in(130, 94).
in(130, 98).
in(130, 99).
in(130, 102).
in(130, 103).
in(130, 109).
in(130, 110).
in(130, 111).
in(130, 112).
in(130, 119).
in(130, 120).
in(130, 122).
in(130, 123).
in(130, 124).
in(130, 126).
in(130, 127).
in(131, 2).
in(131, 4).
in(131, 5).
in(131, 11).
in(131, 14).
in(131, 15).
in(131, 16).
in(131, 18).
in(131, 19).
in(131, 22).
in(131, 26).
in(131, 27).
in(131, 29).
in(131, 31).
in(131, 32).
in(131, 33).
in(131, 37).
in(131, 39).
in(131, 42).
in(131, 45).
in(131, 51).
in(131, 53).
in(131, 58).
in(131, 64).
in(131, 65).
in(131, 69).
in(131, 70).
in(131, 71).
in(131, 72).
in(131, 78).
in(131, 80).
in(131, 81).
in(131, 83).
in(131, 85).
in(131, 87).
in(131, 88).
in(131, 90).
in(131, 92).
in(131, 94).
in(131, 96).
in(131, 98).
in(131, 99).
in(131, 100).
in(131, 101).
in(131, 105).
in(131, 110).
in(131, 117).
in(131, 119).
in(131, 120).
in(131, 121).
in(131, 123).
in(131, 124).
in(131, 125).
in(132, 1).
in(132, 3).
in(132, 4).
in(132, 5).
in(132, 10).
in(132, 13).
in(132, 15).
in(132, 17).
in(132, 25).
in(132, 26).
in(132, 28).
in(132, 31).
in(132, 33).
in(132, 35).
in(132, 38).
in(132, 43).
in(132, 45).
in(132, 46).
in(132, 50).
in(132, 57).
in(132, 58).
in(132, 61).
in(132, 62).
in(132, 67).
in(132, 70).
in(132, 71).
in(132, 73).
in(132, 75).
in(132, 77).
in(132, 78).
in(132, 80).
in(132, 85).
in(132, 89).
in(132, 91).
in(132, 94).
in(132, 95).
in(132, 99).
in(132, 101).
in(132, 102).
in(132, 103).
in(132, 105).
in(132, 112).
in(132, 117).
in(132, 119).
in(132, 120).
in(132, 121).
in(132, 122).
in(132, 126).
in(133, 1).
in(133, 2).
in(133, 3).
in(133, 5).
in(133, 6).
in(133, 7).
in(133, 8).
in(133, 10).
in(133, 13).
in(133, 15).
in(133, 16).
in(133, 18).
in(133, 19).
in(133, 20).
in(133, 22).
in(133, 26).
in(133, 27).
in(133, 28).
in(133, 31).
in(133, 34).
in(133, 35).
in(133, 39).
in(133, 41).
in(133, 42).
in(133, 44).
in(133, 46).
in(133, 47).
in(133, 48).
in(133, 49).
in(133, 50).
in(133, 51).
in(133, 53).
in(133, 55).
in(133, 58).
in(133, 59).
in(133, 65).
in(133, 66).
in(133, 71).
in(133, 76).
in(133, 78).
in(133, 79).
in(133, 80).
in(133, 81).
in(133, 82).
in(133, 83).
in(133, 85).
in(133, 86).
in(133, 87).
in(133, 88).
in(133, 93).
in(133, 94).
in(133, 99).
in(133, 100).
in(133, 102).
in(133, 103).
in(133, 105).
in(133, 106).
in(133, 108).
in(133, 109).
in(133, 112).
in(133, 114).
in(133, 116).
in(133, 118).
in(133, 119).
in(133, 120).
in(134, 1).
in(134, 4).
in(134, 5).
in(134, 14).
in(134, 22).
in(134, 23).
in(134, 24).
in(134, 25).
in(134, 26).
in(134, 31).
in(134, 32).
in(134, 35).
in(134, 39).
in(134, 44).
in(134, 45).
in(134, 48).
in(134, 55).
in(134, 57).
in(134, 61).
in(134, 62).
in(134, 63).
in(134, 65).
in(134, 71).
in(134, 72).
in(134, 73).
in(134, 75).
in(134, 78).
in(134, 79).
in(134, 80).
in(134, 81).
in(134, 83).
in(134, 86).
in(134, 89).
in(134, 93).
in(134, 94).
in(134, 97).
in(134, 98).
in(134, 99).
in(134, 101).
in(134, 103).
in(134, 107).
in(134, 110).
in(134, 115).
in(134, 119).
in(134, 120).
in(134, 124).
in(135, 1).
in(135, 2).
in(135, 4).
in(135, 5).
in(135, 7).
in(135, 9).
in(135, 12).
in(135, 16).
in(135, 24).
in(135, 27).
in(135, 33).
in(135, 35).
in(135, 37).
in(135, 41).
in(135, 43).
in(135, 44).
in(135, 47).
in(135, 48).
in(135, 51).
in(135, 52).
in(135, 53).
in(135, 54).
in(135, 55).
in(135, 65).
in(135, 67).
in(135, 69).
in(135, 72).
in(135, 74).
in(135, 76).
in(135, 80).
in(135, 81).
in(135, 85).
in(135, 86).
in(135, 88).
in(135, 89).
in(135, 91).
in(135, 92).
in(135, 95).
in(135, 98).
in(135, 102).
in(135, 105).
in(135, 106).
in(135, 108).
in(135, 109).
in(135, 112).
in(135, 113).
in(135, 114).
in(135, 117).
in(135, 118).
in(135, 119).
in(135, 120).
in(135, 123).
in(135, 124).
in(135, 127).
in(136, 1).
in(136, 3).
in(136, 5).
in(136, 6).
in(136, 9).
in(136, 11).
in(136, 12).
in(136, 13).
in(136, 15).
in(136, 17).
in(136, 19).
in(136, 20).
in(136, 21).
in(136, 22).
in(136, 23).
in(136, 24).
in(136, 25).
in(136, 28).
in(136, 32).
in(136, 33).
in(136, 34).
in(136, 36).
in(136, 39).
in(136, 42).
in(136, 44).
in(136, 45).
in(136, 48).
in(136, 49).
in(136, 53).
in(136, 57).
in(136, 58).
in(136, 61).
in(136, 63).
in(136, 66).
in(136, 67).
in(136, 69).
in(136, 72).
in(136, 75).
in(136, 76).
in(136, 77).
in(136, 78).
in(136, 79).
in(136, 82).
in(136, 83).
in(136, 85).
in(136, 89).
in(136, 91).
in(136, 92).
in(136, 93).
in(136, 95).
in(136, 97).
in(136, 100).
in(136, 102).
in(136, 104).
in(136, 105).
in(136, 107).
in(136, 114).
in(136, 116).
in(136, 117).
in(136, 118).
in(136, 120).
in(136, 125).
in(136, 127).
in(137, 3).
in(137, 4).
in(137, 6).
in(137, 7).
in(137, 8).
in(137, 10).
in(137, 11).
in(137, 12).
in(137, 18).
in(137, 23).
in(137, 26).
in(137, 29).
in(137, 30).
in(137, 31).
in(137, 32).
in(137, 35).
in(137, 37).
in(137, 38).
in(137, 41).
in(137, 44).
in(137, 45).
in(137, 48).
in(137, 49).
in(137, 50).
in(137, 53).
in(137, 55).
in(137, 57).
in(137, 60).
in(137, 61).
in(137, 64).
in(137, 69).
in(137, 71).
in(137, 72).
in(137, 73).
in(137, 78).
in(137, 83).
in(137, 84).
in(137, 86).
in(137, 87).
in(137, 92).
in(137, 93).
in(137, 98).
in(137, 99).
in(137, 100).
in(137, 101).
in(137, 102).
in(137, 103).
in(137, 105).
in(137, 107).
in(137, 108).
in(137, 109).
in(137, 114).
in(137, 116).
in(137, 119).
in(137, 121).
in(137, 125).
in(137, 126).
in(138, 3).
in(138, 4).
in(138, 6).
in(138, 7).
in(138, 8).
in(138, 9).
in(138, 13).
in(138, 16).
in(138, 19).
in(138, 20).
in(138, 22).
in(138, 23).
in(138, 27).
in(138, 28).
in(138, 29).
in(138, 30).
in(138, 31).
in(138, 32).
in(138, 35).
in(138, 36).
in(138, 37).
in(138, 39).
in(138, 40).
in(138, 45).
in(138, 53).
in(138, 55).
in(138, 56).
in(138, 58).
in(138, 61).
in(138, 65).
in(138, 66).
in(138, 72).
in(138, 73).
in(138, 79).
in(138, 82).
in(138, 84).
in(138, 85).
in(138, 87).
in(138, 89).
in(138, 90).
in(138, 93).
in(138, 97).
in(138, 101).
in(138, 103).
in(138, 105).
in(138, 106).
in(138, 107).
in(138, 110).
in(138, 116).
in(138, 120).
in(138, 122).
in(138, 124).
in(138, 125).
in(138, 126).
in(139, 3).
in(139, 5).
in(139, 6).
in(139, 7).
in(139, 9).
in(139, 10).
in(139, 13).
in(139, 15).
in(139, 23).
in(139, 27).
in(139, 29).
in(139, 31).
in(139, 35).
in(139, 43).
in(139, 45).
in(139, 46).
in(139, 48).
in(139, 50).
in(139, 52).
in(139, 60).
in(139, 61).
in(139, 63).
in(139, 65).
in(139, 69).
in(139, 72).
in(139, 80).
in(139, 83).
in(139, 86).
in(139, 87).
in(139, 88).
in(139, 91).
in(139, 93).
in(139, 94).
in(139, 96).
in(139, 101).
in(139, 109).
in(139, 111).
in(139, 116).
in(139, 117).
in(139, 118).
in(139, 124).
in(140, 2).
in(140, 3).
in(140, 4).
in(140, 6).
in(140, 12).
in(140, 20).
in(140, 21).
in(140, 22).
in(140, 24).
in(140, 25).
in(140, 27).
in(140, 30).
in(140, 32).
in(140, 36).
in(140, 37).
in(140, 38).
in(140, 41).
in(140, 42).
in(140, 47).
in(140, 51).
in(140, 53).
in(140, 54).
in(140, 56).
in(140, 59).
in(140, 66).
in(140, 67).
in(140, 69).
in(140, 70).
in(140, 71).
in(140, 73).
in(140, 75).
in(140, 80).
in(140, 81).
in(140, 82).
in(140, 87).
in(140, 88).
in(140, 89).
in(140, 90).
in(140, 95).
in(140, 96).
in(140, 97).
in(140, 98).
in(140, 106).
in(140, 110).
in(140, 114).
in(140, 115).
in(140, 118).
in(140, 121).
in(140, 123).
in(140, 124).
in(140, 125).
in(141, 1).
in(141, 3).
in(141, 8).
in(141, 12).
in(141, 13).
in(141, 14).
in(141, 15).
in(141, 19).
in(141, 23).
in(141, 24).
in(141, 26).
in(141, 28).
in(141, 30).
in(141, 32).
in(141, 34).
in(141, 35).
in(141, 37).
in(141, 38).
in(141, 39).
in(141, 40).
in(141, 44).
in(141, 45).
in(141, 48).
in(141, 50).
in(141, 53).
in(141, 54).
in(141, 57).
in(141, 62).
in(141, 63).
in(141, 67).
in(141, 69).
in(141, 71).
in(141, 75).
in(141, 77).
in(141, 78).
in(141, 80).
in(141, 81).
in(141, 83).
in(141, 85).
in(141, 86).
in(141, 88).
in(141, 89).
in(141, 91).
in(141, 93).
in(141, 94).
in(141, 104).
in(141, 105).
in(141, 107).
in(141, 110).
in(141, 111).
in(141, 112).
in(141, 113).
in(141, 114).
in(141, 115).
in(141, 121).
in(141, 122).
in(141, 127).
in(142, 6).
in(142, 7).
in(142, 9).
in(142, 11).
in(142, 15).
in(142, 19).
in(142, 22).
in(142, 24).
in(142, 25).
in(142, 26).
in(142, 27).
in(142, 28).
in(142, 30).
in(142, 32).
in(142, 33).
in(142, 34).
in(142, 35).
in(142, 36).
in(142, 37).
in(142, 38).
in(142, 45).
in(142, 46).
in(142, 47).
in(142, 52).
in(142, 53).
in(142, 56).
in(142, 57).
in(142, 58).
in(142, 61).
in(142, 64).
in(142, 65).
in(142, 66).
in(142, 72).
in(142, 73).
in(142, 76).
in(142, 83).
in(142, 84).
in(142, 88).
in(142, 91).
in(142, 93).
in(142, 95).
in(142, 99).
in(142, 102).
in(142, 103).
in(142, 105).
in(142, 106).
in(142, 107).
in(142, 108).
in(142, 111).
in(142, 117).
in(142, 118).
in(142, 124).
in(143, 1).
in(143, 5).
in(143, 8).
in(143, 9).
in(143, 11).
in(143, 12).
in(143, 16).
in(143, 17).
in(143, 19).
in(143, 22).
in(143, 23).
in(143, 24).
in(143, 25).
in(143, 28).
in(143, 30).
in(143, 32).
in(143, 35).
in(143, 37).
in(143, 38).
in(143, 41).
in(143, 44).
in(143, 47).
in(143, 55).
in(143, 61).
in(143, 62).
in(143, 69).
in(143, 70).
in(143, 71).
in(143, 73).
in(143, 74).
in(143, 75).
in(143, 76).
in(143, 81).
in(143, 82).
in(143, 83).
in(143, 84).
in(143, 85).
in(143, 89).
in(143, 91).
in(143, 94).
in(143, 96).
in(143, 97).
in(143, 99).
in(143, 100).
in(143, 101).
in(143, 103).
in(143, 104).
in(143, 107).
in(143, 108).
in(143, 110).
in(143, 111).
in(143, 118).
in(143, 119).
in(143, 121).
in(143, 123).
in(143, 127).
in(144, 3).
in(144, 5).
in(144, 6).
in(144, 7).
in(144, 10).
in(144, 11).
in(144, 12).
in(144, 13).
in(144, 14).
in(144, 15).
in(144, 17).
in(144, 18).
in(144, 19).
in(144, 23).
in(144, 25).
in(144, 28).
in(144, 29).
in(144, 30).
in(144, 31).
in(144, 37).
in(144, 41).
in(144, 44).
in(144, 45).
in(144, 52).
in(144, 53).
in(144, 56).
in(144, 57).
in(144, 59).
in(144, 60).
in(144, 62).
in(144, 66).
in(144, 68).
in(144, 74).
in(144, 76).
in(144, 79).
in(144, 80).
in(144, 82).
in(144, 84).
in(144, 91).
in(144, 92).
in(144, 93).
in(144, 96).
in(144, 97).
in(144, 101).
in(144, 104).
in(144, 111).
in(144, 112).
in(144, 116).
in(144, 118).
in(144, 122).
in(144, 123).
in(144, 124).
in(144, 125).
in(144, 127).
in(145, 1).
in(145, 4).
in(145, 5).
in(145, 7).
in(145, 11).
in(145, 12).
in(145, 15).
in(145, 27).
in(145, 32).
in(145, 40).
in(145, 43).
in(145, 45).
in(145, 46).
in(145, 49).
in(145, 57).
in(145, 58).
in(145, 59).
in(145, 60).
in(145, 61).
in(145, 62).
in(145, 65).
in(145, 67).
in(145, 69).
in(145, 72).
in(145, 73).
in(145, 74).
in(145, 76).
in(145, 81).
in(145, 82).
in(145, 83).
in(145, 84).
in(145, 85).
in(145, 86).
in(145, 87).
in(145, 90).
in(145, 92).
in(145, 98).
in(145, 99).
in(145, 100).
in(145, 103).
in(145, 106).
in(145, 109).
in(145, 111).
in(145, 112).
in(145, 114).
in(145, 115).
in(145, 116).
in(145, 118).
in(145, 119).
in(145, 120).
in(145, 122).
in(145, 124).
in(146, 3).
in(146, 4).
in(146, 5).
in(146, 9).
in(146, 10).
in(146, 15).
in(146, 16).
in(146, 24).
in(146, 31).
in(146, 32).
in(146, 33).
in(146, 36).
in(146, 37).
in(146, 40).
in(146, 41).
in(146, 42).
in(146, 44).
in(146, 45).
in(146, 46).
in(146, 49).
in(146, 50).
in(146, 53).
in(146, 57).
in(146, 58).
in(146, 59).
in(146, 69).
in(146, 71).
in(146, 74).
in(146, 83).
in(146, 86).
in(146, 89).
in(146, 91).
in(146, 92).
in(146, 93).
in(146, 94).
in(146, 99).
in(146, 102).
in(146, 108).
in(146, 109).
in(146, 110).
in(146, 111).
in(146, 113).
in(146, 117).
in(146, 118).
in(146, 122).
in(146, 123).
in(146, 125).
in(146, 126).
in(147, 1).
in(147, 3).
in(147, 13).
in(147, 18).
in(147, 20).
in(147, 23).
in(147, 28).
in(147, 30).
in(147, 31).
in(147, 32).
in(147, 33).
in(147, 39).
in(147, 40).
in(147, 42).
in(147, 45).
in(147, 47).
in(147, 49).
in(147, 51).
in(147, 54).
in(147, 57).
in(147, 58).
in(147, 60).
in(147, 61).
in(147, 63).
in(147, 65).
in(147, 66).
in(147, 70).
in(147, 71).
in(147, 75).
in(147, 76).
in(147, 80).
in(147, 81).
in(147, 82).
in(147, 83).
in(147, 87).
in(147, 88).
in(147, 89).
in(147, 94).
in(147, 95).
in(147, 99).
in(147, 104).
in(147, 106).
in(147, 107).
in(147, 112).
in(147, 113).
in(147, 117).
in(147, 119).
in(147, 122).
in(147, 124).
in(147, 127).
in(148, 1).
in(148, 2).
in(148, 3).
in(148, 7).
in(148, 8).
in(148, 9).
in(148, 11).
in(148, 16).
in(148, 18).
in(148, 20).
in(148, 21).
in(148, 22).
in(148, 23).
in(148, 27).
in(148, 28).
in(148, 33).
in(148, 37).
in(148, 41).
in(148, 45).
in(148, 47).
in(148, 48).
in(148, 51).
in(148, 54).
in(148, 57).
in(148, 59).
in(148, 62).
in(148, 64).
in(148, 65).
in(148, 75).
in(148, 78).
in(148, 79).
in(148, 81).
in(148, 82).
in(148, 85).
in(148, 86).
in(148, 88).
in(148, 90).
in(148, 92).
in(148, 93).
in(148, 94).
in(148, 95).
in(148, 96).
in(148, 100).
in(148, 103).
in(148, 104).
in(148, 106).
in(148, 108).
in(148, 109).
in(148, 110).
in(148, 115).
in(148, 118).
in(148, 120).
in(148, 121).
in(148, 122).
in(148, 124).
in(148, 125).
in(149, 2).
in(149, 4).
in(149, 5).
in(149, 10).
in(149, 17).
in(149, 19).
in(149, 20).
in(149, 24).
in(149, 25).
in(149, 27).
in(149, 28).
in(149, 31).
in(149, 32).
in(149, 33).
in(149, 35).
in(149, 36).
in(149, 37).
in(149, 41).
in(149, 44).
in(149, 49).
in(149, 50).
in(149, 54).
in(149, 61).
in(149, 62).
in(149, 64).
in(149, 66).
in(149, 67).
in(149, 69).
in(149, 70).
in(149, 72).
in(149, 74).
in(149, 76).
in(149, 78).
in(149, 84).
in(149, 89).
in(149, 93).
in(149, 94).
in(149, 95).
in(149, 97).
in(149, 99).
in(149, 101).
in(149, 102).
in(149, 106).
in(149, 108).
in(149, 109).
in(149, 110).
in(149, 111).
in(149, 113).
in(149, 114).
in(149, 119).
in(149, 123).
in(149, 124).
in(149, 125).
in(150, 1).
in(150, 2).
in(150, 3).
in(150, 5).
in(150, 7).
in(150, 11).
in(150, 12).
in(150, 13).
in(150, 15).
in(150, 20).
in(150, 24).
in(150, 25).
in(150, 29).
in(150, 32).
in(150, 33).
in(150, 36).
in(150, 37).
in(150, 39).
in(150, 41).
in(150, 42).
in(150, 43).
in(150, 46).
in(150, 47).
in(150, 48).
in(150, 50).
in(150, 57).
in(150, 60).
in(150, 64).
in(150, 66).
in(150, 67).
in(150, 71).
in(150, 78).
in(150, 79).
in(150, 80).
in(150, 83).
in(150, 85).
in(150, 86).
in(150, 87).
in(150, 88).
in(150, 89).
in(150, 96).
in(150, 98).
in(150, 101).
in(150, 105).
in(150, 106).
in(150, 107).
in(150, 111).
in(150, 112).
in(150, 115).
in(150, 116).
in(150, 117).
in(150, 121).
in(150, 123).
in(150, 125).
in(150, 126).
in(151, 4).
in(151, 5).
in(151, 6).
in(151, 7).
in(151, 8).
in(151, 10).
in(151, 15).
in(151, 21).
in(151, 22).
in(151, 24).
in(151, 25).
in(151, 28).
in(151, 32).
in(151, 33).
in(151, 34).
in(151, 35).
in(151, 37).
in(151, 38).
in(151, 40).
in(151, 45).
in(151, 49).
in(151, 50).
in(151, 51).
in(151, 58).
in(151, 60).
in(151, 61).
in(151, 62).
in(151, 63).
in(151, 65).
in(151, 70).
in(151, 71).
in(151, 72).
in(151, 75).
in(151, 77).
in(151, 83).
in(151, 86).
in(151, 89).
in(151, 91).
in(151, 92).
in(151, 93).
in(151, 98).
in(151, 99).
in(151, 100).
in(151, 102).
in(151, 103).
in(151, 105).
in(151, 107).
in(151, 109).
in(151, 113).
in(151, 114).
in(151, 117).
in(151, 118).
in(151, 123).
in(151, 124).
in(151, 125).
in(152, 2).
in(152, 5).
in(152, 7).
in(152, 8).
in(152, 10).
in(152, 23).
in(152, 26).
in(152, 33).
in(152, 34).
in(152, 40).
in(152, 41).
in(152, 46).
in(152, 47).
in(152, 48).
in(152, 49).
in(152, 53).
in(152, 57).
in(152, 60).
in(152, 63).
in(152, 67).
in(152, 68).
in(152, 70).
in(152, 71).
in(152, 73).
in(152, 77).
in(152, 79).
in(152, 82).
in(152, 84).
in(152, 87).
in(152, 88).
in(152, 92).
in(152, 93).
in(152, 94).
in(152, 95).
in(152, 96).
in(152, 97).
in(152, 100).
in(152, 101).
in(152, 102).
in(152, 103).
in(152, 107).
in(152, 111).
in(152, 113).
in(152, 114).
in(152, 115).
in(152, 116).
in(152, 117).
in(152, 122).
in(152, 124).
in(152, 126).
in(153, 1).
in(153, 2).
in(153, 4).
in(153, 6).
in(153, 14).
in(153, 18).
in(153, 20).
in(153, 25).
in(153, 28).
in(153, 31).
in(153, 37).
in(153, 38).
in(153, 40).
in(153, 41).
in(153, 43).
in(153, 48).
in(153, 49).
in(153, 52).
in(153, 58).
in(153, 60).
in(153, 62).
in(153, 63).
in(153, 65).
in(153, 68).
in(153, 69).
in(153, 72).
in(153, 73).
in(153, 74).
in(153, 75).
in(153, 78).
in(153, 79).
in(153, 80).
in(153, 83).
in(153, 85).
in(153, 87).
in(153, 88).
in(153, 89).
in(153, 90).
in(153, 91).
in(153, 95).
in(153, 97).
in(153, 100).
in(153, 105).
in(153, 106).
in(153, 107).
in(153, 108).
in(153, 113).
in(153, 114).
in(153, 116).
in(153, 119).
in(153, 120).
in(153, 127).
in(154, 2).
in(154, 3).
in(154, 4).
in(154, 5).
in(154, 6).
in(154, 12).
in(154, 14).
in(154, 15).
in(154, 16).
in(154, 18).
in(154, 22).
in(154, 23).
in(154, 28).
in(154, 29).
in(154, 32).
in(154, 33).
in(154, 36).
in(154, 37).
in(154, 38).
in(154, 44).
in(154, 46).
in(154, 50).
in(154, 52).
in(154, 54).
in(154, 56).
in(154, 62).
in(154, 68).
in(154, 69).
in(154, 70).
in(154, 71).
in(154, 72).
in(154, 73).
in(154, 75).
in(154, 79).
in(154, 81).
in(154, 82).
in(154, 83).
in(154, 91).
in(154, 92).
in(154, 93).
in(154, 95).
in(154, 96).
in(154, 98).
in(154, 100).
in(154, 103).
in(154, 105).
in(154, 106).
in(154, 109).
in(154, 111).
in(154, 115).
in(154, 116).
in(154, 118).
in(154, 119).
in(154, 120).
in(154, 122).
in(154, 123).
in(154, 125).
in(155, 4).
in(155, 6).
in(155, 12).
in(155, 22).
in(155, 25).
in(155, 27).
in(155, 28).
in(155, 29).
in(155, 33).
in(155, 35).
in(155, 36).
in(155, 40).
in(155, 41).
in(155, 43).
in(155, 45).
in(155, 48).
in(155, 51).
in(155, 58).
in(155, 59).
in(155, 61).
in(155, 62).
in(155, 63).
in(155, 65).
in(155, 66).
in(155, 67).
in(155, 69).
in(155, 70).
in(155, 71).
in(155, 72).
in(155, 74).
in(155, 75).
in(155, 81).
in(155, 86).
in(155, 87).
in(155, 89).
in(155, 92).
in(155, 95).
in(155, 96).
in(155, 99).
in(155, 102).
in(155, 103).
in(155, 104).
in(155, 105).
in(155, 107).
in(155, 108).
in(155, 111).
in(155, 120).
in(155, 121).
in(155, 123).
in(155, 124).
in(155, 127).
in(156, 2).
in(156, 4).
in(156, 9).
in(156, 12).
in(156, 13).
in(156, 17).
in(156, 18).
in(156, 22).
in(156, 29).
in(156, 32).
in(156, 34).
in(156, 35).
in(156, 36).
in(156, 40).
in(156, 43).
in(156, 48).
in(156, 49).
in(156, 51).
in(156, 52).
in(156, 53).
in(156, 55).
in(156, 56).
in(156, 57).
in(156, 60).
in(156, 61).
in(156, 63).
in(156, 64).
in(156, 65).
in(156, 66).
in(156, 70).
in(156, 71).
in(156, 73).
in(156, 75).
in(156, 76).
in(156, 77).
in(156, 78).
in(156, 79).
in(156, 80).
in(156, 82).
in(156, 88).
in(156, 91).
in(156, 93).
in(156, 94).
in(156, 95).
in(156, 98).
in(156, 99).
in(156, 100).
in(156, 101).
in(156, 103).
in(156, 105).
in(156, 109).
in(156, 110).
in(156, 114).
in(156, 115).
in(156, 116).
in(156, 120).
in(157, 5).
in(157, 6).
in(157, 9).
in(157, 15).
in(157, 18).
in(157, 20).
in(157, 22).
in(157, 23).
in(157, 24).
in(157, 25).
in(157, 27).
in(157, 29).
in(157, 30).
in(157, 31).
in(157, 33).
in(157, 34).
in(157, 35).
in(157, 38).
in(157, 39).
in(157, 40).
in(157, 43).
in(157, 44).
in(157, 45).
in(157, 50).
in(157, 51).
in(157, 54).
in(157, 55).
in(157, 56).
in(157, 59).
in(157, 60).
in(157, 62).
in(157, 68).
in(157, 75).
in(157, 78).
in(157, 79).
in(157, 81).
in(157, 83).
in(157, 85).
in(157, 86).
in(157, 88).
in(157, 89).
in(157, 90).
in(157, 92).
in(157, 94).
in(157, 95).
in(157, 97).
in(157, 98).
in(157, 99).
in(157, 106).
in(157, 108).
in(157, 109).
in(157, 111).
in(157, 116).
in(157, 117).
in(157, 118).
in(157, 120).
in(157, 121).
in(157, 122).
in(157, 124).
in(157, 125).
in(157, 126).
in(158, 1).
in(158, 4).
in(158, 5).
in(158, 7).
in(158, 9).
in(158, 13).
in(158, 14).
in(158, 20).
in(158, 22).
in(158, 26).
in(158, 27).
in(158, 30).
in(158, 31).
in(158, 32).
in(158, 33).
in(158, 34).
in(158, 40).
in(158, 41).
in(158, 42).
in(158, 44).
in(158, 45).
in(158, 46).
in(158, 48).
in(158, 53).
in(158, 55).
in(158, 57).
in(158, 58).
in(158, 61).
in(158, 62).
in(158, 64).
in(158, 67).
in(158, 70).
in(158, 72).
in(158, 74).
in(158, 75).
in(158, 77).
in(158, 78).
in(158, 79).
in(158, 80).
in(158, 83).
in(158, 84).
in(158, 96).
in(158, 98).
in(158, 103).
in(158, 106).
in(158, 108).
in(158, 109).
in(158, 110).
in(158, 112).
in(158, 117).
in(158, 118).
in(158, 121).
in(158, 124).
in(158, 126).
in(158, 127).
in(159, 1).
in(159, 3).
in(159, 5).
in(159, 7).
in(159, 9).
in(159, 10).
in(159, 12).
in(159, 14).
in(159, 15).
in(159, 16).
in(159, 17).
in(159, 19).
in(159, 20).
in(159, 21).
in(159, 22).
in(159, 23).
in(159, 24).
in(159, 25).
in(159, 28).
in(159, 30).
in(159, 33).
in(159, 34).
in(159, 36).
in(159, 37).
in(159, 39).
in(159, 43).
in(159, 44).
in(159, 49).
in(159, 53).
in(159, 55).
in(159, 56).
in(159, 58).
in(159, 60).
in(159, 61).
in(159, 65).
in(159, 66).
in(159, 67).
in(159, 70).
in(159, 71).
in(159, 73).
in(159, 80).
in(159, 82).
in(159, 83).
in(159, 86).
in(159, 87).
in(159, 89).
in(159, 92).
in(159, 93).
in(159, 94).
in(159, 96).
in(159, 97).
in(159, 98).
in(159, 99).
in(159, 109).
in(159, 114).
in(159, 119).
in(159, 122).
in(159, 127).
in(160, 3).
in(160, 14).
in(160, 16).
in(160, 19).
in(160, 21).
in(160, 22).
in(160, 23).
in(160, 25).
in(160, 29).
in(160, 34).
in(160, 41).
in(160, 46).
in(160, 48).
in(160, 49).
in(160, 50).
in(160, 53).
in(160, 55).
in(160, 57).
in(160, 59).
in(160, 60).
in(160, 61).
in(160, 63).
in(160, 64).
in(160, 65).
in(160, 67).
in(160, 68).
in(160, 70).
in(160, 71).
in(160, 78).
in(160, 81).
in(160, 82).
in(160, 86).
in(160, 87).
in(160, 89).
in(160, 91).
in(160, 92).
in(160, 94).
in(160, 95).
in(160, 98).
in(160, 103).
in(160, 104).
in(160, 106).
in(160, 107).
in(160, 109).
in(160, 112).
in(160, 113).
in(160, 115).
in(160, 117).
in(160, 120).
in(160, 122).
in(160, 125).
in(160, 126).
in(160, 127).
in(161, 5).
in(161, 10).
in(161, 11).
in(161, 12).
in(161, 15).
in(161, 17).
in(161, 19).
in(161, 20).
in(161, 21).
in(161, 22).
in(161, 29).
in(161, 30).
in(161, 31).
in(161, 33).
in(161, 38).
in(161, 40).
in(161, 41).
in(161, 42).
in(161, 45).
in(161, 46).
in(161, 49).
in(161, 55).
in(161, 56).
in(161, 57).
in(161, 61).
in(161, 64).
in(161, 65).
in(161, 71).
in(161, 72).
in(161, 73).
in(161, 74).
in(161, 75).
in(161, 77).
in(161, 78).
in(161, 82).
in(161, 83).
in(161, 84).
in(161, 85).
in(161, 86).
in(161, 90).
in(161, 91).
in(161, 92).
in(161, 93).
in(161, 94).
in(161, 95).
in(161, 104).
in(161, 106).
in(161, 109).
in(161, 112).
in(161, 113).
in(161, 114).
in(161, 115).
in(161, 116).
in(161, 119).
in(161, 122).
in(161, 125).
in(161, 126).
in(161, 127).
in(162, 1).
in(162, 4).
in(162, 5).
in(162, 6).
in(162, 8).
in(162, 9).
in(162, 12).
in(162, 13).
in(162, 15).
in(162, 16).
in(162, 19).
in(162, 20).
in(162, 22).
in(162, 23).
in(162, 26).
in(162, 28).
in(162, 30).
in(162, 31).
in(162, 32).
in(162, 33).
in(162, 34).
in(162, 35).
in(162, 36).
in(162, 37).
in(162, 38).
in(162, 45).
in(162, 46).
in(162, 48).
in(162, 51).
in(162, 54).
in(162, 55).
in(162, 57).
in(162, 60).
in(162, 65).
in(162, 66).
in(162, 67).
in(162, 68).
in(162, 72).
in(162, 73).
in(162, 77).
in(162, 78).
in(162, 91).
in(162, 99).
in(162, 100).
in(162, 101).
in(162, 103).
in(162, 105).
in(162, 109).
in(162, 114).
in(162, 115).
in(162, 117).
in(162, 119).
in(162, 125).
in(162, 127).
in(163, 6).
in(163, 7).
in(163, 8).
in(163, 9).
in(163, 11).
in(163, 13).
in(163, 14).
in(163, 17).
in(163, 27).
in(163, 31).
in(163, 32).
in(163, 33).
in(163, 34).
in(163, 36).
in(163, 37).
in(163, 38).
in(163, 39).
in(163, 40).
in(163, 41).
in(163, 47).
in(163, 52).
in(163, 57).
in(163, 60).
in(163, 63).
in(163, 66).
in(163, 70).
in(163, 71).
in(163, 72).
in(163, 73).
in(163, 74).
in(163, 78).
in(163, 79).
in(163, 81).
in(163, 86).
in(163, 90).
in(163, 92).
in(163, 93).
in(163, 95).
in(163, 98).
in(163, 102).
in(163, 103).
in(163, 105).
in(163, 108).
in(163, 112).
in(163, 113).
in(163, 114).
in(163, 116).
in(163, 117).
in(163, 119).
in(163, 121).
in(163, 124).
in(163, 127).
in(164, 2).
in(164, 4).
in(164, 5).
in(164, 8).
in(164, 12).
in(164, 14).
in(164, 20).
in(164, 21).
in(164, 22).
in(164, 23).
in(164, 25).
in(164, 27).
in(164, 30).
in(164, 31).
in(164, 34).
in(164, 36).
in(164, 42).
in(164, 45).
in(164, 48).
in(164, 49).
in(164, 51).
in(164, 54).
in(164, 56).
in(164, 57).
in(164, 58).
in(164, 61).
in(164, 62).
in(164, 63).
in(164, 64).
in(164, 65).
in(164, 66).
in(164, 68).
in(164, 69).
in(164, 70).
in(164, 71).
in(164, 72).
in(164, 73).
in(164, 76).
in(164, 77).
in(164, 78).
in(164, 82).
in(164, 83).
in(164, 89).
in(164, 91).
in(164, 92).
in(164, 94).
in(164, 96).
in(164, 97).
in(164, 99).
in(164, 101).
in(164, 103).
in(164, 104).
in(164, 106).
in(164, 113).
in(164, 115).
in(164, 117).
in(164, 118).
in(164, 119).
in(164, 123).
in(164, 124).
in(164, 126).
in(165, 1).
in(165, 2).
in(165, 4).
in(165, 6).
in(165, 9).
in(165, 11).
in(165, 12).
in(165, 15).
in(165, 21).
in(165, 22).
in(165, 24).
in(165, 25).
in(165, 28).
in(165, 30).
in(165, 31).
in(165, 32).
in(165, 33).
in(165, 34).
in(165, 35).
in(165, 36).
in(165, 37).
in(165, 40).
in(165, 42).
in(165, 44).
in(165, 45).
in(165, 46).
in(165, 49).
in(165, 51).
in(165, 54).
in(165, 55).
in(165, 56).
in(165, 57).
in(165, 63).
in(165, 64).
in(165, 66).
in(165, 70).
in(165, 73).
in(165, 76).
in(165, 78).
in(165, 79).
in(165, 80).
in(165, 81).
in(165, 84).
in(165, 88).
in(165, 89).
in(165, 93).
in(165, 94).
in(165, 95).
in(165, 98).
in(165, 102).
in(165, 103).
in(165, 109).
in(165, 110).
in(165, 111).
in(165, 115).
in(165, 117).
in(165, 120).
in(165, 121).
in(165, 122).
in(165, 123).
in(165, 127).
in(166, 1).
in(166, 3).
in(166, 5).
in(166, 6).
in(166, 11).
in(166, 13).
in(166, 14).
in(166, 15).
in(166, 16).
in(166, 20).
in(166, 22).
in(166, 25).
in(166, 27).
in(166, 29).
in(166, 30).
in(166, 31).
in(166, 34).
in(166, 35).
in(166, 36).
in(166, 37).
in(166, 40).
in(166, 41).
in(166, 43).
in(166, 44).
in(166, 46).
in(166, 49).
in(166, 50).
in(166, 54).
in(166, 55).
in(166, 59).
in(166, 60).
in(166, 64).
in(166, 66).
in(166, 67).
in(166, 68).
in(166, 69).
in(166, 70).
in(166, 71).
in(166, 73).
in(166, 77).
in(166, 79).
in(166, 81).
in(166, 82).
in(166, 83).
in(166, 86).
in(166, 87).
in(166, 89).
in(166, 90).
in(166, 92).
in(166, 93).
in(166, 95).
in(166, 98).
in(166, 108).
in(166, 111).
in(166, 112).
in(166, 113).
in(166, 115).
in(166, 117).
in(166, 119).
in(166, 120).
in(166, 125).
in(166, 126).
in(167, 2).
in(167, 3).
in(167, 8).
in(167, 9).
in(167, 11).
in(167, 12).
in(167, 13).
in(167, 14).
in(167, 15).
in(167, 18).
in(167, 20).
in(167, 22).
in(167, 24).
in(167, 27).
in(167, 32).
in(167, 33).
in(167, 40).
in(167, 41).
in(167, 48).
in(167, 49).
in(167, 52).
in(167, 53).
in(167, 54).
in(167, 58).
in(167, 59).
in(167, 61).
in(167, 63).
in(167, 64).
in(167, 65).
in(167, 68).
in(167, 70).
in(167, 71).
in(167, 74).
in(167, 81).
in(167, 82).
in(167, 84).
in(167, 85).
in(167, 86).
in(167, 89).
in(167, 90).
in(167, 91).
in(167, 92).
in(167, 99).
in(167, 101).
in(167, 102).
in(167, 108).
in(167, 109).
in(167, 110).
in(167, 112).
in(167, 117).
in(167, 119).
in(167, 120).
in(167, 122).
in(167, 123).
in(168, 1).
in(168, 4).
in(168, 5).
in(168, 7).
in(168, 9).
in(168, 12).
in(168, 13).
in(168, 14).
in(168, 15).
in(168, 17).
in(168, 19).
in(168, 21).
in(168, 24).
in(168, 25).
in(168, 27).
in(168, 28).
in(168, 29).
in(168, 30).
in(168, 34).
in(168, 35).
in(168, 39).
in(168, 40).
in(168, 41).
in(168, 42).
in(168, 44).
in(168, 46).
in(168, 50).
in(168, 53).
in(168, 55).
in(168, 56).
in(168, 57).
in(168, 58).
in(168, 61).
in(168, 62).
in(168, 63).
in(168, 66).
in(168, 70).
in(168, 73).
in(168, 78).
in(168, 79).
in(168, 83).
in(168, 85).
in(168, 91).
in(168, 100).
in(168, 101).
in(168, 102).
in(168, 104).
in(168, 107).
in(168, 108).
in(168, 109).
in(168, 110).
in(168, 112).
in(168, 115).
in(168, 118).
in(168, 119).
in(168, 120).
in(168, 121).
in(168, 122).
in(168, 123).
in(168, 124).
in(169, 4).
in(169, 5).
in(169, 6).
in(169, 9).
in(169, 10).
in(169, 11).
in(169, 13).
in(169, 18).
in(169, 23).
in(169, 24).
in(169, 25).
in(169, 30).
in(169, 31).
in(169, 38).
in(169, 45).
in(169, 52).
in(169, 53).
in(169, 57).
in(169, 58).
in(169, 60).
in(169, 61).
in(169, 62).
in(169, 66).
in(169, 67).
in(169, 68).
in(169, 70).
in(169, 75).
in(169, 76).
in(169, 77).
in(169, 79).
in(169, 83).
in(169, 84).
in(169, 88).
in(169, 89).
in(169, 90).
in(169, 93).
in(169, 94).
in(169, 97).
in(169, 101).
in(169, 102).
in(169, 103).
in(169, 104).
in(169, 105).
in(169, 106).
in(169, 107).
in(169, 110).
in(169, 111).
in(169, 112).
in(169, 113).
in(169, 115).
in(169, 116).
in(169, 117).
in(169, 119).
in(169, 121).
in(169, 124).
in(169, 126).
in(170, 1).
in(170, 7).
in(170, 9).
in(170, 10).
in(170, 16).
in(170, 18).
in(170, 19).
in(170, 20).
in(170, 21).
in(170, 22).
in(170, 23).
in(170, 24).
in(170, 26).
in(170, 27).
in(170, 29).
in(170, 31).
in(170, 33).
in(170, 35).
in(170, 37).
in(170, 41).
in(170, 43).
in(170, 47).
in(170, 49).
in(170, 56).
in(170, 57).
in(170, 58).
in(170, 63).
in(170, 67).
in(170, 68).
in(170, 72).
in(170, 73).
in(170, 77).
in(170, 79).
in(170, 82).
in(170, 83).
in(170, 88).
in(170, 94).
in(170, 96).
in(170, 97).
in(170, 98).
in(170, 100).
in(170, 104).
in(170, 105).
in(170, 108).
in(170, 111).
in(170, 113).
in(170, 115).
in(170, 116).
in(170, 117).
in(170, 118).
in(170, 120).
in(170, 124).
in(170, 125).
in(171, 2).
in(171, 3).
in(171, 5).
in(171, 7).
in(171, 8).
in(171, 9).
in(171, 10).
in(171, 11).
in(171, 12).
in(171, 13).
in(171, 14).
in(171, 15).
in(171, 16).
in(171, 19).
in(171, 21).
in(171, 23).
in(171, 27).
in(171, 31).
in(171, 33).
in(171, 36).
in(171, 40).
in(171, 41).
in(171, 43).
in(171, 44).
in(171, 46).
in(171, 47).
in(171, 50).
in(171, 52).
in(171, 55).
in(171, 57).
in(171, 61).
in(171, 62).
in(171, 65).
in(171, 66).
in(171, 71).
in(171, 74).
in(171, 77).
in(171, 79).
in(171, 81).
in(171, 82).
in(171, 86).
in(171, 89).
in(171, 90).
in(171, 95).
in(171, 96).
in(171, 97).
in(171, 98).
in(171, 99).
in(171, 102).
in(171, 103).
in(171, 104).
in(171, 108).
in(171, 110).
in(171, 111).
in(171, 112).
in(171, 113).
in(171, 114).
in(171, 115).
in(171, 116).
in(171, 117).
in(171, 119).
in(171, 123).
in(171, 124).
in(172, 5).
in(172, 10).
in(172, 12).
in(172, 14).
in(172, 17).
in(172, 21).
in(172, 22).
in(172, 23).
in(172, 27).
in(172, 28).
in(172, 29).
in(172, 32).
in(172, 34).
in(172, 35).
in(172, 36).
in(172, 38).
in(172, 39).
in(172, 40).
in(172, 44).
in(172, 46).
in(172, 47).
in(172, 49).
in(172, 51).
in(172, 54).
in(172, 56).
in(172, 59).
in(172, 60).
in(172, 61).
in(172, 62).
in(172, 66).
in(172, 68).
in(172, 69).
in(172, 72).
in(172, 73).
in(172, 76).
in(172, 77).
in(172, 78).
in(172, 81).
in(172, 82).
in(172, 85).
in(172, 86).
in(172, 89).
in(172, 90).
in(172, 91).
in(172, 93).
in(172, 95).
in(172, 96).
in(172, 98).
in(172, 100).
in(172, 101).
in(172, 105).
in(172, 107).
in(172, 109).
in(172, 111).
in(172, 112).
in(172, 113).
in(172, 115).
in(172, 117).
in(172, 119).
in(172, 123).
in(172, 125).
in(173, 3).
in(173, 10).
in(173, 12).
in(173, 14).
in(173, 18).
in(173, 19).
in(173, 25).
in(173, 26).
in(173, 30).
in(173, 31).
in(173, 37).
in(173, 38).
in(173, 39).
in(173, 41).
in(173, 43).
in(173, 44).
in(173, 45).
in(173, 47).
in(173, 53).
in(173, 54).
in(173, 56).
in(173, 61).
in(173, 63).
in(173, 65).
in(173, 66).
in(173, 68).
in(173, 69).
in(173, 70).
in(173, 74).
in(173, 75).
in(173, 76).
in(173, 82).
in(173, 84).
in(173, 87).
in(173, 90).
in(173, 91).
in(173, 95).
in(173, 96).
in(173, 97).
in(173, 100).
in(173, 104).
in(173, 105).
in(173, 109).
in(173, 110).
in(173, 111).
in(173, 113).
in(173, 120).
in(173, 126).
in(173, 127).
in(174, 1).
in(174, 3).
in(174, 8).
in(174, 9).
in(174, 12).
in(174, 14).
in(174, 15).
in(174, 16).
in(174, 19).
in(174, 20).
in(174, 24).
in(174, 26).
in(174, 27).
in(174, 28).
in(174, 33).
in(174, 34).
in(174, 38).
in(174, 41).
in(174, 44).
in(174, 45).
in(174, 47).
in(174, 48).
in(174, 49).
in(174, 50).
in(174, 51).
in(174, 52).
in(174, 55).
in(174, 60).
in(174, 61).
in(174, 62).
in(174, 63).
in(174, 64).
in(174, 65).
in(174, 66).
in(174, 68).
in(174, 71).
in(174, 72).
in(174, 74).
in(174, 75).
in(174, 77).
in(174, 78).
in(174, 79).
in(174, 81).
in(174, 83).
in(174, 84).
in(174, 88).
in(174, 89).
in(174, 91).
in(174, 99).
in(174, 100).
in(174, 105).
in(174, 106).
in(174, 107).
in(174, 108).
in(174, 110).
in(174, 113).
in(174, 117).
in(174, 118).
in(174, 121).
in(174, 123).
in(174, 124).
in(174, 125).
in(174, 126).
in(174, 127).
in(175, 1).
in(175, 2).
in(175, 5).
in(175, 6).
in(175, 7).
in(175, 8).
in(175, 18).
in(175, 20).
in(175, 21).
in(175, 25).
in(175, 26).
in(175, 28).
in(175, 32).
in(175, 33).
in(175, 35).
in(175, 37).
in(175, 38).
in(175, 41).
in(175, 42).
in(175, 44).
in(175, 52).
in(175, 55).
in(175, 56).
in(175, 57).
in(175, 58).
in(175, 65).
in(175, 66).
in(175, 67).
in(175, 69).
in(175, 70).
in(175, 72).
in(175, 74).
in(175, 75).
in(175, 76).
in(175, 79).
in(175, 81).
in(175, 83).
in(175, 90).
in(175, 93).
in(175, 94).
in(175, 101).
in(175, 106).
in(175, 110).
in(175, 111).
in(175, 112).
in(175, 113).
in(175, 116).
in(175, 117).
in(175, 118).
in(175, 119).
in(175, 120).
in(175, 122).
in(175, 123).
in(175, 124).
in(175, 125).
in(176, 1).
in(176, 3).
in(176, 6).
in(176, 7).
in(176, 9).
in(176, 10).
in(176, 13).
in(176, 15).
in(176, 16).
in(176, 18).
in(176, 23).
in(176, 24).
in(176, 25).
in(176, 28).
in(176, 31).
in(176, 34).
in(176, 38).
in(176, 39).
in(176, 40).
in(176, 42).
in(176, 44).
in(176, 50).
in(176, 51).
in(176, 52).
in(176, 53).
in(176, 55).
in(176, 56).
in(176, 58).
in(176, 60).
in(176, 62).
in(176, 63).
in(176, 64).
in(176, 66).
in(176, 67).
in(176, 69).
in(176, 71).
in(176, 74).
in(176, 75).
in(176, 76).
in(176, 79).
in(176, 81).
in(176, 85).
in(176, 86).
in(176, 88).
in(176, 101).
in(176, 102).
in(176, 103).
in(176, 105).
in(176, 108).
in(176, 119).
in(176, 121).
in(176, 124).
in(177, 1).
in(177, 3).
in(177, 9).
in(177, 11).
in(177, 12).
in(177, 13).
in(177, 14).
in(177, 15).
in(177, 16).
in(177, 21).
in(177, 25).
in(177, 27).
in(177, 30).
in(177, 31).
in(177, 34).
in(177, 38).
in(177, 52).
in(177, 53).
in(177, 55).
in(177, 56).
in(177, 62).
in(177, 67).
in(177, 71).
in(177, 72).
in(177, 73).
in(177, 74).
in(177, 77).
in(177, 80).
in(177, 81).
in(177, 82).
in(177, 83).
in(177, 84).
in(177, 86).
in(177, 87).
in(177, 88).
in(177, 93).
in(177, 94).
in(177, 96).
in(177, 99).
in(177, 101).
in(177, 103).
in(177, 108).
in(177, 110).
in(177, 111).
in(177, 115).
in(177, 122).
in(177, 123).
in(177, 126).
in(178, 1).
in(178, 2).
in(178, 3).
in(178, 7).
in(178, 11).
in(178, 12).
in(178, 16).
in(178, 17).
in(178, 20).
in(178, 21).
in(178, 22).
in(178, 24).
in(178, 26).
in(178, 27).
in(178, 29).
in(178, 34).
in(178, 35).
in(178, 38).
in(178, 39).
in(178, 40).
in(178, 41).
in(178, 43).
in(178, 44).
in(178, 46).
in(178, 50).
in(178, 51).
in(178, 52).
in(178, 53).
in(178, 54).
in(178, 55).
in(178, 56).
in(178, 57).
in(178, 58).
in(178, 65).
in(178, 70).
in(178, 73).
in(178, 75).
in(178, 76).
in(178, 80).
in(178, 85).
in(178, 87).
in(178, 88).
in(178, 90).
in(178, 91).
in(178, 93).
in(178, 101).
in(178, 102).
in(178, 103).
in(178, 105).
in(178, 108).
in(178, 110).
in(178, 115).
in(178, 116).
in(178, 117).
in(178, 122).
in(178, 123).
in(178, 126).
in(179, 1).
in(179, 2).
in(179, 6).
in(179, 7).
in(179, 8).
in(179, 9).
in(179, 11).
in(179, 13).
in(179, 15).
in(179, 18).
in(179, 19).
in(179, 20).
in(179, 21).
in(179, 22).
in(179, 23).
in(179, 25).
in(179, 26).
in(179, 27).
in(179, 30).
in(179, 31).
in(179, 35).
in(179, 37).
in(179, 41).
in(179, 42).
in(179, 45).
in(179, 46).
in(179, 47).
in(179, 54).
in(179, 57).
in(179, 58).
in(179, 61).
in(179, 63).
in(179, 65).
in(179, 66).
in(179, 70).
in(179, 73).
in(179, 74).
in(179, 79).
in(179, 80).
in(179, 87).
in(179, 88).
in(179, 93).
in(179, 94).
in(179, 96).
in(179, 97).
in(179, 100).
in(179, 102).
in(179, 107).
in(179, 109).
in(179, 110).
in(179, 111).
in(179, 112).
in(179, 113).
in(179, 114).
in(179, 116).
in(179, 117).
in(179, 120).
in(179, 124).
in(179, 127).
in(180, 1).
in(180, 2).
in(180, 4).
in(180, 5).
in(180, 7).
in(180, 8).
in(180, 9).
in(180, 13).
in(180, 14).
in(180, 16).
in(180, 19).
in(180, 21).
in(180, 22).
in(180, 25).
in(180, 28).
in(180, 30).
in(180, 31).
in(180, 33).
in(180, 34).
in(180, 35).
in(180, 36).
in(180, 38).
in(180, 39).
in(180, 42).
in(180, 43).
in(180, 45).
in(180, 49).
in(180, 51).
in(180, 54).
in(180, 55).
in(180, 59).
in(180, 62).
in(180, 64).
in(180, 65).
in(180, 69).
in(180, 70).
in(180, 71).
in(180, 72).
in(180, 73).
in(180, 77).
in(180, 79).
in(180, 81).
in(180, 85).
in(180, 87).
in(180, 91).
in(180, 92).
in(180, 93).
in(180, 97).
in(180, 101).
in(180, 103).
in(180, 104).
in(180, 105).
in(180, 106).
in(180, 108).
in(180, 109).
in(180, 110).
in(180, 114).
in(180, 116).
in(180, 117).
in(180, 118).
in(180, 121).
in(180, 124).
in(180, 125).
in(181, 6).
in(181, 9).
in(181, 12).
in(181, 13).
in(181, 15).
in(181, 18).
in(181, 19).
in(181, 24).
in(181, 26).
in(181, 29).
in(181, 31).
in(181, 32).
in(181, 33).
in(181, 34).
in(181, 38).
in(181, 49).
in(181, 51).
in(181, 52).
in(181, 55).
in(181, 58).
in(181, 59).
in(181, 64).
in(181, 70).
in(181, 73).
in(181, 75).
in(181, 78).
in(181, 80).
in(181, 82).
in(181, 83).
in(181, 87).
in(181, 89).
in(181, 96).
in(181, 101).
in(181, 102).
in(181, 103).
in(181, 108).
in(181, 110).
in(181, 112).
in(181, 120).
in(181, 123).
in(181, 124).
in(181, 126).
in(181, 127).
in(182, 2).
in(182, 4).
in(182, 7).
in(182, 8).
in(182, 10).
in(182, 13).
in(182, 14).
in(182, 15).
in(182, 19).
in(182, 21).
in(182, 24).
in(182, 26).
in(182, 27).
in(182, 30).
in(182, 33).
in(182, 34).
in(182, 35).
in(182, 40).
in(182, 41).
in(182, 42).
in(182, 43).
in(182, 44).
in(182, 49).
in(182, 59).
in(182, 60).
in(182, 64).
in(182, 67).
in(182, 68).
in(182, 69).
in(182, 75).
in(182, 85).
in(182, 86).
in(182, 91).
in(182, 92).
in(182, 93).
in(182, 94).
in(182, 95).
in(182, 96).
in(182, 100).
in(182, 101).
in(182, 102).
in(182, 103).
in(182, 105).
in(182, 106).
in(182, 108).
in(182, 109).
in(182, 114).
in(182, 116).
in(182, 118).
in(182, 119).
in(182, 120).
in(182, 121).
in(182, 124).
in(182, 127).
in(183, 1).
in(183, 2).
in(183, 4).
in(183, 5).
in(183, 6).
in(183, 7).
in(183, 8).
in(183, 9).
in(183, 10).
in(183, 13).
in(183, 16).
in(183, 17).
in(183, 18).
in(183, 21).
in(183, 22).
in(183, 24).
in(183, 25).
in(183, 27).
in(183, 29).
in(183, 30).
in(183, 36).
in(183, 37).
in(183, 39).
in(183, 44).
in(183, 48).
in(183, 50).
in(183, 53).
in(183, 55).
in(183, 56).
in(183, 58).
in(183, 60).
in(183, 62).
in(183, 63).
in(183, 64).
in(183, 65).
in(183, 66).
in(183, 69).
in(183, 70).
in(183, 71).
in(183, 74).
in(183, 76).
in(183, 82).
in(183, 84).
in(183, 85).
in(183, 86).
in(183, 87).
in(183, 88).
in(183, 89).
in(183, 94).
in(183, 98).
in(183, 99).
in(183, 102).
in(183, 104).
in(183, 107).
in(183, 108).
in(183, 109).
in(183, 110).
in(183, 111).
in(183, 113).
in(183, 116).
in(183, 117).
in(183, 118).
in(183, 126).
in(184, 1).
in(184, 2).
in(184, 3).
in(184, 5).
in(184, 7).
in(184, 8).
in(184, 9).
in(184, 14).
in(184, 15).
in(184, 16).
in(184, 20).
in(184, 22).
in(184, 26).
in(184, 28).
in(184, 29).
in(184, 33).
in(184, 36).
in(184, 39).
in(184, 41).
in(184, 42).
in(184, 43).
in(184, 48).
in(184, 50).
in(184, 51).
in(184, 52).
in(184, 55).
in(184, 56).
in(184, 57).
in(184, 59).
in(184, 66).
in(184, 69).
in(184, 70).
in(184, 74).
in(184, 75).
in(184, 77).
in(184, 80).
in(184, 82).
in(184, 84).
in(184, 85).
in(184, 89).
in(184, 91).
in(184, 92).
in(184, 96).
in(184, 99).
in(184, 102).
in(184, 103).
in(184, 106).
in(184, 107).
in(184, 108).
in(184, 115).
in(184, 116).
in(184, 118).
in(184, 121).
in(184, 123).
in(184, 125).
in(185, 3).
in(185, 5).
in(185, 6).
in(185, 9).
in(185, 10).
in(185, 11).
in(185, 12).
in(185, 13).
in(185, 15).
in(185, 17).
in(185, 18).
in(185, 19).
in(185, 23).
in(185, 25).
in(185, 26).
in(185, 29).
in(185, 30).
in(185, 32).
in(185, 36).
in(185, 37).
in(185, 44).
in(185, 47).
in(185, 49).
in(185, 53).
in(185, 54).
in(185, 55).
in(185, 57).
in(185, 58).
in(185, 60).
in(185, 61).
in(185, 62).
in(185, 64).
in(185, 66).
in(185, 71).
in(185, 72).
in(185, 75).
in(185, 76).
in(185, 78).
in(185, 79).
in(185, 83).
in(185, 85).
in(185, 86).
in(185, 87).
in(185, 89).
in(185, 92).
in(185, 93).
in(185, 94).
in(185, 95).
in(185, 96).
in(185, 97).
in(185, 98).
in(185, 99).
in(185, 100).
in(185, 101).
in(185, 102).
in(185, 103).
in(185, 104).
in(185, 105).
in(185, 106).
in(185, 107).
in(185, 108).
in(185, 110).
in(185, 112).
in(185, 113).
in(185, 115).
in(185, 116).
in(185, 120).
in(185, 121).
in(185, 124).
in(185, 126).
in(185, 127).
in(186, 3).
in(186, 4).
in(186, 9).
in(186, 10).
in(186, 11).
in(186, 15).
in(186, 16).
in(186, 18).
in(186, 20).
in(186, 27).
in(186, 28).
in(186, 30).
in(186, 36).
in(186, 37).
in(186, 38).
in(186, 43).
in(186, 45).
in(186, 46).
in(186, 47).
in(186, 50).
in(186, 53).
in(186, 54).
in(186, 57).
in(186, 61).
in(186, 62).
in(186, 63).
in(186, 65).
in(186, 71).
in(186, 73).
in(186, 76).
in(186, 79).
in(186, 80).
in(186, 90).
in(186, 92).
in(186, 101).
in(186, 103).
in(186, 104).
in(186, 108).
in(186, 110).
in(186, 115).
in(186, 117).
in(186, 119).
in(186, 120).
in(186, 125).
in(187, 1).
in(187, 2).
in(187, 5).
in(187, 11).
in(187, 14).
in(187, 15).
in(187, 17).
in(187, 20).
in(187, 21).
in(187, 23).
in(187, 24).
in(187, 27).
in(187, 30).
in(187, 31).
in(187, 34).
in(187, 35).
in(187, 36).
in(187, 38).
in(187, 39).
in(187, 40).
in(187, 47).
in(187, 48).
in(187, 50).
in(187, 54).
in(187, 56).
in(187, 58).
in(187, 61).
in(187, 63).
in(187, 68).
in(187, 72).
in(187, 74).
in(187, 76).
in(187, 77).
in(187, 79).
in(187, 83).
in(187, 91).
in(187, 92).
in(187, 94).
in(187, 96).
in(187, 98).
in(187, 102).
in(187, 107).
in(187, 108).
in(187, 111).
in(187, 112).
in(187, 115).
in(187, 118).
in(187, 122).
in(187, 123).
in(187, 125).
in(187, 127).
in(188, 1).
in(188, 2).
in(188, 3).
in(188, 5).
in(188, 8).
in(188, 11).
in(188, 14).
in(188, 16).
in(188, 19).
in(188, 21).
in(188, 23).
in(188, 32).
in(188, 37).
in(188, 38).
in(188, 41).
in(188, 44).
in(188, 46).
in(188, 48).
in(188, 49).
in(188, 50).
in(188, 54).
in(188, 58).
in(188, 59).
in(188, 61).
in(188, 64).
in(188, 65).
in(188, 68).
in(188, 71).
in(188, 73).
in(188, 76).
in(188, 79).
in(188, 81).
in(188, 84).
in(188, 87).
in(188, 88).
in(188, 89).
in(188, 91).
in(188, 93).
in(188, 95).
in(188, 99).
in(188, 110).
in(188, 111).
in(188, 113).
in(188, 121).
in(188, 122).
in(188, 123).
in(188, 124).
in(189, 1).
in(189, 2).
in(189, 4).
in(189, 6).
in(189, 8).
in(189, 9).
in(189, 10).
in(189, 13).
in(189, 20).
in(189, 21).
in(189, 26).
in(189, 30).
in(189, 35).
in(189, 37).
in(189, 40).
in(189, 43).
in(189, 44).
in(189, 45).
in(189, 48).
in(189, 54).
in(189, 56).
in(189, 59).
in(189, 61).
in(189, 62).
in(189, 63).
in(189, 65).
in(189, 73).
in(189, 74).
in(189, 76).
in(189, 77).
in(189, 79).
in(189, 81).
in(189, 82).
in(189, 83).
in(189, 85).
in(189, 86).
in(189, 89).
in(189, 90).
in(189, 91).
in(189, 101).
in(189, 105).
in(189, 113).
in(189, 115).
in(189, 116).
in(189, 117).
in(189, 118).
in(189, 119).
in(189, 127).
in(190, 1).
in(190, 6).
in(190, 8).
in(190, 10).
in(190, 11).
in(190, 13).
in(190, 18).
in(190, 21).
in(190, 22).
in(190, 23).
in(190, 25).
in(190, 26).
in(190, 27).
in(190, 28).
in(190, 30).
in(190, 33).
in(190, 34).
in(190, 35).
in(190, 36).
in(190, 39).
in(190, 42).
in(190, 44).
in(190, 46).
in(190, 47).
in(190, 49).
in(190, 50).
in(190, 52).
in(190, 55).
in(190, 57).
in(190, 65).
in(190, 67).
in(190, 68).
in(190, 70).
in(190, 72).
in(190, 76).
in(190, 78).
in(190, 79).
in(190, 80).
in(190, 82).
in(190, 83).
in(190, 84).
in(190, 86).
in(190, 87).
in(190, 88).
in(190, 89).
in(190, 90).
in(190, 91).
in(190, 93).
in(190, 94).
in(190, 96).
in(190, 97).
in(190, 98).
in(190, 100).
in(190, 103).
in(190, 106).
in(190, 109).
in(190, 110).
in(190, 113).
in(190, 117).
in(190, 118).
in(190, 119).
in(190, 120).
in(190, 122).
in(190, 123).
in(190, 124).
in(191, 1).
in(191, 2).
in(191, 4).
in(191, 7).
in(191, 8).
in(191, 12).
in(191, 13).
in(191, 15).
in(191, 17).
in(191, 18).
in(191, 19).
in(191, 20).
in(191, 21).
in(191, 22).
in(191, 25).
in(191, 27).
in(191, 29).
in(191, 30).
in(191, 31).
in(191, 32).
in(191, 33).
in(191, 36).
in(191, 37).
in(191, 44).
in(191, 50).
in(191, 52).
in(191, 54).
in(191, 57).
in(191, 60).
in(191, 62).
in(191, 63).
in(191, 65).
in(191, 69).
in(191, 71).
in(191, 74).
in(191, 75).
in(191, 77).
in(191, 78).
in(191, 83).
in(191, 84).
in(191, 85).
in(191, 92).
in(191, 94).
in(191, 96).
in(191, 97).
in(191, 101).
in(191, 104).
in(191, 105).
in(191, 108).
in(191, 114).
in(191, 115).
in(191, 117).
in(191, 119).
in(191, 120).
in(191, 121).
in(191, 122).
in(191, 124).
in(191, 127).
in(192, 1).
in(192, 5).
in(192, 6).
in(192, 8).
in(192, 13).
in(192, 16).
in(192, 17).
in(192, 20).
in(192, 22).
in(192, 26).
in(192, 27).
in(192, 29).
in(192, 33).
in(192, 34).
in(192, 35).
in(192, 37).
in(192, 39).
in(192, 40).
in(192, 42).
in(192, 49).
in(192, 51).
in(192, 52).
in(192, 53).
in(192, 56).
in(192, 58).
in(192, 60).
in(192, 61).
in(192, 64).
in(192, 65).
in(192, 67).
in(192, 68).
in(192, 74).
in(192, 75).
in(192, 76).
in(192, 77).
in(192, 80).
in(192, 81).
in(192, 83).
in(192, 86).
in(192, 87).
in(192, 89).
in(192, 90).
in(192, 91).
in(192, 93).
in(192, 94).
in(192, 95).
in(192, 96).
in(192, 97).
in(192, 98).
in(192, 99).
in(192, 100).
in(192, 102).
in(192, 104).
in(192, 106).
in(192, 108).
in(192, 109).
in(192, 110).
in(192, 111).
in(192, 112).
in(192, 113).
in(192, 116).
in(192, 119).
in(192, 120).
in(192, 121).
in(192, 123).
in(192, 124).
in(192, 125).
in(192, 126).
in(193, 4).
in(193, 5).
in(193, 6).
in(193, 9).
in(193, 11).
in(193, 12).
in(193, 14).
in(193, 15).
in(193, 16).
in(193, 17).
in(193, 19).
in(193, 21).
in(193, 23).
in(193, 24).
in(193, 25).
in(193, 26).
in(193, 27).
in(193, 28).
in(193, 29).
in(193, 30).
in(193, 33).
in(193, 36).
in(193, 38).
in(193, 41).
in(193, 49).
in(193, 50).
in(193, 54).
in(193, 55).
in(193, 56).
in(193, 59).
in(193, 60).
in(193, 65).
in(193, 67).
in(193, 68).
in(193, 69).
in(193, 70).
in(193, 72).
in(193, 73).
in(193, 74).
in(193, 78).
in(193, 81).
in(193, 83).
in(193, 84).
in(193, 85).
in(193, 93).
in(193, 96).
in(193, 101).
in(193, 104).
in(193, 105).
in(193, 106).
in(193, 107).
in(193, 108).
in(193, 110).
in(193, 113).
in(193, 114).
in(193, 115).
in(193, 116).
in(193, 119).
in(193, 120).
in(193, 123).
in(193, 124).
in(193, 125).
in(193, 126).
in(194, 2).
in(194, 4).
in(194, 5).
in(194, 6).
in(194, 7).
in(194, 11).
in(194, 16).
in(194, 17).
in(194, 18).
in(194, 21).
in(194, 24).
in(194, 28).
in(194, 31).
in(194, 33).
in(194, 37).
in(194, 40).
in(194, 44).
in(194, 46).
in(194, 47).
in(194, 49).
in(194, 55).
in(194, 56).
in(194, 57).
in(194, 58).
in(194, 59).
in(194, 61).
in(194, 65).
in(194, 68).
in(194, 70).
in(194, 71).
in(194, 76).
in(194, 79).
in(194, 80).
in(194, 81).
in(194, 82).
in(194, 85).
in(194, 88).
in(194, 90).
in(194, 92).
in(194, 93).
in(194, 96).
in(194, 99).
in(194, 106).
in(194, 107).
in(194, 109).
in(194, 114).
in(194, 115).
in(194, 116).
in(194, 118).
in(194, 121).
in(194, 123).
in(194, 125).
in(195, 1).
in(195, 5).
in(195, 6).
in(195, 7).
in(195, 8).
in(195, 11).
in(195, 12).
in(195, 14).
in(195, 15).
in(195, 16).
in(195, 17).
in(195, 18).
in(195, 21).
in(195, 27).
in(195, 28).
in(195, 29).
in(195, 33).
in(195, 35).
in(195, 36).
in(195, 37).
in(195, 38).
in(195, 39).
in(195, 40).
in(195, 41).
in(195, 42).
in(195, 44).
in(195, 45).
in(195, 46).
in(195, 47).
in(195, 49).
in(195, 50).
in(195, 54).
in(195, 57).
in(195, 62).
in(195, 63).
in(195, 65).
in(195, 66).
in(195, 69).
in(195, 70).
in(195, 75).
in(195, 76).
in(195, 83).
in(195, 84).
in(195, 90).
in(195, 92).
in(195, 93).
in(195, 94).
in(195, 95).
in(195, 96).
in(195, 98).
in(195, 100).
in(195, 103).
in(195, 107).
in(195, 111).
in(195, 117).
in(195, 119).
in(195, 120).
in(195, 121).
in(195, 124).
in(195, 125).
in(195, 127).
in(196, 5).
in(196, 7).
in(196, 10).
in(196, 14).
in(196, 17).
in(196, 18).
in(196, 19).
in(196, 22).
in(196, 23).
in(196, 24).
in(196, 28).
in(196, 30).
in(196, 32).
in(196, 35).
in(196, 36).
in(196, 38).
in(196, 39).
in(196, 44).
in(196, 46).
in(196, 47).
in(196, 48).
in(196, 51).
in(196, 53).
in(196, 54).
in(196, 55).
in(196, 56).
in(196, 57).
in(196, 59).
in(196, 60).
in(196, 62).
in(196, 64).
in(196, 66).
in(196, 69).
in(196, 70).
in(196, 73).
in(196, 74).
in(196, 76).
in(196, 77).
in(196, 82).
in(196, 84).
in(196, 85).
in(196, 87).
in(196, 90).
in(196, 93).
in(196, 94).
in(196, 98).
in(196, 101).
in(196, 104).
in(196, 106).
in(196, 107).
in(196, 112).
in(196, 113).
in(196, 118).
in(196, 119).
in(196, 120).
in(196, 121).
in(196, 123).
in(196, 124).
in(196, 125).
in(196, 126).
in(197, 1).
in(197, 2).
in(197, 5).
in(197, 7).
in(197, 8).
in(197, 9).
in(197, 10).
in(197, 13).
in(197, 14).
in(197, 19).
in(197, 20).
in(197, 22).
in(197, 23).
in(197, 24).
in(197, 28).
in(197, 30).
in(197, 31).
in(197, 35).
in(197, 40).
in(197, 41).
in(197, 44).
in(197, 48).
in(197, 49).
in(197, 53).
in(197, 54).
in(197, 55).
in(197, 58).
in(197, 60).
in(197, 61).
in(197, 63).
in(197, 64).
in(197, 66).
in(197, 67).
in(197, 68).
in(197, 70).
in(197, 72).
in(197, 73).
in(197, 75).
in(197, 76).
in(197, 85).
in(197, 87).
in(197, 89).
in(197, 91).
in(197, 92).
in(197, 95).
in(197, 96).
in(197, 98).
in(197, 100).
in(197, 102).
in(197, 104).
in(197, 105).
in(197, 109).
in(197, 110).
in(197, 111).
in(197, 117).
in(197, 119).
in(197, 121).
in(197, 127).
in(198, 1).
in(198, 2).
in(198, 4).
in(198, 5).
in(198, 9).
in(198, 10).
in(198, 12).
in(198, 14).
in(198, 17).
in(198, 19).
in(198, 20).
in(198, 21).
in(198, 25).
in(198, 31).
in(198, 33).
in(198, 34).
in(198, 35).
in(198, 37).
in(198, 39).
in(198, 41).
in(198, 47).
in(198, 48).
in(198, 54).
in(198, 63).
in(198, 64).
in(198, 67).
in(198, 68).
in(198, 70).
in(198, 73).
in(198, 75).
in(198, 76).
in(198, 79).
in(198, 82).
in(198, 83).
in(198, 84).
in(198, 87).
in(198, 89).
in(198, 90).
in(198, 91).
in(198, 99).
in(198, 100).
in(198, 103).
in(198, 104).
in(198, 105).
in(198, 106).
in(198, 107).
in(198, 109).
in(198, 111).
in(198, 112).
in(198, 118).
in(198, 119).
in(198, 120).
in(198, 121).
in(198, 125).
in(199, 2).
in(199, 3).
in(199, 4).
in(199, 8).
in(199, 9).
in(199, 12).
in(199, 18).
in(199, 19).
in(199, 20).
in(199, 21).
in(199, 23).
in(199, 25).
in(199, 26).
in(199, 28).
in(199, 29).
in(199, 30).
in(199, 32).
in(199, 34).
in(199, 36).
in(199, 41).
in(199, 44).
in(199, 45).
in(199, 46).
in(199, 48).
in(199, 49).
in(199, 50).
in(199, 52).
in(199, 53).
in(199, 54).
in(199, 55).
in(199, 57).
in(199, 58).
in(199, 60).
in(199, 64).
in(199, 68).
in(199, 69).
in(199, 70).
in(199, 72).
in(199, 73).
in(199, 74).
in(199, 77).
in(199, 78).
in(199, 79).
in(199, 80).
in(199, 82).
in(199, 84).
in(199, 86).
in(199, 88).
in(199, 91).
in(199, 92).
in(199, 94).
in(199, 96).
in(199, 98).
in(199, 102).
in(199, 104).
in(199, 106).
in(199, 107).
in(199, 110).
in(199, 113).
in(199, 115).
in(199, 117).
in(199, 120).
in(199, 121).
in(199, 122).
in(199, 123).
in(199, 127).
weight(1, 1).
weight(2, 9).
weight(3, 10).
weight(4, 1).
weight(5, 1).
weight(6, 7).
weight(7, 7).
weight(8, 8).
weight(9, 3).
weight(10, 3).
weight(11, 8).
weight(12, 6).
weight(13, 8).
weight(14, 7).
weight(15, 9).
weight(16, 6).
weight(17, 6).
weight(18, 4).
weight(19, 7).
weight(20, 1).
weight(21, 6).
weight(22, 9).
weight(23, 9).
weight(24, 4).
weight(25, 5).
weight(26, 7).
weight(27, 6).
weight(28, 7).
weight(29, 8).
weight(30, 4).
weight(31, 8).
weight(32, 3).
weight(33, 10).
weight(34, 2).
weight(35, 1).
weight(36, 10).
weight(37, 10).
weight(38, 7).
weight(39, 9).
weight(40, 4).
weight(41, 10).
weight(42, 4).
weight(43, 10).
weight(44, 5).
weight(45, 5).
weight(46, 4).
weight(47, 9).
weight(48, 2).
weight(49, 1).
weight(50, 10).
weight(51, 3).
weight(52, 2).
weight(53, 1).
weight(54, 6).
weight(55, 10).
weight(56, 3).
weight(57, 9).
weight(58, 2).
weight(59, 5).
weight(60, 1).
weight(61, 5).
weight(62, 9).
weight(63, 6).
weight(64, 1).
weight(65, 1).
weight(66, 7).
weight(67, 4).
weight(68, 3).
weight(69, 5).
weight(70, 10).
weight(71, 4).
weight(72, 7).
weight(73, 2).
weight(74, 7).
weight(75, 1).
weight(76, 4).
weight(77, 5).
weight(78, 2).
weight(79, 7).
weight(80, 1).
weight(81, 1).
weight(82, 2).
weight(83, 1).
weight(84, 4).
weight(85, 2).
weight(86, 9).
weight(87, 8).
weight(88, 6).
weight(89, 10).
weight(90, 9).
weight(91, 7).
weight(92, 4).
weight(93, 1).
weight(94, 6).
weight(95, 8).
weight(96, 5).
weight(97, 9).
weight(98, 2).
weight(99, 7).
weight(100, 9).
weight(101, 6).
weight(102, 8).
weight(103, 1).
weight(104, 6).
weight(105, 3).
weight(106, 4).
weight(107, 1).
weight(108, 9).
weight(109, 7).
weight(110, 5).
weight(111, 9).
weight(112, 6).
weight(113, 2).
weight(114, 2).
weight(115, 9).
weight(116, 8).
weight(117, 10).
weight(118, 6).
weight(119, 1).
weight(120, 1).
weight(121, 5).
weight(122, 3).
weight(123, 8).
weight(124, 3).
weight(125, 5).
weight(126, 3).
weight(127, 4).
weight(128, 1).
weight(129, 5).
weight(130, 7).
weight(131, 9).
weight(132, 8).
weight(133, 3).
weight(134, 8).
weight(135, 1).
weight(136, 3).
weight(137, 3).
weight(138, 3).
weight(139, 2).
weight(140, 6).
weight(141, 10).
weight(142, 5).
weight(143, 7).
weight(144, 3).
weight(145, 9).
weight(146, 6).
weight(147, 5).
weight(148, 4).
weight(149, 3).
weight(150, 9).
weight(151, 8).
weight(152, 6).
weight(153, 8).
weight(154, 10).
weight(155, 7).
weight(156, 1).
weight(157, 8).
weight(158, 1).
weight(159, 7).
weight(160, 3).
weight(161, 4).
weight(162, 1).
weight(163, 2).
weight(164, 7).
weight(165, 8).
weight(166, 8).
weight(167, 1).
weight(168, 3).
weight(169, 1).
weight(170, 6).
weight(171, 2).
weight(172, 8).
weight(173, 2).
weight(174, 7).
weight(175, 3).
weight(176, 3).
weight(177, 4).
weight(178, 8).
weight(179, 3).
weight(180, 10).
weight(181, 3).
weight(182, 8).
weight(183, 10).
weight(184, 5).
weight(185, 8).
weight(186, 9).
weight(187, 10).
weight(188, 1).
weight(189, 4).
weight(190, 1).
weight(191, 3).
weight(192, 4).
weight(193, 7).
weight(194, 8).
weight(195, 8).
weight(196, 7).
weight(197, 6).
weight(198, 8).
weight(199, 8).

{ choose(S) } :- set(S).
:- choose(S1), choose(S2), S1 < S2, in(S1,E), in(S2,E).
:~ not choose(S), weight(S,W). [W@1,S]
