elem(1..128).
set(1..201).
in(1, 3).
in(1, 6).
in(1, 7).
in(1, 8).
in(1, 9).
in(1, 10).
in(1, 11).
in(1, 13).
in(1, 18).
in(1, 20).
in(1, 22).
in(1, 24).
in(1, 29).
in(1, 30).
in(1, 31).
in(1, 33).
in(1, 34).
in(1, 35).
in(1, 36).
in(1, 37).
in(1, 38).
in(1, 39).
in(1, 40).
in(1, 41).
in(1, 42).
in(1, 43).
in(1, 47).
in(1, 49).
in(1, 50).
in(1, 52).
in(1, 53).
in(1, 54).
in(1, 55).
in(1, 58).
in(1, 59).
in(1, 61).
in(1, 62).
in(1, 63).
in(1, 64).
in(1, 67).
in(1, 68).
in(1, 69).
in(1, 72).
in(1, 76).
in(1, 77).
in(1, 79).
in(1, 80).
in(1, 81).
in(1, 83).
in(1, 86).
in(1, 87).
in(1, 88).
in(1, 96).
in(1, 99).
in(1, 100).
in(1, 101).
in(1, 105).
in(1, 106).
in(1, 109).
in(1, 112).
in(1, 114).
in(1, 115).
in(1, 118).
in(1, 119).
in(1, 120).
in(1, 123).
in(1, 125).
in(2, 4).
in(2, 5).
in(2, 8).
in(2, 10).
in(2, 12).
in(2, 16).
in(2, 20).
in(2, 23).
in(2, 27).
in(2, 29).
in(2, 31).
in(2, 34).
in(2, 38).
in(2, 42).
in(2, 44).
in(2, 45).
in(2, 46).
in(2, 47).
in(2, 49).
in(2, 51).
in(2, 52).
in(2, 54).
in(2, 55).
in(2, 57).
in(2, 58).
in(2, 59).
in(2, 60).
in(2, 64).
in(2, 65).
in(2, 67).
in(2, 68).
in(2, 69).
in(2, 70).
in(2, 71).
in(2, 73).
in(2, 75).
in(2, 76).
in(2, 77).
in(2, 79).
in(2, 80).
in(2, 81).
in(2, 82).
in(2, 83).
in(2, 85).
in(2, 88).
in(2, 89).
in(2, 90).
in(2, 91).
in(2, 92).
in(2, 93).
in(2, 95).
in(2, 96).
in(2, 100).
in(2, 101).
in(2, 104).
in(2, 108).
in(2, 110).
in(2, 113).
in(2, 116).
in(2, 117).
in(2, 121).
in(2, 124).
in(2, 126).
in(2, 127).
in(3, 1).
in(3, 4).
in(3, 5).
in(3, 7).
in(3, 11).
in(3, 14).
in(3, 15).
in(3, 16).
in(3, 17).
in(3, 20).
in(3, 21).
in(3, 22).
in(3, 24).
in(3, 25).
in(3, 26).
in(3, 30).
in(3, 32).
in(3, 34).
in(3, 37).
in(3, 42).
in(3, 46).
in(3, 48).
in(3, 53).
in(3, 54).
in(3, 55).
in(3, 57).
in(3, 58).
in(3, 60).
in(3, 62).
in(3, 63).
in(3, 65).
in(3, 66).
in(3, 67).
in(3, 68).
in(3, 72).
in(3, 74).
in(3, 75).
in(3, 78).
in(3, 81).
in(3, 82).
in(3, 84).
in(3, 87).
in(3, 88).
in(3, 89).
in(3, 91).
in(3, 92).
in(3, 93).
in(3, 96).
in(3, 98).
in(3, 99).
in(3, 100).
in(3, 102).
in(3, 103).
in(3, 105).
in(3, 106).
in(3, 107).
in(3, 108).
in(3, 109).
in(3, 115).
in(3, 117).
in(3, 119).
in(3, 120).
in(3, 125).
in(3, 126).
in(4, 128).
in(4, 2).
in(4, 5).
in(4, 7).
in(4, 9).
in(4, 10).
in(4, 14).
in(4, 19).
in(4, 23).
in(4, 24).
in(4, 25).
in(4, 26).
in(4, 28).
in(4, 30).
in(4, 33).
in(4, 34).
in(4, 35).
in(4, 37).
in(4, 43).
in(4, 44).
in(4, 46).
in(4, 47).
in(4, 50).
in(4, 51).
in(4, 52).
in(4, 53).
in(4, 54).
in(4, 56).
in(4, 58).
in(4, 59).
in(4, 60).
in(4, 63).
in(4, 71).
in(4, 72).
in(4, 74).
in(4, 78).
in(4, 80).
in(4, 87).
in(4, 89).
in(4, 90).
in(4, 94).
in(4, 97).
in(4, 98).
in(4, 99).
in(4, 100).
in(4, 102).
in(4, 105).
in(4, 108).
in(4, 111).
in(4, 112).
in(4, 115).
in(4, 116).
in(4, 121).
in(4, 123).
in(4, 124).
in(4, 125).
in(5, 128).
in(5, 1).
in(5, 4).
in(5, 5).
in(5, 6).
in(5, 7).
in(5, 9).
in(5, 10).
in(5, 11).
in(5, 14).
in(5, 20).
in(5, 22).
in(5, 23).
in(5, 26).
in(5, 27).
in(5, 28).
in(5, 34).
in(5, 35).
in(5, 36).
in(5, 38).
in(5, 42).
in(5, 45).
in(5, 46).
in(5, 49).
in(5, 53).
in(5, 56).
in(5, 59).
in(5, 61).
in(5, 63).
in(5, 67).
in(5, 68).
in(5, 70).
in(5, 72).
in(5, 73).
in(5, 76).
in(5, 77).
in(5, 79).
in(5, 80).
in(5, 87).
in(5, 88).
in(5, 90).
in(5, 93).
in(5, 94).
in(5, 96).
in(5, 97).
in(5, 100).
in(5, 101).
in(5, 106).
in(5, 107).
in(5, 109).
in(5, 111).
in(5, 113).
in(5, 116).
in(5, 117).
in(5, 118).
in(5, 120).
in(5, 122).
in(5, 126).
in(5, 127).
in(6, 1).
in(6, 3).
in(6, 5).
in(6, 8).
in(6, 9).
in(6, 10).
in(6, 11).
in(6, 15).
in(6, 16).
in(6, 17).
in(6, 22).
in(6, 24).
in(6, 27).
in(6, 30).
in(6, 31).
in(6, 33).
in(6, 34).
in(6, 37).
in(6, 39).
in(6, 43).
in(6, 46).
in(6, 47).
in(6, 48).
in(6, 49).
in(6, 50).
in(6, 51).
in(6, 53).
in(6, 55).
in(6, 59).
in(6, 60).
in(6, 62).
in(6, 63).
in(6, 65).
in(6, 68).
in(6, 69).
in(6, 70).
in(6, 76).
in(6, 77).
in(6, 78).
in(6, 80).
in(6, 81).
in(6, 83).
in(6, 88).
in(6, 89).
in(6, 91).
in(6, 92).
in(6, 94).
in(6, 97).
in(6, 98).
in(6, 99).
in(6, 105).
in(6, 109).
in(6, 110).
in(6, 113).
in(6, 114).
in(6, 115).
in(6, 119).
in(6, 123).
in(6, 124).
in(6, 126).
in(6, 127).
in(7, 128).
in(7, 2).
in(7, 3).
in(7, 4).
in(7, 7).
in(7, 10).
in(7, 12).
in(7, 13).
in(7, 14).
in(7, 15).
in(7, 18).
in(7, 21).
in(7, 23).
in(7, 24).
in(7, 25).
in(7, 26).
in(7, 27).
in(7, 28).
in(7, 31).
in(7, 32).
in(7, 36).
in(7, 37).
in(7, 38).
in(7, 40).
in(7, 42).
in(7, 43).
in(7, 44).
in(7, 45).
in(7, 49).
in(7, 50).
in(7, 52).
in(7, 53).
in(7, 54).
in(7, 57).
in(7, 59).
in(7, 60).
in(7, 62).
in(7, 65).
in(7, 66).
in(7, 67).
in(7, 68).
in(7, 69).
in(7, 71).
in(7, 78).
in(7, 79).
in(7, 81).
in(7, 82).
in(7, 86).
in(7, 89).
in(7, 95).
in(7, 98).
in(7, 99).
in(7, 100).
in(7, 105).
in(7, 116).
in(7, 117).
in(7, 120).
in(7, 122).
in(7, 123).
in(7, 124).
in(7, 125).
in(7, 126).
in(7, 127).
in(8, 3).
in(8, 6).
in(8, 7).
in(8, 8).
in(8, 10).
in(8, 11).
in(8, 16).
in(8, 17).
in(8, 19).
in(8, 20).
in(8, 21).
in(8, 22).
in(8, 27).
in(8, 33).
in(8, 36).
in(8, 37).
in(8, 39).
in(8, 40).
in(8, 42).
in(8, 43).
in(8, 45).
in(8, 47).
in(8, 50).
in(8, 51).
in(8, 52).
in(8, 55).
in(8, 56).
in(8, 57).
in(8, 58).
in(8, 59).
in(8, 60).
in(8, 64).
in(8, 66).
in(8, 67).
in(8, 69).
in(8, 72).
in(8, 74).
in(8, 77).
in(8, 80).
in(8, 84).
in(8, 86).
in(8, 89).
in(8, 90).
in(8, 91).
in(8, 92).
in(8, 95).
in(8, 97).
in(8, 101).
in(8, 102).
in(8, 103).
in(8, 108).
in(8, 116).
in(8, 122).
in(8, 123).
in(8, 124).
in(8, 126).
in(8, 127).
in(9, 128).
in(9, 1).
in(9, 2).
in(9, 5).
in(9, 7).
in(9, 15).
in(9, 16).
in(9, 19).
in(9, 20).
in(9, 21).
in(9, 23).
in(9, 24).
in(9, 27).
in(9, 33).
in(9, 35).
in(9, 38).
in(9, 41).
in(9, 44).
in(9, 48).
in(9, 50).
in(9, 51).
in(9, 52).
in(9, 54).
in(9, 57).
in(9, 58).
in(9, 59).
in(9, 61).
in(9, 64).
in(9, 65).
in(9, 66).
in(9, 71).
in(9, 72).
in(9, 73).
in(9, 74).
in(9, 77).
in(9, 81).
in(9, 85).
in(9, 88).
in(9, 90).
in(9, 91).
in(9, 92).
in(9, 93).
in(9, 97).
in(9, 99).
in(9, 102).
in(9, 105).
in(9, 106).
in(9, 107).
in(9, 109).
in(9, 111).
in(9, 113).
in(9, 114).
in(9, 115).
in(9, 116).
in(9, 119).
in(9, 120).
in(9, 123).
in(9, 124).
in(10, 1).
in(10, 3).
in(10, 5).
in(10, 10).
in(10, 11).
in(10, 12).
in(10, 16).
in(10, 17).
in(10, 20).
in(10, 22).
in(10, 28).
in(10, 30).
in(10, 40).
in(10, 43).
in(10, 44).
in(10, 48).
in(10, 50).
in(10, 53).
in(10, 54).
in(10, 56).
in(10, 58).
in(10, 60).
in(10, 62).
in(10, 64).
in(10, 65).
in(10, 66).
in(10, 67).
in(10, 69).
in(10, 70).
in(10, 73).
in(10, 75).
in(10, 78).
in(10, 80).
in(10, 82).
in(10, 83).
in(10, 84).
in(10, 85).
in(10, 88).
in(10, 89).
in(10, 93).
in(10, 94).
in(10, 95).
in(10, 98).
in(10, 99).
in(10, 102).
in(10, 105).
in(10, 109).
in(10, 111).
in(10, 117).
in(10, 118).
in(10, 121).
in(10, 124).
in(10, 127).
in(11, 1).
in(11, 2).
in(11, 3).
in(11, 5).
in(11, 6).
in(11, 8).
in(11, 10).
in(11, 13).
in(11, 17).
in(11, 20).
in(11, 23).
in(11, 24).
in(11, 26).
in(11, 29).
in(11, 32).
in(11, 33).
in(11, 34).
in(11, 35).
in(11, 36).
in(11, 38).
in(11, 41).
in(11, 45).
in(11, 50).
in(11, 51).
in(11, 55).
in(11, 57).
in(11, 60).
in(11, 61).
in(11, 63).
in(11, 65).
in(11, 66).
in(11, 67).
in(11, 69).
in(11, 70).
in(11, 73).
in(11, 74).
in(11, 76).
in(11, 78).
in(11, 79).
in(11, 80).
in(11, 82).
in(11, 83).
in(11, 85).
in(11, 89).
in(11, 91).
in(11, 92).
in(11, 94).
in(11, 95).
in(11, 97).
in(11, 98).
in(11, 99).
in(11, 101).
in(11, 103).
in(11, 105).
in(11, 106).
in(11, 107).
in(11, 113).
in(11, 115).
in(11, 118).
in(11, 119).
in(11, 120).
in(11, 127).
in(12, 128).
in(12, 1).
in(12, 3).
in(12, 6).
in(12, 7).
in(12, 8).
in(12, 10).
in(12, 11).
in(12, 13).
in(12, 15).
in(12, 19).
in(12, 20).
in(12, 23).
in(12, 25).
in(12, 26).
in(12, 27).
in(12, 28).
in(12, 32).
in(12, 33).
in(12, 35).
in(12, 39).
in(12, 47).
in(12, 52).
in(12, 53).
in(12, 54).
in(12, 55).
in(12, 56).
in(12, 62).
in(12, 63).
in(12, 64).
in(12, 66).
in(12, 68).
in(12, 69).
in(12, 72).
in(12, 73).
in(12, 74).
in(12, 75).
in(12, 76).
in(12, 78).
in(12, 79).
in(12, 80).
in(12, 81).
in(12, 82).
in(12, 85).
in(12, 87).
in(12, 88).
in(12, 97).
in(12, 99).
in(12, 100).
in(12, 102).
in(12, 104).
in(12, 107).
in(12, 109).
in(12, 110).
in(12, 114).
in(12, 117).
in(12, 120).
in(12, 121).
in(12, 124).
in(12, 125).
in(12, 126).
in(12, 127).
in(13, 128).
in(13, 2).
in(13, 3).
in(13, 4).
in(13, 5).
in(13, 6).
in(13, 7).
in(13, 8).
in(13, 10).
in(13, 12).
in(13, 14).
in(13, 15).
in(13, 16).
in(13, 18).
in(13, 20).
in(13, 21).
in(13, 22).
in(13, 25).
in(13, 26).
in(13, 27).
in(13, 31).
in(13, 32).
in(13, 33).
in(13, 34).
in(13, 38).
in(13, 42).
in(13, 43).
in(13, 46).
in(13, 47).
in(13, 48).
in(13, 49).
in(13, 52).
in(13, 54).
in(13, 58).
in(13, 59).
in(13, 61).
in(13, 62).
in(13, 67).
in(13, 71).
in(13, 72).
in(13, 73).
in(13, 79).
in(13, 84).
in(13, 87).
in(13, 92).
in(13, 93).
in(13, 94).
in(13, 95).
in(13, 97).
in(13, 98).
in(13, 100).
in(13, 101).
in(13, 106).
in(13, 107).
in(13, 108).
in(13, 110).
in(13, 113).
in(13, 115).
in(13, 118).
in(13, 119).
in(13, 120).
in(13, 122).
in(13, 126).
in(14, 128).
in(14, 1).
in(14, 2).
in(14, 4).
in(14, 5).
in(14, 6).
in(14, 8).
in(14, 12).
in(14, 15).
in(14, 16).
in(14, 19).
in(14, 20).
in(14, 24).
in(14, 25).
in(14, 33).
in(14, 35).
in(14, 37).
in(14, 40).
in(14, 41).
in(14, 42).
in(14, 44).
in(14, 45).
in(14, 47).
in(14, 48).
in(14, 52).
in(14, 53).
in(14, 56).
in(14, 58).
in(14, 60).
in(14, 64).
in(14, 66).
in(14, 67).
in(14, 68).
in(14, 71).
in(14, 72).
in(14, 74).
in(14, 76).
in(14, 90).
in(14, 91).
in(14, 92).
in(14, 94).
in(14, 97).
in(14, 98).
in(14, 101).
in(14, 102).
in(14, 104).
in(14, 106).
in(14, 110).
in(14, 112).
in(14, 113).
in(14, 115).
in(14, 116).
in(14, 117).
in(14, 119).
in(14, 120).
in(14, 126).
in(15, 3).
in(15, 4).
in(15, 5).
in(15, 12).
in(15, 13).
in(15, 18).
in(15, 19).
in(15, 20).
in(15, 23).
in(15, 28).
in(15, 29).
in(15, 32).
in(15, 33).
in(15, 35).
in(15, 36).
in(15, 39).
in(15, 44).
in(15, 51).
in(15, 52).
in(15, 53).
in(15, 55).
in(15, 56).
in(15, 59).
in(15, 60).
in(15, 61).
in(15, 63).
in(15, 64).
in(15, 66).
in(15, 68).
in(15, 69).
in(15, 71).
in(15, 73).
in(15, 74).
in(15, 77).
in(15, 78).
in(15, 82).
in(15, 88).
in(15, 93).
in(15, 95).
in(15, 96).
in(15, 97).
in(15, 98).
in(15, 99).
in(15, 101).
in(15, 102).
in(15, 105).
in(15, 106).
in(15, 108).
in(15, 109).
in(15, 115).
in(15, 116).
in(15, 117).
in(15, 118).
in(15, 122).
in(15, 123).
in(15, 125).
in(15, 127).
in(16, 2).
in(16, 5).
in(16, 6).
in(16, 7).
in(16, 10).
in(16, 11).
in(16, 12).
in(16, 13).
in(16, 17).
in(16, 18).
in(16, 20).
in(16, 22).
in(16, 23).
in(16, 24).
in(16, 26).
in(16, 27).
in(16, 29).
in(16, 30).
in(16, 31).
in(16, 32).
in(16, 35).
in(16, 37).
in(16, 38).
in(16, 41).
in(16, 42).
in(16, 48).
in(16, 51).
in(16, 53).
in(16, 54).
in(16, 56).
in(16, 57).
in(16, 61).
in(16, 63).
in(16, 65).
in(16, 67).
in(16, 70).
in(16, 73).
in(16, 79).
in(16, 81).
in(16, 83).
in(16, 84).
in(16, 86).
in(16, 88).
in(16, 90).
in(16, 91).
in(16, 92).
in(16, 94).
in(16, 95).
in(16, 97).
in(16, 98).
in(16, 99).
in(16, 101).
in(16, 102).
in(16, 104).
in(16, 105).
in(16, 106).
in(16, 110).
in(16, 113).
in(16, 119).
in(16, 120).
in(16, 123).
in(16, 124).
in(17, 5).
in(17, 8).
in(17, 9).
in(17, 15).
in(17, 17).
in(17, 19).
in(17, 20).
in(17, 21).
in(17, 22).
in(17, 28).
in(17, 30).
in(17, 33).
in(17, 34).
in(17, 35).
in(17, 36).
in(17, 39).
in(17, 46).
in(17, 50).
in(17, 51).
in(17, 52).
in(17, 54).
in(17, 57).
in(17, 58).
in(17, 59).
in(17, 60).
in(17, 62).
in(17, 63).
in(17, 65).
in(17, 68).
in(17, 70).
in(17, 71).
in(17, 72).
in(17, 75).
in(17, 76).
in(17, 80).
in(17, 81).
in(17, 82).
in(17, 83).
in(17, 84).
in(17, 85).
in(17, 86).
in(17, 87).
in(17, 88).
in(17, 89).
in(17, 95).
in(17, 97).
in(17, 98).
in(17, 100).
in(17, 103).
in(17, 104).
in(17, 105).
in(17, 107).
in(17, 111).
in(17, 112).
in(17, 113).
in(17, 119).
in(17, 121).
in(17, 122).
in(17, 123).
in(18, 4).
in(18, 6).
in(18, 9).
in(18, 11).
in(18, 14).
in(18, 15).
in(18, 16).
in(18, 19).
in(18, 20).
in(18, 22).
in(18, 24).
in(18, 27).
in(18, 31).
in(18, 32).
in(18, 34).
in(18, 37).
in(18, 38).
in(18, 41).
in(18, 42).
in(18, 44).
in(18, 45).
in(18, 47).
in(18, 48).
in(18, 50).
in(18, 51).
in(18, 53).
in(18, 54).
in(18, 57).
in(18, 58).
in(18, 61).
in(18, 64).
in(18, 65).
in(18, 69).
in(18, 73).
in(18, 75).
in(18, 76).
in(18, 81).
in(18, 84).
in(18, 85).
in(18, 86).
in(18, 87).
in(18, 88).
in(18, 92).
in(18, 95).
in(18, 100).
in(18, 105).
in(18, 107).
in(18, 111).
in(18, 113).
in(18, 114).
in(18, 115).
in(18, 116).
in(18, 118).
in(18, 121).
in(18, 123).
in(18, 124).
in(18, 125).
in(18, 126).
in(18, 127).
in(19, 3).
in(19, 4).
in(19, 8).
in(19, 9).
in(19, 10).
in(19, 12).
in(19, 17).
in(19, 18).
in(19, 19).
in(19, 20).
in(19, 25).
in(19, 26).
in(19, 27).
in(19, 29).
in(19, 30).
in(19, 31).
in(19, 32).
in(19, 33).
in(19, 34).
in(19, 35).
in(19, 36).
in(19, 39).
in(19, 40).
in(19, 42).
in(19, 49).
in(19, 50).
in(19, 51).
in(19, 52).
in(19, 55).
in(19, 59).
in(19, 60).
in(19, 61).
in(19, 62).
in(19, 65).
in(19, 66).
in(19, 67).
in(19, 69).
in(19, 75).
in(19, 76).
in(19, 77).
in(19, 78).
in(19, 79).
in(19, 80).
in(19, 83).
in(19, 86).
in(19, 87).
in(19, 89).
in(19, 91).
in(19, 94).
in(19, 96).
in(19, 98).
in(19, 100).
in(19, 104).
in(19, 106).
in(19, 108).
in(19, 109).
in(19, 112).
in(19, 113).
in(19, 114).
in(19, 116).
in(19, 117).
in(19, 118).
in(19, 119).
in(19, 122).
in(19, 123).
in(19, 124).
in(19, 125).
in(19, 126).
in(19, 127).
in(20, 1).
in(20, 3).
in(20, 7).
in(20, 14).
in(20, 15).
in(20, 17).
in(20, 18).
in(20, 20).
in(20, 21).
in(20, 27).
in(20, 33).
in(20, 34).
in(20, 36).
in(20, 37).
in(20, 38).
in(20, 42).
in(20, 43).
in(20, 47).
in(20, 49).
in(20, 51).
in(20, 52).
in(20, 54).
in(20, 56).
in(20, 58).
in(20, 62).
in(20, 64).
in(20, 65).
in(20, 66).
in(20, 68).
in(20, 73).
in(20, 74).
in(20, 75).
in(20, 76).
in(20, 85).
in(20, 90).
in(20, 96).
in(20, 98).
in(20, 99).
in(20, 101).
in(20, 104).
in(20, 108).
in(20, 109).
in(20, 110).
in(20, 114).
in(20, 115).
in(20, 116).
in(20, 118).
in(20, 120).
in(20, 121).
in(20, 123).
in(20, 124).
in(20, 126).
in(21, 128).
in(21, 4).
in(21, 5).
in(21, 6).
in(21, 8).
in(21, 9).
in(21, 10).
in(21, 11).
in(21, 13).
in(21, 14).
in(21, 15).
in(21, 18).
in(21, 21).
in(21, 23).
in(21, 24).
in(21, 26).
in(21, 27).
in(21, 32).
in(21, 34).
in(21, 35).
in(21, 37).
in(21, 41).
in(21, 45).
in(21, 49).
in(21, 50).
in(21, 57).
in(21, 58).
in(21, 59).
in(21, 61).
in(21, 62).
in(21, 65).
in(21, 67).
in(21, 72).
in(21, 73).
in(21, 74).
in(21, 75).
in(21, 82).
in(21, 83).
in(21, 86).
in(21, 91).
in(21, 92).
in(21, 93).
in(21, 94).
in(21, 98).
in(21, 99).
in(21, 100).
in(21, 101).
in(21, 102).
in(21, 103).
in(21, 104).
in(21, 107).
in(21, 109).
in(21, 110).
in(21, 111).
in(21, 115).
in(21, 116).
in(21, 119).
in(21, 120).
in(21, 121).
in(21, 122).
in(21, 125).
in(21, 126).
in(22, 1).
in(22, 3).
in(22, 6).
in(22, 8).
in(22, 11).
in(22, 13).
in(22, 17).
in(22, 20).
in(22, 21).
in(22, 22).
in(22, 23).
in(22, 28).
in(22, 29).
in(22, 32).
in(22, 33).
in(22, 37).
in(22, 41).
in(22, 44).
in(22, 46).
in(22, 48).
in(22, 51).
in(22, 55).
in(22, 58).
in(22, 59).
in(22, 60).
in(22, 65).
in(22, 66).
in(22, 67).
in(22, 69).
in(22, 70).
in(22, 74).
in(22, 75).
in(22, 87).
in(22, 88).
in(22, 89).
in(22, 90).
in(22, 95).
in(22, 96).
in(22, 99).
in(22, 105).
in(22, 109).
in(22, 110).
in(22, 118).
in(22, 122).
in(22, 123).
in(22, 124).
in(22, 125).
in(23, 128).
in(23, 1).
in(23, 2).
in(23, 7).
in(23, 13).
in(23, 15).
in(23, 16).
in(23, 20).
in(23, 21).
in(23, 24).
in(23, 26).
in(23, 32).
in(23, 38).
in(23, 41).
in(23, 43).
in(23, 44).
in(23, 51).
in(23, 52).
in(23, 54).
in(23, 58).
in(23, 60).
in(23, 61).
in(23, 63).
in(23, 66).
in(23, 68).
in(23, 69).
in(23, 71).
in(23, 73).
in(23, 74).
in(23, 81).
in(23, 85).
in(23, 90).
in(23, 91).
in(23, 93).
in(23, 94).
in(23, 97).
in(23, 98).
in(23, 100).
in(23, 101).
in(23, 102).
in(23, 104).
in(23, 106).
in(23, 107).
in(23, 108).
in(23, 110).
in(23, 111).
in(23, 112).
in(23, 114).
in(23, 117).
in(23, 124).
in(23, 126).
in(23, 127).
in(24, 2).
in(24, 4).
in(24, 8).
in(24, 11).
in(24, 12).
in(24, 14).
in(24, 15).
in(24, 16).
in(24, 18).
in(24, 21).
in(24, 22).
in(24, 24).
in(24, 25).
in(24, 28).
in(24, 32).
in(24, 33).
in(24, 37).
in(24, 38).
in(24, 39).
in(24, 40).
in(24, 41).
in(24, 42).
in(24, 45).
in(24, 47).
in(24, 49).
in(24, 51).
in(24, 52).
in(24, 55).
in(24, 58).
in(24, 60).
in(24, 61).
in(24, 62).
in(24, 68).
in(24, 69).
in(24, 71).
in(24, 72).
in(24, 73).
in(24, 74).
in(24, 75).
in(24, 76).
in(24, 77).
in(24, 80).
in(24, 82).
in(24, 83).
in(24, 84).
in(24, 90).
in(24, 92).
in(24, 98).
in(24, 101).
in(24, 102).
in(24, 104).
in(24, 107).
in(24, 108).
in(24, 110).
in(24, 111).
in(24, 114).
in(24, 115).
in(24, 116).
in(24, 118).
in(24, 119).
in(24, 120).
in(24, 121).
in(24, 122).
in(24, 123).
in(24, 124).
in(25, 3).
in(25, 12).
in(25, 16).
in(25, 19).
in(25, 20).
in(25, 26).
in(25, 32).
in(25, 34).
in(25, 36).
in(25, 40).
in(25, 41).
in(25, 45).
in(25, 46).
in(25, 48).
in(25, 49).
in(25, 50).
in(25, 52).
in(25, 53).
in(25, 54).
in(25, 55).
in(25, 56).
in(25, 57).
in(25, 59).
in(25, 60).
in(25, 63).
in(25, 66).
in(25, 71).
in(25, 72).
in(25, 77).
in(25, 81).
in(25, 82).
in(25, 83).
in(25, 84).
in(25, 85).
in(25, 86).
in(25, 87).
in(25, 94).
in(25, 99).
in(25, 101).
in(25, 102).
in(25, 104).
in(25, 108).
in(25, 110).
in(25, 111).
in(25, 112).
in(25, 114).
in(25, 116).
in(25, 120).
in(25, 121).
in(25, 123).
in(25, 124).
in(25, 126).
in(26, 128).
in(26, 1).
in(26, 2).
in(26, 8).
in(26, 9).
in(26, 14).
in(26, 15).
in(26, 19).
in(26, 21).
in(26, 22).
in(26, 23).
in(26, 25).
in(26, 27).
in(26, 28).
in(26, 29).
in(26, 32).
in(26, 35).
in(26, 37).
in(26, 40).
in(26, 42).
in(26, 43).
in(26, 44).
in(26, 45).
in(26, 46).
in(26, 48).
in(26, 52).
in(26, 54).
in(26, 55).
in(26, 61).
in(26, 63).
in(26, 64).
in(26, 66).
in(26, 67).
in(26, 68).
in(26, 71).
in(26, 73).
in(26, 74).
in(26, 77).
in(26, 78).
in(26, 80).
in(26, 81).
in(26, 82).
in(26, 83).
in(26, 85).
in(26, 87).
in(26, 93).
in(26, 98).
in(26, 99).
in(26, 100).
in(26, 103).
in(26, 105).
in(26, 107).
in(26, 109).
in(26, 110).
in(26, 111).
in(26, 117).
in(26, 118).
in(26, 124).
in(26, 125).
in(26, 126).
in(27, 1).
in(27, 2).
in(27, 7).
in(27, 8).
in(27, 11).
in(27, 12).
in(27, 14).
in(27, 22).
in(27, 24).
in(27, 30).
in(27, 32).
in(27, 34).
in(27, 35).
in(27, 37).
in(27, 45).
in(27, 47).
in(27, 48).
in(27, 49).
in(27, 51).
in(27, 54).
in(27, 57).
in(27, 59).
in(27, 60).
in(27, 64).
in(27, 67).
in(27, 69).
in(27, 71).
in(27, 74).
in(27, 76).
in(27, 77).
in(27, 79).
in(27, 89).
in(27, 92).
in(27, 95).
in(27, 96).
in(27, 98).
in(27, 100).
in(27, 101).
in(27, 103).
in(27, 105).
in(27, 106).
in(27, 109).
in(27, 111).
in(27, 113).
in(27, 114).
in(27, 117).
in(27, 118).
in(27, 120).
in(27, 122).
in(28, 2).
in(28, 5).
in(28, 6).
in(28, 11).
in(28, 12).
in(28, 18).
in(28, 20).
in(28, 23).
in(28, 25).
in(28, 27).
in(28, 28).
in(28, 29).
in(28, 30).
in(28, 33).
in(28, 35).
in(28, 37).
in(28, 39).
in(28, 41).
in(28, 43).
in(28, 46).
in(28, 52).
in(28, 53).
in(28, 55).
in(28, 59).
in(28, 61).
in(28, 63).
in(28, 64).
in(28, 68).
in(28, 69).
in(28, 76).
in(28, 78).
in(28, 81).
in(28, 82).
in(28, 84).
in(28, 86).
in(28, 87).
in(28, 91).
in(28, 92).
in(28, 95).
in(28, 97).
in(28, 103).
in(28, 106).
in(28, 108).
in(28, 109).
in(28, 110).
in(28, 111).
in(28, 117).
in(28, 119).
in(28, 120).
in(28, 122).
in(28, 123).
in(28, 126).
in(29, 1).
in(29, 2).
in(29, 5).
in(29, 6).
in(29, 8).
in(29, 9).
in(29, 10).
in(29, 12).
in(29, 14).
in(29, 15).
in(29, 17).
in(29, 18).
in(29, 19).
in(29, 20).
in(29, 23).
in(29, 24).
in(29, 27).
in(29, 31).
in(29, 32).
in(29, 33).
in(29, 37).
in(29, 38).
in(29, 40).
in(29, 42).
in(29, 44).
in(29, 47).
in(29, 48).
in(29, 52).
in(29, 53).
in(29, 54).
in(29, 55).
in(29, 58).
in(29, 59).
in(29, 64).
in(29, 65).
in(29, 70).
in(29, 72).
in(29, 75).
in(29, 76).
in(29, 78).
in(29, 79).
in(29, 81).
in(29, 82).
in(29, 83).
in(29, 84).
in(29, 85).
in(29, 87).
in(29, 91).
in(29, 94).
in(29, 96).
in(29, 100).
in(29, 102).
in(29, 104).
in(29, 106).
in(29, 107).
in(29, 108).
in(29, 109).
in(29, 111).
in(29, 112).
in(29, 113).
in(29, 116).
in(29, 118).
in(29, 123).
in(29, 126).
in(29, 127).
in(30, 128).
in(30, 2).
in(30, 3).
in(30, 7).
in(30, 9).
in(30, 12).
in(30, 13).
in(30, 15).
in(30, 16).
in(30, 18).
in(30, 24).
in(30, 25).
in(30, 26).
in(30, 29).
in(30, 33).
in(30, 34).
in(30, 35).
in(30, 36).
in(30, 40).
in(30, 42).
in(30, 45).
in(30, 47).
in(30, 51).
in(30, 54).
in(30, 57).
in(30, 58).
in(30, 59).
in(30, 60).
in(30, 64).
in(30, 65).
in(30, 68).
in(30, 72).
in(30, 73).
in(30, 74).
in(30, 76).
in(30, 77).
in(30, 78).
in(30, 80).
in(30, 83).
in(30, 84).
in(30, 85).
in(30, 86).
in(30, 87).
in(30, 88).
in(30, 89).
in(30, 90).
in(30, 93).
in(30, 94).
in(30, 95).
in(30, 96).
in(30, 99).
in(30, 100).
in(30, 104).
in(30, 107).
in(30, 112).
in(30, 115).
in(30, 119).
in(30, 121).
in(30, 123).
in(30, 125).
in(31, 128).
in(31, 1).
in(31, 2).
in(31, 4).
in(31, 5).
in(31, 6).
in(31, 8).
in(31, 10).
in(31, 16).
in(31, 17).
in(31, 19).
in(31, 21).
in(31, 24).
in(31, 25).
in(31, 27).
in(31, 28).
in(31, 32).
in(31, 33).
in(31, 34).
in(31, 35).
in(31, 37).
in(31, 43).
in(31, 46).
in(31, 48).
in(31, 49).
in(31, 52).
in(31, 53).
in(31, 58).
in(31, 60).
in(31, 61).
in(31, 63).
in(31, 65).
in(31, 67).
in(31, 69).
in(31, 73).
in(31, 74).
in(31, 75).
in(31, 78).
in(31, 81).
in(31, 86).
in(31, 89).
in(31, 91).
in(31, 93).
in(31, 95).
in(31, 97).
in(31, 98).
in(31, 103).
in(31, 104).
in(31, 105).
in(31, 109).
in(31, 113).
in(31, 115).
in(31, 118).
in(31, 120).
in(31, 122).
in(31, 123).
in(32, 128).
in(32, 1).
in(32, 3).
in(32, 5).
in(32, 10).
in(32, 11).
in(32, 12).
in(32, 14).
in(32, 16).
in(32, 17).
in(32, 18).
in(32, 19).
in(32, 21).
in(32, 22).
in(32, 23).
in(32, 28).
in(32, 31).
in(32, 33).
in(32, 35).
in(32, 36).
in(32, 37).
in(32, 38).
in(32, 40).
in(32, 41).
in(32, 43).
in(32, 44).
in(32, 45).
in(32, 47).
in(32, 49).
in(32, 50).
in(32, 51).
in(32, 53).
in(32, 56).
in(32, 57).
in(32, 58).
in(32, 61).
in(32, 63).
in(32, 64).
in(32, 66).
in(32, 67).
in(32, 74).
in(32, 75).
in(32, 76).
in(32, 77).
in(32, 78).
in(32, 80).
in(32, 82).
in(32, 84).
in(32, 85).
in(32, 87).
in(32, 89).
in(32, 90).
in(32, 93).
in(32, 96).
in(32, 97).
in(32, 98).
in(32, 100).
in(32, 101).
in(32, 102).
in(32, 110).
in(32, 113).
in(32, 115).
in(32, 116).
in(32, 117).
in(32, 118).
in(32, 120).
in(32, 121).
in(33, 128).
in(33, 1).
in(33, 4).
in(33, 5).
in(33, 7).
in(33, 12).
in(33, 13).
in(33, 14).
in(33, 15).
in(33, 16).
in(33, 17).
in(33, 22).
in(33, 25).
in(33, 26).
in(33, 27).
in(33, 28).
in(33, 31).
in(33, 32).
in(33, 36).
in(33, 38).
in(33, 46).
in(33, 47).
in(33, 50).
in(33, 51).
in(33, 54).
in(33, 56).
in(33, 61).
in(33, 63).
in(33, 65).
in(33, 68).
in(33, 71).
in(33, 72).
in(33, 73).
in(33, 76).
in(33, 82).
in(33, 84).
in(33, 85).
in(33, 86).
in(33, 88).
in(33, 91).
in(33, 92).
in(33, 96).
in(33, 97).
in(33, 99).
in(33, 100).
in(33, 101).
in(33, 102).
in(33, 103).
in(33, 108).
in(33, 109).
in(33, 114).
in(33, 120).
in(33, 123).
in(33, 124).
in(33, 125).
in(33, 126).
in(33, 127).
in(34, 128).
in(34, 3).
in(34, 5).
in(34, 6).
in(34, 8).
in(34, 9).
in(34, 12).
in(34, 15).
in(34, 16).
in(34, 18).
in(34, 19).
in(34, 23).
in(34, 25).
in(34, 26).
in(34, 27).
in(34, 29).
in(34, 30).
in(34, 32).
in(34, 36).
in(34, 39).
in(34, 40).
in(34, 45).
in(34, 46).
in(34, 47).
in(34, 48).
in(34, 50).
in(34, 51).
in(34, 53).
in(34, 55).
in(34, 61).
in(34, 62).
in(34, 63).
in(34, 65).
in(34, 66).
in(34, 67).
in(34, 69).
in(34, 70).
in(34, 72).
in(34, 74).
in(34, 77).
in(34, 78).
in(34, 80).
in(34, 81).
in(34, 82).
in(34, 83).
in(34, 89).
in(34, 90).
in(34, 91).
in(34, 93).
in(34, 95).
in(34, 99).
in(34, 101).
in(34, 105).
in(34, 115).
in(34, 117).
in(34, 118).
in(34, 122).
in(34, 125).
in(35, 128).
in(35, 1).
in(35, 4).
in(35, 5).
in(35, 8).
in(35, 9).
in(35, 10).
in(35, 14).
in(35, 19).
in(35, 22).
in(35, 23).
in(35, 26).
in(35, 29).
in(35, 30).
in(35, 31).
in(35, 35).
in(35, 37).
in(35, 38).
in(35, 39).
in(35, 41).
in(35, 42).
in(35, 43).
in(35, 44).
in(35, 45).
in(35, 46).
in(35, 50).
in(35, 53).
in(35, 54).
in(35, 56).
in(35, 57).
in(35, 59).
in(35, 61).
in(35, 63).
in(35, 64).
in(35, 69).
in(35, 70).
in(35, 72).
in(35, 73).
in(35, 75).
in(35, 78).
in(35, 79).
in(35, 82).
in(35, 83).
in(35, 84).
in(35, 85).
in(35, 86).
in(35, 91).
in(35, 92).
in(35, 94).
in(35, 95).
in(35, 97).
in(35, 98).
in(35, 103).
in(35, 104).
in(35, 108).
in(35, 109).
in(35, 112).
in(35, 113).
in(35, 114).
in(35, 118).
in(35, 119).
in(35, 121).
in(35, 122).
in(35, 123).
in(35, 125).
in(36, 128).
in(36, 1).
in(36, 2).
in(36, 6).
in(36, 8).
in(36, 9).
in(36, 10).
in(36, 11).
in(36, 16).
in(36, 17).
in(36, 18).
in(36, 19).
in(36, 30).
in(36, 34).
in(36, 36).
in(36, 38).
in(36, 39).
in(36, 40).
in(36, 43).
in(36, 45).
in(36, 47).
in(36, 48).
in(36, 53).
in(36, 56).
in(36, 57).
in(36, 58).
in(36, 60).
in(36, 62).
in(36, 63).
in(36, 70).
in(36, 73).
in(36, 74).
in(36, 78).
in(36, 80).
in(36, 85).
in(36, 87).
in(36, 90).
in(36, 91).
in(36, 93).
in(36, 95).
in(36, 98).
in(36, 100).
in(36, 101).
in(36, 107).
in(36, 108).
in(36, 110).
in(36, 112).
in(36, 114).
in(36, 119).
in(36, 120).
in(36, 121).
in(36, 124).
in(36, 125).
in(37, 5).
in(37, 6).
in(37, 8).
in(37, 9).
in(37, 10).
in(37, 11).
in(37, 15).
in(37, 16).
in(37, 20).
in(37, 25).
in(37, 27).
in(37, 29).
in(37, 31).
in(37, 33).
in(37, 36).
in(37, 39).
in(37, 41).
in(37, 42).
in(37, 43).
in(37, 46).
in(37, 47).
in(37, 50).
in(37, 51).
in(37, 52).
in(37, 53).
in(37, 55).
in(37, 60).
in(37, 64).
in(37, 65).
in(37, 66).
in(37, 67).
in(37, 68).
in(37, 69).
in(37, 74).
in(37, 75).
in(37, 76).
in(37, 77).
in(37, 78).
in(37, 79).
in(37, 82).
in(37, 83).
in(37, 90).
in(37, 91).
in(37, 93).
in(37, 95).
in(37, 96).
in(37, 98).
in(37, 99).
in(37, 100).
in(37, 102).
in(37, 103).
in(37, 106).
in(37, 108).
in(37, 109).
in(37, 112).
in(37, 114).
in(37, 116).
in(37, 117).
in(37, 118).
in(37, 119).
in(37, 120).
in(37, 122).
in(37, 123).
in(37, 125).
in(37, 126).
in(38, 2).
in(38, 3).
in(38, 4).
in(38, 9).
in(38, 13).
in(38, 14).
in(38, 16).
in(38, 21).
in(38, 26).
in(38, 27).
in(38, 29).
in(38, 30).
in(38, 32).
in(38, 34).
in(38, 36).
in(38, 39).
in(38, 42).
in(38, 43).
in(38, 45).
in(38, 49).
in(38, 56).
in(38, 57).
in(38, 58).
in(38, 60).
in(38, 61).
in(38, 62).
in(38, 63).
in(38, 64).
in(38, 67).
in(38, 68).
in(38, 69).
in(38, 70).
in(38, 71).
in(38, 73).
in(38, 75).
in(38, 76).
in(38, 78).
in(38, 82).
in(38, 83).
in(38, 85).
in(38, 93).
in(38, 94).
in(38, 95).
in(38, 97).
in(38, 99).
in(38, 102).
in(38, 104).
in(38, 105).
in(38, 107).
in(38, 108).
in(38, 122).
in(38, 123).
in(38, 125).
in(38, 126).
in(38, 127).
in(39, 3).
in(39, 7).
in(39, 8).
in(39, 9).
in(39, 10).
in(39, 11).
in(39, 12).
in(39, 13).
in(39, 16).
in(39, 17).
in(39, 21).
in(39, 29).
in(39, 30).
in(39, 32).
in(39, 34).
in(39, 42).
in(39, 44).
in(39, 50).
in(39, 51).
in(39, 54).
in(39, 57).
in(39, 58).
in(39, 59).
in(39, 62).
in(39, 63).
in(39, 73).
in(39, 74).
in(39, 76).
in(39, 78).
in(39, 79).
in(39, 80).
in(39, 81).
in(39, 84).
in(39, 85).
in(39, 86).
in(39, 87).
in(39, 88).
in(39, 89).
in(39, 91).
in(39, 92).
in(39, 94).
in(39, 95).
in(39, 96).
in(39, 100).
in(39, 101).
in(39, 102).
in(39, 105).
in(39, 107).
in(39, 110).
in(39, 111).
in(39, 113).
in(39, 114).
in(39, 115).
in(39, 116).
in(39, 118).
in(39, 120).
in(39, 123).
in(40, 2).
in(40, 3).
in(40, 4).
in(40, 5).
in(40, 6).
in(40, 7).
in(40, 8).
in(40, 10).
in(40, 16).
in(40, 17).
in(40, 18).
in(40, 19).
in(40, 21).
in(40, 24).
in(40, 25).
in(40, 26).
in(40, 30).
in(40, 32).
in(40, 34).
in(40, 35).
in(40, 37).
in(40, 41).
in(40, 42).
in(40, 43).
in(40, 46).
in(40, 47).
in(40, 48).
in(40, 53).
in(40, 56).
in(40, 63).
in(40, 67).
in(40, 68).
in(40, 74).
in(40, 76).
in(40, 78).
in(40, 80).
in(40, 82).
in(40, 84).
in(40, 85).
in(40, 86).
in(40, 87).
in(40, 90).
in(40, 91).
in(40, 92).
in(40, 94).
in(40, 97).
in(40, 100).
in(40, 103).
in(40, 105).
in(40, 106).
in(40, 107).
in(40, 108).
in(40, 109).
in(40, 113).
in(40, 114).
in(40, 117).
in(40, 118).
in(40, 119).
in(40, 122).
in(40, 124).
in(40, 125).
in(40, 126).
in(41, 2).
in(41, 3).
in(41, 6).
in(41, 9).
in(41, 10).
in(41, 11).
in(41, 12).
in(41, 13).
in(41, 14).
in(41, 15).
in(41, 16).
in(41, 17).
in(41, 19).
in(41, 21).
in(41, 25).
in(41, 27).
in(41, 29).
in(41, 31).
in(41, 32).
in(41, 35).
in(41, 36).
in(41, 37).
in(41, 39).
in(41, 40).
in(41, 41).
in(41, 45).
in(41, 48).
in(41, 58).
in(41, 61).
in(41, 63).
in(41, 64).
in(41, 66).
in(41, 67).
in(41, 68).
in(41, 69).
in(41, 72).
in(41, 73).
in(41, 74).
in(41, 75).
in(41, 77).
in(41, 78).
in(41, 82).
in(41, 83).
in(41, 84).
in(41, 85).
in(41, 86).
in(41, 87).
in(41, 91).
in(41, 92).
in(41, 93).
in(41, 95).
in(41, 96).
in(41, 98).
in(41, 100).
in(41, 101).
in(41, 102).
in(41, 103).
in(41, 105).
in(41, 107).
in(41, 108).
in(41, 109).
in(41, 119).
in(41, 120).
in(41, 122).
in(41, 124).
in(41, 126).
in(42, 1).
in(42, 2).
in(42, 3).
in(42, 4).
in(42, 5).
in(42, 6).
in(42, 8).
in(42, 9).
in(42, 11).
in(42, 12).
in(42, 15).
in(42, 16).
in(42, 19).
in(42, 22).
in(42, 24).
in(42, 27).
in(42, 28).
in(42, 29).
in(42, 31).
in(42, 32).
in(42, 36).
in(42, 37).
in(42, 39).
in(42, 41).
in(42, 42).
in(42, 43).
in(42, 44).
in(42, 45).
in(42, 47).
in(42, 48).
in(42, 50).
in(42, 53).
in(42, 54).
in(42, 59).
in(42, 61).
in(42, 62).
in(42, 63).
in(42, 65).
in(42, 70).
in(42, 71).
in(42, 72).
in(42, 73).
in(42, 74).
in(42, 75).
in(42, 76).
in(42, 77).
in(42, 78).
in(42, 79).
in(42, 80).
in(42, 81).
in(42, 84).
in(42, 86).
in(42, 93).
in(42, 94).
in(42, 95).
in(42, 96).
in(42, 97).
in(42, 98).
in(42, 99).
in(42, 101).
in(42, 102).
in(42, 103).
in(42, 110).
in(42, 111).
in(42, 114).
in(42, 119).
in(42, 120).
in(42, 121).
in(42, 122).
in(42, 123).
in(42, 124).
in(42, 125).
in(42, 127).
in(43, 1).
in(43, 3).
in(43, 6).
in(43, 7).
in(43, 8).
in(43, 9).
in(43, 10).
in(43, 11).
in(43, 14).
in(43, 19).
in(43, 23).
in(43, 24).
in(43, 25).
in(43, 28).
in(43, 29).
in(43, 31).
in(43, 33).
in(43, 34).
in(43, 35).
in(43, 38).
in(43, 39).
in(43, 41).
in(43, 42).
in(43, 45).
in(43, 46).
in(43, 49).
in(43, 50).
in(43, 54).
in(43, 58).
in(43, 59).
in(43, 60).
in(43, 61).
in(43, 62).
in(43, 63).
in(43, 64).
in(43, 69).
in(43, 71).
in(43, 77).
in(43, 79).
in(43, 80).
in(43, 85).
in(43, 89).
in(43, 90).
in(43, 91).
in(43, 92).
in(43, 96).
in(43, 99).
in(43, 102).
in(43, 103).
in(43, 105).
in(43, 106).
in(43, 107).
in(43, 108).
in(43, 110).
in(43, 111).
in(43, 112).
in(43, 113).
in(43, 115).
in(43, 119).
in(43, 120).
in(43, 121).
in(43, 122).
in(43, 125).
in(43, 127).
in(44, 128).
in(44, 2).
in(44, 3).
in(44, 5).
in(44, 8).
in(44, 10).
in(44, 11).
in(44, 12).
in(44, 14).
in(44, 16).
in(44, 19).
in(44, 21).
in(44, 30).
in(44, 31).
in(44, 32).
in(44, 33).
in(44, 34).
in(44, 35).
in(44, 36).
in(44, 40).
in(44, 41).
in(44, 42).
in(44, 46).
in(44, 47).
in(44, 55).
in(44, 56).
in(44, 58).
in(44, 60).
in(44, 65).
in(44, 73).
in(44, 74).
in(44, 77).
in(44, 78).
in(44, 80).
in(44, 81).
in(44, 84).
in(44, 86).
in(44, 90).
in(44, 94).
in(44, 96).
in(44, 97).
in(44, 98).
in(44, 99).
in(44, 103).
in(44, 104).
in(44, 109).
in(44, 112).
in(44, 113).
in(44, 115).
in(44, 116).
in(44, 117).
in(44, 122).
in(44, 123).
in(44, 124).
in(44, 126).
in(44, 127).
in(45, 1).
in(45, 6).
in(45, 9).
in(45, 12).
in(45, 17).
in(45, 20).
in(45, 21).
in(45, 22).
in(45, 23).
in(45, 25).
in(45, 27).
in(45, 28).
in(45, 29).
in(45, 30).
in(45, 34).
in(45, 36).
in(45, 38).
in(45, 41).
in(45, 42).
in(45, 43).
in(45, 47).
in(45, 50).
in(45, 51).
in(45, 53).
in(45, 57).
in(45, 58).
in(45, 61).
in(45, 64).
in(45, 67).
in(45, 69).
in(45, 70).
in(45, 72).
in(45, 78).
in(45, 79).
in(45, 85).
in(45, 88).
in(45, 89).
in(45, 90).
in(45, 91).
in(45, 96).
in(45, 99).
in(45, 100).
in(45, 105).
in(45, 109).
in(45, 110).
in(45, 113).
in(45, 114).
in(46, 128).
in(46, 1).
in(46, 3).
in(46, 4).
in(46, 5).
in(46, 11).
in(46, 13).
in(46, 14).
in(46, 15).
in(46, 22).
in(46, 28).
in(46, 30).
in(46, 31).
in(46, 32).
in(46, 33).
in(46, 34).
in(46, 36).
in(46, 37).
in(46, 39).
in(46, 40).
in(46, 42).
in(46, 44).
in(46, 46).
in(46, 50).
in(46, 51).
in(46, 53).
in(46, 55).
in(46, 56).
in(46, 63).
in(46, 65).
in(46, 69).
in(46, 74).
in(46, 75).
in(46, 80).
in(46, 81).
in(46, 82).
in(46, 83).
in(46, 86).
in(46, 93).
in(46, 95).
in(46, 98).
in(46, 101).
in(46, 102).
in(46, 103).
in(46, 106).
in(46, 109).
in(46, 112).
in(46, 118).
in(46, 120).
in(46, 126).
in(47, 128).
in(47, 2).
in(47, 3).
in(47, 6).
in(47, 10).
in(47, 11).
in(47, 12).
in(47, 13).
in(47, 14).
in(47, 15).
in(47, 16).
in(47, 17).
in(47, 18).
in(47, 25).
in(47, 26).
in(47, 33).
in(47, 34).
in(47, 36).
in(47, 39).
in(47, 41).
in(47, 42).
in(47, 43).
in(47, 46).
in(47, 47).
in(47, 49).
in(47, 50).
in(47, 51).
in(47, 52).
in(47, 53).
in(47, 54).
in(47, 57).
in(47, 59).
in(47, 60).
in(47, 62).
in(47, 66).
in(47, 70).
in(47, 71).
in(47, 72).
in(47, 74).
in(47, 77).
in(47, 78).
in(47, 80).
in(47, 81).
in(47, 82).
in(47, 84).
in(47, 87).
in(47, 90).
in(47, 92).
in(47, 93).
in(47, 96).
in(47, 98).
in(47, 102).
in(47, 103).
in(47, 106).
in(47, 108).
in(47, 115).
in(47, 116).
in(47, 119).
in(47, 121).
in(47, 123).
in(47, 125).
in(47, 126).
in(48, 4).
in(48, 6).
in(48, 9).
in(48, 16).
in(48, 17).
in(48, 18).
in(48, 20).
in(48, 22).
in(48, 25).
in(48, 26).
in(48, 29).
in(48, 30).
in(48, 31).
in(48, 33).
in(48, 34).
in(48, 36).
in(48, 37).
in(48, 39).
in(48, 54).
in(48, 55).
in(48, 56).
in(48, 61).
in(48, 64).
in(48, 65).
in(48, 67).
in(48, 71).
in(48, 73).
in(48, 74).
in(48, 75).
in(48, 79).
in(48, 83).
in(48, 86).
in(48, 88).
in(48, 96).
in(48, 97).
in(48, 100).
in(48, 106).
in(48, 108).
in(48, 111).
in(48, 112).
in(48, 115).
in(48, 116).
in(48, 117).
in(48, 119).
in(48, 127).
in(49, 6).
in(49, 7).
in(49, 8).
in(49, 10).
in(49, 11).
in(49, 17).
in(49, 18).
in(49, 19).
in(49, 22).
in(49, 26).
in(49, 30).
in(49, 37).
in(49, 38).
in(49, 39).
in(49, 41).
in(49, 42).
in(49, 44).
in(49, 45).
in(49, 47).
in(49, 48).
in(49, 50).
in(49, 53).
in(49, 55).
in(49, 57).
in(49, 58).
in(49, 63).
in(49, 65).
in(49, 69).
in(49, 70).
in(49, 71).
in(49, 74).
in(49, 76).
in(49, 78).
in(49, 79).
in(49, 84).
in(49, 86).
in(49, 87).
in(49, 89).
in(49, 91).
in(49, 93).
in(49, 94).
in(49, 95).
in(49, 97).
in(49, 100).
in(49, 101).
in(49, 102).
in(49, 103).
in(49, 104).
in(49, 108).
in(49, 110).
in(49, 112).
in(49, 113).
in(49, 114).
in(49, 122).
in(49, 124).
in(49, 125).
in(49, 127).
in(50, 128).
in(50, 1).
in(50, 6).
in(50, 8).
in(50, 13).
in(50, 15).
in(50, 18).
in(50, 21).
in(50, 22).
in(50, 23).
in(50, 26).
in(50, 27).
in(50, 29).
in(50, 31).
in(50, 33).
in(50, 37).
in(50, 39).
in(50, 41).
in(50, 42).
in(50, 43).
in(50, 44).
in(50, 46).
in(50, 48).
in(50, 50).
in(50, 52).
in(50, 53).
in(50, 54).
in(50, 57).
in(50, 58).
in(50, 65).
in(50, 66).
in(50, 67).
in(50, 70).
in(50, 71).
in(50, 73).
in(50, 77).
in(50, 78).
in(50, 86).
in(50, 89).
in(50, 91).
in(50, 93).
in(50, 94).
in(50, 98).
in(50, 99).
in(50, 100).
in(50, 104).
in(50, 105).
in(50, 106).
in(50, 107).
in(50, 108).
in(50, 112).
in(50, 113).
in(50, 115).
in(50, 118).
in(50, 119).
in(50, 120).
in(50, 122).
in(50, 123).
in(50, 125).
in(50, 126).
in(51, 1).
in(51, 4).
in(51, 5).
in(51, 6).
in(51, 7).
in(51, 9).
in(51, 10).
in(51, 13).
in(51, 14).
in(51, 17).
in(51, 20).
in(51, 22).
in(51, 24).
in(51, 25).
in(51, 27).
in(51, 28).
in(51, 29).
in(51, 30).
in(51, 32).
in(51, 33).
in(51, 35).
in(51, 38).
in(51, 39).
in(51, 41).
in(51, 42).
in(51, 44).
in(51, 46).
in(51, 52).
in(51, 54).
in(51, 55).
in(51, 59).
in(51, 61).
in(51, 62).
in(51, 64).
in(51, 65).
in(51, 66).
in(51, 67).
in(51, 68).
in(51, 71).
in(51, 72).
in(51, 74).
in(51, 75).
in(51, 79).
in(51, 85).
in(51, 87).
in(51, 91).
in(51, 92).
in(51, 96).
in(51, 97).
in(51, 100).
in(51, 101).
in(51, 102).
in(51, 104).
in(51, 109).
in(51, 110).
in(51, 111).
in(51, 112).
in(51, 113).
in(51, 115).
in(51, 117).
in(51, 118).
in(51, 119).
in(51, 120).
in(51, 121).
in(51, 122).
in(51, 124).
in(51, 125).
in(51, 127).
in(52, 128).
in(52, 1).
in(52, 2).
in(52, 3).
in(52, 4).
in(52, 6).
in(52, 11).
in(52, 12).
in(52, 14).
in(52, 15).
in(52, 17).
in(52, 26).
in(52, 27).
in(52, 28).
in(52, 32).
in(52, 33).
in(52, 34).
in(52, 35).
in(52, 36).
in(52, 38).
in(52, 39).
in(52, 40).
in(52, 41).
in(52, 43).
in(52, 44).
in(52, 45).
in(52, 46).
in(52, 47).
in(52, 48).
in(52, 53).
in(52, 54).
in(52, 55).
in(52, 57).
in(52, 58).
in(52, 60).
in(52, 61).
in(52, 63).
in(52, 65).
in(52, 70).
in(52, 71).
in(52, 75).
in(52, 77).
in(52, 79).
in(52, 82).
in(52, 83).
in(52, 85).
in(52, 86).
in(52, 87).
in(52, 92).
in(52, 93).
in(52, 96).
in(52, 103).
in(52, 109).
in(52, 111).
in(52, 114).
in(52, 116).
in(52, 118).
in(52, 123).
in(52, 124).
in(52, 125).
in(53, 1).
in(53, 3).
in(53, 5).
in(53, 6).
in(53, 10).
in(53, 12).
in(53, 15).
in(53, 17).
in(53, 18).
in(53, 23).
in(53, 26).
in(53, 27).
in(53, 30).
in(53, 31).
in(53, 32).
in(53, 34).
in(53, 36).
in(53, 41).
in(53, 44).
in(53, 47).
in(53, 51).
in(53, 53).
in(53, 55).
in(53, 58).
in(53, 62).
in(53, 64).
in(53, 66).
in(53, 68).
in(53, 71).
in(53, 72).
in(53, 75).
in(53, 77).
in(53, 78).
in(53, 79).
in(53, 83).
in(53, 84).
in(53, 86).
in(53, 87).
in(53, 89).
in(53, 92).
in(53, 94).
in(53, 97).
in(53, 101).
in(53, 104).
in(53, 107).
in(53, 111).
in(53, 112).
in(53, 114).
in(53, 115).
in(53, 120).
in(53, 122).
in(53, 123).
in(53, 124).
in(53, 127).
in(54, 128).
in(54, 1).
in(54, 2).
in(54, 4).
in(54, 6).
in(54, 8).
in(54, 9).
in(54, 11).
in(54, 12).
in(54, 13).
in(54, 14).
in(54, 15).
in(54, 17).
in(54, 18).
in(54, 19).
in(54, 20).
in(54, 21).
in(54, 23).
in(54, 24).
in(54, 25).
in(54, 30).
in(54, 31).
in(54, 33).
in(54, 36).
in(54, 37).
in(54, 38).
in(54, 39).
in(54, 41).
in(54, 43).
in(54, 48).
in(54, 49).
in(54, 52).
in(54, 54).
in(54, 55).
in(54, 59).
in(54, 61).
in(54, 64).
in(54, 65).
in(54, 68).
in(54, 69).
in(54, 71).
in(54, 72).
in(54, 73).
in(54, 74).
in(54, 76).
in(54, 77).
in(54, 78).
in(54, 82).
in(54, 83).
in(54, 84).
in(54, 87).
in(54, 92).
in(54, 94).
in(54, 95).
in(54, 98).
in(54, 100).
in(54, 103).
in(54, 104).
in(54, 108).
in(54, 109).
in(54, 110).
in(54, 112).
in(54, 114).
in(54, 118).
in(54, 123).
in(54, 124).
in(54, 126).
in(55, 128).
in(55, 1).
in(55, 3).
in(55, 5).
in(55, 6).
in(55, 9).
in(55, 11).
in(55, 12).
in(55, 13).
in(55, 18).
in(55, 21).
in(55, 22).
in(55, 24).
in(55, 25).
in(55, 29).
in(55, 30).
in(55, 32).
in(55, 34).
in(55, 39).
in(55, 42).
in(55, 43).
in(55, 44).
in(55, 45).
in(55, 46).
in(55, 48).
in(55, 50).
in(55, 51).
in(55, 52).
in(55, 53).
in(55, 55).
in(55, 57).
in(55, 58).
in(55, 59).
in(55, 60).
in(55, 61).
in(55, 68).
in(55, 71).
in(55, 72).
in(55, 73).
in(55, 74).
in(55, 75).
in(55, 76).
in(55, 78).
in(55, 79).
in(55, 82).
in(55, 83).
in(55, 85).
in(55, 92).
in(55, 93).
in(55, 94).
in(55, 98).
in(55, 100).
in(55, 101).
in(55, 102).
in(55, 103).
in(55, 104).
in(55, 105).
in(55, 106).
in(55, 111).
in(55, 115).
in(55, 116).
in(55, 118).
in(55, 121).
in(55, 122).
in(55, 124).
in(55, 125).
in(56, 1).
in(56, 3).
in(56, 4).
in(56, 5).
in(56, 9).
in(56, 10).
in(56, 12).
in(56, 13).
in(56, 16).
in(56, 17).
in(56, 22).
in(56, 24).
in(56, 26).
in(56, 28).
in(56, 31).
in(56, 32).
in(56, 34).
in(56, 35).
in(56, 38).
in(56, 40).
in(56, 41).
in(56, 44).
in(56, 46).
in(56, 48).
in(56, 49).
in(56, 50).
in(56, 53).
in(56, 55).
in(56, 57).
in(56, 58).
in(56, 61).
in(56, 62).
in(56, 63).
in(56, 66).
in(56, 67).
in(56, 68).
in(56, 70).
in(56, 71).
in(56, 75).
in(56, 77).
in(56, 80).
in(56, 81).
in(56, 82).
in(56, 85).
in(56, 88).
in(56, 90).
in(56, 91).
in(56, 92).
in(56, 105).
in(56, 107).
in(56, 108).
in(56, 113).
in(56, 114).
in(56, 115).
in(56, 119).
in(56, 120).
in(56, 121).
in(56, 124).
in(56, 125).
in(56, 127).
in(57, 128).
in(57, 1).
in(57, 2).
in(57, 8).
in(57, 11).
in(57, 12).
in(57, 15).
in(57, 17).
in(57, 18).
in(57, 21).
in(57, 23).
in(57, 24).
in(57, 25).
in(57, 26).
in(57, 28).
in(57, 29).
in(57, 35).
in(57, 38).
in(57, 40).
in(57, 41).
in(57, 47).
in(57, 48).
in(57, 49).
in(57, 55).
in(57, 64).
in(57, 66).
in(57, 68).
in(57, 69).
in(57, 73).
in(57, 75).
in(57, 77).
in(57, 79).
in(57, 81).
in(57, 83).
in(57, 84).
in(57, 87).
in(57, 88).
in(57, 92).
in(57, 96).
in(57, 97).
in(57, 103).
in(57, 106).
in(57, 107).
in(57, 108).
in(57, 110).
in(57, 114).
in(57, 119).
in(57, 124).
in(57, 126).
in(57, 127).
in(58, 1).
in(58, 3).
in(58, 4).
in(58, 8).
in(58, 9).
in(58, 13).
in(58, 14).
in(58, 15).
in(58, 16).
in(58, 17).
in(58, 18).
in(58, 20).
in(58, 25).
in(58, 26).
in(58, 28).
in(58, 29).
in(58, 30).
in(58, 32).
in(58, 36).
in(58, 37).
in(58, 39).
in(58, 47).
in(58, 50).
in(58, 52).
in(58, 54).
in(58, 55).
in(58, 56).
in(58, 57).
in(58, 62).
in(58, 63).
in(58, 64).
in(58, 67).
in(58, 70).
in(58, 74).
in(58, 77).
in(58, 81).
in(58, 85).
in(58, 88).
in(58, 89).
in(58, 91).
in(58, 92).
in(58, 100).
in(58, 102).
in(58, 106).
in(58, 107).
in(58, 108).
in(58, 114).
in(58, 117).
in(58, 118).
in(58, 119).
in(58, 122).
in(58, 123).
in(58, 127).
in(59, 128).
in(59, 2).
in(59, 4).
in(59, 7).
in(59, 9).
in(59, 10).
in(59, 14).
in(59, 15).
in(59, 16).
in(59, 17).
in(59, 19).
in(59, 20).
in(59, 26).
in(59, 28).
in(59, 31).
in(59, 33).
in(59, 34).
in(59, 36).
in(59, 39).
in(59, 42).
in(59, 43).
in(59, 44).
in(59, 48).
in(59, 49).
in(59, 51).
in(59, 54).
in(59, 56).
in(59, 58).
in(59, 59).
in(59, 60).
in(59, 61).
in(59, 63).
in(59, 64).
in(59, 65).
in(59, 76).
in(59, 78).
in(59, 80).
in(59, 82).
in(59, 84).
in(59, 86).
in(59, 88).
in(59, 89).
in(59, 91).
in(59, 92).
in(59, 95).
in(59, 96).
in(59, 100).
in(59, 102).
in(59, 103).
in(59, 104).
in(59, 107).
in(59, 108).
in(59, 110).
in(59, 113).
in(59, 115).
in(59, 117).
in(59, 120).
in(59, 123).
in(59, 124).
in(59, 126).
in(60, 1).
in(60, 2).
in(60, 3).
in(60, 4).
in(60, 6).
in(60, 10).
in(60, 11).
in(60, 14).
in(60, 19).
in(60, 20).
in(60, 24).
in(60, 28).
in(60, 32).
in(60, 34).
in(60, 35).
in(60, 39).
in(60, 40).
in(60, 46).
in(60, 48).
in(60, 51).
in(60, 53).
in(60, 54).
in(60, 55).
in(60, 58).
in(60, 61).
in(60, 62).
in(60, 63).
in(60, 71).
in(60, 73).
in(60, 76).
in(60, 82).
in(60, 88).
in(60, 89).
in(60, 92).
in(60, 94).
in(60, 98).
in(60, 103).
in(60, 105).
in(60, 106).
in(60, 107).
in(60, 109).
in(60, 115).
in(60, 117).
in(60, 120).
in(60, 121).
in(60, 122).
in(60, 124).
in(60, 127).
in(61, 128).
in(61, 2).
in(61, 3).
in(61, 5).
in(61, 6).
in(61, 8).
in(61, 12).
in(61, 14).
in(61, 15).
in(61, 17).
in(61, 19).
in(61, 23).
in(61, 24).
in(61, 26).
in(61, 31).
in(61, 32).
in(61, 36).
in(61, 37).
in(61, 39).
in(61, 40).
in(61, 41).
in(61, 46).
in(61, 47).
in(61, 50).
in(61, 51).
in(61, 52).
in(61, 53).
in(61, 54).
in(61, 57).
in(61, 58).
in(61, 59).
in(61, 60).
in(61, 61).
in(61, 67).
in(61, 70).
in(61, 71).
in(61, 74).
in(61, 75).
in(61, 78).
in(61, 79).
in(61, 80).
in(61, 81).
in(61, 83).
in(61, 86).
in(61, 89).
in(61, 93).
in(61, 95).
in(61, 96).
in(61, 97).
in(61, 98).
in(61, 102).
in(61, 107).
in(61, 108).
in(61, 110).
in(61, 111).
in(61, 112).
in(61, 116).
in(61, 117).
in(61, 118).
in(61, 119).
in(61, 120).
in(61, 121).
in(61, 122).
in(61, 123).
in(61, 124).
in(62, 1).
in(62, 5).
in(62, 6).
in(62, 8).
in(62, 9).
in(62, 10).
in(62, 13).
in(62, 14).
in(62, 15).
in(62, 16).
in(62, 18).
in(62, 19).
in(62, 22).
in(62, 23).
in(62, 26).
in(62, 27).
in(62, 28).
in(62, 29).
in(62, 31).
in(62, 32).
in(62, 36).
in(62, 37).
in(62, 38).
in(62, 40).
in(62, 41).
in(62, 43).
in(62, 44).
in(62, 45).
in(62, 50).
in(62, 52).
in(62, 53).
in(62, 54).
in(62, 56).
in(62, 60).
in(62, 64).
in(62, 65).
in(62, 67).
in(62, 68).
in(62, 69).
in(62, 70).
in(62, 72).
in(62, 73).
in(62, 75).
in(62, 77).
in(62, 78).
in(62, 82).
in(62, 83).
in(62, 84).
in(62, 85).
in(62, 87).
in(62, 91).
in(62, 92).
in(62, 94).
in(62, 95).
in(62, 97).
in(62, 98).
in(62, 101).
in(62, 103).
in(62, 106).
in(62, 107).
in(62, 108).
in(62, 113).
in(62, 115).
in(62, 117).
in(62, 118).
in(62, 119).
in(62, 120).
in(62, 121).
in(62, 122).
in(62, 125).
in(62, 127).
in(63, 1).
in(63, 2).
in(63, 3).
in(63, 4).
in(63, 5).
in(63, 7).
in(63, 9).
in(63, 15).
in(63, 19).
in(63, 20).
in(63, 25).
in(63, 26).
in(63, 27).
in(63, 30).
in(63, 33).
in(63, 35).
in(63, 37).
in(63, 40).
in(63, 43).
in(63, 45).
in(63, 46).
in(63, 47).
in(63, 48).
in(63, 50).
in(63, 51).
in(63, 52).
in(63, 53).
in(63, 54).
in(63, 58).
in(63, 60).
in(63, 62).
in(63, 63).
in(63, 68).
in(63, 69).
in(63, 72).
in(63, 74).
in(63, 77).
in(63, 78).
in(63, 80).
in(63, 81).
in(63, 84).
in(63, 87).
in(63, 88).
in(63, 97).
in(63, 99).
in(63, 102).
in(63, 104).
in(63, 105).
in(63, 107).
in(63, 109).
in(63, 112).
in(63, 114).
in(63, 116).
in(63, 117).
in(63, 118).
in(63, 121).
in(63, 122).
in(63, 124).
in(64, 128).
in(64, 1).
in(64, 3).
in(64, 6).
in(64, 9).
in(64, 11).
in(64, 12).
in(64, 13).
in(64, 14).
in(64, 15).
in(64, 18).
in(64, 21).
in(64, 23).
in(64, 26).
in(64, 28).
in(64, 32).
in(64, 33).
in(64, 36).
in(64, 40).
in(64, 41).
in(64, 42).
in(64, 44).
in(64, 48).
in(64, 50).
in(64, 51).
in(64, 53).
in(64, 54).
in(64, 55).
in(64, 56).
in(64, 58).
in(64, 62).
in(64, 67).
in(64, 70).
in(64, 73).
in(64, 76).
in(64, 77).
in(64, 78).
in(64, 79).
in(64, 80).
in(64, 81).
in(64, 82).
in(64, 83).
in(64, 84).
in(64, 86).
in(64, 87).
in(64, 88).
in(64, 89).
in(64, 96).
in(64, 97).
in(64, 98).
in(64, 100).
in(64, 104).
in(64, 105).
in(64, 106).
in(64, 107).
in(64, 108).
in(64, 111).
in(64, 116).
in(64, 118).
in(64, 119).
in(64, 120).
in(64, 121).
in(64, 124).
in(64, 126).
in(64, 127).
in(65, 1).
in(65, 2).
in(65, 5).
in(65, 7).
in(65, 8).
in(65, 10).
in(65, 11).
in(65, 12).
in(65, 13).
in(65, 14).
in(65, 16).
in(65, 17).
in(65, 19).
in(65, 21).
in(65, 22).
in(65, 23).
in(65, 24).
in(65, 25).
in(65, 26).
in(65, 27).
in(65, 28).
in(65, 29).
in(65, 30).
in(65, 35).
in(65, 36).
in(65, 37).
in(65, 38).
in(65, 43).
in(65, 45).
in(65, 47).
in(65, 49).
in(65, 50).
in(65, 56).
in(65, 57).
in(65, 58).
in(65, 61).
in(65, 65).
in(65, 66).
in(65, 67).
in(65, 68).
in(65, 69).
in(65, 71).
in(65, 74).
in(65, 75).
in(65, 81).
in(65, 82).
in(65, 85).
in(65, 86).
in(65, 87).
in(65, 92).
in(65, 93).
in(65, 96).
in(65, 97).
in(65, 98).
in(65, 100).
in(65, 102).
in(65, 105).
in(65, 106).
in(65, 108).
in(65, 111).
in(65, 112).
in(65, 114).
in(65, 116).
in(65, 118).
in(65, 121).
in(65, 124).
in(65, 125).
in(66, 1).
in(66, 2).
in(66, 6).
in(66, 10).
in(66, 15).
in(66, 16).
in(66, 17).
in(66, 18).
in(66, 19).
in(66, 20).
in(66, 24).
in(66, 30).
in(66, 31).
in(66, 33).
in(66, 35).
in(66, 36).
in(66, 39).
in(66, 41).
in(66, 42).
in(66, 43).
in(66, 46).
in(66, 47).
in(66, 48).
in(66, 49).
in(66, 54).
in(66, 56).
in(66, 59).
in(66, 60).
in(66, 61).
in(66, 62).
in(66, 64).
in(66, 66).
in(66, 67).
in(66, 68).
in(66, 69).
in(66, 72).
in(66, 73).
in(66, 75).
in(66, 76).
in(66, 78).
in(66, 79).
in(66, 81).
in(66, 83).
in(66, 87).
in(66, 92).
in(66, 93).
in(66, 95).
in(66, 96).
in(66, 97).
in(66, 98).
in(66, 100).
in(66, 103).
in(66, 110).
in(66, 111).
in(66, 112).
in(66, 115).
in(66, 118).
in(66, 119).
in(66, 122).
in(66, 123).
in(66, 124).
in(67, 1).
in(67, 3).
in(67, 6).
in(67, 7).
in(67, 11).
in(67, 14).
in(67, 16).
in(67, 17).
in(67, 18).
in(67, 20).
in(67, 21).
in(67, 22).
in(67, 24).
in(67, 26).
in(67, 27).
in(67, 28).
in(67, 29).
in(67, 30).
in(67, 31).
in(67, 32).
in(67, 35).
in(67, 38).
in(67, 42).
in(67, 44).
in(67, 46).
in(67, 47).
in(67, 49).
in(67, 50).
in(67, 51).
in(67, 52).
in(67, 55).
in(67, 59).
in(67, 60).
in(67, 61).
in(67, 62).
in(67, 65).
in(67, 67).
in(67, 68).
in(67, 70).
in(67, 71).
in(67, 74).
in(67, 75).
in(67, 79).
in(67, 80).
in(67, 84).
in(67, 87).
in(67, 89).
in(67, 90).
in(67, 91).
in(67, 93).
in(67, 96).
in(67, 97).
in(67, 100).
in(67, 103).
in(67, 106).
in(67, 108).
in(67, 112).
in(67, 114).
in(67, 117).
in(67, 119).
in(67, 120).
in(67, 126).
in(67, 127).
in(68, 2).
in(68, 3).
in(68, 4).
in(68, 5).
in(68, 7).
in(68, 11).
in(68, 12).
in(68, 15).
in(68, 16).
in(68, 19).
in(68, 20).
in(68, 22).
in(68, 24).
in(68, 26).
in(68, 28).
in(68, 29).
in(68, 31).
in(68, 32).
in(68, 34).
in(68, 35).
in(68, 39).
in(68, 41).
in(68, 44).
in(68, 47).
in(68, 49).
in(68, 50).
in(68, 51).
in(68, 52).
in(68, 54).
in(68, 55).
in(68, 56).
in(68, 57).
in(68, 58).
in(68, 59).
in(68, 64).
in(68, 65).
in(68, 67).
in(68, 69).
in(68, 71).
in(68, 72).
in(68, 73).
in(68, 77).
in(68, 80).
in(68, 85).
in(68, 87).
in(68, 89).
in(68, 92).
in(68, 94).
in(68, 96).
in(68, 100).
in(68, 101).
in(68, 110).
in(68, 112).
in(68, 113).
in(68, 117).
in(68, 118).
in(68, 121).
in(68, 126).
in(69, 3).
in(69, 7).
in(69, 13).
in(69, 14).
in(69, 15).
in(69, 18).
in(69, 20).
in(69, 23).
in(69, 24).
in(69, 26).
in(69, 27).
in(69, 29).
in(69, 32).
in(69, 33).
in(69, 34).
in(69, 37).
in(69, 42).
in(69, 44).
in(69, 46).
in(69, 47).
in(69, 49).
in(69, 50).
in(69, 52).
in(69, 53).
in(69, 54).
in(69, 56).
in(69, 57).
in(69, 60).
in(69, 63).
in(69, 68).
in(69, 75).
in(69, 76).
in(69, 77).
in(69, 80).
in(69, 82).
in(69, 84).
in(69, 85).
in(69, 86).
in(69, 87).
in(69, 88).
in(69, 89).
in(69, 91).
in(69, 92).
in(69, 93).
in(69, 94).
in(69, 96).
in(69, 97).
in(69, 98).
in(69, 99).
in(69, 100).
in(69, 101).
in(69, 106).
in(69, 114).
in(69, 117).
in(69, 118).
in(69, 119).
in(69, 120).
in(69, 121).
in(69, 122).
in(69, 124).
in(69, 125).
in(69, 126).
in(70, 128).
in(70, 1).
in(70, 3).
in(70, 7).
in(70, 11).
in(70, 12).
in(70, 14).
in(70, 15).
in(70, 16).
in(70, 17).
in(70, 19).
in(70, 21).
in(70, 22).
in(70, 23).
in(70, 26).
in(70, 27).
in(70, 28).
in(70, 31).
in(70, 32).
in(70, 38).
in(70, 41).
in(70, 43).
in(70, 48).
in(70, 49).
in(70, 50).
in(70, 51).
in(70, 62).
in(70, 63).
in(70, 64).
in(70, 67).
in(70, 68).
in(70, 70).
in(70, 72).
in(70, 73).
in(70, 74).
in(70, 77).
in(70, 80).
in(70, 84).
in(70, 87).
in(70, 88).
in(70, 89).
in(70, 90).
in(70, 91).
in(70, 96).
in(70, 97).
in(70, 102).
in(70, 103).
in(70, 105).
in(70, 106).
in(70, 108).
in(70, 111).
in(70, 112).
in(70, 114).
in(70, 115).
in(70, 117).
in(70, 120).
in(70, 122).
in(70, 123).
in(70, 124).
in(70, 125).
in(71, 128).
in(71, 2).
in(71, 3).
in(71, 4).
in(71, 7).
in(71, 9).
in(71, 13).
in(71, 17).
in(71, 20).
in(71, 22).
in(71, 27).
in(71, 28).
in(71, 29).
in(71, 35).
in(71, 40).
in(71, 41).
in(71, 44).
in(71, 49).
in(71, 52).
in(71, 54).
in(71, 57).
in(71, 59).
in(71, 60).
in(71, 65).
in(71, 67).
in(71, 68).
in(71, 74).
in(71, 77).
in(71, 81).
in(71, 83).
in(71, 85).
in(71, 87).
in(71, 88).
in(71, 90).
in(71, 97).
in(71, 99).
in(71, 104).
in(71, 105).
in(71, 107).
in(71, 110).
in(71, 112).
in(71, 113).
in(71, 116).
in(71, 121).
in(71, 122).
in(71, 124).
in(72, 4).
in(72, 5).
in(72, 10).
in(72, 13).
in(72, 17).
in(72, 20).
in(72, 21).
in(72, 23).
in(72, 24).
in(72, 25).
in(72, 26).
in(72, 27).
in(72, 30).
in(72, 32).
in(72, 33).
in(72, 34).
in(72, 35).
in(72, 37).
in(72, 38).
in(72, 39).
in(72, 40).
in(72, 46).
in(72, 47).
in(72, 50).
in(72, 60).
in(72, 71).
in(72, 72).
in(72, 77).
in(72, 80).
in(72, 84).
in(72, 87).
in(72, 88).
in(72, 89).
in(72, 92).
in(72, 93).
in(72, 98).
in(72, 104).
in(72, 105).
in(72, 106).
in(72, 112).
in(72, 113).
in(72, 115).
in(72, 116).
in(72, 119).
in(72, 120).
in(72, 121).
in(72, 126).
in(72, 127).
in(73, 128).
in(73, 1).
in(73, 3).
in(73, 4).
in(73, 5).
in(73, 9).
in(73, 10).
in(73, 16).
in(73, 18).
in(73, 21).
in(73, 28).
in(73, 31).
in(73, 34).
in(73, 38).
in(73, 39).
in(73, 40).
in(73, 42).
in(73, 43).
in(73, 44).
in(73, 46).
in(73, 47).
in(73, 48).
in(73, 49).
in(73, 51).
in(73, 53).
in(73, 55).
in(73, 56).
in(73, 57).
in(73, 58).
in(73, 59).
in(73, 62).
in(73, 63).
in(73, 64).
in(73, 66).
in(73, 67).
in(73, 76).
in(73, 78).
in(73, 79).
in(73, 83).
in(73, 84).
in(73, 87).
in(73, 88).
in(73, 90).
in(73, 94).
in(73, 96).
in(73, 97).
in(73, 99).
in(73, 100).
in(73, 101).
in(73, 102).
in(73, 107).
in(73, 110).
in(73, 111).
in(73, 113).
in(73, 114).
in(73, 117).
in(73, 119).
in(73, 123).
in(73, 127).
in(74, 1).
in(74, 3).
in(74, 6).
in(74, 7).
in(74, 12).
in(74, 13).
in(74, 14).
in(74, 17).
in(74, 24).
in(74, 27).
in(74, 29).
in(74, 32).
in(74, 33).
in(74, 34).
in(74, 35).
in(74, 36).
in(74, 37).
in(74, 40).
in(74, 43).
in(74, 49).
in(74, 52).
in(74, 53).
in(74, 58).
in(74, 60).
in(74, 61).
in(74, 66).
in(74, 67).
in(74, 69).
in(74, 71).
in(74, 72).
in(74, 73).
in(74, 77).
in(74, 78).
in(74, 83).
in(74, 84).
in(74, 87).
in(74, 90).
in(74, 91).
in(74, 92).
in(74, 94).
in(74, 95).
in(74, 98).
in(74, 99).
in(74, 101).
in(74, 102).
in(74, 104).
in(74, 105).
in(74, 107).
in(74, 108).
in(74, 110).
in(74, 112).
in(74, 113).
in(74, 118).
in(74, 119).
in(74, 121).
in(74, 123).
in(74, 126).
in(74, 127).
in(75, 1).
in(75, 2).
in(75, 4).
in(75, 7).
in(75, 9).
in(75, 10).
in(75, 11).
in(75, 12).
in(75, 15).
in(75, 16).
in(75, 18).
in(75, 20).
in(75, 21).
in(75, 24).
in(75, 25).
in(75, 27).
in(75, 30).
in(75, 31).
in(75, 32).
in(75, 36).
in(75, 41).
in(75, 42).
in(75, 43).
in(75, 44).
in(75, 50).
in(75, 52).
in(75, 53).
in(75, 56).
in(75, 57).
in(75, 59).
in(75, 63).
in(75, 66).
in(75, 67).
in(75, 68).
in(75, 72).
in(75, 74).
in(75, 76).
in(75, 78).
in(75, 82).
in(75, 83).
in(75, 84).
in(75, 86).
in(75, 87).
in(75, 88).
in(75, 89).
in(75, 94).
in(75, 96).
in(75, 97).
in(75, 101).
in(75, 104).
in(75, 105).
in(75, 106).
in(75, 107).
in(75, 108).
in(75, 115).
in(75, 119).
in(75, 120).
in(75, 123).
in(75, 124).
in(75, 126).
in(76, 5).
in(76, 6).
in(76, 7).
in(76, 9).
in(76, 10).
in(76, 20).
in(76, 22).
in(76, 24).
in(76, 25).
in(76, 30).
in(76, 31).
in(76, 33).
in(76, 34).
in(76, 35).
in(76, 36).
in(76, 39).
in(76, 45).
in(76, 47).
in(76, 48).
in(76, 49).
in(76, 50).
in(76, 51).
in(76, 54).
in(76, 57).
in(76, 58).
in(76, 59).
in(76, 62).
in(76, 64).
in(76, 66).
in(76, 67).
in(76, 71).
in(76, 72).
in(76, 74).
in(76, 76).
in(76, 77).
in(76, 80).
in(76, 82).
in(76, 84).
in(76, 85).
in(76, 86).
in(76, 89).
in(76, 90).
in(76, 93).
in(76, 97).
in(76, 99).
in(76, 101).
in(76, 103).
in(76, 108).
in(76, 110).
in(76, 111).
in(76, 115).
in(76, 116).
in(76, 118).
in(76, 122).
in(76, 124).
in(76, 125).
in(76, 127).
in(77, 2).
in(77, 3).
in(77, 5).
in(77, 7).
in(77, 8).
in(77, 16).
in(77, 17).
in(77, 18).
in(77, 21).
in(77, 25).
in(77, 26).
in(77, 27).
in(77, 31).
in(77, 32).
in(77, 33).
in(77, 35).
in(77, 39).
in(77, 40).
in(77, 41).
in(77, 42).
in(77, 43).
in(77, 44).
in(77, 46).
in(77, 49).
in(77, 52).
in(77, 53).
in(77, 56).
in(77, 63).
in(77, 65).
in(77, 66).
in(77, 67).
in(77, 71).
in(77, 73).
in(77, 74).
in(77, 75).
in(77, 76).
in(77, 77).
in(77, 78).
in(77, 80).
in(77, 83).
in(77, 86).
in(77, 89).
in(77, 90).
in(77, 91).
in(77, 92).
in(77, 94).
in(77, 95).
in(77, 98).
in(77, 99).
in(77, 101).
in(77, 103).
in(77, 104).
in(77, 105).
in(77, 110).
in(77, 111).
in(77, 112).
in(77, 114).
in(77, 117).
in(77, 119).
in(77, 122).
in(77, 124).
in(78, 2).
in(78, 5).
in(78, 8).
in(78, 9).
in(78, 10).
in(78, 12).
in(78, 13).
in(78, 16).
in(78, 24).
in(78, 26).
in(78, 27).
in(78, 28).
in(78, 36).
in(78, 37).
in(78, 39).
in(78, 43).
in(78, 44).
in(78, 45).
in(78, 47).
in(78, 49).
in(78, 51).
in(78, 53).
in(78, 55).
in(78, 57).
in(78, 58).
in(78, 60).
in(78, 65).
in(78, 66).
in(78, 72).
in(78, 73).
in(78, 76).
in(78, 78).
in(78, 82).
in(78, 83).
in(78, 88).
in(78, 89).
in(78, 92).
in(78, 93).
in(78, 94).
in(78, 96).
in(78, 97).
in(78, 99).
in(78, 101).
in(78, 102).
in(78, 104).
in(78, 106).
in(78, 108).
in(78, 110).
in(78, 111).
in(78, 114).
in(78, 119).
in(78, 122).
in(78, 123).
in(78, 125).
in(78, 127).
in(79, 128).
in(79, 3).
in(79, 4).
in(79, 5).
in(79, 6).
in(79, 10).
in(79, 11).
in(79, 12).
in(79, 15).
in(79, 17).
in(79, 18).
in(79, 20).
in(79, 26).
in(79, 30).
in(79, 32).
in(79, 34).
in(79, 36).
in(79, 37).
in(79, 38).
in(79, 39).
in(79, 40).
in(79, 44).
in(79, 46).
in(79, 47).
in(79, 49).
in(79, 53).
in(79, 54).
in(79, 59).
in(79, 60).
in(79, 64).
in(79, 65).
in(79, 68).
in(79, 69).
in(79, 70).
in(79, 78).
in(79, 79).
in(79, 80).
in(79, 83).
in(79, 84).
in(79, 86).
in(79, 87).
in(79, 91).
in(79, 93).
in(79, 94).
in(79, 95).
in(79, 96).
in(79, 97).
in(79, 98).
in(79, 102).
in(79, 104).
in(79, 106).
in(79, 108).
in(79, 109).
in(79, 110).
in(79, 111).
in(79, 113).
in(79, 115).
in(79, 116).
in(79, 117).
in(79, 119).
in(79, 122).
in(79, 123).
in(79, 124).
in(79, 125).
in(80, 4).
in(80, 8).
in(80, 9).
in(80, 12).
in(80, 16).
in(80, 18).
in(80, 20).
in(80, 23).
in(80, 33).
in(80, 35).
in(80, 37).
in(80, 38).
in(80, 39).
in(80, 43).
in(80, 45).
in(80, 48).
in(80, 53).
in(80, 55).
in(80, 56).
in(80, 58).
in(80, 62).
in(80, 65).
in(80, 66).
in(80, 67).
in(80, 74).
in(80, 76).
in(80, 77).
in(80, 78).
in(80, 80).
in(80, 81).
in(80, 85).
in(80, 86).
in(80, 88).
in(80, 94).
in(80, 96).
in(80, 99).
in(80, 102).
in(80, 103).
in(80, 105).
in(80, 108).
in(80, 110).
in(80, 111).
in(80, 113).
in(80, 114).
in(80, 118).
in(80, 119).
in(80, 125).
in(80, 126).
in(81, 1).
in(81, 4).
in(81, 5).
in(81, 6).
in(81, 7).
in(81, 9).
in(81, 12).
in(81, 14).
in(81, 16).
in(81, 21).
in(81, 22).
in(81, 24).
in(81, 26).
in(81, 34).
in(81, 35).
in(81, 36).
in(81, 38).
in(81, 41).
in(81, 43).
in(81, 47).
in(81, 48).
in(81, 51).
in(81, 52).
in(81, 53).
in(81, 56).
in(81, 58).
in(81, 59).
in(81, 60).
in(81, 64).
in(81, 65).
in(81, 68).
in(81, 71).
in(81, 74).
in(81, 76).
in(81, 77).
in(81, 78).
in(81, 80).
in(81, 84).
in(81, 85).
in(81, 86).
in(81, 91).
in(81, 95).
in(81, 97).
in(81, 98).
in(81, 104).
in(81, 112).
in(81, 113).
in(81, 114).
in(81, 115).
in(81, 120).
in(81, 121).
in(81, 124).
in(81, 125).
in(82, 2).
in(82, 3).
in(82, 6).
in(82, 10).
in(82, 14).
in(82, 16).
in(82, 17).
in(82, 19).
in(82, 20).
in(82, 23).
in(82, 26).
in(82, 27).
in(82, 29).
in(82, 31).
in(82, 32).
in(82, 33).
in(82, 35).
in(82, 40).
in(82, 41).
in(82, 43).
in(82, 46).
in(82, 48).
in(82, 49).
in(82, 52).
in(82, 55).
in(82, 56).
in(82, 59).
in(82, 61).
in(82, 64).
in(82, 65).
in(82, 66).
in(82, 71).
in(82, 72).
in(82, 73).
in(82, 74).
in(82, 75).
in(82, 78).
in(82, 79).
in(82, 84).
in(82, 89).
in(82, 90).
in(82, 93).
in(82, 94).
in(82, 97).
in(82, 98).
in(82, 100).
in(82, 103).
in(82, 109).
in(82, 110).
in(82, 111).
in(82, 112).
in(82, 113).
in(82, 114).
in(82, 115).
in(82, 116).
in(82, 121).
in(82, 122).
in(82, 123).
in(82, 124).
in(82, 125).
in(83, 4).
in(83, 5).
in(83, 6).
in(83, 9).
in(83, 14).
in(83, 17).
in(83, 20).
in(83, 21).
in(83, 22).
in(83, 23).
in(83, 24).
in(83, 28).
in(83, 29).
in(83, 32).
in(83, 33).
in(83, 34).
in(83, 37).
in(83, 39).
in(83, 40).
in(83, 42).
in(83, 45).
in(83, 49).
in(83, 51).
in(83, 53).
in(83, 54).
in(83, 55).
in(83, 56).
in(83, 58).
in(83, 59).
in(83, 61).
in(83, 62).
in(83, 64).
in(83, 68).
in(83, 70).
in(83, 73).
in(83, 74).
in(83, 76).
in(83, 78).
in(83, 80).
in(83, 81).
in(83, 82).
in(83, 87).
in(83, 93).
in(83, 96).
in(83, 100).
in(83, 102).
in(83, 104).
in(83, 106).
in(83, 107).
in(83, 108).
in(83, 116).
in(83, 119).
in(83, 121).
in(83, 123).
in(83, 125).
in(84, 2).
in(84, 3).
in(84, 5).
in(84, 8).
in(84, 11).
in(84, 16).
in(84, 17).
in(84, 18).
in(84, 19).
in(84, 20).
in(84, 21).
in(84, 22).
in(84, 23).
in(84, 25).
in(84, 27).
in(84, 31).
in(84, 33).
in(84, 37).
in(84, 40).
in(84, 43).
in(84, 45).
in(84, 46).
in(84, 50).
in(84, 51).
in(84, 53).
in(84, 55).
in(84, 56).
in(84, 57).
in(84, 60).
in(84, 61).
in(84, 62).
in(84, 65).
in(84, 66).
in(84, 67).
in(84, 68).
in(84, 70).
in(84, 72).
in(84, 73).
in(84, 74).
in(84, 76).
in(84, 79).
in(84, 84).
in(84, 85).
in(84, 86).
in(84, 87).
in(84, 92).
in(84, 94).
in(84, 95).
in(84, 96).
in(84, 100).
in(84, 103).
in(84, 105).
in(84, 106).
in(84, 110).
in(84, 120).
in(84, 121).
in(84, 124).
in(84, 125).
in(85, 128).
in(85, 1).
in(85, 2).
in(85, 7).
in(85, 10).
in(85, 11).
in(85, 12).
in(85, 15).
in(85, 17).
in(85, 18).
in(85, 20).
in(85, 22).
in(85, 23).
in(85, 25).
in(85, 27).
in(85, 28).
in(85, 32).
in(85, 38).
in(85, 39).
in(85, 46).
in(85, 47).
in(85, 48).
in(85, 52).
in(85, 55).
in(85, 56).
in(85, 58).
in(85, 61).
in(85, 62).
in(85, 63).
in(85, 64).
in(85, 65).
in(85, 69).
in(85, 71).
in(85, 75).
in(85, 76).
in(85, 77).
in(85, 79).
in(85, 81).
in(85, 83).
in(85, 85).
in(85, 86).
in(85, 87).
in(85, 88).
in(85, 89).
in(85, 91).
in(85, 93).
in(85, 94).
in(85, 95).
in(85, 96).
in(85, 101).
in(85, 103).
in(85, 105).
in(85, 107).
in(85, 108).
in(85, 110).
in(85, 111).
in(85, 113).
in(85, 114).
in(85, 115).
in(85, 116).
in(85, 117).
in(85, 120).
in(85, 122).
in(85, 123).
in(85, 124).
in(85, 125).
in(85, 126).
in(86, 5).
in(86, 6).
in(86, 7).
in(86, 9).
in(86, 10).
in(86, 12).
in(86, 15).
in(86, 16).
in(86, 18).
in(86, 19).
in(86, 20).
in(86, 26).
in(86, 27).
in(86, 30).
in(86, 33).
in(86, 34).
in(86, 38).
in(86, 42).
in(86, 43).
in(86, 46).
in(86, 48).
in(86, 50).
in(86, 51).
in(86, 52).
in(86, 59).
in(86, 60).
in(86, 61).
in(86, 63).
in(86, 65).
in(86, 66).
in(86, 68).
in(86, 72).
in(86, 73).
in(86, 74).
in(86, 78).
in(86, 79).
in(86, 80).
in(86, 82).
in(86, 84).
in(86, 85).
in(86, 92).
in(86, 94).
in(86, 95).
in(86, 101).
in(86, 104).
in(86, 105).
in(86, 106).
in(86, 107).
in(86, 109).
in(86, 110).
in(86, 111).
in(86, 113).
in(86, 119).
in(86, 120).
in(86, 123).
in(86, 126).
in(87, 128).
in(87, 2).
in(87, 4).
in(87, 5).
in(87, 6).
in(87, 7).
in(87, 8).
in(87, 10).
in(87, 17).
in(87, 24).
in(87, 25).
in(87, 27).
in(87, 28).
in(87, 29).
in(87, 30).
in(87, 31).
in(87, 34).
in(87, 40).
in(87, 43).
in(87, 45).
in(87, 49).
in(87, 53).
in(87, 54).
in(87, 57).
in(87, 58).
in(87, 64).
in(87, 65).
in(87, 69).
in(87, 76).
in(87, 78).
in(87, 79).
in(87, 80).
in(87, 83).
in(87, 84).
in(87, 85).
in(87, 87).
in(87, 88).
in(87, 91).
in(87, 93).
in(87, 110).
in(87, 112).
in(87, 114).
in(87, 117).
in(87, 118).
in(87, 119).
in(87, 120).
in(87, 121).
in(87, 122).
in(87, 123).
in(87, 125).
in(87, 127).
in(88, 1).
in(88, 2).
in(88, 11).
in(88, 12).
in(88, 13).
in(88, 14).
in(88, 17).
in(88, 20).
in(88, 21).
in(88, 23).
in(88, 27).
in(88, 30).
in(88, 31).
in(88, 34).
in(88, 37).
in(88, 39).
in(88, 42).
in(88, 43).
in(88, 45).
in(88, 46).
in(88, 47).
in(88, 48).
in(88, 51).
in(88, 52).
in(88, 53).
in(88, 54).
in(88, 55).
in(88, 56).
in(88, 59).
in(88, 62).
in(88, 64).
in(88, 65).
in(88, 67).
in(88, 68).
in(88, 70).
in(88, 74).
in(88, 75).
in(88, 77).
in(88, 79).
in(88, 80).
in(88, 82).
in(88, 83).
in(88, 88).
in(88, 89).
in(88, 90).
in(88, 91).
in(88, 93).
in(88, 94).
in(88, 95).
in(88, 96).
in(88, 97).
in(88, 98).
in(88, 99).
in(88, 101).
in(88, 103).
in(88, 107).
in(88, 108).
in(88, 109).
in(88, 111).
in(88, 114).
in(88, 116).
in(88, 117).
in(88, 118).
in(88, 119).
in(88, 120).
in(88, 121).
in(88, 123).
in(88, 125).
in(88, 127).
in(89, 128).
in(89, 2).
in(89, 3).
in(89, 6).
in(89, 7).
in(89, 8).
in(89, 12).
in(89, 13).
in(89, 14).
in(89, 20).
in(89, 25).
in(89, 29).
in(89, 30).
in(89, 32).
in(89, 35).
in(89, 36).
in(89, 37).
in(89, 39).
in(89, 40).
in(89, 41).
in(89, 42).
in(89, 43).
in(89, 46).
in(89, 51).
in(89, 52).
in(89, 53).
in(89, 56).
in(89, 57).
in(89, 60).
in(89, 62).
in(89, 66).
in(89, 69).
in(89, 70).
in(89, 75).
in(89, 81).
in(89, 86).
in(89, 87).
in(89, 91).
in(89, 95).
in(89, 97).
in(89, 98).
in(89, 102).
in(89, 103).
in(89, 106).
in(89, 107).
in(89, 109).
in(89, 114).
in(89, 115).
in(89, 118).
in(89, 123).
in(89, 125).
in(89, 126).
in(90, 128).
in(90, 1).
in(90, 4).
in(90, 5).
in(90, 6).
in(90, 7).
in(90, 8).
in(90, 9).
in(90, 12).
in(90, 14).
in(90, 15).
in(90, 17).
in(90, 18).
in(90, 20).
in(90, 22).
in(90, 23).
in(90, 24).
in(90, 25).
in(90, 27).
in(90, 29).
in(90, 31).
in(90, 33).
in(90, 37).
in(90, 39).
in(90, 40).
in(90, 41).
in(90, 46).
in(90, 48).
in(90, 50).
in(90, 52).
in(90, 54).
in(90, 56).
in(90, 57).
in(90, 59).
in(90, 60).
in(90, 62).
in(90, 63).
in(90, 64).
in(90, 65).
in(90, 70).
in(90, 71).
in(90, 73).
in(90, 76).
in(90, 77).
in(90, 78).
in(90, 79).
in(90, 80).
in(90, 85).
in(90, 86).
in(90, 91).
in(90, 95).
in(90, 96).
in(90, 97).
in(90, 98).
in(90, 99).
in(90, 100).
in(90, 102).
in(90, 105).
in(90, 107).
in(90, 110).
in(90, 113).
in(90, 115).
in(90, 118).
in(90, 119).
in(90, 121).
in(90, 122).
in(90, 124).
in(90, 125).
in(90, 126).
in(90, 127).
in(91, 1).
in(91, 2).
in(91, 5).
in(91, 7).
in(91, 8).
in(91, 10).
in(91, 11).
in(91, 12).
in(91, 19).
in(91, 21).
in(91, 22).
in(91, 23).
in(91, 27).
in(91, 28).
in(91, 30).
in(91, 31).
in(91, 40).
in(91, 43).
in(91, 46).
in(91, 47).
in(91, 48).
in(91, 50).
in(91, 51).
in(91, 52).
in(91, 54).
in(91, 61).
in(91, 62).
in(91, 68).
in(91, 74).
in(91, 76).
in(91, 77).
in(91, 79).
in(91, 81).
in(91, 86).
in(91, 87).
in(91, 89).
in(91, 94).
in(91, 96).
in(91, 98).
in(91, 101).
in(91, 102).
in(91, 103).
in(91, 104).
in(91, 107).
in(91, 108).
in(91, 110).
in(91, 111).
in(91, 112).
in(91, 115).
in(91, 116).
in(91, 118).
in(91, 119).
in(91, 120).
in(91, 122).
in(91, 123).
in(91, 126).
in(91, 127).
in(92, 128).
in(92, 1).
in(92, 2).
in(92, 3).
in(92, 5).
in(92, 8).
in(92, 10).
in(92, 11).
in(92, 13).
in(92, 16).
in(92, 18).
in(92, 23).
in(92, 24).
in(92, 25).
in(92, 28).
in(92, 29).
in(92, 31).
in(92, 32).
in(92, 36).
in(92, 39).
in(92, 43).
in(92, 44).
in(92, 45).
in(92, 46).
in(92, 49).
in(92, 51).
in(92, 53).
in(92, 54).
in(92, 58).
in(92, 61).
in(92, 62).
in(92, 64).
in(92, 65).
in(92, 66).
in(92, 67).
in(92, 68).
in(92, 70).
in(92, 72).
in(92, 74).
in(92, 75).
in(92, 77).
in(92, 79).
in(92, 81).
in(92, 83).
in(92, 85).
in(92, 86).
in(92, 89).
in(92, 90).
in(92, 94).
in(92, 97).
in(92, 98).
in(92, 99).
in(92, 102).
in(92, 104).
in(92, 106).
in(92, 109).
in(92, 111).
in(92, 112).
in(92, 117).
in(92, 118).
in(92, 120).
in(92, 125).
in(92, 126).
in(92, 127).
in(93, 128).
in(93, 2).
in(93, 3).
in(93, 4).
in(93, 6).
in(93, 7).
in(93, 13).
in(93, 17).
in(93, 19).
in(93, 20).
in(93, 21).
in(93, 22).
in(93, 23).
in(93, 29).
in(93, 31).
in(93, 33).
in(93, 34).
in(93, 35).
in(93, 40).
in(93, 41).
in(93, 46).
in(93, 48).
in(93, 49).
in(93, 50).
in(93, 51).
in(93, 52).
in(93, 53).
in(93, 54).
in(93, 56).
in(93, 57).
in(93, 58).
in(93, 61).
in(93, 63).
in(93, 64).
in(93, 66).
in(93, 67).
in(93, 68).
in(93, 69).
in(93, 70).
in(93, 72).
in(93, 79).
in(93, 81).
in(93, 82).
in(93, 83).
in(93, 88).
in(93, 89).
in(93, 91).
in(93, 96).
in(93, 97).
in(93, 100).
in(93, 103).
in(93, 107).
in(93, 112).
in(93, 114).
in(93, 119).
in(93, 120).
in(93, 123).
in(93, 124).
in(94, 128).
in(94, 2).
in(94, 5).
in(94, 6).
in(94, 8).
in(94, 9).
in(94, 10).
in(94, 13).
in(94, 14).
in(94, 15).
in(94, 17).
in(94, 18).
in(94, 25).
in(94, 29).
in(94, 30).
in(94, 33).
in(94, 34).
in(94, 37).
in(94, 38).
in(94, 43).
in(94, 44).
in(94, 45).
in(94, 47).
in(94, 48).
in(94, 49).
in(94, 52).
in(94, 54).
in(94, 56).
in(94, 59).
in(94, 62).
in(94, 64).
in(94, 66).
in(94, 67).
in(94, 68).
in(94, 74).
in(94, 75).
in(94, 77).
in(94, 78).
in(94, 82).
in(94, 83).
in(94, 86).
in(94, 89).
in(94, 91).
in(94, 92).
in(94, 98).
in(94, 100).
in(94, 101).
in(94, 103).
in(94, 105).
in(94, 106).
in(94, 108).
in(94, 109).
in(94, 110).
in(94, 111).
in(94, 112).
in(94, 113).
in(94, 114).
in(94, 116).
in(94, 117).
in(94, 123).
in(94, 124).
in(94, 126).
in(95, 1).
in(95, 2).
in(95, 3).
in(95, 4).
in(95, 8).
in(95, 13).
in(95, 18).
in(95, 19).
in(95, 22).
in(95, 23).
in(95, 25).
in(95, 27).
in(95, 30).
in(95, 35).
in(95, 41).
in(95, 45).
in(95, 49).
in(95, 58).
in(95, 60).
in(95, 61).
in(95, 63).
in(95, 65).
in(95, 67).
in(95, 70).
in(95, 72).
in(95, 73).
in(95, 74).
in(95, 76).
in(95, 82).
in(95, 83).
in(95, 84).
in(95, 85).
in(95, 89).
in(95, 90).
in(95, 92).
in(95, 93).
in(95, 94).
in(95, 95).
in(95, 97).
in(95, 103).
in(95, 104).
in(95, 106).
in(95, 107).
in(95, 109).
in(95, 112).
in(95, 113).
in(95, 114).
in(95, 115).
in(95, 117).
in(95, 119).
in(95, 120).
in(95, 122).
in(95, 125).
in(95, 126).
in(95, 127).
in(96, 128).
in(96, 1).
in(96, 9).
in(96, 11).
in(96, 12).
in(96, 13).
in(96, 16).
in(96, 19).
in(96, 20).
in(96, 24).
in(96, 25).
in(96, 29).
in(96, 30).
in(96, 32).
in(96, 33).
in(96, 34).
in(96, 35).
in(96, 38).
in(96, 41).
in(96, 44).
in(96, 45).
in(96, 48).
in(96, 49).
in(96, 54).
in(96, 56).
in(96, 57).
in(96, 58).
in(96, 60).
in(96, 63).
in(96, 68).
in(96, 72).
in(96, 76).
in(96, 77).
in(96, 78).
in(96, 81).
in(96, 83).
in(96, 84).
in(96, 85).
in(96, 87).
in(96, 88).
in(96, 90).
in(96, 92).
in(96, 94).
in(96, 98).
in(96, 99).
in(96, 101).
in(96, 103).
in(96, 104).
in(96, 106).
in(96, 107).
in(96, 108).
in(96, 111).
in(96, 112).
in(96, 117).
in(96, 119).
in(96, 126).
in(96, 127).
in(97, 5).
in(97, 6).
in(97, 12).
in(97, 13).
in(97, 14).
in(97, 15).
in(97, 17).
in(97, 18).
in(97, 21).
in(97, 23).
in(97, 24).
in(97, 25).
in(97, 28).
in(97, 29).
in(97, 30).
in(97, 33).
in(97, 34).
in(97, 35).
in(97, 36).
in(97, 37).
in(97, 40).
in(97, 42).
in(97, 43).
in(97, 44).
in(97, 45).
in(97, 46).
in(97, 48).
in(97, 50).
in(97, 51).
in(97, 53).
in(97, 54).
in(97, 57).
in(97, 58).
in(97, 59).
in(97, 60).
in(97, 61).
in(97, 67).
in(97, 72).
in(97, 73).
in(97, 74).
in(97, 75).
in(97, 76).
in(97, 79).
in(97, 80).
in(97, 85).
in(97, 86).
in(97, 90).
in(97, 91).
in(97, 93).
in(97, 100).
in(97, 102).
in(97, 103).
in(97, 106).
in(97, 108).
in(97, 112).
in(97, 114).
in(97, 115).
in(97, 116).
in(97, 120).
in(97, 121).
in(97, 122).
in(97, 124).
in(98, 1).
in(98, 2).
in(98, 4).
in(98, 5).
in(98, 6).
in(98, 8).
in(98, 9).
in(98, 10).
in(98, 12).
in(98, 14).
in(98, 16).
in(98, 17).
in(98, 18).
in(98, 21).
in(98, 22).
in(98, 24).
in(98, 25).
in(98, 26).
in(98, 30).
in(98, 32).
in(98, 35).
in(98, 37).
in(98, 40).
in(98, 41).
in(98, 42).
in(98, 47).
in(98, 48).
in(98, 50).
in(98, 54).
in(98, 58).
in(98, 59).
in(98, 61).
in(98, 71).
in(98, 72).
in(98, 74).
in(98, 75).
in(98, 78).
in(98, 80).
in(98, 81).
in(98, 91).
in(98, 93).
in(98, 96).
in(98, 97).
in(98, 99).
in(98, 101).
in(98, 105).
in(98, 108).
in(98, 109).
in(98, 110).
in(98, 112).
in(98, 113).
in(98, 115).
in(98, 116).
in(98, 118).
in(98, 119).
in(98, 120).
in(98, 124).
in(98, 126).
in(99, 3).
in(99, 5).
in(99, 7).
in(99, 11).
in(99, 12).
in(99, 13).
in(99, 15).
in(99, 17).
in(99, 19).
in(99, 22).
in(99, 23).
in(99, 24).
in(99, 26).
in(99, 34).
in(99, 35).
in(99, 36).
in(99, 38).
in(99, 39).
in(99, 40).
in(99, 41).
in(99, 42).
in(99, 45).
in(99, 50).
in(99, 55).
in(99, 56).
in(99, 61).
in(99, 63).
in(99, 64).
in(99, 65).
in(99, 66).
in(99, 67).
in(99, 69).
in(99, 71).
in(99, 73).
in(99, 78).
in(99, 79).
in(99, 82).
in(99, 83).
in(99, 87).
in(99, 90).
in(99, 93).
in(99, 97).
in(99, 99).
in(99, 100).
in(99, 101).
in(99, 103).
in(99, 106).
in(99, 108).
in(99, 109).
in(99, 110).
in(99, 112).
in(99, 114).
in(99, 122).
in(99, 123).
in(99, 124).
in(99, 125).
in(99, 126).
in(100, 128).
in(100, 1).
in(100, 3).
in(100, 4).
in(100, 5).
in(100, 6).
in(100, 9).
in(100, 11).
in(100, 12).
in(100, 13).
in(100, 17).
in(100, 18).
in(100, 20).
in(100, 23).
in(100, 24).
in(100, 25).
in(100, 27).
in(100, 29).
in(100, 31).
in(100, 32).
in(100, 33).
in(100, 34).
in(100, 35).
in(100, 40).
in(100, 41).
in(100, 45).
in(100, 46).
in(100, 48).
in(100, 50).
in(100, 51).
in(100, 57).
in(100, 60).
in(100, 61).
in(100, 63).
in(100, 65).
in(100, 66).
in(100, 70).
in(100, 75).
in(100, 76).
in(100, 77).
in(100, 78).
in(100, 79).
in(100, 82).
in(100, 83).
in(100, 86).
in(100, 88).
in(100, 89).
in(100, 91).
in(100, 93).
in(100, 95).
in(100, 98).
in(100, 100).
in(100, 101).
in(100, 108).
in(100, 109).
in(100, 111).
in(100, 112).
in(100, 113).
in(100, 115).
in(100, 116).
in(100, 117).
in(100, 119).
in(100, 123).
in(100, 124).
in(100, 125).
in(100, 126).
in(101, 128).
in(101, 4).
in(101, 16).
in(101, 17).
in(101, 18).
in(101, 21).
in(101, 22).
in(101, 24).
in(101, 25).
in(101, 26).
in(101, 29).
in(101, 30).
in(101, 35).
in(101, 36).
in(101, 38).
in(101, 46).
in(101, 47).
in(101, 49).
in(101, 51).
in(101, 59).
in(101, 63).
in(101, 64).
in(101, 68).
in(101, 70).
in(101, 71).
in(101, 72).
in(101, 75).
in(101, 76).
in(101, 77).
in(101, 78).
in(101, 82).
in(101, 84).
in(101, 86).
in(101, 87).
in(101, 88).
in(101, 89).
in(101, 90).
in(101, 92).
in(101, 95).
in(101, 96).
in(101, 98).
in(101, 99).
in(101, 102).
in(101, 105).
in(101, 106).
in(101, 109).
in(101, 113).
in(101, 114).
in(101, 116).
in(101, 118).
in(102, 128).
in(102, 3).
in(102, 12).
in(102, 13).
in(102, 16).
in(102, 17).
in(102, 20).
in(102, 24).
in(102, 26).
in(102, 29).
in(102, 34).
in(102, 35).
in(102, 41).
in(102, 43).
in(102, 46).
in(102, 51).
in(102, 52).
in(102, 54).
in(102, 55).
in(102, 56).
in(102, 57).
in(102, 59).
in(102, 60).
in(102, 62).
in(102, 63).
in(102, 69).
in(102, 70).
in(102, 71).
in(102, 73).
in(102, 75).
in(102, 76).
in(102, 78).
in(102, 80).
in(102, 81).
in(102, 83).
in(102, 84).
in(102, 86).
in(102, 87).
in(102, 88).
in(102, 89).
in(102, 91).
in(102, 96).
in(102, 98).
in(102, 99).
in(102, 102).
in(102, 103).
in(102, 113).
in(102, 116).
in(102, 117).
in(102, 118).
in(102, 119).
in(102, 120).
in(102, 121).
in(102, 122).
in(102, 125).
in(102, 126).
in(103, 128).
in(103, 1).
in(103, 3).
in(103, 6).
in(103, 7).
in(103, 10).
in(103, 15).
in(103, 20).
in(103, 23).
in(103, 28).
in(103, 31).
in(103, 32).
in(103, 34).
in(103, 36).
in(103, 37).
in(103, 38).
in(103, 39).
in(103, 40).
in(103, 44).
in(103, 45).
in(103, 46).
in(103, 47).
in(103, 48).
in(103, 50).
in(103, 51).
in(103, 53).
in(103, 54).
in(103, 58).
in(103, 60).
in(103, 63).
in(103, 65).
in(103, 66).
in(103, 68).
in(103, 72).
in(103, 74).
in(103, 75).
in(103, 76).
in(103, 81).
in(103, 82).
in(103, 85).
in(103, 86).
in(103, 87).
in(103, 88).
in(103, 94).
in(103, 96).
in(103, 102).
in(103, 105).
in(103, 107).
in(103, 110).
in(103, 111).
in(103, 113).
in(103, 114).
in(103, 115).
in(103, 116).
in(103, 120).
in(103, 122).
in(103, 124).
in(103, 126).
in(103, 127).
in(104, 128).
in(104, 1).
in(104, 2).
in(104, 3).
in(104, 5).
in(104, 6).
in(104, 9).
in(104, 10).
in(104, 14).
in(104, 15).
in(104, 16).
in(104, 17).
in(104, 18).
in(104, 20).
in(104, 21).
in(104, 23).
in(104, 26).
in(104, 27).
in(104, 28).
in(104, 30).
in(104, 34).
in(104, 36).
in(104, 37).
in(104, 38).
in(104, 39).
in(104, 44).
in(104, 49).
in(104, 51).
in(104, 52).
in(104, 54).
in(104, 56).
in(104, 57).
in(104, 60).
in(104, 61).
in(104, 64).
in(104, 70).
in(104, 72).
in(104, 75).
in(104, 84).
in(104, 85).
in(104, 87).
in(104, 89).
in(104, 91).
in(104, 92).
in(104, 94).
in(104, 95).
in(104, 97).
in(104, 98).
in(104, 99).
in(104, 101).
in(104, 108).
in(104, 114).
in(104, 116).
in(104, 117).
in(104, 119).
in(104, 120).
in(104, 121).
in(104, 123).
in(104, 125).
in(105, 1).
in(105, 2).
in(105, 3).
in(105, 5).
in(105, 8).
in(105, 10).
in(105, 12).
in(105, 16).
in(105, 18).
in(105, 21).
in(105, 22).
in(105, 24).
in(105, 28).
in(105, 29).
in(105, 30).
in(105, 31).
in(105, 36).
in(105, 38).
in(105, 41).
in(105, 42).
in(105, 46).
in(105, 50).
in(105, 52).
in(105, 53).
in(105, 54).
in(105, 55).
in(105, 56).
in(105, 58).
in(105, 59).
in(105, 62).
in(105, 64).
in(105, 68).
in(105, 70).
in(105, 75).
in(105, 78).
in(105, 80).
in(105, 83).
in(105, 86).
in(105, 88).
in(105, 90).
in(105, 93).
in(105, 94).
in(105, 95).
in(105, 100).
in(105, 103).
in(105, 104).
in(105, 105).
in(105, 108).
in(105, 109).
in(105, 110).
in(105, 111).
in(105, 112).
in(105, 113).
in(105, 114).
in(105, 115).
in(105, 118).
in(105, 119).
in(105, 120).
in(105, 121).
in(105, 122).
in(105, 123).
in(105, 125).
in(105, 126).
in(105, 127).
in(106, 128).
in(106, 2).
in(106, 3).
in(106, 4).
in(106, 6).
in(106, 8).
in(106, 9).
in(106, 10).
in(106, 11).
in(106, 12).
in(106, 13).
in(106, 14).
in(106, 16).
in(106, 20).
in(106, 22).
in(106, 23).
in(106, 24).
in(106, 25).
in(106, 27).
in(106, 29).
in(106, 35).
in(106, 39).
in(106, 41).
in(106, 46).
in(106, 48).
in(106, 54).
in(106, 57).
in(106, 58).
in(106, 59).
in(106, 60).
in(106, 65).
in(106, 67).
in(106, 68).
in(106, 70).
in(106, 71).
in(106, 74).
in(106, 75).
in(106, 78).
in(106, 79).
in(106, 80).
in(106, 83).
in(106, 84).
in(106, 88).
in(106, 89).
in(106, 94).
in(106, 95).
in(106, 96).
in(106, 98).
in(106, 101).
in(106, 103).
in(106, 110).
in(106, 112).
in(106, 113).
in(106, 114).
in(106, 119).
in(106, 121).
in(106, 123).
in(106, 127).
in(107, 4).
in(107, 8).
in(107, 9).
in(107, 10).
in(107, 11).
in(107, 12).
in(107, 14).
in(107, 18).
in(107, 21).
in(107, 25).
in(107, 28).
in(107, 30).
in(107, 32).
in(107, 37).
in(107, 38).
in(107, 39).
in(107, 40).
in(107, 45).
in(107, 47).
in(107, 48).
in(107, 53).
in(107, 54).
in(107, 55).
in(107, 58).
in(107, 59).
in(107, 61).
in(107, 62).
in(107, 63).
in(107, 64).
in(107, 65).
in(107, 66).
in(107, 67).
in(107, 70).
in(107, 72).
in(107, 73).
in(107, 74).
in(107, 75).
in(107, 78).
in(107, 79).
in(107, 80).
in(107, 81).
in(107, 82).
in(107, 85).
in(107, 88).
in(107, 90).
in(107, 91).
in(107, 93).
in(107, 97).
in(107, 106).
in(107, 108).
in(107, 109).
in(107, 110).
in(107, 112).
in(107, 114).
in(107, 115).
in(107, 118).
in(107, 119).
in(107, 120).
in(107, 122).
in(108, 128).
in(108, 1).
in(108, 10).
in(108, 11).
in(108, 13).
in(108, 15).
in(108, 20).
in(108, 21).
in(108, 23).
in(108, 24).
in(108, 26).
in(108, 27).
in(108, 28).
in(108, 29).
in(108, 32).
in(108, 36).
in(108, 37).
in(108, 38).
in(108, 41).
in(108, 42).
in(108, 47).
in(108, 49).
in(108, 51).
in(108, 52).
in(108, 54).
in(108, 55).
in(108, 57).
in(108, 61).
in(108, 62).
in(108, 65).
in(108, 70).
in(108, 73).
in(108, 75).
in(108, 80).
in(108, 82).
in(108, 84).
in(108, 85).
in(108, 89).
in(108, 91).
in(108, 92).
in(108, 95).
in(108, 97).
in(108, 99).
in(108, 101).
in(108, 102).
in(108, 104).
in(108, 105).
in(108, 106).
in(108, 107).
in(108, 110).
in(108, 112).
in(108, 116).
in(108, 117).
in(108, 119).
in(108, 120).
in(108, 121).
in(108, 123).
in(108, 124).
in(109, 128).
in(109, 3).
in(109, 4).
in(109, 6).
in(109, 10).
in(109, 12).
in(109, 15).
in(109, 16).
in(109, 18).
in(109, 23).
in(109, 24).
in(109, 27).
in(109, 32).
in(109, 34).
in(109, 37).
in(109, 41).
in(109, 42).
in(109, 43).
in(109, 49).
in(109, 51).
in(109, 53).
in(109, 54).
in(109, 59).
in(109, 61).
in(109, 62).
in(109, 65).
in(109, 66).
in(109, 70).
in(109, 72).
in(109, 73).
in(109, 75).
in(109, 76).
in(109, 78).
in(109, 81).
in(109, 82).
in(109, 85).
in(109, 86).
in(109, 87).
in(109, 89).
in(109, 92).
in(109, 93).
in(109, 95).
in(109, 98).
in(109, 101).
in(109, 104).
in(109, 107).
in(109, 111).
in(109, 112).
in(109, 114).
in(109, 115).
in(109, 116).
in(109, 117).
in(109, 118).
in(109, 119).
in(109, 120).
in(109, 125).
in(109, 127).
in(110, 1).
in(110, 2).
in(110, 3).
in(110, 4).
in(110, 5).
in(110, 6).
in(110, 8).
in(110, 10).
in(110, 12).
in(110, 15).
in(110, 16).
in(110, 18).
in(110, 20).
in(110, 24).
in(110, 26).
in(110, 28).
in(110, 29).
in(110, 30).
in(110, 31).
in(110, 32).
in(110, 33).
in(110, 35).
in(110, 36).
in(110, 39).
in(110, 43).
in(110, 46).
in(110, 47).
in(110, 48).
in(110, 50).
in(110, 53).
in(110, 54).
in(110, 55).
in(110, 56).
in(110, 59).
in(110, 62).
in(110, 66).
in(110, 68).
in(110, 69).
in(110, 71).
in(110, 72).
in(110, 73).
in(110, 76).
in(110, 78).
in(110, 80).
in(110, 83).
in(110, 87).
in(110, 88).
in(110, 89).
in(110, 90).
in(110, 92).
in(110, 94).
in(110, 96).
in(110, 98).
in(110, 101).
in(110, 102).
in(110, 105).
in(110, 106).
in(110, 107).
in(110, 108).
in(110, 114).
in(110, 117).
in(110, 120).
in(111, 128).
in(111, 1).
in(111, 2).
in(111, 4).
in(111, 7).
in(111, 9).
in(111, 10).
in(111, 15).
in(111, 16).
in(111, 17).
in(111, 19).
in(111, 20).
in(111, 21).
in(111, 25).
in(111, 29).
in(111, 32).
in(111, 35).
in(111, 37).
in(111, 40).
in(111, 41).
in(111, 46).
in(111, 48).
in(111, 52).
in(111, 54).
in(111, 61).
in(111, 63).
in(111, 64).
in(111, 65).
in(111, 66).
in(111, 68).
in(111, 69).
in(111, 75).
in(111, 77).
in(111, 81).
in(111, 84).
in(111, 85).
in(111, 86).
in(111, 87).
in(111, 88).
in(111, 89).
in(111, 92).
in(111, 94).
in(111, 98).
in(111, 100).
in(111, 101).
in(111, 102).
in(111, 103).
in(111, 107).
in(111, 108).
in(111, 110).
in(111, 112).
in(111, 115).
in(111, 116).
in(111, 117).
in(111, 120).
in(111, 121).
in(111, 126).
in(112, 1).
in(112, 5).
in(112, 6).
in(112, 8).
in(112, 10).
in(112, 11).
in(112, 16).
in(112, 17).
in(112, 21).
in(112, 22).
in(112, 24).
in(112, 25).
in(112, 26).
in(112, 29).
in(112, 30).
in(112, 31).
in(112, 34).
in(112, 42).
in(112, 43).
in(112, 52).
in(112, 55).
in(112, 57).
in(112, 58).
in(112, 63).
in(112, 65).
in(112, 66).
in(112, 70).
in(112, 75).
in(112, 76).
in(112, 77).
in(112, 79).
in(112, 83).
in(112, 86).
in(112, 91).
in(112, 92).
in(112, 93).
in(112, 94).
in(112, 97).
in(112, 98).
in(112, 100).
in(112, 101).
in(112, 103).
in(112, 104).
in(112, 105).
in(112, 107).
in(112, 109).
in(112, 111).
in(112, 112).
in(112, 113).
in(112, 115).
in(112, 117).
in(112, 120).
in(112, 121).
in(112, 123).
in(112, 125).
in(112, 126).
in(112, 127).
in(113, 1).
in(113, 3).
in(113, 4).
in(113, 6).
in(113, 8).
in(113, 17).
in(113, 18).
in(113, 19).
in(113, 21).
in(113, 22).
in(113, 23).
in(113, 25).
in(113, 26).
in(113, 31).
in(113, 32).
in(113, 36).
in(113, 37).
in(113, 39).
in(113, 42).
in(113, 44).
in(113, 50).
in(113, 51).
in(113, 52).
in(113, 53).
in(113, 56).
in(113, 58).
in(113, 61).
in(113, 63).
in(113, 68).
in(113, 69).
in(113, 70).
in(113, 71).
in(113, 73).
in(113, 74).
in(113, 78).
in(113, 80).
in(113, 84).
in(113, 88).
in(113, 89).
in(113, 92).
in(113, 96).
in(113, 99).
in(113, 101).
in(113, 102).
in(113, 103).
in(113, 106).
in(113, 110).
in(113, 111).
in(113, 115).
in(113, 118).
in(113, 120).
in(113, 121).
in(113, 122).
in(113, 125).
in(114, 1).
in(114, 2).
in(114, 4).
in(114, 8).
in(114, 10).
in(114, 11).
in(114, 14).
in(114, 15).
in(114, 16).
in(114, 17).
in(114, 19).
in(114, 24).
in(114, 25).
in(114, 27).
in(114, 28).
in(114, 31).
in(114, 32).
in(114, 42).
in(114, 45).
in(114, 48).
in(114, 50).
in(114, 53).
in(114, 55).
in(114, 58).
in(114, 59).
in(114, 68).
in(114, 69).
in(114, 73).
in(114, 75).
in(114, 77).
in(114, 79).
in(114, 83).
in(114, 85).
in(114, 86).
in(114, 87).
in(114, 90).
in(114, 91).
in(114, 93).
in(114, 94).
in(114, 96).
in(114, 97).
in(114, 99).
in(114, 100).
in(114, 101).
in(114, 104).
in(114, 107).
in(114, 108).
in(114, 111).
in(114, 113).
in(114, 116).
in(114, 117).
in(114, 118).
in(114, 122).
in(114, 124).
in(114, 125).
in(114, 126).
in(115, 1).
in(115, 2).
in(115, 3).
in(115, 5).
in(115, 6).
in(115, 9).
in(115, 13).
in(115, 14).
in(115, 15).
in(115, 16).
in(115, 17).
in(115, 18).
in(115, 19).
in(115, 20).
in(115, 26).
in(115, 27).
in(115, 29).
in(115, 30).
in(115, 31).
in(115, 32).
in(115, 33).
in(115, 34).
in(115, 36).
in(115, 38).
in(115, 39).
in(115, 41).
in(115, 42).
in(115, 43).
in(115, 46).
in(115, 47).
in(115, 48).
in(115, 50).
in(115, 51).
in(115, 52).
in(115, 53).
in(115, 54).
in(115, 55).
in(115, 56).
in(115, 57).
in(115, 58).
in(115, 59).
in(115, 60).
in(115, 61).
in(115, 65).
in(115, 66).
in(115, 67).
in(115, 68).
in(115, 70).
in(115, 71).
in(115, 72).
in(115, 76).
in(115, 77).
in(115, 79).
in(115, 80).
in(115, 82).
in(115, 83).
in(115, 85).
in(115, 88).
in(115, 89).
in(115, 93).
in(115, 95).
in(115, 97).
in(115, 98).
in(115, 99).
in(115, 100).
in(115, 101).
in(115, 102).
in(115, 104).
in(115, 105).
in(115, 108).
in(115, 109).
in(115, 117).
in(115, 119).
in(115, 121).
in(115, 123).
in(115, 127).
in(116, 128).
in(116, 1).
in(116, 3).
in(116, 6).
in(116, 9).
in(116, 10).
in(116, 13).
in(116, 14).
in(116, 16).
in(116, 21).
in(116, 23).
in(116, 30).
in(116, 31).
in(116, 34).
in(116, 35).
in(116, 36).
in(116, 38).
in(116, 42).
in(116, 45).
in(116, 49).
in(116, 58).
in(116, 59).
in(116, 63).
in(116, 64).
in(116, 67).
in(116, 68).
in(116, 70).
in(116, 73).
in(116, 79).
in(116, 80).
in(116, 82).
in(116, 83).
in(116, 87).
in(116, 89).
in(116, 90).
in(116, 91).
in(116, 94).
in(116, 95).
in(116, 96).
in(116, 99).
in(116, 100).
in(116, 103).
in(116, 104).
in(116, 105).
in(116, 108).
in(116, 109).
in(116, 110).
in(116, 117).
in(116, 119).
in(116, 121).
in(116, 122).
in(116, 123).
in(116, 126).
in(116, 127).
in(117, 2).
in(117, 3).
in(117, 7).
in(117, 10).
in(117, 12).
in(117, 13).
in(117, 15).
in(117, 18).
in(117, 21).
in(117, 23).
in(117, 26).
in(117, 28).
in(117, 31).
in(117, 33).
in(117, 34).
in(117, 35).
in(117, 36).
in(117, 38).
in(117, 39).
in(117, 40).
in(117, 44).
in(117, 45).
in(117, 48).
in(117, 51).
in(117, 52).
in(117, 54).
in(117, 56).
in(117, 60).
in(117, 61).
in(117, 62).
in(117, 68).
in(117, 74).
in(117, 80).
in(117, 81).
in(117, 82).
in(117, 83).
in(117, 89).
in(117, 90).
in(117, 91).
in(117, 95).
in(117, 97).
in(117, 98).
in(117, 101).
in(117, 110).
in(117, 111).
in(117, 112).
in(117, 116).
in(117, 123).
in(117, 124).
in(117, 125).
in(118, 1).
in(118, 2).
in(118, 3).
in(118, 4).
in(118, 5).
in(118, 6).
in(118, 12).
in(118, 13).
in(118, 20).
in(118, 23).
in(118, 25).
in(118, 27).
in(118, 28).
in(118, 29).
in(118, 30).
in(118, 33).
in(118, 34).
in(118, 35).
in(118, 36).
in(118, 38).
in(118, 39).
in(118, 40).
in(118, 41).
in(118, 46).
in(118, 47).
in(118, 50).
in(118, 51).
in(118, 52).
in(118, 53).
in(118, 55).
in(118, 60).
in(118, 66).
in(118, 67).
in(118, 72).
in(118, 77).
in(118, 78).
in(118, 79).
in(118, 82).
in(118, 86).
in(118, 88).
in(118, 92).
in(118, 98).
in(118, 100).
in(118, 102).
in(118, 103).
in(118, 104).
in(118, 105).
in(118, 106).
in(118, 109).
in(118, 110).
in(118, 111).
in(118, 113).
in(118, 114).
in(118, 121).
in(118, 123).
in(118, 124).
in(119, 128).
in(119, 1).
in(119, 5).
in(119, 7).
in(119, 9).
in(119, 12).
in(119, 13).
in(119, 16).
in(119, 17).
in(119, 19).
in(119, 20).
in(119, 24).
in(119, 33).
in(119, 34).
in(119, 38).
in(119, 39).
in(119, 43).
in(119, 45).
in(119, 49).
in(119, 50).
in(119, 51).
in(119, 54).
in(119, 57).
in(119, 58).
in(119, 60).
in(119, 66).
in(119, 69).
in(119, 73).
in(119, 78).
in(119, 84).
in(119, 85).
in(119, 87).
in(119, 88).
in(119, 91).
in(119, 93).
in(119, 95).
in(119, 104).
in(119, 107).
in(119, 111).
in(119, 112).
in(119, 113).
in(119, 114).
in(119, 115).
in(119, 116).
in(119, 119).
in(120, 128).
in(120, 1).
in(120, 3).
in(120, 4).
in(120, 6).
in(120, 10).
in(120, 11).
in(120, 12).
in(120, 14).
in(120, 15).
in(120, 20).
in(120, 21).
in(120, 25).
in(120, 28).
in(120, 29).
in(120, 30).
in(120, 38).
in(120, 41).
in(120, 43).
in(120, 46).
in(120, 53).
in(120, 59).
in(120, 65).
in(120, 66).
in(120, 67).
in(120, 68).
in(120, 69).
in(120, 72).
in(120, 75).
in(120, 78).
in(120, 79).
in(120, 81).
in(120, 82).
in(120, 83).
in(120, 84).
in(120, 86).
in(120, 90).
in(120, 94).
in(120, 95).
in(120, 97).
in(120, 101).
in(120, 102).
in(120, 104).
in(120, 105).
in(120, 106).
in(120, 107).
in(120, 113).
in(120, 116).
in(120, 118).
in(120, 119).
in(120, 121).
in(120, 123).
in(120, 124).
in(120, 126).
in(121, 2).
in(121, 5).
in(121, 6).
in(121, 7).
in(121, 8).
in(121, 10).
in(121, 11).
in(121, 12).
in(121, 13).
in(121, 14).
in(121, 21).
in(121, 22).
in(121, 23).
in(121, 25).
in(121, 26).
in(121, 27).
in(121, 28).
in(121, 29).
in(121, 31).
in(121, 34).
in(121, 36).
in(121, 37).
in(121, 43).
in(121, 44).
in(121, 45).
in(121, 48).
in(121, 49).
in(121, 53).
in(121, 55).
in(121, 59).
in(121, 62).
in(121, 64).
in(121, 67).
in(121, 68).
in(121, 69).
in(121, 70).
in(121, 72).
in(121, 73).
in(121, 74).
in(121, 78).
in(121, 85).
in(121, 86).
in(121, 87).
in(121, 91).
in(121, 92).
in(121, 96).
in(121, 98).
in(121, 99).
in(121, 103).
in(121, 106).
in(121, 108).
in(121, 109).
in(121, 111).
in(121, 113).
in(121, 114).
in(121, 116).
in(121, 117).
in(121, 122).
in(121, 124).
in(121, 127).
in(122, 128).
in(122, 2).
in(122, 3).
in(122, 4).
in(122, 5).
in(122, 9).
in(122, 10).
in(122, 11).
in(122, 13).
in(122, 15).
in(122, 18).
in(122, 20).
in(122, 23).
in(122, 26).
in(122, 28).
in(122, 31).
in(122, 32).
in(122, 36).
in(122, 37).
in(122, 39).
in(122, 41).
in(122, 42).
in(122, 44).
in(122, 45).
in(122, 47).
in(122, 48).
in(122, 50).
in(122, 51).
in(122, 62).
in(122, 64).
in(122, 65).
in(122, 66).
in(122, 68).
in(122, 71).
in(122, 73).
in(122, 79).
in(122, 81).
in(122, 82).
in(122, 84).
in(122, 87).
in(122, 93).
in(122, 95).
in(122, 96).
in(122, 98).
in(122, 101).
in(122, 102).
in(122, 103).
in(122, 107).
in(122, 108).
in(122, 109).
in(122, 110).
in(122, 111).
in(122, 112).
in(122, 113).
in(122, 116).
in(122, 117).
in(122, 118).
in(122, 120).
in(122, 122).
in(122, 123).
in(123, 4).
in(123, 7).
in(123, 10).
in(123, 13).
in(123, 15).
in(123, 17).
in(123, 18).
in(123, 19).
in(123, 21).
in(123, 22).
in(123, 27).
in(123, 28).
in(123, 29).
in(123, 33).
in(123, 36).
in(123, 37).
in(123, 39).
in(123, 44).
in(123, 45).
in(123, 46).
in(123, 48).
in(123, 53).
in(123, 54).
in(123, 58).
in(123, 59).
in(123, 62).
in(123, 63).
in(123, 64).
in(123, 67).
in(123, 69).
in(123, 72).
in(123, 73).
in(123, 74).
in(123, 80).
in(123, 81).
in(123, 82).
in(123, 83).
in(123, 96).
in(123, 97).
in(123, 98).
in(123, 99).
in(123, 104).
in(123, 106).
in(123, 107).
in(123, 109).
in(123, 111).
in(123, 112).
in(123, 117).
in(123, 118).
in(123, 122).
in(123, 123).
in(124, 128).
in(124, 4).
in(124, 5).
in(124, 6).
in(124, 7).
in(124, 8).
in(124, 10).
in(124, 11).
in(124, 13).
in(124, 17).
in(124, 21).
in(124, 22).
in(124, 27).
in(124, 28).
in(124, 29).
in(124, 31).
in(124, 36).
in(124, 40).
in(124, 47).
in(124, 48).
in(124, 50).
in(124, 52).
in(124, 54).
in(124, 55).
in(124, 57).
in(124, 59).
in(124, 60).
in(124, 62).
in(124, 63).
in(124, 65).
in(124, 67).
in(124, 71).
in(124, 77).
in(124, 78).
in(124, 79).
in(124, 82).
in(124, 83).
in(124, 84).
in(124, 85).
in(124, 87).
in(124, 88).
in(124, 90).
in(124, 92).
in(124, 94).
in(124, 95).
in(124, 96).
in(124, 99).
in(124, 102).
in(124, 103).
in(124, 105).
in(124, 106).
in(124, 107).
in(124, 109).
in(124, 112).
in(124, 115).
in(124, 118).
in(124, 119).
in(124, 122).
in(124, 123).
in(124, 124).
in(124, 125).
in(124, 126).
in(124, 127).
in(125, 1).
in(125, 2).
in(125, 3).
in(125, 8).
in(125, 9).
in(125, 11).
in(125, 17).
in(125, 18).
in(125, 20).
in(125, 21).
in(125, 23).
in(125, 24).
in(125, 26).
in(125, 30).
in(125, 31).
in(125, 36).
in(125, 37).
in(125, 38).
in(125, 42).
in(125, 43).
in(125, 45).
in(125, 46).
in(125, 49).
in(125, 51).
in(125, 56).
in(125, 57).
in(125, 59).
in(125, 60).
in(125, 61).
in(125, 62).
in(125, 63).
in(125, 64).
in(125, 67).
in(125, 68).
in(125, 71).
in(125, 72).
in(125, 73).
in(125, 84).
in(125, 85).
in(125, 87).
in(125, 90).
in(125, 91).
in(125, 93).
in(125, 95).
in(125, 96).
in(125, 99).
in(125, 100).
in(125, 102).
in(125, 105).
in(125, 106).
in(125, 108).
in(125, 109).
in(125, 110).
in(125, 111).
in(125, 113).
in(125, 117).
in(125, 120).
in(125, 122).
in(125, 123).
in(125, 124).
in(125, 125).
in(125, 126).
in(125, 127).
in(126, 3).
in(126, 10).
in(126, 14).
in(126, 15).
in(126, 16).
in(126, 18).
in(126, 19).
in(126, 20).
in(126, 21).
in(126, 22).
in(126, 24).
in(126, 25).
in(126, 31).
in(126, 36).
in(126, 38).
in(126, 41).
in(126, 42).
in(126, 46).
in(126, 50).
in(126, 51).
in(126, 57).
in(126, 58).
in(126, 60).
in(126, 64).
in(126, 66).
in(126, 73).
in(126, 74).
in(126, 75).
in(126, 76).
in(126, 80).
in(126, 81).
in(126, 84).
in(126, 89).
in(126, 90).
in(126, 92).
in(126, 94).
in(126, 96).
in(126, 99).
in(126, 100).
in(126, 101).
in(126, 102).
in(126, 105).
in(126, 106).
in(126, 107).
in(126, 112).
in(126, 115).
in(126, 116).
in(126, 119).
in(126, 121).
in(126, 122).
in(126, 126).
in(127, 128).
in(127, 3).
in(127, 4).
in(127, 9).
in(127, 13).
in(127, 14).
in(127, 15).
in(127, 16).
in(127, 18).
in(127, 21).
in(127, 22).
in(127, 24).
in(127, 25).
in(127, 28).
in(127, 31).
in(127, 34).
in(127, 37).
in(127, 41).
in(127, 46).
in(127, 47).
in(127, 48).
in(127, 52).
in(127, 54).
in(127, 55).
in(127, 56).
in(127, 59).
in(127, 64).
in(127, 65).
in(127, 67).
in(127, 68).
in(127, 70).
in(127, 74).
in(127, 75).
in(127, 77).
in(127, 79).
in(127, 82).
in(127, 85).
in(127, 86).
in(127, 87).
in(127, 89).
in(127, 91).
in(127, 92).
in(127, 93).
in(127, 94).
in(127, 95).
in(127, 100).
in(127, 101).
in(127, 102).
in(127, 103).
in(127, 104).
in(127, 105).
in(127, 106).
in(127, 107).
in(127, 108).
in(127, 110).
in(127, 111).
in(127, 114).
in(127, 117).
in(127, 118).
in(127, 122).
in(127, 123).
in(127, 125).
in(127, 127).
in(128, 128).
in(128, 2).
in(128, 8).
in(128, 13).
in(128, 15).
in(128, 16).
in(128, 17).
in(128, 19).
in(128, 20).
in(128, 23).
in(128, 25).
in(128, 26).
in(128, 27).
in(128, 29).
in(128, 30).
in(128, 31).
in(128, 32).
in(128, 36).
in(128, 38).
in(128, 39).
in(128, 40).
in(128, 46).
in(128, 52).
in(128, 53).
in(128, 57).
in(128, 58).
in(128, 61).
in(128, 62).
in(128, 64).
in(128, 66).
in(128, 67).
in(128, 68).
in(128, 70).
in(128, 71).
in(128, 73).
in(128, 74).
in(128, 79).
in(128, 80).
in(128, 81).
in(128, 87).
in(128, 91).
in(128, 92).
in(128, 95).
in(128, 97).
in(128, 98).
in(128, 100).
in(128, 102).
in(128, 103).
in(128, 104).
in(128, 108).
in(128, 109).
in(128, 110).
in(128, 113).
in(128, 114).
in(128, 117).
in(128, 118).
in(128, 119).
in(128, 120).
in(128, 121).
in(128, 122).
in(128, 123).
in(128, 126).
in(129, 128).
in(129, 1).
in(129, 2).
in(129, 4).
in(129, 5).
in(129, 6).
in(129, 7).
in(129, 8).
in(129, 11).
in(129, 17).
in(129, 18).
in(129, 20).
in(129, 21).
in(129, 22).
in(129, 23).
in(129, 24).
in(129, 26).
in(129, 28).
in(129, 29).
in(129, 30).
in(129, 31).
in(129, 35).
in(129, 36).
in(129, 42).
in(129, 43).
in(129, 47).
in(129, 48).
in(129, 49).
in(129, 54).
in(129, 57).
in(129, 58).
in(129, 60).
in(129, 63).
in(129, 64).
in(129, 66).
in(129, 67).
in(129, 69).
in(129, 70).
in(129, 74).
in(129, 76).
in(129, 83).
in(129, 84).
in(129, 85).
in(129, 86).
in(129, 89).
in(129, 90).
in(129, 91).
in(129, 92).
in(129, 93).
in(129, 94).
in(129, 96).
in(129, 97).
in(129, 98).
in(129, 99).
in(129, 101).
in(129, 102).
in(129, 104).
in(129, 105).
in(129, 106).
in(129, 107).
in(129, 112).
in(129, 113).
in(129, 115).
in(129, 117).
in(129, 118).
in(129, 120).
in(129, 121).
in(129, 125).
in(129, 126).
in(130, 2).
in(130, 6).
in(130, 8).
in(130, 10).
in(130, 12).
in(130, 13).
in(130, 15).
in(130, 25).
in(130, 26).
in(130, 28).
in(130, 29).
in(130, 31).
in(130, 33).
in(130, 37).
in(130, 38).
in(130, 45).
in(130, 48).
in(130, 49).
in(130, 50).
in(130, 53).
in(130, 55).
in(130, 56).
in(130, 57).
in(130, 58).
in(130, 60).
in(130, 61).
in(130, 63).
in(130, 64).
in(130, 65).
in(130, 67).
in(130, 71).
in(130, 72).
in(130, 73).
in(130, 74).
in(130, 75).
in(130, 78).
in(130, 81).
in(130, 83).
in(130, 86).
in(130, 89).
in(130, 92).
in(130, 94).
in(130, 95).
in(130, 96).
in(130, 97).
in(130, 110).
in(130, 114).
in(130, 116).
in(130, 117).
in(130, 121).
in(130, 122).
in(130, 126).
in(131, 1).
in(131, 2).
in(131, 3).
in(131, 4).
in(131, 7).
in(131, 13).
in(131, 16).
in(131, 17).
in(131, 23).
in(131, 24).
in(131, 25).
in(131, 29).
in(131, 30).
in(131, 32).
in(131, 37).
in(131, 41).
in(131, 43).
in(131, 44).
in(131, 45).
in(131, 46).
in(131, 48).
in(131, 50).
in(131, 52).
in(131, 53).
in(131, 54).
in(131, 55).
in(131, 57).
in(131, 60).
in(131, 62).
in(131, 64).
in(131, 66).
in(131, 73).
in(131, 74).
in(131, 76).
in(131, 78).
in(131, 83).
in(131, 84).
in(131, 85).
in(131, 86).
in(131, 87).
in(131, 88).
in(131, 89).
in(131, 91).
in(131, 92).
in(131, 93).
in(131, 101).
in(131, 102).
in(131, 103).
in(131, 104).
in(131, 106).
in(131, 107).
in(131, 110).
in(131, 113).
in(131, 116).
in(131, 117).
in(131, 121).
in(131, 124).
in(131, 126).
in(132, 1).
in(132, 2).
in(132, 4).
in(132, 5).
in(132, 6).
in(132, 8).
in(132, 9).
in(132, 10).
in(132, 11).
in(132, 13).
in(132, 14).
in(132, 15).
in(132, 17).
in(132, 20).
in(132, 22).
in(132, 25).
in(132, 27).
in(132, 28).
in(132, 29).
in(132, 30).
in(132, 32).
in(132, 33).
in(132, 34).
in(132, 37).
in(132, 39).
in(132, 40).
in(132, 45).
in(132, 47).
in(132, 48).
in(132, 49).
in(132, 50).
in(132, 51).
in(132, 52).
in(132, 55).
in(132, 56).
in(132, 57).
in(132, 59).
in(132, 66).
in(132, 67).
in(132, 68).
in(132, 69).
in(132, 74).
in(132, 76).
in(132, 77).
in(132, 80).
in(132, 83).
in(132, 85).
in(132, 87).
in(132, 90).
in(132, 92).
in(132, 94).
in(132, 99).
in(132, 100).
in(132, 102).
in(132, 105).
in(132, 106).
in(132, 108).
in(132, 111).
in(132, 114).
in(132, 116).
in(132, 117).
in(132, 118).
in(132, 121).
in(132, 123).
in(132, 125).
in(132, 127).
in(133, 128).
in(133, 2).
in(133, 6).
in(133, 12).
in(133, 13).
in(133, 14).
in(133, 17).
in(133, 18).
in(133, 22).
in(133, 27).
in(133, 29).
in(133, 31).
in(133, 33).
in(133, 34).
in(133, 40).
in(133, 41).
in(133, 42).
in(133, 43).
in(133, 46).
in(133, 47).
in(133, 51).
in(133, 54).
in(133, 55).
in(133, 64).
in(133, 66).
in(133, 68).
in(133, 73).
in(133, 74).
in(133, 78).
in(133, 80).
in(133, 81).
in(133, 84).
in(133, 85).
in(133, 86).
in(133, 87).
in(133, 88).
in(133, 90).
in(133, 91).
in(133, 94).
in(133, 95).
in(133, 97).
in(133, 104).
in(133, 105).
in(133, 106).
in(133, 108).
in(133, 112).
in(133, 114).
in(133, 115).
in(133, 117).
in(133, 118).
in(133, 119).
in(133, 122).
in(133, 123).
in(133, 125).
in(133, 127).
in(134, 11).
in(134, 19).
in(134, 21).
in(134, 23).
in(134, 25).
in(134, 27).
in(134, 30).
in(134, 32).
in(134, 33).
in(134, 34).
in(134, 35).
in(134, 36).
in(134, 37).
in(134, 38).
in(134, 39).
in(134, 42).
in(134, 44).
in(134, 45).
in(134, 49).
in(134, 51).
in(134, 55).
in(134, 57).
in(134, 61).
in(134, 64).
in(134, 65).
in(134, 67).
in(134, 68).
in(134, 71).
in(134, 72).
in(134, 73).
in(134, 75).
in(134, 76).
in(134, 77).
in(134, 79).
in(134, 81).
in(134, 82).
in(134, 85).
in(134, 87).
in(134, 89).
in(134, 94).
in(134, 96).
in(134, 99).
in(134, 101).
in(134, 104).
in(134, 106).
in(134, 107).
in(134, 112).
in(134, 115).
in(134, 116).
in(134, 117).
in(134, 119).
in(134, 120).
in(134, 121).
in(134, 124).
in(135, 128).
in(135, 2).
in(135, 5).
in(135, 6).
in(135, 13).
in(135, 16).
in(135, 17).
in(135, 18).
in(135, 19).
in(135, 23).
in(135, 27).
in(135, 28).
in(135, 29).
in(135, 30).
in(135, 31).
in(135, 34).
in(135, 38).
in(135, 39).
in(135, 40).
in(135, 42).
in(135, 48).
in(135, 50).
in(135, 53).
in(135, 54).
in(135, 55).
in(135, 57).
in(135, 58).
in(135, 60).
in(135, 61).
in(135, 62).
in(135, 68).
in(135, 69).
in(135, 76).
in(135, 79).
in(135, 80).
in(135, 82).
in(135, 85).
in(135, 86).
in(135, 89).
in(135, 92).
in(135, 93).
in(135, 94).
in(135, 95).
in(135, 100).
in(135, 101).
in(135, 102).
in(135, 103).
in(135, 105).
in(135, 108).
in(135, 110).
in(135, 112).
in(135, 114).
in(135, 116).
in(135, 117).
in(135, 118).
in(135, 121).
in(135, 122).
in(135, 123).
in(135, 124).
in(136, 2).
in(136, 4).
in(136, 5).
in(136, 6).
in(136, 7).
in(136, 9).
in(136, 10).
in(136, 12).
in(136, 13).
in(136, 14).
in(136, 17).
in(136, 22).
in(136, 24).
in(136, 26).
in(136, 27).
in(136, 29).
in(136, 31).
in(136, 32).
in(136, 34).
in(136, 35).
in(136, 40).
in(136, 42).
in(136, 44).
in(136, 45).
in(136, 46).
in(136, 47).
in(136, 48).
in(136, 52).
in(136, 53).
in(136, 54).
in(136, 58).
in(136, 62).
in(136, 63).
in(136, 64).
in(136, 66).
in(136, 71).
in(136, 72).
in(136, 78).
in(136, 81).
in(136, 84).
in(136, 86).
in(136, 91).
in(136, 92).
in(136, 94).
in(136, 95).
in(136, 99).
in(136, 101).
in(136, 102).
in(136, 104).
in(136, 106).
in(136, 111).
in(136, 112).
in(136, 114).
in(136, 115).
in(136, 117).
in(136, 118).
in(136, 123).
in(136, 124).
in(136, 125).
in(136, 126).
in(136, 127).
in(137, 128).
in(137, 1).
in(137, 3).
in(137, 6).
in(137, 9).
in(137, 10).
in(137, 11).
in(137, 12).
in(137, 14).
in(137, 17).
in(137, 18).
in(137, 26).
in(137, 27).
in(137, 29).
in(137, 30).
in(137, 32).
in(137, 34).
in(137, 35).
in(137, 36).
in(137, 37).
in(137, 38).
in(137, 39).
in(137, 40).
in(137, 42).
in(137, 44).
in(137, 47).
in(137, 48).
in(137, 49).
in(137, 50).
in(137, 51).
in(137, 57).
in(137, 61).
in(137, 63).
in(137, 65).
in(137, 66).
in(137, 67).
in(137, 68).
in(137, 69).
in(137, 76).
in(137, 77).
in(137, 78).
in(137, 80).
in(137, 81).
in(137, 82).
in(137, 83).
in(137, 87).
in(137, 88).
in(137, 89).
in(137, 92).
in(137, 93).
in(137, 97).
in(137, 102).
in(137, 103).
in(137, 105).
in(137, 108).
in(137, 109).
in(137, 111).
in(137, 113).
in(137, 114).
in(137, 118).
in(137, 122).
in(137, 125).
in(137, 126).
in(137, 127).
in(138, 1).
in(138, 2).
in(138, 3).
in(138, 6).
in(138, 7).
in(138, 9).
in(138, 11).
in(138, 17).
in(138, 18).
in(138, 23).
in(138, 24).
in(138, 28).
in(138, 31).
in(138, 34).
in(138, 37).
in(138, 38).
in(138, 39).
in(138, 40).
in(138, 42).
in(138, 44).
in(138, 45).
in(138, 47).
in(138, 48).
in(138, 49).
in(138, 50).
in(138, 51).
in(138, 52).
in(138, 54).
in(138, 58).
in(138, 60).
in(138, 62).
in(138, 63).
in(138, 70).
in(138, 71).
in(138, 72).
in(138, 77).
in(138, 80).
in(138, 81).
in(138, 85).
in(138, 91).
in(138, 92).
in(138, 93).
in(138, 94).
in(138, 96).
in(138, 98).
in(138, 99).
in(138, 103).
in(138, 105).
in(138, 106).
in(138, 110).
in(138, 112).
in(138, 117).
in(138, 118).
in(138, 120).
in(138, 123).
in(138, 125).
in(139, 128).
in(139, 2).
in(139, 3).
in(139, 4).
in(139, 5).
in(139, 6).
in(139, 9).
in(139, 10).
in(139, 12).
in(139, 13).
in(139, 15).
in(139, 19).
in(139, 22).
in(139, 23).
in(139, 24).
in(139, 27).
in(139, 28).
in(139, 29).
in(139, 30).
in(139, 33).
in(139, 34).
in(139, 38).
in(139, 39).
in(139, 41).
in(139, 43).
in(139, 48).
in(139, 49).
in(139, 50).
in(139, 51).
in(139, 52).
in(139, 53).
in(139, 58).
in(139, 59).
in(139, 61).
in(139, 63).
in(139, 65).
in(139, 66).
in(139, 67).
in(139, 72).
in(139, 74).
in(139, 76).
in(139, 77).
in(139, 80).
in(139, 88).
in(139, 89).
in(139, 90).
in(139, 93).
in(139, 95).
in(139, 96).
in(139, 98).
in(139, 99).
in(139, 100).
in(139, 101).
in(139, 105).
in(139, 107).
in(139, 108).
in(139, 109).
in(139, 113).
in(139, 114).
in(139, 115).
in(139, 117).
in(139, 125).
in(139, 126).
in(139, 127).
in(140, 2).
in(140, 3).
in(140, 8).
in(140, 10).
in(140, 12).
in(140, 14).
in(140, 17).
in(140, 26).
in(140, 30).
in(140, 31).
in(140, 32).
in(140, 33).
in(140, 39).
in(140, 42).
in(140, 45).
in(140, 47).
in(140, 51).
in(140, 54).
in(140, 57).
in(140, 58).
in(140, 59).
in(140, 60).
in(140, 61).
in(140, 62).
in(140, 63).
in(140, 64).
in(140, 65).
in(140, 66).
in(140, 68).
in(140, 69).
in(140, 71).
in(140, 74).
in(140, 79).
in(140, 86).
in(140, 88).
in(140, 89).
in(140, 90).
in(140, 93).
in(140, 94).
in(140, 96).
in(140, 98).
in(140, 100).
in(140, 104).
in(140, 105).
in(140, 106).
in(140, 109).
in(140, 111).
in(140, 119).
in(140, 120).
in(140, 122).
in(140, 124).
in(140, 125).
in(141, 1).
in(141, 3).
in(141, 5).
in(141, 6).
in(141, 10).
in(141, 13).
in(141, 17).
in(141, 18).
in(141, 20).
in(141, 23).
in(141, 24).
in(141, 25).
in(141, 26).
in(141, 28).
in(141, 30).
in(141, 31).
in(141, 32).
in(141, 34).
in(141, 36).
in(141, 44).
in(141, 48).
in(141, 49).
in(141, 50).
in(141, 51).
in(141, 52).
in(141, 55).
in(141, 56).
in(141, 57).
in(141, 59).
in(141, 60).
in(141, 61).
in(141, 64).
in(141, 66).
in(141, 67).
in(141, 69).
in(141, 70).
in(141, 71).
in(141, 73).
in(141, 74).
in(141, 77).
in(141, 80).
in(141, 82).
in(141, 83).
in(141, 87).
in(141, 89).
in(141, 90).
in(141, 91).
in(141, 92).
in(141, 93).
in(141, 97).
in(141, 103).
in(141, 104).
in(141, 105).
in(141, 106).
in(141, 112).
in(141, 116).
in(141, 118).
in(141, 121).
in(141, 122).
in(141, 123).
in(141, 127).
in(142, 128).
in(142, 2).
in(142, 4).
in(142, 13).
in(142, 17).
in(142, 20).
in(142, 26).
in(142, 28).
in(142, 31).
in(142, 39).
in(142, 40).
in(142, 41).
in(142, 46).
in(142, 47).
in(142, 48).
in(142, 49).
in(142, 54).
in(142, 55).
in(142, 56).
in(142, 57).
in(142, 63).
in(142, 64).
in(142, 65).
in(142, 66).
in(142, 67).
in(142, 72).
in(142, 73).
in(142, 75).
in(142, 80).
in(142, 82).
in(142, 84).
in(142, 85).
in(142, 87).
in(142, 88).
in(142, 91).
in(142, 93).
in(142, 94).
in(142, 95).
in(142, 96).
in(142, 97).
in(142, 100).
in(142, 104).
in(142, 109).
in(142, 111).
in(142, 112).
in(142, 113).
in(142, 114).
in(142, 115).
in(142, 118).
in(142, 120).
in(142, 121).
in(142, 126).
in(143, 2).
in(143, 3).
in(143, 5).
in(143, 6).
in(143, 8).
in(143, 10).
in(143, 13).
in(143, 14).
in(143, 16).
in(143, 20).
in(143, 22).
in(143, 26).
in(143, 27).
in(143, 28).
in(143, 29).
in(143, 30).
in(143, 32).
in(143, 42).
in(143, 49).
in(143, 50).
in(143, 51).
in(143, 53).
in(143, 55).
in(143, 56).
in(143, 57).
in(143, 61).
in(143, 62).
in(143, 65).
in(143, 66).
in(143, 70).
in(143, 71).
in(143, 73).
in(143, 74).
in(143, 75).
in(143, 76).
in(143, 77).
in(143, 79).
in(143, 80).
in(143, 84).
in(143, 90).
in(143, 91).
in(143, 94).
in(143, 98).
in(143, 101).
in(143, 104).
in(143, 107).
in(143, 108).
in(143, 109).
in(143, 110).
in(143, 112).
in(143, 114).
in(143, 115).
in(143, 116).
in(143, 117).
in(143, 120).
in(143, 124).
in(143, 125).
in(143, 126).
in(143, 127).
in(144, 128).
in(144, 1).
in(144, 4).
in(144, 5).
in(144, 8).
in(144, 12).
in(144, 13).
in(144, 14).
in(144, 20).
in(144, 21).
in(144, 25).
in(144, 26).
in(144, 34).
in(144, 35).
in(144, 38).
in(144, 39).
in(144, 41).
in(144, 44).
in(144, 47).
in(144, 50).
in(144, 52).
in(144, 53).
in(144, 55).
in(144, 57).
in(144, 58).
in(144, 59).
in(144, 60).
in(144, 61).
in(144, 62).
in(144, 64).
in(144, 67).
in(144, 69).
in(144, 70).
in(144, 71).
in(144, 72).
in(144, 73).
in(144, 78).
in(144, 80).
in(144, 83).
in(144, 86).
in(144, 87).
in(144, 88).
in(144, 91).
in(144, 95).
in(144, 96).
in(144, 98).
in(144, 103).
in(144, 104).
in(144, 105).
in(144, 106).
in(144, 110).
in(144, 111).
in(144, 116).
in(144, 118).
in(144, 119).
in(144, 120).
in(144, 125).
in(144, 127).
in(145, 2).
in(145, 7).
in(145, 12).
in(145, 13).
in(145, 14).
in(145, 15).
in(145, 16).
in(145, 17).
in(145, 18).
in(145, 19).
in(145, 21).
in(145, 22).
in(145, 25).
in(145, 30).
in(145, 31).
in(145, 33).
in(145, 35).
in(145, 36).
in(145, 39).
in(145, 42).
in(145, 43).
in(145, 44).
in(145, 46).
in(145, 48).
in(145, 49).
in(145, 53).
in(145, 55).
in(145, 60).
in(145, 61).
in(145, 63).
in(145, 66).
in(145, 69).
in(145, 70).
in(145, 76).
in(145, 78).
in(145, 82).
in(145, 84).
in(145, 85).
in(145, 86).
in(145, 87).
in(145, 88).
in(145, 89).
in(145, 95).
in(145, 96).
in(145, 97).
in(145, 99).
in(145, 104).
in(145, 105).
in(145, 108).
in(145, 111).
in(145, 113).
in(145, 115).
in(145, 118).
in(145, 119).
in(145, 121).
in(145, 122).
in(145, 123).
in(145, 124).
in(145, 125).
in(145, 127).
in(146, 2).
in(146, 3).
in(146, 4).
in(146, 5).
in(146, 8).
in(146, 15).
in(146, 21).
in(146, 26).
in(146, 27).
in(146, 28).
in(146, 31).
in(146, 33).
in(146, 38).
in(146, 40).
in(146, 41).
in(146, 45).
in(146, 46).
in(146, 47).
in(146, 49).
in(146, 52).
in(146, 60).
in(146, 62).
in(146, 65).
in(146, 67).
in(146, 68).
in(146, 70).
in(146, 72).
in(146, 74).
in(146, 76).
in(146, 78).
in(146, 79).
in(146, 80).
in(146, 81).
in(146, 84).
in(146, 85).
in(146, 87).
in(146, 95).
in(146, 96).
in(146, 97).
in(146, 99).
in(146, 102).
in(146, 104).
in(146, 106).
in(146, 107).
in(146, 111).
in(146, 113).
in(146, 115).
in(146, 116).
in(146, 118).
in(146, 119).
in(146, 120).
in(146, 127).
in(147, 1).
in(147, 2).
in(147, 3).
in(147, 4).
in(147, 5).
in(147, 6).
in(147, 8).
in(147, 9).
in(147, 11).
in(147, 13).
in(147, 14).
in(147, 17).
in(147, 18).
in(147, 23).
in(147, 25).
in(147, 27).
in(147, 30).
in(147, 31).
in(147, 34).
in(147, 39).
in(147, 41).
in(147, 42).
in(147, 43).
in(147, 45).
in(147, 47).
in(147, 49).
in(147, 50).
in(147, 51).
in(147, 54).
in(147, 55).
in(147, 57).
in(147, 58).
in(147, 61).
in(147, 62).
in(147, 65).
in(147, 70).
in(147, 73).
in(147, 75).
in(147, 77).
in(147, 79).
in(147, 80).
in(147, 81).
in(147, 83).
in(147, 84).
in(147, 87).
in(147, 91).
in(147, 92).
in(147, 98).
in(147, 99).
in(147, 100).
in(147, 103).
in(147, 105).
in(147, 107).
in(147, 109).
in(147, 112).
in(147, 114).
in(147, 115).
in(147, 118).
in(147, 119).
in(147, 120).
in(147, 121).
in(147, 122).
in(147, 125).
in(148, 2).
in(148, 5).
in(148, 6).
in(148, 8).
in(148, 11).
in(148, 12).
in(148, 16).
in(148, 17).
in(148, 20).
in(148, 21).
in(148, 23).
in(148, 25).
in(148, 27).
in(148, 32).
in(148, 36).
in(148, 38).
in(148, 39).
in(148, 41).
in(148, 44).
in(148, 45).
in(148, 46).
in(148, 48).
in(148, 49).
in(148, 53).
in(148, 54).
in(148, 57).
in(148, 62).
in(148, 68).
in(148, 69).
in(148, 70).
in(148, 71).
in(148, 75).
in(148, 78).
in(148, 80).
in(148, 81).
in(148, 82).
in(148, 85).
in(148, 86).
in(148, 88).
in(148, 90).
in(148, 94).
in(148, 95).
in(148, 96).
in(148, 100).
in(148, 102).
in(148, 104).
in(148, 107).
in(148, 110).
in(148, 112).
in(148, 113).
in(148, 114).
in(148, 115).
in(148, 116).
in(148, 118).
in(148, 119).
in(148, 121).
in(148, 124).
in(149, 2).
in(149, 3).
in(149, 5).
in(149, 6).
in(149, 8).
in(149, 9).
in(149, 10).
in(149, 12).
in(149, 13).
in(149, 14).
in(149, 16).
in(149, 17).
in(149, 18).
in(149, 24).
in(149, 25).
in(149, 28).
in(149, 29).
in(149, 30).
in(149, 31).
in(149, 33).
in(149, 34).
in(149, 38).
in(149, 40).
in(149, 41).
in(149, 47).
in(149, 50).
in(149, 55).
in(149, 57).
in(149, 58).
in(149, 60).
in(149, 62).
in(149, 63).
in(149, 64).
in(149, 65).
in(149, 67).
in(149, 68).
in(149, 71).
in(149, 73).
in(149, 74).
in(149, 81).
in(149, 84).
in(149, 85).
in(149, 86).
in(149, 88).
in(149, 89).
in(149, 91).
in(149, 92).
in(149, 95).
in(149, 98).
in(149, 99).
in(149, 103).
in(149, 104).
in(149, 106).
in(149, 107).
in(149, 108).
in(149, 109).
in(149, 116).
in(149, 119).
in(149, 120).
in(149, 122).
in(149, 126).
in(150, 128).
in(150, 4).
in(150, 9).
in(150, 10).
in(150, 11).
in(150, 17).
in(150, 18).
in(150, 19).
in(150, 20).
in(150, 21).
in(150, 25).
in(150, 26).
in(150, 27).
in(150, 29).
in(150, 31).
in(150, 32).
in(150, 33).
in(150, 35).
in(150, 38).
in(150, 40).
in(150, 42).
in(150, 43).
in(150, 44).
in(150, 45).
in(150, 47).
in(150, 50).
in(150, 51).
in(150, 53).
in(150, 54).
in(150, 55).
in(150, 56).
in(150, 59).
in(150, 62).
in(150, 63).
in(150, 78).
in(150, 80).
in(150, 82).
in(150, 84).
in(150, 86).
in(150, 93).
in(150, 95).
in(150, 97).
in(150, 98).
in(150, 99).
in(150, 100).
in(150, 104).
in(150, 107).
in(150, 108).
in(150, 109).
in(150, 110).
in(150, 111).
in(150, 112).
in(150, 115).
in(150, 118).
in(150, 119).
in(150, 120).
in(150, 123).
in(150, 126).
in(150, 127).
in(151, 3).
in(151, 4).
in(151, 5).
in(151, 9).
in(151, 12).
in(151, 13).
in(151, 14).
in(151, 16).
in(151, 19).
in(151, 21).
in(151, 24).
in(151, 26).
in(151, 28).
in(151, 29).
in(151, 30).
in(151, 35).
in(151, 36).
in(151, 39).
in(151, 41).
in(151, 42).
in(151, 43).
in(151, 47).
in(151, 48).
in(151, 49).
in(151, 51).
in(151, 53).
in(151, 54).
in(151, 55).
in(151, 57).
in(151, 58).
in(151, 59).
in(151, 61).
in(151, 63).
in(151, 64).
in(151, 66).
in(151, 69).
in(151, 72).
in(151, 75).
in(151, 76).
in(151, 79).
in(151, 80).
in(151, 81).
in(151, 82).
in(151, 84).
in(151, 86).
in(151, 87).
in(151, 88).
in(151, 89).
in(151, 94).
in(151, 95).
in(151, 96).
in(151, 100).
in(151, 104).
in(151, 105).
in(151, 107).
in(151, 108).
in(151, 109).
in(151, 115).
in(151, 118).
in(151, 121).
in(151, 123).
in(151, 125).
in(152, 2).
in(152, 3).
in(152, 4).
in(152, 5).
in(152, 8).
in(152, 10).
in(152, 12).
in(152, 13).
in(152, 14).
in(152, 17).
in(152, 19).
in(152, 20).
in(152, 21).
in(152, 24).
in(152, 26).
in(152, 33).
in(152, 34).
in(152, 36).
in(152, 44).
in(152, 50).
in(152, 53).
in(152, 54).
in(152, 55).
in(152, 56).
in(152, 59).
in(152, 62).
in(152, 65).
in(152, 69).
in(152, 71).
in(152, 73).
in(152, 74).
in(152, 75).
in(152, 79).
in(152, 80).
in(152, 81).
in(152, 83).
in(152, 84).
in(152, 85).
in(152, 94).
in(152, 95).
in(152, 96).
in(152, 97).
in(152, 98).
in(152, 100).
in(152, 104).
in(152, 107).
in(152, 108).
in(152, 110).
in(152, 111).
in(152, 112).
in(152, 113).
in(152, 116).
in(152, 120).
in(152, 122).
in(152, 125).
in(152, 126).
in(152, 127).
in(153, 4).
in(153, 5).
in(153, 6).
in(153, 8).
in(153, 13).
in(153, 14).
in(153, 17).
in(153, 18).
in(153, 19).
in(153, 20).
in(153, 24).
in(153, 25).
in(153, 27).
in(153, 28).
in(153, 31).
in(153, 32).
in(153, 34).
in(153, 35).
in(153, 38).
in(153, 39).
in(153, 43).
in(153, 44).
in(153, 45).
in(153, 49).
in(153, 57).
in(153, 62).
in(153, 63).
in(153, 64).
in(153, 65).
in(153, 66).
in(153, 67).
in(153, 71).
in(153, 72).
in(153, 73).
in(153, 75).
in(153, 79).
in(153, 81).
in(153, 82).
in(153, 83).
in(153, 85).
in(153, 86).
in(153, 88).
in(153, 89).
in(153, 92).
in(153, 93).
in(153, 95).
in(153, 99).
in(153, 100).
in(153, 101).
in(153, 102).
in(153, 103).
in(153, 104).
in(153, 105).
in(153, 106).
in(153, 109).
in(153, 110).
in(153, 111).
in(153, 114).
in(153, 118).
in(153, 121).
in(153, 123).
in(153, 124).
in(153, 125).
in(153, 126).
in(153, 127).
in(154, 2).
in(154, 4).
in(154, 6).
in(154, 7).
in(154, 9).
in(154, 10).
in(154, 11).
in(154, 15).
in(154, 16).
in(154, 17).
in(154, 19).
in(154, 20).
in(154, 25).
in(154, 26).
in(154, 27).
in(154, 29).
in(154, 30).
in(154, 33).
in(154, 36).
in(154, 38).
in(154, 44).
in(154, 49).
in(154, 50).
in(154, 52).
in(154, 53).
in(154, 54).
in(154, 55).
in(154, 57).
in(154, 58).
in(154, 59).
in(154, 61).
in(154, 66).
in(154, 68).
in(154, 72).
in(154, 73).
in(154, 74).
in(154, 75).
in(154, 76).
in(154, 80).
in(154, 85).
in(154, 88).
in(154, 90).
in(154, 91).
in(154, 92).
in(154, 94).
in(154, 95).
in(154, 96).
in(154, 98).
in(154, 99).
in(154, 100).
in(154, 102).
in(154, 109).
in(154, 110).
in(154, 111).
in(154, 112).
in(154, 113).
in(154, 114).
in(154, 115).
in(154, 116).
in(154, 117).
in(154, 119).
in(154, 121).
in(154, 123).
in(154, 124).
in(154, 125).
in(154, 126).
in(155, 128).
in(155, 1).
in(155, 2).
in(155, 5).
in(155, 8).
in(155, 9).
in(155, 12).
in(155, 14).
in(155, 18).
in(155, 20).
in(155, 26).
in(155, 27).
in(155, 32).
in(155, 34).
in(155, 35).
in(155, 37).
in(155, 38).
in(155, 40).
in(155, 42).
in(155, 44).
in(155, 50).
in(155, 51).
in(155, 53).
in(155, 54).
in(155, 56).
in(155, 59).
in(155, 60).
in(155, 61).
in(155, 62).
in(155, 65).
in(155, 66).
in(155, 68).
in(155, 70).
in(155, 71).
in(155, 72).
in(155, 73).
in(155, 76).
in(155, 79).
in(155, 82).
in(155, 83).
in(155, 86).
in(155, 87).
in(155, 90).
in(155, 96).
in(155, 97).
in(155, 99).
in(155, 100).
in(155, 101).
in(155, 103).
in(155, 105).
in(155, 108).
in(155, 111).
in(155, 112).
in(155, 113).
in(155, 114).
in(155, 115).
in(155, 122).
in(155, 123).
in(155, 124).
in(156, 5).
in(156, 6).
in(156, 11).
in(156, 14).
in(156, 15).
in(156, 16).
in(156, 17).
in(156, 21).
in(156, 22).
in(156, 23).
in(156, 24).
in(156, 26).
in(156, 29).
in(156, 33).
in(156, 34).
in(156, 35).
in(156, 36).
in(156, 39).
in(156, 42).
in(156, 43).
in(156, 47).
in(156, 51).
in(156, 52).
in(156, 55).
in(156, 59).
in(156, 61).
in(156, 64).
in(156, 67).
in(156, 68).
in(156, 73).
in(156, 74).
in(156, 75).
in(156, 76).
in(156, 78).
in(156, 82).
in(156, 85).
in(156, 88).
in(156, 96).
in(156, 97).
in(156, 99).
in(156, 100).
in(156, 102).
in(156, 104).
in(156, 105).
in(156, 106).
in(156, 108).
in(156, 110).
in(156, 115).
in(156, 116).
in(156, 117).
in(156, 119).
in(156, 121).
in(156, 123).
in(156, 124).
in(156, 126).
in(156, 127).
in(157, 128).
in(157, 5).
in(157, 7).
in(157, 8).
in(157, 11).
in(157, 12).
in(157, 13).
in(157, 20).
in(157, 22).
in(157, 24).
in(157, 25).
in(157, 26).
in(157, 30).
in(157, 31).
in(157, 32).
in(157, 36).
in(157, 37).
in(157, 39).
in(157, 41).
in(157, 43).
in(157, 45).
in(157, 48).
in(157, 49).
in(157, 50).
in(157, 51).
in(157, 53).
in(157, 54).
in(157, 55).
in(157, 58).
in(157, 62).
in(157, 64).
in(157, 73).
in(157, 77).
in(157, 79).
in(157, 80).
in(157, 82).
in(157, 83).
in(157, 84).
in(157, 87).
in(157, 88).
in(157, 91).
in(157, 94).
in(157, 96).
in(157, 97).
in(157, 98).
in(157, 100).
in(157, 103).
in(157, 104).
in(157, 105).
in(157, 107).
in(157, 109).
in(157, 111).
in(157, 113).
in(157, 114).
in(157, 119).
in(157, 121).
in(157, 123).
in(157, 126).
in(158, 128).
in(158, 1).
in(158, 2).
in(158, 5).
in(158, 7).
in(158, 9).
in(158, 11).
in(158, 13).
in(158, 14).
in(158, 15).
in(158, 20).
in(158, 21).
in(158, 22).
in(158, 25).
in(158, 29).
in(158, 31).
in(158, 33).
in(158, 34).
in(158, 35).
in(158, 41).
in(158, 42).
in(158, 44).
in(158, 45).
in(158, 46).
in(158, 47).
in(158, 48).
in(158, 50).
in(158, 52).
in(158, 53).
in(158, 57).
in(158, 61).
in(158, 63).
in(158, 65).
in(158, 71).
in(158, 73).
in(158, 74).
in(158, 77).
in(158, 81).
in(158, 82).
in(158, 83).
in(158, 90).
in(158, 92).
in(158, 94).
in(158, 95).
in(158, 96).
in(158, 98).
in(158, 101).
in(158, 102).
in(158, 107).
in(158, 109).
in(158, 112).
in(158, 113).
in(158, 114).
in(158, 121).
in(158, 126).
in(159, 128).
in(159, 3).
in(159, 4).
in(159, 5).
in(159, 7).
in(159, 11).
in(159, 12).
in(159, 14).
in(159, 16).
in(159, 17).
in(159, 21).
in(159, 22).
in(159, 26).
in(159, 29).
in(159, 30).
in(159, 40).
in(159, 43).
in(159, 45).
in(159, 46).
in(159, 50).
in(159, 53).
in(159, 54).
in(159, 55).
in(159, 57).
in(159, 61).
in(159, 62).
in(159, 66).
in(159, 67).
in(159, 68).
in(159, 70).
in(159, 74).
in(159, 76).
in(159, 78).
in(159, 79).
in(159, 80).
in(159, 81).
in(159, 85).
in(159, 86).
in(159, 89).
in(159, 90).
in(159, 93).
in(159, 94).
in(159, 97).
in(159, 98).
in(159, 100).
in(159, 102).
in(159, 105).
in(159, 106).
in(159, 107).
in(159, 109).
in(159, 110).
in(159, 111).
in(159, 112).
in(159, 113).
in(159, 114).
in(159, 117).
in(159, 118).
in(159, 119).
in(159, 120).
in(159, 121).
in(159, 124).
in(159, 125).
in(160, 1).
in(160, 2).
in(160, 5).
in(160, 9).
in(160, 10).
in(160, 15).
in(160, 17).
in(160, 18).
in(160, 20).
in(160, 21).
in(160, 24).
in(160, 27).
in(160, 28).
in(160, 34).
in(160, 36).
in(160, 38).
in(160, 41).
in(160, 44).
in(160, 45).
in(160, 47).
in(160, 48).
in(160, 53).
in(160, 54).
in(160, 58).
in(160, 59).
in(160, 62).
in(160, 68).
in(160, 69).
in(160, 71).
in(160, 72).
in(160, 75).
in(160, 80).
in(160, 82).
in(160, 93).
in(160, 96).
in(160, 98).
in(160, 101).
in(160, 102).
in(160, 103).
in(160, 106).
in(160, 108).
in(160, 111).
in(160, 112).
in(160, 113).
in(160, 116).
in(160, 119).
in(160, 120).
in(160, 125).
in(161, 128).
in(161, 1).
in(161, 2).
in(161, 5).
in(161, 7).
in(161, 8).
in(161, 9).
in(161, 10).
in(161, 13).
in(161, 16).
in(161, 17).
in(161, 18).
in(161, 19).
in(161, 21).
in(161, 27).
in(161, 33).
in(161, 35).
in(161, 37).
in(161, 39).
in(161, 40).
in(161, 42).
in(161, 46).
in(161, 48).
in(161, 49).
in(161, 52).
in(161, 56).
in(161, 58).
in(161, 60).
in(161, 64).
in(161, 70).
in(161, 71).
in(161, 72).
in(161, 73).
in(161, 76).
in(161, 78).
in(161, 84).
in(161, 89).
in(161, 90).
in(161, 94).
in(161, 100).
in(161, 102).
in(161, 104).
in(161, 105).
in(161, 106).
in(161, 108).
in(161, 110).
in(161, 111).
in(161, 112).
in(161, 114).
in(161, 120).
in(161, 123).
in(161, 127).
in(162, 1).
in(162, 3).
in(162, 7).
in(162, 8).
in(162, 11).
in(162, 13).
in(162, 14).
in(162, 16).
in(162, 18).
in(162, 20).
in(162, 23).
in(162, 25).
in(162, 27).
in(162, 29).
in(162, 30).
in(162, 31).
in(162, 32).
in(162, 35).
in(162, 36).
in(162, 37).
in(162, 38).
in(162, 40).
in(162, 41).
in(162, 45).
in(162, 47).
in(162, 48).
in(162, 53).
in(162, 54).
in(162, 55).
in(162, 57).
in(162, 58).
in(162, 62).
in(162, 63).
in(162, 66).
in(162, 69).
in(162, 71).
in(162, 72).
in(162, 73).
in(162, 74).
in(162, 76).
in(162, 78).
in(162, 79).
in(162, 81).
in(162, 82).
in(162, 85).
in(162, 87).
in(162, 89).
in(162, 90).
in(162, 91).
in(162, 93).
in(162, 95).
in(162, 97).
in(162, 98).
in(162, 99).
in(162, 102).
in(162, 106).
in(162, 107).
in(162, 108).
in(162, 109).
in(162, 110).
in(162, 111).
in(162, 112).
in(162, 113).
in(162, 115).
in(162, 117).
in(162, 118).
in(162, 122).
in(162, 123).
in(162, 124).
in(162, 125).
in(162, 126).
in(162, 127).
in(163, 128).
in(163, 5).
in(163, 11).
in(163, 13).
in(163, 14).
in(163, 21).
in(163, 22).
in(163, 23).
in(163, 29).
in(163, 32).
in(163, 35).
in(163, 39).
in(163, 41).
in(163, 42).
in(163, 43).
in(163, 49).
in(163, 52).
in(163, 53).
in(163, 60).
in(163, 63).
in(163, 64).
in(163, 67).
in(163, 70).
in(163, 75).
in(163, 76).
in(163, 81).
in(163, 82).
in(163, 85).
in(163, 93).
in(163, 96).
in(163, 98).
in(163, 100).
in(163, 105).
in(163, 106).
in(163, 108).
in(163, 109).
in(163, 115).
in(163, 117).
in(163, 119).
in(163, 120).
in(163, 124).
in(163, 126).
in(163, 127).
in(164, 128).
in(164, 1).
in(164, 4).
in(164, 5).
in(164, 6).
in(164, 9).
in(164, 10).
in(164, 12).
in(164, 13).
in(164, 14).
in(164, 15).
in(164, 20).
in(164, 22).
in(164, 26).
in(164, 36).
in(164, 37).
in(164, 39).
in(164, 45).
in(164, 46).
in(164, 48).
in(164, 51).
in(164, 55).
in(164, 58).
in(164, 59).
in(164, 60).
in(164, 66).
in(164, 67).
in(164, 68).
in(164, 69).
in(164, 72).
in(164, 73).
in(164, 74).
in(164, 75).
in(164, 77).
in(164, 78).
in(164, 80).
in(164, 82).
in(164, 83).
in(164, 84).
in(164, 85).
in(164, 86).
in(164, 88).
in(164, 89).
in(164, 96).
in(164, 100).
in(164, 103).
in(164, 104).
in(164, 105).
in(164, 107).
in(164, 109).
in(164, 110).
in(164, 111).
in(164, 112).
in(164, 113).
in(164, 114).
in(164, 121).
in(164, 126).
in(165, 2).
in(165, 3).
in(165, 8).
in(165, 12).
in(165, 16).
in(165, 18).
in(165, 19).
in(165, 20).
in(165, 21).
in(165, 22).
in(165, 23).
in(165, 24).
in(165, 26).
in(165, 28).
in(165, 34).
in(165, 35).
in(165, 36).
in(165, 37).
in(165, 39).
in(165, 41).
in(165, 43).
in(165, 44).
in(165, 48).
in(165, 50).
in(165, 52).
in(165, 53).
in(165, 56).
in(165, 59).
in(165, 60).
in(165, 61).
in(165, 65).
in(165, 66).
in(165, 68).
in(165, 69).
in(165, 70).
in(165, 71).
in(165, 72).
in(165, 73).
in(165, 74).
in(165, 76).
in(165, 84).
in(165, 85).
in(165, 86).
in(165, 88).
in(165, 93).
in(165, 94).
in(165, 95).
in(165, 97).
in(165, 99).
in(165, 101).
in(165, 104).
in(165, 105).
in(165, 106).
in(165, 108).
in(165, 113).
in(165, 117).
in(165, 118).
in(165, 119).
in(165, 121).
in(165, 123).
in(165, 126).
in(165, 127).
in(166, 128).
in(166, 6).
in(166, 9).
in(166, 13).
in(166, 15).
in(166, 16).
in(166, 18).
in(166, 19).
in(166, 23).
in(166, 25).
in(166, 28).
in(166, 30).
in(166, 32).
in(166, 34).
in(166, 39).
in(166, 40).
in(166, 43).
in(166, 45).
in(166, 46).
in(166, 47).
in(166, 48).
in(166, 49).
in(166, 50).
in(166, 51).
in(166, 55).
in(166, 57).
in(166, 60).
in(166, 62).
in(166, 65).
in(166, 68).
in(166, 69).
in(166, 70).
in(166, 71).
in(166, 72).
in(166, 73).
in(166, 76).
in(166, 77).
in(166, 79).
in(166, 81).
in(166, 83).
in(166, 84).
in(166, 85).
in(166, 87).
in(166, 90).
in(166, 92).
in(166, 95).
in(166, 97).
in(166, 98).
in(166, 99).
in(166, 100).
in(166, 101).
in(166, 103).
in(166, 106).
in(166, 107).
in(166, 108).
in(166, 110).
in(166, 111).
in(166, 115).
in(166, 118).
in(166, 120).
in(166, 125).
in(166, 127).
in(167, 128).
in(167, 3).
in(167, 4).
in(167, 6).
in(167, 7).
in(167, 9).
in(167, 10).
in(167, 11).
in(167, 12).
in(167, 15).
in(167, 16).
in(167, 17).
in(167, 18).
in(167, 20).
in(167, 24).
in(167, 25).
in(167, 26).
in(167, 29).
in(167, 30).
in(167, 31).
in(167, 34).
in(167, 36).
in(167, 37).
in(167, 39).
in(167, 41).
in(167, 44).
in(167, 47).
in(167, 48).
in(167, 51).
in(167, 52).
in(167, 53).
in(167, 55).
in(167, 56).
in(167, 58).
in(167, 64).
in(167, 66).
in(167, 67).
in(167, 69).
in(167, 73).
in(167, 74).
in(167, 75).
in(167, 76).
in(167, 80).
in(167, 81).
in(167, 82).
in(167, 83).
in(167, 85).
in(167, 88).
in(167, 89).
in(167, 99).
in(167, 100).
in(167, 103).
in(167, 108).
in(167, 110).
in(167, 112).
in(167, 113).
in(167, 114).
in(167, 115).
in(167, 118).
in(167, 119).
in(167, 123).
in(167, 126).
in(168, 2).
in(168, 5).
in(168, 8).
in(168, 11).
in(168, 12).
in(168, 13).
in(168, 14).
in(168, 19).
in(168, 21).
in(168, 24).
in(168, 28).
in(168, 29).
in(168, 34).
in(168, 36).
in(168, 37).
in(168, 39).
in(168, 40).
in(168, 44).
in(168, 46).
in(168, 52).
in(168, 53).
in(168, 57).
in(168, 60).
in(168, 62).
in(168, 63).
in(168, 65).
in(168, 71).
in(168, 72).
in(168, 75).
in(168, 80).
in(168, 81).
in(168, 82).
in(168, 83).
in(168, 84).
in(168, 85).
in(168, 90).
in(168, 91).
in(168, 92).
in(168, 93).
in(168, 94).
in(168, 96).
in(168, 97).
in(168, 99).
in(168, 102).
in(168, 104).
in(168, 107).
in(168, 109).
in(168, 110).
in(168, 113).
in(168, 114).
in(168, 118).
in(168, 121).
in(168, 122).
in(168, 124).
in(168, 125).
in(168, 126).
in(168, 127).
in(169, 128).
in(169, 1).
in(169, 2).
in(169, 7).
in(169, 8).
in(169, 10).
in(169, 11).
in(169, 12).
in(169, 13).
in(169, 14).
in(169, 15).
in(169, 17).
in(169, 20).
in(169, 21).
in(169, 22).
in(169, 24).
in(169, 25).
in(169, 28).
in(169, 29).
in(169, 31).
in(169, 33).
in(169, 34).
in(169, 35).
in(169, 39).
in(169, 40).
in(169, 41).
in(169, 46).
in(169, 49).
in(169, 58).
in(169, 59).
in(169, 60).
in(169, 61).
in(169, 63).
in(169, 64).
in(169, 65).
in(169, 66).
in(169, 70).
in(169, 72).
in(169, 76).
in(169, 78).
in(169, 79).
in(169, 82).
in(169, 83).
in(169, 85).
in(169, 89).
in(169, 92).
in(169, 94).
in(169, 95).
in(169, 97).
in(169, 98).
in(169, 101).
in(169, 106).
in(169, 108).
in(169, 109).
in(169, 112).
in(169, 113).
in(169, 117).
in(169, 118).
in(169, 119).
in(169, 121).
in(169, 122).
in(169, 123).
in(169, 126).
in(170, 1).
in(170, 2).
in(170, 10).
in(170, 11).
in(170, 14).
in(170, 15).
in(170, 16).
in(170, 19).
in(170, 21).
in(170, 25).
in(170, 26).
in(170, 29).
in(170, 31).
in(170, 35).
in(170, 37).
in(170, 39).
in(170, 40).
in(170, 42).
in(170, 44).
in(170, 46).
in(170, 48).
in(170, 49).
in(170, 50).
in(170, 51).
in(170, 53).
in(170, 58).
in(170, 60).
in(170, 62).
in(170, 72).
in(170, 74).
in(170, 75).
in(170, 77).
in(170, 78).
in(170, 82).
in(170, 90).
in(170, 91).
in(170, 93).
in(170, 98).
in(170, 99).
in(170, 100).
in(170, 101).
in(170, 103).
in(170, 104).
in(170, 112).
in(170, 113).
in(170, 114).
in(170, 116).
in(170, 117).
in(170, 120).
in(170, 122).
in(170, 123).
in(170, 125).
in(170, 126).
in(170, 127).
in(171, 128).
in(171, 1).
in(171, 4).
in(171, 5).
in(171, 6).
in(171, 10).
in(171, 14).
in(171, 15).
in(171, 16).
in(171, 17).
in(171, 19).
in(171, 22).
in(171, 23).
in(171, 24).
in(171, 26).
in(171, 29).
in(171, 31).
in(171, 34).
in(171, 37).
in(171, 39).
in(171, 41).
in(171, 43).
in(171, 44).
in(171, 45).
in(171, 48).
in(171, 50).
in(171, 53).
in(171, 54).
in(171, 55).
in(171, 58).
in(171, 59).
in(171, 60).
in(171, 61).
in(171, 62).
in(171, 64).
in(171, 65).
in(171, 67).
in(171, 69).
in(171, 70).
in(171, 75).
in(171, 78).
in(171, 81).
in(171, 82).
in(171, 85).
in(171, 86).
in(171, 87).
in(171, 88).
in(171, 90).
in(171, 91).
in(171, 92).
in(171, 98).
in(171, 100).
in(171, 101).
in(171, 102).
in(171, 103).
in(171, 105).
in(171, 107).
in(171, 108).
in(171, 109).
in(171, 116).
in(171, 117).
in(171, 118).
in(171, 119).
in(171, 120).
in(171, 122).
in(171, 123).
in(171, 127).
in(172, 1).
in(172, 4).
in(172, 5).
in(172, 9).
in(172, 10).
in(172, 11).
in(172, 12).
in(172, 15).
in(172, 18).
in(172, 19).
in(172, 21).
in(172, 26).
in(172, 28).
in(172, 34).
in(172, 35).
in(172, 37).
in(172, 40).
in(172, 41).
in(172, 45).
in(172, 47).
in(172, 49).
in(172, 50).
in(172, 51).
in(172, 52).
in(172, 53).
in(172, 56).
in(172, 58).
in(172, 60).
in(172, 61).
in(172, 63).
in(172, 67).
in(172, 68).
in(172, 73).
in(172, 74).
in(172, 75).
in(172, 78).
in(172, 79).
in(172, 80).
in(172, 86).
in(172, 88).
in(172, 93).
in(172, 97).
in(172, 100).
in(172, 101).
in(172, 102).
in(172, 103).
in(172, 104).
in(172, 108).
in(172, 111).
in(172, 113).
in(172, 114).
in(172, 116).
in(172, 118).
in(172, 124).
in(173, 1).
in(173, 3).
in(173, 7).
in(173, 8).
in(173, 9).
in(173, 11).
in(173, 15).
in(173, 17).
in(173, 18).
in(173, 19).
in(173, 20).
in(173, 21).
in(173, 22).
in(173, 24).
in(173, 25).
in(173, 26).
in(173, 31).
in(173, 32).
in(173, 37).
in(173, 41).
in(173, 43).
in(173, 47).
in(173, 55).
in(173, 59).
in(173, 63).
in(173, 68).
in(173, 69).
in(173, 71).
in(173, 74).
in(173, 77).
in(173, 80).
in(173, 83).
in(173, 90).
in(173, 95).
in(173, 99).
in(173, 100).
in(173, 102).
in(173, 104).
in(173, 105).
in(173, 108).
in(173, 114).
in(173, 115).
in(173, 116).
in(173, 117).
in(173, 118).
in(173, 120).
in(173, 121).
in(173, 122).
in(173, 124).
in(173, 125).
in(173, 126).
in(173, 127).
in(174, 4).
in(174, 7).
in(174, 9).
in(174, 10).
in(174, 17).
in(174, 19).
in(174, 21).
in(174, 22).
in(174, 23).
in(174, 24).
in(174, 26).
in(174, 27).
in(174, 29).
in(174, 33).
in(174, 34).
in(174, 36).
in(174, 37).
in(174, 42).
in(174, 46).
in(174, 47).
in(174, 48).
in(174, 49).
in(174, 51).
in(174, 57).
in(174, 59).
in(174, 60).
in(174, 61).
in(174, 62).
in(174, 65).
in(174, 68).
in(174, 72).
in(174, 75).
in(174, 76).
in(174, 77).
in(174, 79).
in(174, 81).
in(174, 84).
in(174, 87).
in(174, 91).
in(174, 93).
in(174, 94).
in(174, 97).
in(174, 98).
in(174, 99).
in(174, 100).
in(174, 102).
in(174, 104).
in(174, 106).
in(174, 107).
in(174, 109).
in(174, 111).
in(174, 114).
in(174, 116).
in(174, 117).
in(174, 118).
in(174, 119).
in(174, 124).
in(174, 125).
in(174, 126).
in(174, 127).
in(175, 5).
in(175, 12).
in(175, 14).
in(175, 15).
in(175, 16).
in(175, 17).
in(175, 18).
in(175, 19).
in(175, 20).
in(175, 25).
in(175, 26).
in(175, 30).
in(175, 32).
in(175, 35).
in(175, 36).
in(175, 41).
in(175, 44).
in(175, 47).
in(175, 48).
in(175, 50).
in(175, 62).
in(175, 63).
in(175, 65).
in(175, 70).
in(175, 71).
in(175, 74).
in(175, 76).
in(175, 77).
in(175, 78).
in(175, 79).
in(175, 81).
in(175, 82).
in(175, 83).
in(175, 84).
in(175, 85).
in(175, 88).
in(175, 89).
in(175, 91).
in(175, 92).
in(175, 97).
in(175, 99).
in(175, 100).
in(175, 111).
in(175, 114).
in(175, 116).
in(175, 117).
in(175, 122).
in(175, 125).
in(175, 126).
in(176, 128).
in(176, 1).
in(176, 6).
in(176, 8).
in(176, 9).
in(176, 10).
in(176, 12).
in(176, 15).
in(176, 16).
in(176, 20).
in(176, 23).
in(176, 25).
in(176, 28).
in(176, 30).
in(176, 31).
in(176, 34).
in(176, 35).
in(176, 36).
in(176, 38).
in(176, 41).
in(176, 42).
in(176, 43).
in(176, 45).
in(176, 48).
in(176, 51).
in(176, 52).
in(176, 53).
in(176, 54).
in(176, 56).
in(176, 61).
in(176, 63).
in(176, 65).
in(176, 66).
in(176, 68).
in(176, 70).
in(176, 74).
in(176, 75).
in(176, 78).
in(176, 79).
in(176, 82).
in(176, 83).
in(176, 84).
in(176, 86).
in(176, 89).
in(176, 92).
in(176, 96).
in(176, 97).
in(176, 98).
in(176, 101).
in(176, 103).
in(176, 104).
in(176, 105).
in(176, 106).
in(176, 107).
in(176, 109).
in(176, 111).
in(176, 113).
in(176, 116).
in(176, 120).
in(176, 122).
in(176, 126).
in(177, 128).
in(177, 3).
in(177, 4).
in(177, 12).
in(177, 14).
in(177, 21).
in(177, 26).
in(177, 28).
in(177, 31).
in(177, 32).
in(177, 34).
in(177, 36).
in(177, 37).
in(177, 38).
in(177, 39).
in(177, 42).
in(177, 48).
in(177, 50).
in(177, 51).
in(177, 52).
in(177, 55).
in(177, 56).
in(177, 58).
in(177, 64).
in(177, 72).
in(177, 73).
in(177, 75).
in(177, 76).
in(177, 77).
in(177, 78).
in(177, 79).
in(177, 80).
in(177, 83).
in(177, 84).
in(177, 87).
in(177, 90).
in(177, 92).
in(177, 93).
in(177, 94).
in(177, 95).
in(177, 96).
in(177, 100).
in(177, 101).
in(177, 102).
in(177, 105).
in(177, 107).
in(177, 109).
in(177, 110).
in(177, 113).
in(177, 119).
in(177, 121).
in(177, 122).
in(177, 125).
in(177, 126).
in(177, 127).
in(178, 3).
in(178, 9).
in(178, 16).
in(178, 20).
in(178, 23).
in(178, 25).
in(178, 28).
in(178, 30).
in(178, 36).
in(178, 37).
in(178, 40).
in(178, 44).
in(178, 45).
in(178, 46).
in(178, 48).
in(178, 52).
in(178, 54).
in(178, 55).
in(178, 59).
in(178, 62).
in(178, 63).
in(178, 66).
in(178, 70).
in(178, 71).
in(178, 73).
in(178, 74).
in(178, 77).
in(178, 80).
in(178, 81).
in(178, 82).
in(178, 83).
in(178, 84).
in(178, 85).
in(178, 87).
in(178, 88).
in(178, 90).
in(178, 91).
in(178, 92).
in(178, 94).
in(178, 95).
in(178, 97).
in(178, 98).
in(178, 100).
in(178, 103).
in(178, 104).
in(178, 105).
in(178, 106).
in(178, 107).
in(178, 108).
in(178, 112).
in(178, 116).
in(178, 121).
in(178, 124).
in(179, 128).
in(179, 2).
in(179, 3).
in(179, 6).
in(179, 7).
in(179, 8).
in(179, 9).
in(179, 10).
in(179, 14).
in(179, 15).
in(179, 16).
in(179, 21).
in(179, 22).
in(179, 25).
in(179, 27).
in(179, 28).
in(179, 30).
in(179, 31).
in(179, 32).
in(179, 35).
in(179, 39).
in(179, 40).
in(179, 41).
in(179, 44).
in(179, 46).
in(179, 47).
in(179, 49).
in(179, 52).
in(179, 55).
in(179, 59).
in(179, 61).
in(179, 62).
in(179, 65).
in(179, 66).
in(179, 69).
in(179, 72).
in(179, 77).
in(179, 78).
in(179, 79).
in(179, 82).
in(179, 84).
in(179, 85).
in(179, 86).
in(179, 87).
in(179, 88).
in(179, 90).
in(179, 91).
in(179, 94).
in(179, 97).
in(179, 99).
in(179, 101).
in(179, 102).
in(179, 103).
in(179, 104).
in(179, 105).
in(179, 107).
in(179, 110).
in(179, 111).
in(179, 112).
in(179, 114).
in(179, 115).
in(179, 118).
in(179, 119).
in(179, 120).
in(179, 121).
in(179, 125).
in(179, 126).
in(180, 128).
in(180, 1).
in(180, 2).
in(180, 3).
in(180, 5).
in(180, 8).
in(180, 13).
in(180, 14).
in(180, 16).
in(180, 19).
in(180, 22).
in(180, 25).
in(180, 26).
in(180, 28).
in(180, 30).
in(180, 32).
in(180, 33).
in(180, 34).
in(180, 36).
in(180, 38).
in(180, 39).
in(180, 40).
in(180, 41).
in(180, 42).
in(180, 46).
in(180, 47).
in(180, 49).
in(180, 50).
in(180, 51).
in(180, 52).
in(180, 54).
in(180, 55).
in(180, 56).
in(180, 61).
in(180, 62).
in(180, 63).
in(180, 66).
in(180, 70).
in(180, 72).
in(180, 73).
in(180, 76).
in(180, 77).
in(180, 78).
in(180, 80).
in(180, 83).
in(180, 84).
in(180, 88).
in(180, 91).
in(180, 92).
in(180, 94).
in(180, 95).
in(180, 98).
in(180, 101).
in(180, 102).
in(180, 103).
in(180, 104).
in(180, 105).
in(180, 107).
in(180, 110).
in(180, 112).
in(180, 115).
in(180, 116).
in(180, 118).
in(180, 120).
in(180, 122).
in(180, 126).
in(180, 127).
in(181, 128).
in(181, 1).
in(181, 4).
in(181, 5).
in(181, 8).
in(181, 10).
in(181, 11).
in(181, 13).
in(181, 15).
in(181, 17).
in(181, 21).
in(181, 23).
in(181, 24).
in(181, 25).
in(181, 30).
in(181, 32).
in(181, 33).
in(181, 35).
in(181, 36).
in(181, 38).
in(181, 40).
in(181, 41).
in(181, 42).
in(181, 43).
in(181, 44).
in(181, 46).
in(181, 51).
in(181, 52).
in(181, 54).
in(181, 56).
in(181, 59).
in(181, 60).
in(181, 61).
in(181, 62).
in(181, 67).
in(181, 68).
in(181, 70).
in(181, 71).
in(181, 78).
in(181, 79).
in(181, 80).
in(181, 87).
in(181, 88).
in(181, 89).
in(181, 90).
in(181, 92).
in(181, 95).
in(181, 98).
in(181, 101).
in(181, 103).
in(181, 104).
in(181, 108).
in(181, 116).
in(181, 119).
in(181, 120).
in(181, 121).
in(181, 126).
in(182, 2).
in(182, 3).
in(182, 8).
in(182, 11).
in(182, 12).
in(182, 15).
in(182, 18).
in(182, 21).
in(182, 24).
in(182, 26).
in(182, 29).
in(182, 34).
in(182, 35).
in(182, 36).
in(182, 37).
in(182, 41).
in(182, 46).
in(182, 48).
in(182, 49).
in(182, 51).
in(182, 52).
in(182, 53).
in(182, 54).
in(182, 56).
in(182, 58).
in(182, 64).
in(182, 65).
in(182, 66).
in(182, 67).
in(182, 68).
in(182, 70).
in(182, 75).
in(182, 77).
in(182, 78).
in(182, 79).
in(182, 80).
in(182, 81).
in(182, 84).
in(182, 88).
in(182, 89).
in(182, 90).
in(182, 92).
in(182, 93).
in(182, 95).
in(182, 97).
in(182, 98).
in(182, 100).
in(182, 103).
in(182, 105).
in(182, 106).
in(182, 109).
in(182, 110).
in(182, 113).
in(182, 117).
in(182, 118).
in(182, 119).
in(182, 121).
in(182, 124).
in(182, 125).
in(182, 126).
in(183, 4).
in(183, 5).
in(183, 6).
in(183, 10).
in(183, 13).
in(183, 15).
in(183, 16).
in(183, 17).
in(183, 18).
in(183, 19).
in(183, 21).
in(183, 22).
in(183, 23).
in(183, 24).
in(183, 25).
in(183, 27).
in(183, 28).
in(183, 29).
in(183, 31).
in(183, 32).
in(183, 35).
in(183, 38).
in(183, 43).
in(183, 45).
in(183, 48).
in(183, 49).
in(183, 50).
in(183, 54).
in(183, 55).
in(183, 56).
in(183, 57).
in(183, 60).
in(183, 63).
in(183, 64).
in(183, 65).
in(183, 71).
in(183, 74).
in(183, 78).
in(183, 79).
in(183, 80).
in(183, 81).
in(183, 82).
in(183, 83).
in(183, 84).
in(183, 86).
in(183, 87).
in(183, 89).
in(183, 90).
in(183, 92).
in(183, 93).
in(183, 94).
in(183, 95).
in(183, 98).
in(183, 101).
in(183, 103).
in(183, 104).
in(183, 110).
in(183, 111).
in(183, 113).
in(183, 114).
in(183, 119).
in(183, 123).
in(183, 126).
in(184, 128).
in(184, 2).
in(184, 3).
in(184, 7).
in(184, 8).
in(184, 9).
in(184, 12).
in(184, 13).
in(184, 14).
in(184, 15).
in(184, 16).
in(184, 17).
in(184, 18).
in(184, 21).
in(184, 25).
in(184, 29).
in(184, 35).
in(184, 37).
in(184, 39).
in(184, 40).
in(184, 43).
in(184, 47).
in(184, 48).
in(184, 54).
in(184, 55).
in(184, 57).
in(184, 58).
in(184, 60).
in(184, 61).
in(184, 62).
in(184, 64).
in(184, 67).
in(184, 77).
in(184, 84).
in(184, 85).
in(184, 88).
in(184, 89).
in(184, 92).
in(184, 93).
in(184, 94).
in(184, 95).
in(184, 99).
in(184, 100).
in(184, 102).
in(184, 103).
in(184, 105).
in(184, 106).
in(184, 107).
in(184, 108).
in(184, 109).
in(184, 110).
in(184, 113).
in(184, 117).
in(184, 119).
in(184, 120).
in(184, 121).
in(184, 123).
in(184, 124).
in(184, 126).
in(185, 2).
in(185, 4).
in(185, 6).
in(185, 8).
in(185, 9).
in(185, 10).
in(185, 13).
in(185, 14).
in(185, 16).
in(185, 18).
in(185, 19).
in(185, 20).
in(185, 23).
in(185, 26).
in(185, 27).
in(185, 28).
in(185, 30).
in(185, 31).
in(185, 33).
in(185, 34).
in(185, 35).
in(185, 38).
in(185, 39).
in(185, 43).
in(185, 44).
in(185, 48).
in(185, 49).
in(185, 50).
in(185, 52).
in(185, 55).
in(185, 56).
in(185, 58).
in(185, 61).
in(185, 62).
in(185, 63).
in(185, 71).
in(185, 72).
in(185, 73).
in(185, 74).
in(185, 75).
in(185, 76).
in(185, 79).
in(185, 80).
in(185, 82).
in(185, 84).
in(185, 86).
in(185, 87).
in(185, 89).
in(185, 90).
in(185, 92).
in(185, 93).
in(185, 95).
in(185, 99).
in(185, 102).
in(185, 103).
in(185, 104).
in(185, 106).
in(185, 111).
in(185, 112).
in(185, 116).
in(185, 117).
in(185, 118).
in(185, 119).
in(185, 120).
in(185, 124).
in(185, 125).
in(186, 1).
in(186, 5).
in(186, 8).
in(186, 9).
in(186, 10).
in(186, 13).
in(186, 16).
in(186, 18).
in(186, 22).
in(186, 24).
in(186, 27).
in(186, 29).
in(186, 30).
in(186, 33).
in(186, 34).
in(186, 35).
in(186, 36).
in(186, 48).
in(186, 52).
in(186, 53).
in(186, 56).
in(186, 57).
in(186, 61).
in(186, 63).
in(186, 70).
in(186, 73).
in(186, 75).
in(186, 79).
in(186, 81).
in(186, 85).
in(186, 89).
in(186, 92).
in(186, 93).
in(186, 101).
in(186, 102).
in(186, 103).
in(186, 105).
in(186, 108).
in(186, 109).
in(186, 111).
in(186, 112).
in(186, 114).
in(186, 115).
in(186, 116).
in(186, 118).
in(186, 119).
in(186, 121).
in(186, 125).
in(186, 127).
in(187, 2).
in(187, 3).
in(187, 6).
in(187, 7).
in(187, 14).
in(187, 15).
in(187, 18).
in(187, 20).
in(187, 25).
in(187, 26).
in(187, 27).
in(187, 30).
in(187, 33).
in(187, 36).
in(187, 42).
in(187, 43).
in(187, 44).
in(187, 46).
in(187, 47).
in(187, 50).
in(187, 53).
in(187, 54).
in(187, 57).
in(187, 58).
in(187, 59).
in(187, 66).
in(187, 67).
in(187, 71).
in(187, 76).
in(187, 77).
in(187, 82).
in(187, 83).
in(187, 86).
in(187, 87).
in(187, 88).
in(187, 93).
in(187, 95).
in(187, 96).
in(187, 97).
in(187, 98).
in(187, 101).
in(187, 105).
in(187, 108).
in(187, 110).
in(187, 112).
in(187, 114).
in(187, 119).
in(187, 122).
in(187, 124).
in(187, 127).
in(188, 128).
in(188, 3).
in(188, 5).
in(188, 8).
in(188, 11).
in(188, 12).
in(188, 13).
in(188, 14).
in(188, 15).
in(188, 16).
in(188, 18).
in(188, 22).
in(188, 25).
in(188, 26).
in(188, 27).
in(188, 29).
in(188, 30).
in(188, 32).
in(188, 33).
in(188, 35).
in(188, 36).
in(188, 37).
in(188, 44).
in(188, 45).
in(188, 47).
in(188, 53).
in(188, 54).
in(188, 55).
in(188, 58).
in(188, 59).
in(188, 61).
in(188, 62).
in(188, 64).
in(188, 68).
in(188, 69).
in(188, 70).
in(188, 71).
in(188, 72).
in(188, 74).
in(188, 75).
in(188, 76).
in(188, 77).
in(188, 79).
in(188, 85).
in(188, 87).
in(188, 91).
in(188, 94).
in(188, 96).
in(188, 101).
in(188, 104).
in(188, 106).
in(188, 108).
in(188, 109).
in(188, 111).
in(188, 112).
in(188, 113).
in(188, 114).
in(188, 118).
in(188, 119).
in(188, 121).
in(188, 125).
in(188, 126).
in(189, 128).
in(189, 1).
in(189, 4).
in(189, 5).
in(189, 6).
in(189, 9).
in(189, 11).
in(189, 12).
in(189, 14).
in(189, 15).
in(189, 18).
in(189, 19).
in(189, 20).
in(189, 23).
in(189, 24).
in(189, 28).
in(189, 29).
in(189, 30).
in(189, 32).
in(189, 33).
in(189, 34).
in(189, 36).
in(189, 37).
in(189, 38).
in(189, 39).
in(189, 42).
in(189, 44).
in(189, 46).
in(189, 47).
in(189, 51).
in(189, 54).
in(189, 55).
in(189, 57).
in(189, 58).
in(189, 60).
in(189, 61).
in(189, 62).
in(189, 63).
in(189, 66).
in(189, 67).
in(189, 72).
in(189, 73).
in(189, 74).
in(189, 75).
in(189, 76).
in(189, 80).
in(189, 83).
in(189, 84).
in(189, 85).
in(189, 86).
in(189, 88).
in(189, 91).
in(189, 95).
in(189, 96).
in(189, 98).
in(189, 101).
in(189, 102).
in(189, 103).
in(189, 105).
in(189, 106).
in(189, 107).
in(189, 108).
in(189, 112).
in(189, 114).
in(189, 117).
in(189, 118).
in(189, 120).
in(189, 121).
in(189, 122).
in(189, 124).
in(189, 127).
in(190, 2).
in(190, 7).
in(190, 8).
in(190, 10).
in(190, 13).
in(190, 14).
in(190, 15).
in(190, 19).
in(190, 21).
in(190, 25).
in(190, 27).
in(190, 30).
in(190, 31).
in(190, 35).
in(190, 36).
in(190, 41).
in(190, 42).
in(190, 43).
in(190, 44).
in(190, 45).
in(190, 46).
in(190, 50).
in(190, 51).
in(190, 53).
in(190, 54).
in(190, 55).
in(190, 56).
in(190, 63).
in(190, 68).
in(190, 72).
in(190, 74).
in(190, 75).
in(190, 80).
in(190, 86).
in(190, 88).
in(190, 90).
in(190, 92).
in(190, 94).
in(190, 98).
in(190, 99).
in(190, 100).
in(190, 101).
in(190, 103).
in(190, 104).
in(190, 105).
in(190, 106).
in(190, 108).
in(190, 115).
in(190, 117).
in(190, 118).
in(190, 120).
in(190, 125).
in(190, 126).
in(191, 1).
in(191, 2).
in(191, 3).
in(191, 5).
in(191, 6).
in(191, 8).
in(191, 9).
in(191, 10).
in(191, 11).
in(191, 12).
in(191, 15).
in(191, 16).
in(191, 20).
in(191, 21).
in(191, 22).
in(191, 23).
in(191, 25).
in(191, 27).
in(191, 28).
in(191, 30).
in(191, 31).
in(191, 32).
in(191, 36).
in(191, 38).
in(191, 41).
in(191, 42).
in(191, 43).
in(191, 45).
in(191, 47).
in(191, 48).
in(191, 50).
in(191, 51).
in(191, 53).
in(191, 54).
in(191, 59).
in(191, 60).
in(191, 61).
in(191, 63).
in(191, 65).
in(191, 66).
in(191, 67).
in(191, 70).
in(191, 71).
in(191, 72).
in(191, 78).
in(191, 81).
in(191, 82).
in(191, 85).
in(191, 87).
in(191, 88).
in(191, 89).
in(191, 91).
in(191, 92).
in(191, 93).
in(191, 96).
in(191, 99).
in(191, 103).
in(191, 105).
in(191, 107).
in(191, 109).
in(191, 110).
in(191, 111).
in(191, 112).
in(191, 113).
in(191, 114).
in(191, 115).
in(191, 116).
in(191, 117).
in(191, 118).
in(191, 119).
in(191, 120).
in(191, 123).
in(191, 124).
in(191, 125).
in(191, 126).
in(191, 127).
in(192, 128).
in(192, 1).
in(192, 2).
in(192, 4).
in(192, 8).
in(192, 9).
in(192, 11).
in(192, 12).
in(192, 13).
in(192, 14).
in(192, 19).
in(192, 20).
in(192, 25).
in(192, 28).
in(192, 29).
in(192, 30).
in(192, 31).
in(192, 33).
in(192, 34).
in(192, 35).
in(192, 36).
in(192, 39).
in(192, 41).
in(192, 42).
in(192, 46).
in(192, 50).
in(192, 54).
in(192, 55).
in(192, 57).
in(192, 60).
in(192, 61).
in(192, 63).
in(192, 67).
in(192, 69).
in(192, 70).
in(192, 72).
in(192, 73).
in(192, 74).
in(192, 75).
in(192, 79).
in(192, 83).
in(192, 86).
in(192, 90).
in(192, 93).
in(192, 95).
in(192, 98).
in(192, 99).
in(192, 100).
in(192, 102).
in(192, 106).
in(192, 108).
in(192, 110).
in(192, 111).
in(192, 117).
in(192, 119).
in(192, 122).
in(192, 123).
in(192, 124).
in(192, 125).
in(192, 127).
in(193, 128).
in(193, 3).
in(193, 4).
in(193, 7).
in(193, 9).
in(193, 14).
in(193, 15).
in(193, 18).
in(193, 19).
in(193, 22).
in(193, 24).
in(193, 25).
in(193, 28).
in(193, 29).
in(193, 30).
in(193, 32).
in(193, 33).
in(193, 35).
in(193, 36).
in(193, 37).
in(193, 40).
in(193, 42).
in(193, 44).
in(193, 49).
in(193, 51).
in(193, 52).
in(193, 53).
in(193, 54).
in(193, 56).
in(193, 58).
in(193, 62).
in(193, 63).
in(193, 64).
in(193, 66).
in(193, 67).
in(193, 71).
in(193, 73).
in(193, 75).
in(193, 77).
in(193, 79).
in(193, 81).
in(193, 83).
in(193, 84).
in(193, 85).
in(193, 86).
in(193, 89).
in(193, 93).
in(193, 94).
in(193, 96).
in(193, 98).
in(193, 99).
in(193, 101).
in(193, 102).
in(193, 104).
in(193, 105).
in(193, 107).
in(193, 108).
in(193, 109).
in(193, 110).
in(193, 112).
in(193, 115).
in(193, 116).
in(193, 117).
in(193, 118).
in(193, 121).
in(193, 123).
in(193, 124).
in(193, 125).
in(193, 126).
in(194, 128).
in(194, 1).
in(194, 4).
in(194, 5).
in(194, 7).
in(194, 12).
in(194, 15).
in(194, 17).
in(194, 18).
in(194, 19).
in(194, 20).
in(194, 29).
in(194, 30).
in(194, 32).
in(194, 33).
in(194, 34).
in(194, 35).
in(194, 36).
in(194, 37).
in(194, 38).
in(194, 40).
in(194, 42).
in(194, 44).
in(194, 51).
in(194, 52).
in(194, 55).
in(194, 56).
in(194, 57).
in(194, 60).
in(194, 62).
in(194, 64).
in(194, 66).
in(194, 67).
in(194, 68).
in(194, 73).
in(194, 77).
in(194, 78).
in(194, 79).
in(194, 81).
in(194, 83).
in(194, 85).
in(194, 90).
in(194, 96).
in(194, 99).
in(194, 100).
in(194, 101).
in(194, 106).
in(194, 107).
in(194, 108).
in(194, 111).
in(194, 115).
in(194, 116).
in(194, 117).
in(194, 119).
in(194, 122).
in(194, 123).
in(194, 124).
in(194, 125).
in(195, 2).
in(195, 3).
in(195, 6).
in(195, 7).
in(195, 8).
in(195, 10).
in(195, 11).
in(195, 12).
in(195, 14).
in(195, 17).
in(195, 18).
in(195, 19).
in(195, 20).
in(195, 21).
in(195, 24).
in(195, 26).
in(195, 27).
in(195, 28).
in(195, 34).
in(195, 35).
in(195, 36).
in(195, 40).
in(195, 45).
in(195, 47).
in(195, 48).
in(195, 50).
in(195, 51).
in(195, 52).
in(195, 55).
in(195, 58).
in(195, 59).
in(195, 62).
in(195, 63).
in(195, 66).
in(195, 67).
in(195, 72).
in(195, 79).
in(195, 80).
in(195, 81).
in(195, 85).
in(195, 86).
in(195, 87).
in(195, 88).
in(195, 91).
in(195, 92).
in(195, 99).
in(195, 100).
in(195, 102).
in(195, 105).
in(195, 106).
in(195, 109).
in(195, 110).
in(195, 113).
in(195, 114).
in(195, 116).
in(195, 120).
in(195, 124).
in(195, 125).
in(195, 126).
in(196, 2).
in(196, 5).
in(196, 8).
in(196, 9).
in(196, 10).
in(196, 13).
in(196, 14).
in(196, 15).
in(196, 20).
in(196, 23).
in(196, 25).
in(196, 30).
in(196, 31).
in(196, 35).
in(196, 37).
in(196, 39).
in(196, 40).
in(196, 41).
in(196, 42).
in(196, 44).
in(196, 45).
in(196, 49).
in(196, 52).
in(196, 54).
in(196, 55).
in(196, 56).
in(196, 57).
in(196, 61).
in(196, 63).
in(196, 68).
in(196, 70).
in(196, 72).
in(196, 73).
in(196, 77).
in(196, 79).
in(196, 80).
in(196, 82).
in(196, 85).
in(196, 91).
in(196, 93).
in(196, 94).
in(196, 96).
in(196, 98).
in(196, 99).
in(196, 101).
in(196, 102).
in(196, 105).
in(196, 107).
in(196, 110).
in(196, 112).
in(196, 114).
in(196, 115).
in(196, 120).
in(196, 122).
in(196, 123).
in(196, 125).
in(196, 126).
in(196, 127).
in(197, 128).
in(197, 1).
in(197, 2).
in(197, 9).
in(197, 11).
in(197, 12).
in(197, 17).
in(197, 18).
in(197, 21).
in(197, 27).
in(197, 29).
in(197, 31).
in(197, 34).
in(197, 35).
in(197, 37).
in(197, 48).
in(197, 49).
in(197, 50).
in(197, 51).
in(197, 54).
in(197, 56).
in(197, 57).
in(197, 58).
in(197, 60).
in(197, 64).
in(197, 66).
in(197, 69).
in(197, 70).
in(197, 72).
in(197, 73).
in(197, 76).
in(197, 80).
in(197, 82).
in(197, 83).
in(197, 84).
in(197, 87).
in(197, 90).
in(197, 91).
in(197, 96).
in(197, 98).
in(197, 100).
in(197, 103).
in(197, 106).
in(197, 108).
in(197, 110).
in(197, 111).
in(197, 112).
in(197, 113).
in(197, 118).
in(197, 120).
in(197, 124).
in(197, 127).
in(198, 3).
in(198, 8).
in(198, 9).
in(198, 11).
in(198, 13).
in(198, 14).
in(198, 16).
in(198, 17).
in(198, 20).
in(198, 22).
in(198, 24).
in(198, 25).
in(198, 26).
in(198, 28).
in(198, 32).
in(198, 34).
in(198, 35).
in(198, 39).
in(198, 41).
in(198, 43).
in(198, 44).
in(198, 46).
in(198, 47).
in(198, 48).
in(198, 50).
in(198, 51).
in(198, 52).
in(198, 55).
in(198, 56).
in(198, 57).
in(198, 58).
in(198, 60).
in(198, 63).
in(198, 64).
in(198, 68).
in(198, 69).
in(198, 70).
in(198, 73).
in(198, 79).
in(198, 82).
in(198, 83).
in(198, 85).
in(198, 87).
in(198, 89).
in(198, 95).
in(198, 96).
in(198, 97).
in(198, 98).
in(198, 100).
in(198, 102).
in(198, 104).
in(198, 111).
in(198, 113).
in(198, 114).
in(198, 117).
in(198, 121).
in(198, 127).
in(199, 1).
in(199, 6).
in(199, 7).
in(199, 8).
in(199, 9).
in(199, 10).
in(199, 11).
in(199, 18).
in(199, 20).
in(199, 24).
in(199, 25).
in(199, 27).
in(199, 29).
in(199, 30).
in(199, 32).
in(199, 35).
in(199, 36).
in(199, 37).
in(199, 40).
in(199, 41).
in(199, 42).
in(199, 44).
in(199, 45).
in(199, 46).
in(199, 51).
in(199, 52).
in(199, 53).
in(199, 54).
in(199, 56).
in(199, 60).
in(199, 63).
in(199, 67).
in(199, 68).
in(199, 69).
in(199, 70).
in(199, 72).
in(199, 73).
in(199, 75).
in(199, 77).
in(199, 80).
in(199, 83).
in(199, 85).
in(199, 86).
in(199, 88).
in(199, 89).
in(199, 91).
in(199, 92).
in(199, 95).
in(199, 96).
in(199, 98).
in(199, 100).
in(199, 102).
in(199, 107).
in(199, 112).
in(199, 113).
in(199, 114).
in(199, 116).
in(199, 118).
in(199, 120).
in(199, 121).
in(199, 122).
in(199, 123).
in(199, 124).
in(199, 126).
in(199, 127).
in(200, 128).
in(200, 2).
in(200, 7).
in(200, 14).
in(200, 16).
in(200, 17).
in(200, 19).
in(200, 20).
in(200, 21).
in(200, 22).
in(200, 24).
in(200, 27).
in(200, 28).
in(200, 29).
in(200, 31).
in(200, 32).
in(200, 36).
in(200, 42).
in(200, 45).
in(200, 46).
in(200, 48).
in(200, 49).
in(200, 52).
in(200, 54).
in(200, 56).
in(200, 58).
in(200, 60).
in(200, 61).
in(200, 62).
in(200, 63).
in(200, 68).
in(200, 70).
in(200, 72).
in(200, 76).
in(200, 82).
in(200, 87).
in(200, 88).
in(200, 90).
in(200, 91).
in(200, 93).
in(200, 100).
in(200, 102).
in(200, 107).
in(200, 110).
in(200, 115).
in(200, 116).
in(200, 118).
in(200, 121).
in(200, 122).
in(200, 125).
in(200, 127).
in(201, 128).
in(201, 1).
in(201, 2).
in(201, 3).
in(201, 4).
in(201, 5).
in(201, 9).
in(201, 12).
in(201, 14).
in(201, 15).
in(201, 21).
in(201, 23).
in(201, 27).
in(201, 30).
in(201, 33).
in(201, 36).
in(201, 40).
in(201, 41).
in(201, 47).
in(201, 48).
in(201, 49).
in(201, 52).
in(201, 53).
in(201, 54).
in(201, 56).
in(201, 58).
in(201, 62).
in(201, 63).
in(201, 64).
in(201, 68).
in(201, 69).
in(201, 77).
in(201, 81).
in(201, 82).
in(201, 88).
in(201, 92).
in(201, 94).
in(201, 95).
in(201, 100).
in(201, 101).
in(201, 103).
in(201, 104).
in(201, 105).
in(201, 106).
in(201, 108).
in(201, 109).
in(201, 113).
in(201, 114).
in(201, 118).
in(201, 120).
in(201, 121).
in(201, 123).
weight(1, 7).
weight(2, 3).
weight(3, 5).
weight(4, 6).
weight(5, 3).
weight(6, 10).
weight(7, 4).
weight(8, 7).
weight(9, 5).
weight(10, 2).
weight(11, 6).
weight(12, 3).
weight(13, 5).
weight(14, 6).
weight(15, 9).
weight(16, 4).
weight(17, 10).
weight(18, 2).
weight(19, 6).
weight(20, 9).
weight(21, 3).
weight(22, 4).
weight(23, 5).
weight(24, 7).
weight(25, 6).
weight(26, 2).
weight(27, 4).
weight(28, 6).
weight(29, 11).
weight(30, 2).
weight(31, 6).
weight(32, 3).
weight(33, 10).
weight(34, 7).
weight(35, 5).
weight(36, 2).
weight(37, 8).
weight(38, 8).
weight(39, 5).
weight(40, 10).
weight(41, 4).
weight(42, 11).
weight(43, 5).
weight(44, 5).
weight(45, 11).
weight(46, 7).
weight(47, 4).
weight(48, 2).
weight(49, 10).
weight(50, 7).
weight(51, 9).
weight(52, 7).
weight(53, 6).
weight(54, 11).
weight(55, 11).
weight(56, 8).
weight(57, 9).
weight(58, 10).
weight(59, 10).
weight(60, 5).
weight(61, 8).
weight(62, 7).
weight(63, 2).
weight(64, 6).
weight(65, 9).
weight(66, 1).
weight(67, 10).
weight(68, 1).
weight(69, 8).
weight(70, 10).
weight(71, 2).
weight(72, 2).
weight(73, 9).
weight(74, 2).
weight(75, 6).
weight(76, 10).
weight(77, 3).
weight(78, 8).
weight(79, 8).
weight(80, 2).
weight(81, 9).
weight(82, 11).
weight(83, 8).
weight(84, 6).
weight(85, 11).
weight(86, 3).
weight(87, 11).
weight(88, 11).
weight(89, 10).
weight(90, 1).
weight(91, 1).
weight(92, 3).
weight(93, 2).
weight(94, 11).
weight(95, 9).
weight(96, 6).
weight(97, 7).
weight(98, 1).
weight(99, 2).
weight(100, 2).
weight(101, 6).
weight(102, 11).
weight(103, 6).
weight(104, 9).
weight(105, 11).
weight(106, 2).
weight(107, 4).
weight(108, 5).
weight(109, 11).
weight(110, 5).
weight(111, 5).
weight(112, 7).
weight(113, 6).
weight(114, 1).
weight(115, 6).
weight(116, 7).
weight(117, 1).
weight(118, 2).
weight(119, 11).
weight(120, 8).
weight(121, 2).
weight(122, 9).
weight(123, 8).
weight(124, 2).
weight(125, 6).
weight(126, 11).
weight(127, 3).
weight(128, 5).
weight(129, 8).
weight(130, 4).
weight(131, 7).
weight(132, 1).
weight(133, 11).
weight(134, 1).
weight(135, 9).
weight(136, 10).
weight(137, 2).
weight(138, 1).
weight(139, 9).
weight(140, 7).
weight(141, 9).
weight(142, 4).
weight(143, 10).
weight(144, 3).
weight(145, 9).
weight(146, 3).
weight(147, 8).
weight(148, 10).
weight(149, 11).
weight(150, 9).
weight(151, 7).
weight(152, 9).
weight(153, 3).
weight(154, 10).
weight(155, 2).
weight(156, 11).
weight(157, 5).
weight(158, 4).
weight(159, 10).
weight(160, 3).
weight(161, 10).
weight(162, 7).
weight(163, 10).
weight(164, 8).
weight(165, 5).
weight(166, 7).
weight(167, 6).
weight(168, 11).
weight(169, 8).
weight(170, 9).
weight(171, 1).
weight(172, 4).
weight(173, 7).
weight(174, 1).
weight(175, 5).
weight(176, 3).
weight(177, 4).
weight(178, 7).
weight(179, 3).
weight(180, 6).
weight(181, 10).
weight(182, 8).
weight(183, 11).
weight(184, 11).
weight(185, 4).
weight(186, 1).
weight(187, 10).
weight(188, 10).
weight(189, 11).
weight(190, 11).
weight(191, 6).
weight(192, 8).
weight(193, 4).
weight(194, 9).
weight(195, 8).
weight(196, 7).
weight(197, 2).
weight(198, 7).
weight(199, 9).
weight(200, 1).
weight(201, 4).

{ choose(S) } :- set(S).
:- choose(S1), choose(S2), S1 < S2, in(S1,E), in(S2,E).
:~ not choose(S), weight(S,W). [W@1,S]
