elem(1..123).
set(1..192).
in(1, 1).
in(1, 2).
in(1, 5).
in(1, 11).
in(1, 12).
in(1, 13).
in(1, 14).
in(1, 17).
in(1, 21).
in(1, 22).
in(1, 25).
in(1, 29).
in(1, 32).
in(1, 33).
in(1, 36).
in(1, 38).
in(1, 39).
in(1, 43).
in(1, 45).
in(1, 46).
in(1, 47).
in(1, 48).
in(1, 51).
in(1, 53).
in(1, 62).
in(1, 64).
in(1, 66).
in(1, 67).
in(1, 68).
in(1, 69).
in(1, 74).
in(1, 75).
in(1, 77).
in(1, 81).
in(1, 82).
in(1, 85).
in(1, 86).
in(1, 87).
in(1, 90).
in(1, 93).
in(1, 96).
in(1, 100).
in(1, 103).
in(1, 106).
in(1, 107).
in(1, 109).
in(1, 111).
in(1, 113).
in(1, 114).
in(1, 115).
in(1, 118).
in(1, 120).
in(1, 122).
in(2, 5).
in(2, 7).
in(2, 8).
in(2, 9).
in(2, 10).
in(2, 11).
in(2, 12).
in(2, 14).
in(2, 15).
in(2, 17).
in(2, 18).
in(2, 21).
in(2, 24).
in(2, 29).
in(2, 31).
in(2, 32).
in(2, 36).
in(2, 40).
in(2, 41).
in(2, 42).
in(2, 43).
in(2, 45).
in(2, 46).
in(2, 48).
in(2, 50).
in(2, 51).
in(2, 52).
in(2, 54).
in(2, 58).
in(2, 60).
in(2, 63).
in(2, 64).
in(2, 65).
in(2, 66).
in(2, 67).
in(2, 69).
in(2, 70).
in(2, 73).
in(2, 74).
in(2, 75).
in(2, 77).
in(2, 78).
in(2, 79).
in(2, 80).
in(2, 81).
in(2, 84).
in(2, 86).
in(2, 87).
in(2, 89).
in(2, 91).
in(2, 93).
in(2, 96).
in(2, 98).
in(2, 99).
in(2, 100).
in(2, 101).
in(2, 102).
in(2, 103).
in(2, 106).
in(2, 107).
in(2, 108).
in(2, 109).
in(2, 111).
in(2, 112).
in(2, 114).
in(2, 115).
in(2, 118).
in(2, 119).
in(2, 120).
in(2, 121).
in(2, 122).
in(2, 123).
in(3, 2).
in(3, 6).
in(3, 7).
in(3, 11).
in(3, 14).
in(3, 17).
in(3, 22).
in(3, 23).
in(3, 24).
in(3, 27).
in(3, 29).
in(3, 32).
in(3, 33).
in(3, 35).
in(3, 39).
in(3, 41).
in(3, 42).
in(3, 43).
in(3, 46).
in(3, 47).
in(3, 48).
in(3, 51).
in(3, 52).
in(3, 54).
in(3, 56).
in(3, 59).
in(3, 60).
in(3, 61).
in(3, 63).
in(3, 64).
in(3, 67).
in(3, 68).
in(3, 71).
in(3, 73).
in(3, 75).
in(3, 77).
in(3, 83).
in(3, 84).
in(3, 89).
in(3, 90).
in(3, 93).
in(3, 96).
in(3, 98).
in(3, 100).
in(3, 101).
in(3, 103).
in(3, 105).
in(3, 106).
in(3, 107).
in(3, 109).
in(3, 111).
in(3, 113).
in(3, 115).
in(3, 117).
in(3, 118).
in(3, 120).
in(3, 121).
in(3, 122).
in(4, 3).
in(4, 6).
in(4, 9).
in(4, 10).
in(4, 12).
in(4, 14).
in(4, 17).
in(4, 18).
in(4, 20).
in(4, 21).
in(4, 23).
in(4, 24).
in(4, 25).
in(4, 26).
in(4, 33).
in(4, 36).
in(4, 37).
in(4, 39).
in(4, 42).
in(4, 46).
in(4, 47).
in(4, 53).
in(4, 54).
in(4, 55).
in(4, 56).
in(4, 58).
in(4, 59).
in(4, 60).
in(4, 62).
in(4, 64).
in(4, 66).
in(4, 68).
in(4, 73).
in(4, 76).
in(4, 77).
in(4, 78).
in(4, 79).
in(4, 80).
in(4, 82).
in(4, 83).
in(4, 85).
in(4, 86).
in(4, 88).
in(4, 89).
in(4, 90).
in(4, 95).
in(4, 97).
in(4, 98).
in(4, 99).
in(4, 100).
in(4, 101).
in(4, 102).
in(4, 103).
in(4, 105).
in(4, 106).
in(4, 107).
in(4, 108).
in(4, 109).
in(4, 111).
in(4, 113).
in(4, 119).
in(4, 121).
in(4, 123).
in(5, 1).
in(5, 2).
in(5, 3).
in(5, 4).
in(5, 6).
in(5, 7).
in(5, 8).
in(5, 13).
in(5, 14).
in(5, 15).
in(5, 16).
in(5, 23).
in(5, 24).
in(5, 26).
in(5, 27).
in(5, 30).
in(5, 31).
in(5, 33).
in(5, 34).
in(5, 35).
in(5, 37).
in(5, 39).
in(5, 40).
in(5, 41).
in(5, 43).
in(5, 45).
in(5, 48).
in(5, 50).
in(5, 51).
in(5, 52).
in(5, 54).
in(5, 55).
in(5, 59).
in(5, 60).
in(5, 61).
in(5, 63).
in(5, 68).
in(5, 69).
in(5, 70).
in(5, 72).
in(5, 74).
in(5, 75).
in(5, 76).
in(5, 78).
in(5, 82).
in(5, 84).
in(5, 85).
in(5, 86).
in(5, 88).
in(5, 89).
in(5, 94).
in(5, 95).
in(5, 97).
in(5, 99).
in(5, 101).
in(5, 102).
in(5, 104).
in(5, 105).
in(5, 106).
in(5, 107).
in(5, 109).
in(5, 110).
in(5, 111).
in(5, 116).
in(5, 117).
in(5, 118).
in(6, 1).
in(6, 5).
in(6, 6).
in(6, 9).
in(6, 10).
in(6, 12).
in(6, 14).
in(6, 16).
in(6, 17).
in(6, 18).
in(6, 19).
in(6, 22).
in(6, 24).
in(6, 26).
in(6, 27).
in(6, 28).
in(6, 29).
in(6, 32).
in(6, 33).
in(6, 37).
in(6, 38).
in(6, 39).
in(6, 42).
in(6, 43).
in(6, 44).
in(6, 46).
in(6, 48).
in(6, 51).
in(6, 55).
in(6, 56).
in(6, 57).
in(6, 59).
in(6, 60).
in(6, 62).
in(6, 68).
in(6, 69).
in(6, 73).
in(6, 74).
in(6, 75).
in(6, 77).
in(6, 81).
in(6, 82).
in(6, 83).
in(6, 85).
in(6, 89).
in(6, 90).
in(6, 92).
in(6, 95).
in(6, 96).
in(6, 97).
in(6, 98).
in(6, 99).
in(6, 101).
in(6, 103).
in(6, 104).
in(6, 106).
in(6, 107).
in(6, 110).
in(6, 111).
in(6, 112).
in(6, 116).
in(6, 117).
in(6, 122).
in(7, 2).
in(7, 3).
in(7, 6).
in(7, 7).
in(7, 10).
in(7, 11).
in(7, 15).
in(7, 16).
in(7, 17).
in(7, 19).
in(7, 20).
in(7, 21).
in(7, 22).
in(7, 23).
in(7, 27).
in(7, 35).
in(7, 37).
in(7, 38).
in(7, 42).
in(7, 46).
in(7, 47).
in(7, 48).
in(7, 55).
in(7, 56).
in(7, 57).
in(7, 60).
in(7, 61).
in(7, 63).
in(7, 65).
in(7, 66).
in(7, 67).
in(7, 68).
in(7, 70).
in(7, 72).
in(7, 77).
in(7, 82).
in(7, 83).
in(7, 84).
in(7, 85).
in(7, 89).
in(7, 91).
in(7, 94).
in(7, 95).
in(7, 98).
in(7, 103).
in(7, 104).
in(7, 105).
in(7, 106).
in(7, 107).
in(7, 114).
in(7, 115).
in(7, 117).
in(7, 120).
in(7, 123).
in(8, 2).
in(8, 4).
in(8, 5).
in(8, 6).
in(8, 7).
in(8, 9).
in(8, 11).
in(8, 13).
in(8, 17).
in(8, 18).
in(8, 19).
in(8, 20).
in(8, 23).
in(8, 29).
in(8, 31).
in(8, 32).
in(8, 33).
in(8, 35).
in(8, 36).
in(8, 40).
in(8, 42).
in(8, 43).
in(8, 45).
in(8, 46).
in(8, 48).
in(8, 50).
in(8, 51).
in(8, 53).
in(8, 55).
in(8, 57).
in(8, 58).
in(8, 59).
in(8, 60).
in(8, 62).
in(8, 69).
in(8, 74).
in(8, 75).
in(8, 78).
in(8, 79).
in(8, 84).
in(8, 85).
in(8, 95).
in(8, 97).
in(8, 100).
in(8, 101).
in(8, 102).
in(8, 103).
in(8, 105).
in(8, 106).
in(8, 108).
in(8, 110).
in(8, 112).
in(8, 114).
in(8, 115).
in(8, 116).
in(8, 117).
in(8, 120).
in(9, 5).
in(9, 6).
in(9, 7).
in(9, 9).
in(9, 12).
in(9, 15).
in(9, 17).
in(9, 18).
in(9, 19).
in(9, 21).
in(9, 23).
in(9, 25).
in(9, 26).
in(9, 27).
in(9, 28).
in(9, 38).
in(9, 40).
in(9, 43).
in(9, 44).
in(9, 45).
in(9, 48).
in(9, 54).
in(9, 55).
in(9, 59).
in(9, 60).
in(9, 61).
in(9, 62).
in(9, 65).
in(9, 68).
in(9, 69).
in(9, 70).
in(9, 71).
in(9, 72).
in(9, 73).
in(9, 74).
in(9, 75).
in(9, 78).
in(9, 81).
in(9, 83).
in(9, 84).
in(9, 86).
in(9, 87).
in(9, 88).
in(9, 92).
in(9, 93).
in(9, 94).
in(9, 99).
in(9, 100).
in(9, 101).
in(9, 104).
in(9, 106).
in(9, 107).
in(9, 109).
in(9, 111).
in(9, 112).
in(9, 116).
in(9, 117).
in(9, 121).
in(9, 122).
in(10, 1).
in(10, 2).
in(10, 7).
in(10, 9).
in(10, 11).
in(10, 15).
in(10, 16).
in(10, 17).
in(10, 21).
in(10, 22).
in(10, 25).
in(10, 28).
in(10, 29).
in(10, 33).
in(10, 34).
in(10, 38).
in(10, 41).
in(10, 42).
in(10, 45).
in(10, 46).
in(10, 47).
in(10, 49).
in(10, 50).
in(10, 51).
in(10, 53).
in(10, 55).
in(10, 57).
in(10, 59).
in(10, 61).
in(10, 64).
in(10, 65).
in(10, 69).
in(10, 73).
in(10, 76).
in(10, 77).
in(10, 78).
in(10, 80).
in(10, 83).
in(10, 84).
in(10, 85).
in(10, 86).
in(10, 87).
in(10, 88).
in(10, 89).
in(10, 92).
in(10, 95).
in(10, 97).
in(10, 98).
in(10, 99).
in(10, 103).
in(10, 105).
in(10, 106).
in(10, 107).
in(10, 108).
in(10, 109).
in(10, 111).
in(10, 114).
in(10, 117).
in(10, 118).
in(10, 121).
in(10, 122).
in(11, 4).
in(11, 5).
in(11, 8).
in(11, 10).
in(11, 16).
in(11, 17).
in(11, 19).
in(11, 22).
in(11, 23).
in(11, 24).
in(11, 27).
in(11, 30).
in(11, 31).
in(11, 32).
in(11, 35).
in(11, 37).
in(11, 39).
in(11, 40).
in(11, 43).
in(11, 45).
in(11, 47).
in(11, 48).
in(11, 49).
in(11, 51).
in(11, 55).
in(11, 56).
in(11, 67).
in(11, 68).
in(11, 71).
in(11, 72).
in(11, 73).
in(11, 78).
in(11, 84).
in(11, 85).
in(11, 87).
in(11, 88).
in(11, 89).
in(11, 90).
in(11, 91).
in(11, 92).
in(11, 94).
in(11, 96).
in(11, 99).
in(11, 101).
in(11, 102).
in(11, 104).
in(11, 105).
in(11, 106).
in(11, 108).
in(11, 109).
in(11, 111).
in(11, 112).
in(11, 113).
in(11, 115).
in(11, 117).
in(11, 118).
in(11, 119).
in(11, 122).
in(12, 1).
in(12, 2).
in(12, 3).
in(12, 4).
in(12, 5).
in(12, 6).
in(12, 8).
in(12, 9).
in(12, 11).
in(12, 13).
in(12, 14).
in(12, 15).
in(12, 16).
in(12, 17).
in(12, 22).
in(12, 23).
in(12, 26).
in(12, 29).
in(12, 30).
in(12, 31).
in(12, 32).
in(12, 36).
in(12, 38).
in(12, 40).
in(12, 44).
in(12, 46).
in(12, 47).
in(12, 48).
in(12, 49).
in(12, 50).
in(12, 51).
in(12, 52).
in(12, 54).
in(12, 55).
in(12, 56).
in(12, 57).
in(12, 58).
in(12, 59).
in(12, 62).
in(12, 65).
in(12, 67).
in(12, 68).
in(12, 69).
in(12, 70).
in(12, 73).
in(12, 77).
in(12, 79).
in(12, 80).
in(12, 88).
in(12, 89).
in(12, 90).
in(12, 92).
in(12, 93).
in(12, 96).
in(12, 98).
in(12, 101).
in(12, 102).
in(12, 105).
in(12, 106).
in(12, 108).
in(12, 109).
in(12, 111).
in(12, 114).
in(12, 116).
in(12, 119).
in(12, 123).
in(13, 4).
in(13, 9).
in(13, 11).
in(13, 14).
in(13, 15).
in(13, 16).
in(13, 18).
in(13, 20).
in(13, 21).
in(13, 24).
in(13, 27).
in(13, 31).
in(13, 32).
in(13, 33).
in(13, 37).
in(13, 38).
in(13, 39).
in(13, 40).
in(13, 46).
in(13, 47).
in(13, 59).
in(13, 61).
in(13, 63).
in(13, 65).
in(13, 66).
in(13, 68).
in(13, 69).
in(13, 70).
in(13, 77).
in(13, 78).
in(13, 79).
in(13, 80).
in(13, 83).
in(13, 91).
in(13, 93).
in(13, 94).
in(13, 97).
in(13, 98).
in(13, 100).
in(13, 103).
in(13, 107).
in(13, 111).
in(13, 112).
in(13, 114).
in(13, 115).
in(13, 117).
in(13, 120).
in(14, 1).
in(14, 5).
in(14, 6).
in(14, 8).
in(14, 9).
in(14, 12).
in(14, 13).
in(14, 14).
in(14, 16).
in(14, 17).
in(14, 20).
in(14, 21).
in(14, 27).
in(14, 29).
in(14, 31).
in(14, 34).
in(14, 35).
in(14, 37).
in(14, 43).
in(14, 45).
in(14, 46).
in(14, 49).
in(14, 50).
in(14, 52).
in(14, 53).
in(14, 55).
in(14, 56).
in(14, 57).
in(14, 59).
in(14, 60).
in(14, 62).
in(14, 63).
in(14, 65).
in(14, 69).
in(14, 72).
in(14, 73).
in(14, 75).
in(14, 76).
in(14, 77).
in(14, 80).
in(14, 82).
in(14, 86).
in(14, 89).
in(14, 90).
in(14, 92).
in(14, 97).
in(14, 100).
in(14, 105).
in(14, 109).
in(14, 110).
in(14, 111).
in(14, 116).
in(14, 117).
in(14, 121).
in(14, 123).
in(15, 3).
in(15, 5).
in(15, 8).
in(15, 10).
in(15, 13).
in(15, 14).
in(15, 15).
in(15, 17).
in(15, 20).
in(15, 22).
in(15, 23).
in(15, 25).
in(15, 28).
in(15, 29).
in(15, 30).
in(15, 31).
in(15, 32).
in(15, 35).
in(15, 36).
in(15, 37).
in(15, 42).
in(15, 47).
in(15, 59).
in(15, 60).
in(15, 61).
in(15, 62).
in(15, 63).
in(15, 69).
in(15, 73).
in(15, 74).
in(15, 75).
in(15, 77).
in(15, 78).
in(15, 80).
in(15, 82).
in(15, 85).
in(15, 86).
in(15, 88).
in(15, 89).
in(15, 91).
in(15, 92).
in(15, 98).
in(15, 101).
in(15, 105).
in(15, 109).
in(15, 110).
in(15, 112).
in(15, 115).
in(15, 118).
in(15, 119).
in(15, 120).
in(16, 4).
in(16, 5).
in(16, 6).
in(16, 9).
in(16, 10).
in(16, 11).
in(16, 13).
in(16, 14).
in(16, 15).
in(16, 19).
in(16, 21).
in(16, 24).
in(16, 26).
in(16, 28).
in(16, 30).
in(16, 33).
in(16, 36).
in(16, 37).
in(16, 40).
in(16, 42).
in(16, 45).
in(16, 46).
in(16, 48).
in(16, 49).
in(16, 50).
in(16, 52).
in(16, 54).
in(16, 58).
in(16, 61).
in(16, 63).
in(16, 64).
in(16, 66).
in(16, 73).
in(16, 75).
in(16, 77).
in(16, 79).
in(16, 80).
in(16, 82).
in(16, 84).
in(16, 85).
in(16, 86).
in(16, 92).
in(16, 97).
in(16, 98).
in(16, 99).
in(16, 100).
in(16, 101).
in(16, 106).
in(16, 109).
in(16, 111).
in(16, 112).
in(16, 113).
in(16, 116).
in(16, 118).
in(16, 122).
in(16, 123).
in(17, 2).
in(17, 4).
in(17, 6).
in(17, 7).
in(17, 10).
in(17, 11).
in(17, 13).
in(17, 16).
in(17, 19).
in(17, 20).
in(17, 23).
in(17, 25).
in(17, 27).
in(17, 28).
in(17, 31).
in(17, 33).
in(17, 35).
in(17, 36).
in(17, 43).
in(17, 44).
in(17, 51).
in(17, 54).
in(17, 57).
in(17, 58).
in(17, 59).
in(17, 60).
in(17, 62).
in(17, 63).
in(17, 64).
in(17, 66).
in(17, 70).
in(17, 74).
in(17, 81).
in(17, 83).
in(17, 85).
in(17, 86).
in(17, 88).
in(17, 91).
in(17, 92).
in(17, 98).
in(17, 101).
in(17, 103).
in(17, 107).
in(17, 108).
in(17, 111).
in(17, 112).
in(17, 120).
in(17, 121).
in(18, 3).
in(18, 5).
in(18, 6).
in(18, 7).
in(18, 8).
in(18, 9).
in(18, 11).
in(18, 14).
in(18, 17).
in(18, 18).
in(18, 19).
in(18, 20).
in(18, 25).
in(18, 28).
in(18, 29).
in(18, 30).
in(18, 31).
in(18, 33).
in(18, 34).
in(18, 42).
in(18, 44).
in(18, 45).
in(18, 47).
in(18, 49).
in(18, 50).
in(18, 52).
in(18, 53).
in(18, 54).
in(18, 57).
in(18, 58).
in(18, 62).
in(18, 64).
in(18, 67).
in(18, 70).
in(18, 73).
in(18, 75).
in(18, 77).
in(18, 78).
in(18, 80).
in(18, 81).
in(18, 82).
in(18, 84).
in(18, 85).
in(18, 92).
in(18, 96).
in(18, 99).
in(18, 101).
in(18, 102).
in(18, 106).
in(18, 110).
in(18, 114).
in(18, 116).
in(18, 117).
in(18, 120).
in(19, 3).
in(19, 4).
in(19, 5).
in(19, 6).
in(19, 8).
in(19, 9).
in(19, 14).
in(19, 15).
in(19, 19).
in(19, 20).
in(19, 21).
in(19, 22).
in(19, 23).
in(19, 26).
in(19, 28).
in(19, 30).
in(19, 32).
in(19, 33).
in(19, 35).
in(19, 36).
in(19, 39).
in(19, 40).
in(19, 41).
in(19, 43).
in(19, 44).
in(19, 45).
in(19, 46).
in(19, 48).
in(19, 49).
in(19, 50).
in(19, 52).
in(19, 59).
in(19, 60).
in(19, 64).
in(19, 65).
in(19, 66).
in(19, 67).
in(19, 68).
in(19, 69).
in(19, 83).
in(19, 84).
in(19, 90).
in(19, 91).
in(19, 92).
in(19, 93).
in(19, 96).
in(19, 98).
in(19, 100).
in(19, 102).
in(19, 105).
in(19, 106).
in(19, 108).
in(19, 115).
in(19, 116).
in(19, 117).
in(19, 119).
in(19, 120).
in(19, 121).
in(19, 122).
in(20, 1).
in(20, 5).
in(20, 6).
in(20, 8).
in(20, 10).
in(20, 11).
in(20, 12).
in(20, 13).
in(20, 18).
in(20, 21).
in(20, 22).
in(20, 25).
in(20, 26).
in(20, 28).
in(20, 29).
in(20, 32).
in(20, 33).
in(20, 36).
in(20, 37).
in(20, 38).
in(20, 39).
in(20, 41).
in(20, 46).
in(20, 47).
in(20, 49).
in(20, 51).
in(20, 52).
in(20, 53).
in(20, 55).
in(20, 56).
in(20, 61).
in(20, 65).
in(20, 66).
in(20, 69).
in(20, 70).
in(20, 72).
in(20, 73).
in(20, 74).
in(20, 76).
in(20, 81).
in(20, 82).
in(20, 84).
in(20, 85).
in(20, 86).
in(20, 89).
in(20, 91).
in(20, 93).
in(20, 95).
in(20, 99).
in(20, 100).
in(20, 101).
in(20, 106).
in(20, 107).
in(20, 110).
in(20, 111).
in(20, 114).
in(20, 115).
in(20, 116).
in(20, 117).
in(20, 120).
in(20, 122).
in(21, 1).
in(21, 2).
in(21, 3).
in(21, 5).
in(21, 8).
in(21, 10).
in(21, 11).
in(21, 12).
in(21, 13).
in(21, 15).
in(21, 17).
in(21, 18).
in(21, 22).
in(21, 25).
in(21, 27).
in(21, 28).
in(21, 29).
in(21, 32).
in(21, 36).
in(21, 37).
in(21, 40).
in(21, 41).
in(21, 42).
in(21, 43).
in(21, 44).
in(21, 46).
in(21, 47).
in(21, 48).
in(21, 50).
in(21, 54).
in(21, 56).
in(21, 60).
in(21, 63).
in(21, 64).
in(21, 65).
in(21, 71).
in(21, 73).
in(21, 74).
in(21, 77).
in(21, 78).
in(21, 79).
in(21, 80).
in(21, 81).
in(21, 86).
in(21, 88).
in(21, 89).
in(21, 90).
in(21, 91).
in(21, 95).
in(21, 100).
in(21, 102).
in(21, 103).
in(21, 105).
in(21, 107).
in(21, 108).
in(21, 109).
in(21, 113).
in(21, 115).
in(21, 116).
in(21, 120).
in(21, 123).
in(22, 1).
in(22, 3).
in(22, 4).
in(22, 11).
in(22, 15).
in(22, 16).
in(22, 17).
in(22, 21).
in(22, 24).
in(22, 25).
in(22, 27).
in(22, 31).
in(22, 33).
in(22, 34).
in(22, 35).
in(22, 38).
in(22, 40).
in(22, 41).
in(22, 43).
in(22, 50).
in(22, 51).
in(22, 52).
in(22, 53).
in(22, 54).
in(22, 55).
in(22, 57).
in(22, 62).
in(22, 64).
in(22, 65).
in(22, 66).
in(22, 69).
in(22, 70).
in(22, 72).
in(22, 75).
in(22, 76).
in(22, 78).
in(22, 81).
in(22, 88).
in(22, 90).
in(22, 91).
in(22, 92).
in(22, 95).
in(22, 97).
in(22, 99).
in(22, 107).
in(22, 108).
in(22, 110).
in(22, 111).
in(22, 115).
in(22, 116).
in(22, 118).
in(22, 119).
in(22, 120).
in(22, 121).
in(22, 123).
in(23, 1).
in(23, 2).
in(23, 3).
in(23, 6).
in(23, 9).
in(23, 12).
in(23, 13).
in(23, 18).
in(23, 19).
in(23, 23).
in(23, 27).
in(23, 28).
in(23, 31).
in(23, 32).
in(23, 34).
in(23, 38).
in(23, 39).
in(23, 43).
in(23, 44).
in(23, 48).
in(23, 51).
in(23, 52).
in(23, 54).
in(23, 59).
in(23, 61).
in(23, 62).
in(23, 65).
in(23, 66).
in(23, 67).
in(23, 69).
in(23, 70).
in(23, 71).
in(23, 74).
in(23, 75).
in(23, 76).
in(23, 77).
in(23, 78).
in(23, 83).
in(23, 84).
in(23, 87).
in(23, 88).
in(23, 89).
in(23, 90).
in(23, 91).
in(23, 92).
in(23, 93).
in(23, 96).
in(23, 97).
in(23, 98).
in(23, 99).
in(23, 103).
in(23, 104).
in(23, 105).
in(23, 106).
in(23, 107).
in(23, 108).
in(23, 109).
in(23, 112).
in(23, 113).
in(23, 118).
in(23, 119).
in(23, 121).
in(24, 1).
in(24, 2).
in(24, 4).
in(24, 6).
in(24, 7).
in(24, 8).
in(24, 9).
in(24, 10).
in(24, 13).
in(24, 14).
in(24, 18).
in(24, 19).
in(24, 21).
in(24, 22).
in(24, 27).
in(24, 28).
in(24, 29).
in(24, 30).
in(24, 31).
in(24, 32).
in(24, 37).
in(24, 38).
in(24, 43).
in(24, 45).
in(24, 46).
in(24, 48).
in(24, 51).
in(24, 52).
in(24, 53).
in(24, 56).
in(24, 57).
in(24, 58).
in(24, 59).
in(24, 64).
in(24, 68).
in(24, 70).
in(24, 74).
in(24, 75).
in(24, 76).
in(24, 78).
in(24, 79).
in(24, 80).
in(24, 81).
in(24, 83).
in(24, 84).
in(24, 88).
in(24, 93).
in(24, 95).
in(24, 97).
in(24, 98).
in(24, 99).
in(24, 100).
in(24, 102).
in(24, 103).
in(24, 105).
in(24, 106).
in(24, 108).
in(24, 110).
in(24, 111).
in(24, 122).
in(24, 123).
in(25, 3).
in(25, 4).
in(25, 6).
in(25, 7).
in(25, 14).
in(25, 16).
in(25, 17).
in(25, 19).
in(25, 23).
in(25, 25).
in(25, 26).
in(25, 27).
in(25, 30).
in(25, 31).
in(25, 34).
in(25, 39).
in(25, 40).
in(25, 44).
in(25, 45).
in(25, 51).
in(25, 52).
in(25, 56).
in(25, 58).
in(25, 61).
in(25, 64).
in(25, 65).
in(25, 67).
in(25, 68).
in(25, 70).
in(25, 71).
in(25, 74).
in(25, 76).
in(25, 80).
in(25, 81).
in(25, 84).
in(25, 85).
in(25, 87).
in(25, 89).
in(25, 93).
in(25, 94).
in(25, 98).
in(25, 99).
in(25, 100).
in(25, 101).
in(25, 105).
in(25, 106).
in(25, 108).
in(25, 109).
in(25, 114).
in(25, 119).
in(25, 120).
in(25, 121).
in(25, 122).
in(25, 123).
in(26, 3).
in(26, 8).
in(26, 9).
in(26, 11).
in(26, 16).
in(26, 21).
in(26, 24).
in(26, 25).
in(26, 26).
in(26, 27).
in(26, 28).
in(26, 29).
in(26, 31).
in(26, 32).
in(26, 33).
in(26, 34).
in(26, 36).
in(26, 37).
in(26, 40).
in(26, 42).
in(26, 43).
in(26, 45).
in(26, 46).
in(26, 47).
in(26, 50).
in(26, 52).
in(26, 56).
in(26, 57).
in(26, 61).
in(26, 67).
in(26, 68).
in(26, 70).
in(26, 71).
in(26, 72).
in(26, 74).
in(26, 76).
in(26, 78).
in(26, 82).
in(26, 83).
in(26, 85).
in(26, 91).
in(26, 92).
in(26, 96).
in(26, 99).
in(26, 100).
in(26, 101).
in(26, 102).
in(26, 107).
in(26, 108).
in(26, 109).
in(26, 110).
in(26, 111).
in(26, 112).
in(26, 114).
in(26, 115).
in(26, 118).
in(26, 119).
in(26, 120).
in(26, 122).
in(26, 123).
in(27, 3).
in(27, 6).
in(27, 7).
in(27, 11).
in(27, 12).
in(27, 13).
in(27, 15).
in(27, 17).
in(27, 18).
in(27, 21).
in(27, 23).
in(27, 24).
in(27, 25).
in(27, 29).
in(27, 31).
in(27, 33).
in(27, 34).
in(27, 35).
in(27, 36).
in(27, 37).
in(27, 39).
in(27, 41).
in(27, 42).
in(27, 44).
in(27, 47).
in(27, 49).
in(27, 50).
in(27, 51).
in(27, 52).
in(27, 53).
in(27, 57).
in(27, 58).
in(27, 62).
in(27, 63).
in(27, 65).
in(27, 67).
in(27, 70).
in(27, 72).
in(27, 73).
in(27, 74).
in(27, 79).
in(27, 80).
in(27, 82).
in(27, 88).
in(27, 89).
in(27, 90).
in(27, 94).
in(27, 96).
in(27, 101).
in(27, 103).
in(27, 104).
in(27, 105).
in(27, 106).
in(27, 107).
in(27, 110).
in(27, 112).
in(27, 113).
in(27, 114).
in(27, 119).
in(27, 122).
in(27, 123).
in(28, 1).
in(28, 2).
in(28, 4).
in(28, 5).
in(28, 6).
in(28, 11).
in(28, 13).
in(28, 16).
in(28, 18).
in(28, 19).
in(28, 22).
in(28, 23).
in(28, 28).
in(28, 29).
in(28, 31).
in(28, 33).
in(28, 35).
in(28, 36).
in(28, 37).
in(28, 39).
in(28, 40).
in(28, 44).
in(28, 45).
in(28, 47).
in(28, 48).
in(28, 50).
in(28, 51).
in(28, 53).
in(28, 59).
in(28, 69).
in(28, 70).
in(28, 72).
in(28, 74).
in(28, 75).
in(28, 77).
in(28, 78).
in(28, 79).
in(28, 80).
in(28, 84).
in(28, 85).
in(28, 86).
in(28, 87).
in(28, 88).
in(28, 89).
in(28, 91).
in(28, 94).
in(28, 98).
in(28, 100).
in(28, 105).
in(28, 107).
in(28, 108).
in(28, 112).
in(28, 114).
in(28, 115).
in(28, 118).
in(28, 120).
in(28, 121).
in(28, 123).
in(29, 1).
in(29, 5).
in(29, 7).
in(29, 8).
in(29, 15).
in(29, 19).
in(29, 23).
in(29, 31).
in(29, 33).
in(29, 34).
in(29, 36).
in(29, 37).
in(29, 42).
in(29, 43).
in(29, 48).
in(29, 49).
in(29, 52).
in(29, 54).
in(29, 55).
in(29, 62).
in(29, 63).
in(29, 66).
in(29, 68).
in(29, 70).
in(29, 71).
in(29, 72).
in(29, 74).
in(29, 75).
in(29, 76).
in(29, 78).
in(29, 81).
in(29, 82).
in(29, 83).
in(29, 84).
in(29, 87).
in(29, 88).
in(29, 89).
in(29, 90).
in(29, 91).
in(29, 92).
in(29, 93).
in(29, 95).
in(29, 98).
in(29, 99).
in(29, 105).
in(29, 106).
in(29, 107).
in(29, 110).
in(29, 111).
in(29, 112).
in(29, 115).
in(29, 116).
in(29, 117).
in(29, 120).
in(29, 123).
in(30, 1).
in(30, 4).
in(30, 7).
in(30, 9).
in(30, 10).
in(30, 12).
in(30, 18).
in(30, 21).
in(30, 22).
in(30, 24).
in(30, 30).
in(30, 31).
in(30, 32).
in(30, 34).
in(30, 35).
in(30, 38).
in(30, 40).
in(30, 41).
in(30, 43).
in(30, 44).
in(30, 45).
in(30, 46).
in(30, 47).
in(30, 52).
in(30, 53).
in(30, 57).
in(30, 58).
in(30, 59).
in(30, 62).
in(30, 64).
in(30, 65).
in(30, 70).
in(30, 71).
in(30, 72).
in(30, 73).
in(30, 79).
in(30, 81).
in(30, 85).
in(30, 87).
in(30, 89).
in(30, 91).
in(30, 94).
in(30, 95).
in(30, 96).
in(30, 97).
in(30, 99).
in(30, 100).
in(30, 102).
in(30, 103).
in(30, 106).
in(30, 109).
in(30, 111).
in(30, 114).
in(30, 115).
in(30, 116).
in(30, 119).
in(30, 120).
in(30, 122).
in(31, 3).
in(31, 4).
in(31, 6).
in(31, 8).
in(31, 11).
in(31, 14).
in(31, 15).
in(31, 16).
in(31, 20).
in(31, 22).
in(31, 23).
in(31, 27).
in(31, 31).
in(31, 34).
in(31, 35).
in(31, 40).
in(31, 41).
in(31, 43).
in(31, 44).
in(31, 48).
in(31, 51).
in(31, 53).
in(31, 56).
in(31, 59).
in(31, 61).
in(31, 63).
in(31, 66).
in(31, 69).
in(31, 70).
in(31, 73).
in(31, 75).
in(31, 76).
in(31, 78).
in(31, 81).
in(31, 82).
in(31, 83).
in(31, 85).
in(31, 86).
in(31, 89).
in(31, 90).
in(31, 91).
in(31, 92).
in(31, 96).
in(31, 97).
in(31, 98).
in(31, 102).
in(31, 104).
in(31, 107).
in(31, 108).
in(31, 110).
in(31, 111).
in(31, 113).
in(31, 115).
in(31, 116).
in(31, 118).
in(31, 119).
in(31, 122).
in(31, 123).
in(32, 1).
in(32, 2).
in(32, 5).
in(32, 8).
in(32, 14).
in(32, 15).
in(32, 16).
in(32, 20).
in(32, 21).
in(32, 22).
in(32, 23).
in(32, 27).
in(32, 28).
in(32, 32).
in(32, 33).
in(32, 36).
in(32, 37).
in(32, 39).
in(32, 42).
in(32, 43).
in(32, 44).
in(32, 45).
in(32, 48).
in(32, 49).
in(32, 50).
in(32, 54).
in(32, 57).
in(32, 59).
in(32, 61).
in(32, 63).
in(32, 65).
in(32, 67).
in(32, 68).
in(32, 69).
in(32, 70).
in(32, 73).
in(32, 74).
in(32, 75).
in(32, 77).
in(32, 78).
in(32, 79).
in(32, 80).
in(32, 87).
in(32, 90).
in(32, 94).
in(32, 99).
in(32, 100).
in(32, 101).
in(32, 105).
in(32, 110).
in(32, 113).
in(32, 115).
in(32, 117).
in(32, 120).
in(32, 122).
in(32, 123).
in(33, 1).
in(33, 3).
in(33, 4).
in(33, 5).
in(33, 6).
in(33, 8).
in(33, 9).
in(33, 16).
in(33, 17).
in(33, 19).
in(33, 20).
in(33, 22).
in(33, 23).
in(33, 25).
in(33, 26).
in(33, 29).
in(33, 31).
in(33, 32).
in(33, 35).
in(33, 36).
in(33, 38).
in(33, 39).
in(33, 41).
in(33, 43).
in(33, 45).
in(33, 47).
in(33, 48).
in(33, 52).
in(33, 53).
in(33, 55).
in(33, 59).
in(33, 60).
in(33, 62).
in(33, 65).
in(33, 66).
in(33, 69).
in(33, 70).
in(33, 71).
in(33, 74).
in(33, 82).
in(33, 83).
in(33, 87).
in(33, 90).
in(33, 92).
in(33, 93).
in(33, 95).
in(33, 101).
in(33, 102).
in(33, 103).
in(33, 104).
in(33, 105).
in(33, 107).
in(33, 108).
in(33, 109).
in(33, 119).
in(33, 120).
in(33, 121).
in(33, 122).
in(34, 1).
in(34, 2).
in(34, 4).
in(34, 5).
in(34, 6).
in(34, 9).
in(34, 11).
in(34, 13).
in(34, 15).
in(34, 17).
in(34, 19).
in(34, 21).
in(34, 27).
in(34, 29).
in(34, 33).
in(34, 34).
in(34, 35).
in(34, 37).
in(34, 39).
in(34, 43).
in(34, 44).
in(34, 45).
in(34, 47).
in(34, 51).
in(34, 53).
in(34, 54).
in(34, 55).
in(34, 56).
in(34, 58).
in(34, 59).
in(34, 62).
in(34, 63).
in(34, 65).
in(34, 66).
in(34, 67).
in(34, 73).
in(34, 75).
in(34, 76).
in(34, 79).
in(34, 80).
in(34, 81).
in(34, 82).
in(34, 83).
in(34, 84).
in(34, 85).
in(34, 86).
in(34, 87).
in(34, 88).
in(34, 92).
in(34, 93).
in(34, 94).
in(34, 97).
in(34, 101).
in(34, 103).
in(34, 106).
in(34, 107).
in(34, 109).
in(34, 110).
in(34, 119).
in(34, 122).
in(34, 123).
in(35, 4).
in(35, 5).
in(35, 9).
in(35, 10).
in(35, 11).
in(35, 14).
in(35, 15).
in(35, 18).
in(35, 19).
in(35, 20).
in(35, 21).
in(35, 24).
in(35, 27).
in(35, 28).
in(35, 29).
in(35, 30).
in(35, 31).
in(35, 34).
in(35, 39).
in(35, 41).
in(35, 42).
in(35, 43).
in(35, 44).
in(35, 46).
in(35, 48).
in(35, 51).
in(35, 52).
in(35, 53).
in(35, 54).
in(35, 55).
in(35, 59).
in(35, 62).
in(35, 65).
in(35, 69).
in(35, 71).
in(35, 76).
in(35, 77).
in(35, 79).
in(35, 81).
in(35, 82).
in(35, 84).
in(35, 87).
in(35, 89).
in(35, 91).
in(35, 93).
in(35, 99).
in(35, 101).
in(35, 102).
in(35, 103).
in(35, 107).
in(35, 108).
in(35, 109).
in(35, 115).
in(35, 116).
in(35, 117).
in(35, 118).
in(35, 119).
in(35, 121).
in(35, 123).
in(36, 3).
in(36, 7).
in(36, 8).
in(36, 9).
in(36, 10).
in(36, 11).
in(36, 13).
in(36, 14).
in(36, 16).
in(36, 18).
in(36, 20).
in(36, 21).
in(36, 26).
in(36, 29).
in(36, 30).
in(36, 35).
in(36, 40).
in(36, 42).
in(36, 44).
in(36, 46).
in(36, 47).
in(36, 49).
in(36, 54).
in(36, 57).
in(36, 58).
in(36, 59).
in(36, 60).
in(36, 61).
in(36, 62).
in(36, 64).
in(36, 66).
in(36, 72).
in(36, 73).
in(36, 74).
in(36, 75).
in(36, 76).
in(36, 80).
in(36, 82).
in(36, 87).
in(36, 91).
in(36, 93).
in(36, 94).
in(36, 96).
in(36, 97).
in(36, 100).
in(36, 105).
in(36, 108).
in(36, 111).
in(36, 113).
in(36, 114).
in(36, 115).
in(36, 116).
in(36, 118).
in(36, 119).
in(36, 122).
in(37, 3).
in(37, 4).
in(37, 5).
in(37, 6).
in(37, 7).
in(37, 9).
in(37, 11).
in(37, 12).
in(37, 13).
in(37, 15).
in(37, 16).
in(37, 20).
in(37, 21).
in(37, 26).
in(37, 28).
in(37, 30).
in(37, 32).
in(37, 37).
in(37, 40).
in(37, 41).
in(37, 45).
in(37, 46).
in(37, 47).
in(37, 50).
in(37, 53).
in(37, 58).
in(37, 61).
in(37, 63).
in(37, 64).
in(37, 65).
in(37, 68).
in(37, 69).
in(37, 71).
in(37, 72).
in(37, 76).
in(37, 77).
in(37, 78).
in(37, 80).
in(37, 81).
in(37, 83).
in(37, 85).
in(37, 87).
in(37, 89).
in(37, 93).
in(37, 94).
in(37, 96).
in(37, 97).
in(37, 100).
in(37, 101).
in(37, 103).
in(37, 107).
in(37, 108).
in(37, 109).
in(37, 112).
in(37, 113).
in(37, 115).
in(37, 117).
in(37, 118).
in(37, 122).
in(37, 123).
in(38, 1).
in(38, 4).
in(38, 5).
in(38, 6).
in(38, 7).
in(38, 8).
in(38, 9).
in(38, 10).
in(38, 11).
in(38, 12).
in(38, 13).
in(38, 14).
in(38, 16).
in(38, 17).
in(38, 18).
in(38, 20).
in(38, 21).
in(38, 23).
in(38, 24).
in(38, 25).
in(38, 27).
in(38, 30).
in(38, 34).
in(38, 38).
in(38, 39).
in(38, 42).
in(38, 44).
in(38, 49).
in(38, 50).
in(38, 51).
in(38, 52).
in(38, 56).
in(38, 58).
in(38, 59).
in(38, 61).
in(38, 62).
in(38, 64).
in(38, 66).
in(38, 73).
in(38, 76).
in(38, 79).
in(38, 84).
in(38, 86).
in(38, 90).
in(38, 93).
in(38, 95).
in(38, 96).
in(38, 97).
in(38, 98).
in(38, 100).
in(38, 102).
in(38, 105).
in(38, 108).
in(38, 109).
in(38, 110).
in(38, 111).
in(38, 115).
in(38, 116).
in(38, 117).
in(38, 118).
in(38, 119).
in(38, 123).
in(39, 1).
in(39, 3).
in(39, 5).
in(39, 6).
in(39, 8).
in(39, 9).
in(39, 12).
in(39, 13).
in(39, 14).
in(39, 19).
in(39, 23).
in(39, 25).
in(39, 27).
in(39, 28).
in(39, 30).
in(39, 31).
in(39, 33).
in(39, 34).
in(39, 35).
in(39, 37).
in(39, 42).
in(39, 43).
in(39, 47).
in(39, 49).
in(39, 50).
in(39, 51).
in(39, 52).
in(39, 54).
in(39, 56).
in(39, 59).
in(39, 60).
in(39, 62).
in(39, 63).
in(39, 70).
in(39, 74).
in(39, 77).
in(39, 79).
in(39, 83).
in(39, 91).
in(39, 95).
in(39, 97).
in(39, 98).
in(39, 99).
in(39, 102).
in(39, 103).
in(39, 104).
in(39, 107).
in(39, 109).
in(39, 111).
in(39, 116).
in(39, 117).
in(39, 119).
in(39, 120).
in(40, 3).
in(40, 5).
in(40, 6).
in(40, 11).
in(40, 12).
in(40, 13).
in(40, 15).
in(40, 19).
in(40, 22).
in(40, 25).
in(40, 26).
in(40, 27).
in(40, 28).
in(40, 30).
in(40, 36).
in(40, 38).
in(40, 39).
in(40, 40).
in(40, 42).
in(40, 45).
in(40, 47).
in(40, 48).
in(40, 51).
in(40, 55).
in(40, 58).
in(40, 60).
in(40, 61).
in(40, 64).
in(40, 65).
in(40, 67).
in(40, 68).
in(40, 69).
in(40, 71).
in(40, 74).
in(40, 75).
in(40, 76).
in(40, 80).
in(40, 81).
in(40, 84).
in(40, 87).
in(40, 90).
in(40, 91).
in(40, 94).
in(40, 97).
in(40, 99).
in(40, 100).
in(40, 101).
in(40, 102).
in(40, 103).
in(40, 107).
in(40, 110).
in(40, 111).
in(40, 113).
in(40, 120).
in(40, 121).
in(40, 123).
in(41, 4).
in(41, 8).
in(41, 9).
in(41, 10).
in(41, 11).
in(41, 12).
in(41, 15).
in(41, 16).
in(41, 20).
in(41, 21).
in(41, 22).
in(41, 27).
in(41, 28).
in(41, 31).
in(41, 37).
in(41, 40).
in(41, 46).
in(41, 47).
in(41, 50).
in(41, 51).
in(41, 55).
in(41, 56).
in(41, 57).
in(41, 60).
in(41, 62).
in(41, 63).
in(41, 64).
in(41, 65).
in(41, 66).
in(41, 67).
in(41, 69).
in(41, 76).
in(41, 78).
in(41, 80).
in(41, 83).
in(41, 84).
in(41, 87).
in(41, 89).
in(41, 91).
in(41, 93).
in(41, 94).
in(41, 96).
in(41, 97).
in(41, 101).
in(41, 102).
in(41, 105).
in(41, 107).
in(41, 108).
in(41, 109).
in(41, 110).
in(41, 112).
in(41, 114).
in(41, 115).
in(41, 117).
in(41, 118).
in(42, 3).
in(42, 7).
in(42, 8).
in(42, 11).
in(42, 13).
in(42, 14).
in(42, 19).
in(42, 22).
in(42, 23).
in(42, 24).
in(42, 25).
in(42, 27).
in(42, 28).
in(42, 30).
in(42, 31).
in(42, 32).
in(42, 33).
in(42, 35).
in(42, 39).
in(42, 41).
in(42, 45).
in(42, 46).
in(42, 48).
in(42, 49).
in(42, 52).
in(42, 53).
in(42, 54).
in(42, 55).
in(42, 56).
in(42, 57).
in(42, 59).
in(42, 61).
in(42, 62).
in(42, 64).
in(42, 67).
in(42, 68).
in(42, 70).
in(42, 76).
in(42, 79).
in(42, 80).
in(42, 84).
in(42, 85).
in(42, 88).
in(42, 92).
in(42, 93).
in(42, 96).
in(42, 97).
in(42, 98).
in(42, 104).
in(42, 105).
in(42, 109).
in(42, 110).
in(42, 112).
in(42, 113).
in(42, 114).
in(42, 117).
in(42, 118).
in(43, 1).
in(43, 2).
in(43, 6).
in(43, 11).
in(43, 13).
in(43, 14).
in(43, 16).
in(43, 17).
in(43, 18).
in(43, 19).
in(43, 20).
in(43, 21).
in(43, 22).
in(43, 28).
in(43, 31).
in(43, 33).
in(43, 35).
in(43, 36).
in(43, 41).
in(43, 42).
in(43, 43).
in(43, 45).
in(43, 46).
in(43, 49).
in(43, 52).
in(43, 53).
in(43, 54).
in(43, 55).
in(43, 58).
in(43, 62).
in(43, 67).
in(43, 71).
in(43, 73).
in(43, 85).
in(43, 89).
in(43, 90).
in(43, 92).
in(43, 94).
in(43, 97).
in(43, 100).
in(43, 102).
in(43, 103).
in(43, 104).
in(43, 107).
in(43, 110).
in(43, 113).
in(43, 117).
in(43, 120).
in(43, 121).
in(44, 6).
in(44, 9).
in(44, 10).
in(44, 14).
in(44, 15).
in(44, 18).
in(44, 19).
in(44, 22).
in(44, 23).
in(44, 24).
in(44, 26).
in(44, 30).
in(44, 31).
in(44, 32).
in(44, 33).
in(44, 34).
in(44, 39).
in(44, 41).
in(44, 42).
in(44, 44).
in(44, 45).
in(44, 46).
in(44, 47).
in(44, 49).
in(44, 53).
in(44, 55).
in(44, 57).
in(44, 61).
in(44, 62).
in(44, 63).
in(44, 69).
in(44, 71).
in(44, 72).
in(44, 76).
in(44, 77).
in(44, 78).
in(44, 79).
in(44, 81).
in(44, 86).
in(44, 90).
in(44, 91).
in(44, 92).
in(44, 93).
in(44, 96).
in(44, 97).
in(44, 100).
in(44, 103).
in(44, 108).
in(44, 109).
in(44, 110).
in(44, 111).
in(44, 112).
in(44, 113).
in(44, 114).
in(44, 116).
in(44, 117).
in(44, 121).
in(44, 122).
in(45, 1).
in(45, 2).
in(45, 3).
in(45, 4).
in(45, 6).
in(45, 7).
in(45, 8).
in(45, 9).
in(45, 11).
in(45, 12).
in(45, 15).
in(45, 16).
in(45, 18).
in(45, 20).
in(45, 21).
in(45, 27).
in(45, 30).
in(45, 32).
in(45, 33).
in(45, 34).
in(45, 35).
in(45, 38).
in(45, 41).
in(45, 42).
in(45, 45).
in(45, 46).
in(45, 47).
in(45, 50).
in(45, 53).
in(45, 54).
in(45, 55).
in(45, 59).
in(45, 60).
in(45, 66).
in(45, 67).
in(45, 68).
in(45, 72).
in(45, 75).
in(45, 76).
in(45, 80).
in(45, 81).
in(45, 83).
in(45, 85).
in(45, 88).
in(45, 89).
in(45, 90).
in(45, 91).
in(45, 95).
in(45, 97).
in(45, 103).
in(45, 104).
in(45, 105).
in(45, 106).
in(45, 108).
in(45, 110).
in(45, 111).
in(45, 113).
in(45, 114).
in(45, 116).
in(45, 117).
in(45, 118).
in(45, 121).
in(46, 2).
in(46, 4).
in(46, 7).
in(46, 9).
in(46, 12).
in(46, 17).
in(46, 18).
in(46, 19).
in(46, 20).
in(46, 21).
in(46, 25).
in(46, 28).
in(46, 29).
in(46, 31).
in(46, 32).
in(46, 33).
in(46, 34).
in(46, 35).
in(46, 37).
in(46, 38).
in(46, 42).
in(46, 44).
in(46, 45).
in(46, 46).
in(46, 48).
in(46, 52).
in(46, 53).
in(46, 56).
in(46, 57).
in(46, 58).
in(46, 59).
in(46, 60).
in(46, 64).
in(46, 65).
in(46, 67).
in(46, 70).
in(46, 71).
in(46, 73).
in(46, 74).
in(46, 75).
in(46, 76).
in(46, 77).
in(46, 79).
in(46, 82).
in(46, 86).
in(46, 88).
in(46, 89).
in(46, 90).
in(46, 92).
in(46, 93).
in(46, 94).
in(46, 95).
in(46, 96).
in(46, 97).
in(46, 98).
in(46, 99).
in(46, 100).
in(46, 103).
in(46, 104).
in(46, 108).
in(46, 111).
in(46, 112).
in(46, 114).
in(46, 116).
in(46, 117).
in(46, 118).
in(46, 119).
in(46, 120).
in(47, 2).
in(47, 3).
in(47, 4).
in(47, 5).
in(47, 7).
in(47, 12).
in(47, 17).
in(47, 18).
in(47, 19).
in(47, 22).
in(47, 27).
in(47, 29).
in(47, 34).
in(47, 37).
in(47, 38).
in(47, 42).
in(47, 46).
in(47, 47).
in(47, 48).
in(47, 50).
in(47, 51).
in(47, 52).
in(47, 55).
in(47, 58).
in(47, 61).
in(47, 62).
in(47, 63).
in(47, 64).
in(47, 66).
in(47, 70).
in(47, 71).
in(47, 72).
in(47, 76).
in(47, 81).
in(47, 82).
in(47, 86).
in(47, 87).
in(47, 88).
in(47, 89).
in(47, 94).
in(47, 95).
in(47, 96).
in(47, 99).
in(47, 101).
in(47, 103).
in(47, 104).
in(47, 105).
in(47, 106).
in(47, 107).
in(47, 109).
in(47, 111).
in(47, 113).
in(47, 114).
in(47, 116).
in(47, 118).
in(47, 122).
in(47, 123).
in(48, 2).
in(48, 3).
in(48, 4).
in(48, 5).
in(48, 6).
in(48, 9).
in(48, 12).
in(48, 15).
in(48, 22).
in(48, 24).
in(48, 26).
in(48, 28).
in(48, 30).
in(48, 31).
in(48, 34).
in(48, 35).
in(48, 36).
in(48, 37).
in(48, 39).
in(48, 44).
in(48, 47).
in(48, 48).
in(48, 49).
in(48, 50).
in(48, 54).
in(48, 56).
in(48, 57).
in(48, 58).
in(48, 59).
in(48, 60).
in(48, 61).
in(48, 67).
in(48, 68).
in(48, 69).
in(48, 70).
in(48, 72).
in(48, 77).
in(48, 78).
in(48, 79).
in(48, 88).
in(48, 89).
in(48, 90).
in(48, 92).
in(48, 93).
in(48, 95).
in(48, 98).
in(48, 102).
in(48, 104).
in(48, 105).
in(48, 107).
in(48, 111).
in(48, 113).
in(48, 116).
in(48, 118).
in(48, 119).
in(48, 121).
in(48, 122).
in(49, 1).
in(49, 3).
in(49, 6).
in(49, 8).
in(49, 12).
in(49, 14).
in(49, 15).
in(49, 16).
in(49, 17).
in(49, 18).
in(49, 19).
in(49, 22).
in(49, 25).
in(49, 27).
in(49, 28).
in(49, 29).
in(49, 30).
in(49, 34).
in(49, 35).
in(49, 37).
in(49, 38).
in(49, 42).
in(49, 43).
in(49, 44).
in(49, 47).
in(49, 53).
in(49, 55).
in(49, 56).
in(49, 61).
in(49, 62).
in(49, 64).
in(49, 67).
in(49, 68).
in(49, 69).
in(49, 72).
in(49, 74).
in(49, 75).
in(49, 76).
in(49, 78).
in(49, 79).
in(49, 84).
in(49, 85).
in(49, 88).
in(49, 89).
in(49, 93).
in(49, 97).
in(49, 99).
in(49, 102).
in(49, 104).
in(49, 107).
in(49, 108).
in(49, 109).
in(49, 111).
in(49, 112).
in(49, 115).
in(49, 116).
in(49, 119).
in(49, 121).
in(50, 2).
in(50, 6).
in(50, 7).
in(50, 8).
in(50, 10).
in(50, 11).
in(50, 13).
in(50, 14).
in(50, 17).
in(50, 19).
in(50, 22).
in(50, 24).
in(50, 28).
in(50, 32).
in(50, 33).
in(50, 34).
in(50, 36).
in(50, 39).
in(50, 42).
in(50, 43).
in(50, 46).
in(50, 49).
in(50, 50).
in(50, 53).
in(50, 60).
in(50, 64).
in(50, 65).
in(50, 66).
in(50, 67).
in(50, 69).
in(50, 71).
in(50, 72).
in(50, 73).
in(50, 74).
in(50, 75).
in(50, 78).
in(50, 79).
in(50, 83).
in(50, 84).
in(50, 86).
in(50, 88).
in(50, 90).
in(50, 91).
in(50, 92).
in(50, 96).
in(50, 97).
in(50, 99).
in(50, 100).
in(50, 102).
in(50, 104).
in(50, 105).
in(50, 108).
in(50, 109).
in(50, 110).
in(50, 117).
in(50, 118).
in(50, 119).
in(50, 120).
in(50, 121).
in(50, 122).
in(51, 3).
in(51, 4).
in(51, 9).
in(51, 14).
in(51, 15).
in(51, 18).
in(51, 19).
in(51, 21).
in(51, 26).
in(51, 27).
in(51, 28).
in(51, 30).
in(51, 31).
in(51, 32).
in(51, 34).
in(51, 35).
in(51, 36).
in(51, 41).
in(51, 44).
in(51, 48).
in(51, 49).
in(51, 50).
in(51, 52).
in(51, 53).
in(51, 54).
in(51, 57).
in(51, 60).
in(51, 64).
in(51, 65).
in(51, 67).
in(51, 72).
in(51, 76).
in(51, 78).
in(51, 80).
in(51, 81).
in(51, 89).
in(51, 91).
in(51, 92).
in(51, 93).
in(51, 96).
in(51, 99).
in(51, 100).
in(51, 105).
in(51, 106).
in(51, 107).
in(51, 109).
in(51, 110).
in(51, 111).
in(51, 112).
in(51, 113).
in(51, 116).
in(51, 117).
in(51, 118).
in(51, 119).
in(51, 122).
in(51, 123).
in(52, 1).
in(52, 2).
in(52, 9).
in(52, 10).
in(52, 16).
in(52, 17).
in(52, 19).
in(52, 21).
in(52, 26).
in(52, 28).
in(52, 29).
in(52, 32).
in(52, 36).
in(52, 42).
in(52, 44).
in(52, 46).
in(52, 47).
in(52, 48).
in(52, 49).
in(52, 50).
in(52, 53).
in(52, 54).
in(52, 55).
in(52, 56).
in(52, 57).
in(52, 58).
in(52, 60).
in(52, 62).
in(52, 64).
in(52, 68).
in(52, 69).
in(52, 70).
in(52, 71).
in(52, 73).
in(52, 74).
in(52, 75).
in(52, 77).
in(52, 78).
in(52, 79).
in(52, 81).
in(52, 86).
in(52, 88).
in(52, 91).
in(52, 92).
in(52, 93).
in(52, 94).
in(52, 96).
in(52, 97).
in(52, 100).
in(52, 101).
in(52, 104).
in(52, 106).
in(52, 107).
in(52, 111).
in(52, 112).
in(52, 113).
in(52, 114).
in(52, 116).
in(52, 117).
in(52, 122).
in(53, 2).
in(53, 5).
in(53, 8).
in(53, 11).
in(53, 12).
in(53, 14).
in(53, 15).
in(53, 16).
in(53, 17).
in(53, 18).
in(53, 20).
in(53, 22).
in(53, 24).
in(53, 25).
in(53, 27).
in(53, 29).
in(53, 30).
in(53, 33).
in(53, 37).
in(53, 39).
in(53, 42).
in(53, 44).
in(53, 46).
in(53, 49).
in(53, 52).
in(53, 53).
in(53, 55).
in(53, 56).
in(53, 57).
in(53, 59).
in(53, 62).
in(53, 67).
in(53, 70).
in(53, 71).
in(53, 78).
in(53, 79).
in(53, 80).
in(53, 82).
in(53, 83).
in(53, 89).
in(53, 90).
in(53, 91).
in(53, 94).
in(53, 95).
in(53, 98).
in(53, 99).
in(53, 102).
in(53, 103).
in(53, 108).
in(53, 109).
in(53, 110).
in(53, 111).
in(53, 113).
in(53, 118).
in(53, 119).
in(53, 123).
in(54, 2).
in(54, 8).
in(54, 9).
in(54, 16).
in(54, 18).
in(54, 22).
in(54, 23).
in(54, 24).
in(54, 25).
in(54, 27).
in(54, 28).
in(54, 33).
in(54, 34).
in(54, 35).
in(54, 36).
in(54, 37).
in(54, 40).
in(54, 41).
in(54, 42).
in(54, 47).
in(54, 53).
in(54, 54).
in(54, 55).
in(54, 57).
in(54, 59).
in(54, 62).
in(54, 63).
in(54, 69).
in(54, 70).
in(54, 72).
in(54, 73).
in(54, 74).
in(54, 79).
in(54, 81).
in(54, 82).
in(54, 87).
in(54, 88).
in(54, 91).
in(54, 92).
in(54, 95).
in(54, 96).
in(54, 97).
in(54, 98).
in(54, 99).
in(54, 102).
in(54, 103).
in(54, 104).
in(54, 105).
in(54, 109).
in(54, 111).
in(54, 114).
in(54, 116).
in(54, 117).
in(54, 120).
in(54, 122).
in(54, 123).
in(55, 4).
in(55, 5).
in(55, 6).
in(55, 7).
in(55, 11).
in(55, 13).
in(55, 15).
in(55, 16).
in(55, 18).
in(55, 19).
in(55, 21).
in(55, 22).
in(55, 23).
in(55, 25).
in(55, 26).
in(55, 27).
in(55, 29).
in(55, 31).
in(55, 32).
in(55, 36).
in(55, 37).
in(55, 39).
in(55, 40).
in(55, 42).
in(55, 43).
in(55, 44).
in(55, 47).
in(55, 48).
in(55, 51).
in(55, 52).
in(55, 54).
in(55, 57).
in(55, 58).
in(55, 60).
in(55, 61).
in(55, 62).
in(55, 69).
in(55, 70).
in(55, 73).
in(55, 76).
in(55, 77).
in(55, 80).
in(55, 82).
in(55, 83).
in(55, 85).
in(55, 88).
in(55, 91).
in(55, 96).
in(55, 101).
in(55, 104).
in(55, 106).
in(55, 108).
in(55, 109).
in(55, 113).
in(55, 115).
in(55, 117).
in(56, 5).
in(56, 6).
in(56, 7).
in(56, 12).
in(56, 13).
in(56, 15).
in(56, 16).
in(56, 18).
in(56, 20).
in(56, 22).
in(56, 24).
in(56, 27).
in(56, 28).
in(56, 30).
in(56, 32).
in(56, 33).
in(56, 34).
in(56, 35).
in(56, 37).
in(56, 39).
in(56, 41).
in(56, 42).
in(56, 43).
in(56, 45).
in(56, 47).
in(56, 51).
in(56, 55).
in(56, 56).
in(56, 62).
in(56, 63).
in(56, 66).
in(56, 67).
in(56, 68).
in(56, 69).
in(56, 70).
in(56, 74).
in(56, 75).
in(56, 77).
in(56, 79).
in(56, 80).
in(56, 81).
in(56, 82).
in(56, 84).
in(56, 85).
in(56, 86).
in(56, 87).
in(56, 94).
in(56, 95).
in(56, 98).
in(56, 102).
in(56, 105).
in(56, 106).
in(56, 111).
in(56, 112).
in(56, 113).
in(56, 114).
in(56, 115).
in(56, 117).
in(56, 121).
in(56, 122).
in(57, 1).
in(57, 5).
in(57, 11).
in(57, 15).
in(57, 18).
in(57, 19).
in(57, 20).
in(57, 21).
in(57, 23).
in(57, 29).
in(57, 31).
in(57, 35).
in(57, 38).
in(57, 41).
in(57, 42).
in(57, 45).
in(57, 49).
in(57, 53).
in(57, 54).
in(57, 55).
in(57, 56).
in(57, 65).
in(57, 67).
in(57, 68).
in(57, 69).
in(57, 73).
in(57, 80).
in(57, 84).
in(57, 87).
in(57, 88).
in(57, 90).
in(57, 92).
in(57, 93).
in(57, 97).
in(57, 98).
in(57, 99).
in(57, 100).
in(57, 101).
in(57, 104).
in(57, 105).
in(57, 106).
in(57, 110).
in(57, 112).
in(57, 115).
in(57, 116).
in(57, 117).
in(57, 119).
in(57, 121).
in(57, 123).
in(58, 2).
in(58, 5).
in(58, 6).
in(58, 7).
in(58, 8).
in(58, 9).
in(58, 11).
in(58, 12).
in(58, 13).
in(58, 15).
in(58, 19).
in(58, 21).
in(58, 23).
in(58, 24).
in(58, 28).
in(58, 33).
in(58, 34).
in(58, 35).
in(58, 36).
in(58, 38).
in(58, 41).
in(58, 43).
in(58, 45).
in(58, 46).
in(58, 48).
in(58, 55).
in(58, 56).
in(58, 59).
in(58, 61).
in(58, 62).
in(58, 63).
in(58, 64).
in(58, 66).
in(58, 70).
in(58, 71).
in(58, 74).
in(58, 75).
in(58, 77).
in(58, 78).
in(58, 80).
in(58, 82).
in(58, 83).
in(58, 86).
in(58, 87).
in(58, 88).
in(58, 89).
in(58, 91).
in(58, 92).
in(58, 97).
in(58, 98).
in(58, 103).
in(58, 104).
in(58, 105).
in(58, 107).
in(58, 111).
in(58, 114).
in(58, 116).
in(58, 117).
in(58, 119).
in(59, 1).
in(59, 3).
in(59, 4).
in(59, 6).
in(59, 8).
in(59, 9).
in(59, 11).
in(59, 12).
in(59, 15).
in(59, 16).
in(59, 17).
in(59, 19).
in(59, 21).
in(59, 22).
in(59, 26).
in(59, 31).
in(59, 35).
in(59, 36).
in(59, 39).
in(59, 40).
in(59, 42).
in(59, 44).
in(59, 48).
in(59, 49).
in(59, 50).
in(59, 51).
in(59, 54).
in(59, 55).
in(59, 56).
in(59, 58).
in(59, 60).
in(59, 61).
in(59, 63).
in(59, 64).
in(59, 67).
in(59, 69).
in(59, 70).
in(59, 72).
in(59, 73).
in(59, 76).
in(59, 77).
in(59, 84).
in(59, 85).
in(59, 87).
in(59, 88).
in(59, 90).
in(59, 93).
in(59, 94).
in(59, 95).
in(59, 97).
in(59, 98).
in(59, 101).
in(59, 103).
in(59, 104).
in(59, 105).
in(59, 106).
in(59, 107).
in(59, 108).
in(59, 109).
in(59, 111).
in(59, 113).
in(59, 117).
in(59, 121).
in(59, 123).
in(60, 3).
in(60, 4).
in(60, 6).
in(60, 7).
in(60, 8).
in(60, 9).
in(60, 10).
in(60, 11).
in(60, 12).
in(60, 13).
in(60, 14).
in(60, 15).
in(60, 22).
in(60, 23).
in(60, 27).
in(60, 31).
in(60, 34).
in(60, 35).
in(60, 37).
in(60, 42).
in(60, 47).
in(60, 48).
in(60, 50).
in(60, 55).
in(60, 56).
in(60, 57).
in(60, 58).
in(60, 59).
in(60, 63).
in(60, 65).
in(60, 67).
in(60, 70).
in(60, 71).
in(60, 74).
in(60, 77).
in(60, 81).
in(60, 83).
in(60, 85).
in(60, 86).
in(60, 90).
in(60, 91).
in(60, 92).
in(60, 93).
in(60, 100).
in(60, 101).
in(60, 107).
in(60, 111).
in(60, 112).
in(60, 120).
in(60, 121).
in(60, 122).
in(61, 1).
in(61, 2).
in(61, 5).
in(61, 8).
in(61, 11).
in(61, 12).
in(61, 17).
in(61, 18).
in(61, 19).
in(61, 22).
in(61, 25).
in(61, 26).
in(61, 27).
in(61, 28).
in(61, 29).
in(61, 31).
in(61, 37).
in(61, 42).
in(61, 43).
in(61, 45).
in(61, 46).
in(61, 47).
in(61, 48).
in(61, 50).
in(61, 51).
in(61, 52).
in(61, 53).
in(61, 55).
in(61, 56).
in(61, 57).
in(61, 61).
in(61, 62).
in(61, 65).
in(61, 66).
in(61, 72).
in(61, 73).
in(61, 74).
in(61, 75).
in(61, 79).
in(61, 84).
in(61, 85).
in(61, 86).
in(61, 88).
in(61, 91).
in(61, 92).
in(61, 93).
in(61, 96).
in(61, 97).
in(61, 98).
in(61, 100).
in(61, 101).
in(61, 103).
in(61, 108).
in(61, 110).
in(61, 111).
in(61, 112).
in(61, 113).
in(61, 114).
in(61, 115).
in(61, 116).
in(61, 117).
in(61, 121).
in(62, 2).
in(62, 3).
in(62, 7).
in(62, 8).
in(62, 11).
in(62, 14).
in(62, 15).
in(62, 16).
in(62, 17).
in(62, 19).
in(62, 20).
in(62, 21).
in(62, 22).
in(62, 23).
in(62, 24).
in(62, 25).
in(62, 28).
in(62, 29).
in(62, 31).
in(62, 33).
in(62, 37).
in(62, 39).
in(62, 40).
in(62, 41).
in(62, 43).
in(62, 45).
in(62, 46).
in(62, 48).
in(62, 49).
in(62, 50).
in(62, 53).
in(62, 54).
in(62, 55).
in(62, 56).
in(62, 57).
in(62, 58).
in(62, 59).
in(62, 61).
in(62, 62).
in(62, 63).
in(62, 65).
in(62, 68).
in(62, 70).
in(62, 73).
in(62, 75).
in(62, 76).
in(62, 77).
in(62, 79).
in(62, 80).
in(62, 82).
in(62, 83).
in(62, 84).
in(62, 85).
in(62, 86).
in(62, 88).
in(62, 93).
in(62, 95).
in(62, 96).
in(62, 99).
in(62, 100).
in(62, 101).
in(62, 102).
in(62, 103).
in(62, 105).
in(62, 108).
in(62, 109).
in(62, 111).
in(62, 112).
in(62, 115).
in(62, 117).
in(62, 118).
in(62, 123).
in(63, 2).
in(63, 3).
in(63, 4).
in(63, 5).
in(63, 6).
in(63, 8).
in(63, 11).
in(63, 16).
in(63, 20).
in(63, 23).
in(63, 24).
in(63, 25).
in(63, 30).
in(63, 33).
in(63, 35).
in(63, 37).
in(63, 38).
in(63, 40).
in(63, 41).
in(63, 43).
in(63, 44).
in(63, 45).
in(63, 47).
in(63, 48).
in(63, 49).
in(63, 52).
in(63, 54).
in(63, 56).
in(63, 57).
in(63, 58).
in(63, 60).
in(63, 61).
in(63, 64).
in(63, 67).
in(63, 68).
in(63, 69).
in(63, 70).
in(63, 73).
in(63, 74).
in(63, 77).
in(63, 81).
in(63, 82).
in(63, 83).
in(63, 84).
in(63, 87).
in(63, 89).
in(63, 91).
in(63, 97).
in(63, 98).
in(63, 99).
in(63, 102).
in(63, 106).
in(63, 108).
in(63, 110).
in(63, 111).
in(63, 115).
in(63, 118).
in(63, 119).
in(63, 121).
in(63, 122).
in(64, 1).
in(64, 3).
in(64, 4).
in(64, 7).
in(64, 11).
in(64, 14).
in(64, 18).
in(64, 21).
in(64, 23).
in(64, 25).
in(64, 27).
in(64, 29).
in(64, 31).
in(64, 33).
in(64, 35).
in(64, 37).
in(64, 38).
in(64, 40).
in(64, 43).
in(64, 44).
in(64, 45).
in(64, 46).
in(64, 49).
in(64, 51).
in(64, 55).
in(64, 58).
in(64, 59).
in(64, 61).
in(64, 66).
in(64, 69).
in(64, 75).
in(64, 76).
in(64, 84).
in(64, 88).
in(64, 92).
in(64, 95).
in(64, 99).
in(64, 103).
in(64, 105).
in(64, 106).
in(64, 108).
in(64, 109).
in(64, 110).
in(64, 111).
in(64, 112).
in(64, 115).
in(64, 116).
in(64, 117).
in(64, 120).
in(64, 121).
in(64, 123).
in(65, 1).
in(65, 2).
in(65, 6).
in(65, 8).
in(65, 9).
in(65, 11).
in(65, 13).
in(65, 16).
in(65, 18).
in(65, 19).
in(65, 22).
in(65, 25).
in(65, 26).
in(65, 27).
in(65, 30).
in(65, 34).
in(65, 37).
in(65, 38).
in(65, 42).
in(65, 43).
in(65, 46).
in(65, 49).
in(65, 51).
in(65, 52).
in(65, 55).
in(65, 56).
in(65, 58).
in(65, 71).
in(65, 72).
in(65, 73).
in(65, 74).
in(65, 75).
in(65, 81).
in(65, 82).
in(65, 85).
in(65, 89).
in(65, 90).
in(65, 91).
in(65, 92).
in(65, 96).
in(65, 100).
in(65, 102).
in(65, 104).
in(65, 105).
in(65, 106).
in(65, 107).
in(65, 109).
in(65, 113).
in(65, 120).
in(65, 121).
in(66, 2).
in(66, 10).
in(66, 12).
in(66, 15).
in(66, 20).
in(66, 21).
in(66, 24).
in(66, 25).
in(66, 26).
in(66, 27).
in(66, 29).
in(66, 34).
in(66, 36).
in(66, 38).
in(66, 40).
in(66, 44).
in(66, 46).
in(66, 47).
in(66, 48).
in(66, 49).
in(66, 58).
in(66, 59).
in(66, 62).
in(66, 63).
in(66, 64).
in(66, 66).
in(66, 70).
in(66, 71).
in(66, 72).
in(66, 73).
in(66, 74).
in(66, 76).
in(66, 79).
in(66, 81).
in(66, 82).
in(66, 83).
in(66, 84).
in(66, 85).
in(66, 86).
in(66, 87).
in(66, 88).
in(66, 89).
in(66, 90).
in(66, 91).
in(66, 92).
in(66, 96).
in(66, 98).
in(66, 99).
in(66, 100).
in(66, 102).
in(66, 105).
in(66, 108).
in(66, 110).
in(66, 112).
in(66, 115).
in(66, 117).
in(66, 123).
in(67, 2).
in(67, 5).
in(67, 7).
in(67, 13).
in(67, 14).
in(67, 15).
in(67, 17).
in(67, 20).
in(67, 21).
in(67, 23).
in(67, 24).
in(67, 29).
in(67, 33).
in(67, 37).
in(67, 38).
in(67, 42).
in(67, 44).
in(67, 47).
in(67, 48).
in(67, 51).
in(67, 55).
in(67, 56).
in(67, 58).
in(67, 60).
in(67, 61).
in(67, 63).
in(67, 65).
in(67, 67).
in(67, 69).
in(67, 71).
in(67, 74).
in(67, 77).
in(67, 78).
in(67, 81).
in(67, 82).
in(67, 87).
in(67, 88).
in(67, 89).
in(67, 90).
in(67, 92).
in(67, 99).
in(67, 100).
in(67, 101).
in(67, 102).
in(67, 103).
in(67, 104).
in(67, 105).
in(67, 106).
in(67, 107).
in(67, 109).
in(67, 111).
in(67, 112).
in(67, 113).
in(67, 114).
in(67, 116).
in(67, 117).
in(67, 122).
in(68, 1).
in(68, 9).
in(68, 11).
in(68, 12).
in(68, 14).
in(68, 15).
in(68, 18).
in(68, 19).
in(68, 21).
in(68, 22).
in(68, 23).
in(68, 26).
in(68, 36).
in(68, 37).
in(68, 39).
in(68, 40).
in(68, 41).
in(68, 42).
in(68, 47).
in(68, 48).
in(68, 49).
in(68, 50).
in(68, 51).
in(68, 53).
in(68, 54).
in(68, 57).
in(68, 58).
in(68, 59).
in(68, 60).
in(68, 62).
in(68, 65).
in(68, 66).
in(68, 67).
in(68, 68).
in(68, 70).
in(68, 71).
in(68, 72).
in(68, 74).
in(68, 79).
in(68, 80).
in(68, 81).
in(68, 89).
in(68, 93).
in(68, 95).
in(68, 99).
in(68, 100).
in(68, 101).
in(68, 104).
in(68, 106).
in(68, 109).
in(68, 110).
in(68, 113).
in(68, 115).
in(68, 117).
in(68, 118).
in(68, 120).
in(68, 122).
in(68, 123).
in(69, 2).
in(69, 4).
in(69, 6).
in(69, 7).
in(69, 9).
in(69, 10).
in(69, 11).
in(69, 12).
in(69, 14).
in(69, 15).
in(69, 16).
in(69, 17).
in(69, 18).
in(69, 19).
in(69, 24).
in(69, 26).
in(69, 29).
in(69, 33).
in(69, 34).
in(69, 36).
in(69, 37).
in(69, 38).
in(69, 42).
in(69, 46).
in(69, 47).
in(69, 49).
in(69, 52).
in(69, 56).
in(69, 57).
in(69, 58).
in(69, 61).
in(69, 63).
in(69, 66).
in(69, 67).
in(69, 71).
in(69, 72).
in(69, 73).
in(69, 78).
in(69, 79).
in(69, 80).
in(69, 81).
in(69, 82).
in(69, 83).
in(69, 84).
in(69, 85).
in(69, 86).
in(69, 87).
in(69, 91).
in(69, 92).
in(69, 93).
in(69, 96).
in(69, 97).
in(69, 101).
in(69, 102).
in(69, 104).
in(69, 105).
in(69, 108).
in(69, 109).
in(69, 110).
in(69, 112).
in(69, 114).
in(69, 115).
in(69, 121).
in(69, 122).
in(69, 123).
in(70, 3).
in(70, 4).
in(70, 6).
in(70, 7).
in(70, 9).
in(70, 11).
in(70, 12).
in(70, 14).
in(70, 20).
in(70, 23).
in(70, 25).
in(70, 26).
in(70, 27).
in(70, 29).
in(70, 31).
in(70, 32).
in(70, 33).
in(70, 37).
in(70, 39).
in(70, 40).
in(70, 43).
in(70, 49).
in(70, 50).
in(70, 51).
in(70, 52).
in(70, 53).
in(70, 54).
in(70, 55).
in(70, 56).
in(70, 58).
in(70, 61).
in(70, 63).
in(70, 64).
in(70, 66).
in(70, 68).
in(70, 69).
in(70, 73).
in(70, 75).
in(70, 76).
in(70, 77).
in(70, 83).
in(70, 85).
in(70, 88).
in(70, 89).
in(70, 90).
in(70, 92).
in(70, 96).
in(70, 97).
in(70, 101).
in(70, 103).
in(70, 104).
in(70, 105).
in(70, 106).
in(70, 107).
in(70, 108).
in(70, 109).
in(70, 111).
in(70, 120).
in(70, 121).
in(70, 122).
in(71, 1).
in(71, 3).
in(71, 4).
in(71, 6).
in(71, 7).
in(71, 10).
in(71, 11).
in(71, 14).
in(71, 15).
in(71, 16).
in(71, 17).
in(71, 20).
in(71, 23).
in(71, 31).
in(71, 33).
in(71, 34).
in(71, 36).
in(71, 37).
in(71, 40).
in(71, 41).
in(71, 43).
in(71, 44).
in(71, 45).
in(71, 50).
in(71, 51).
in(71, 57).
in(71, 58).
in(71, 59).
in(71, 62).
in(71, 63).
in(71, 65).
in(71, 66).
in(71, 68).
in(71, 76).
in(71, 77).
in(71, 78).
in(71, 81).
in(71, 84).
in(71, 85).
in(71, 86).
in(71, 89).
in(71, 91).
in(71, 95).
in(71, 96).
in(71, 106).
in(71, 107).
in(71, 109).
in(71, 114).
in(71, 115).
in(71, 116).
in(71, 118).
in(71, 119).
in(71, 120).
in(71, 122).
in(72, 1).
in(72, 4).
in(72, 5).
in(72, 6).
in(72, 7).
in(72, 9).
in(72, 12).
in(72, 15).
in(72, 17).
in(72, 19).
in(72, 24).
in(72, 28).
in(72, 33).
in(72, 34).
in(72, 36).
in(72, 39).
in(72, 40).
in(72, 44).
in(72, 45).
in(72, 47).
in(72, 51).
in(72, 53).
in(72, 54).
in(72, 55).
in(72, 56).
in(72, 57).
in(72, 61).
in(72, 62).
in(72, 64).
in(72, 66).
in(72, 67).
in(72, 68).
in(72, 73).
in(72, 74).
in(72, 76).
in(72, 77).
in(72, 78).
in(72, 79).
in(72, 83).
in(72, 84).
in(72, 86).
in(72, 87).
in(72, 89).
in(72, 90).
in(72, 92).
in(72, 96).
in(72, 101).
in(72, 102).
in(72, 103).
in(72, 104).
in(72, 105).
in(72, 106).
in(72, 108).
in(72, 112).
in(72, 113).
in(72, 114).
in(72, 115).
in(72, 116).
in(72, 118).
in(72, 121).
in(72, 122).
in(73, 1).
in(73, 2).
in(73, 3).
in(73, 4).
in(73, 6).
in(73, 7).
in(73, 10).
in(73, 18).
in(73, 19).
in(73, 20).
in(73, 21).
in(73, 22).
in(73, 24).
in(73, 25).
in(73, 28).
in(73, 29).
in(73, 30).
in(73, 33).
in(73, 34).
in(73, 41).
in(73, 42).
in(73, 45).
in(73, 47).
in(73, 49).
in(73, 56).
in(73, 57).
in(73, 59).
in(73, 60).
in(73, 63).
in(73, 64).
in(73, 65).
in(73, 67).
in(73, 70).
in(73, 71).
in(73, 74).
in(73, 76).
in(73, 80).
in(73, 83).
in(73, 84).
in(73, 87).
in(73, 88).
in(73, 90).
in(73, 91).
in(73, 92).
in(73, 96).
in(73, 97).
in(73, 98).
in(73, 100).
in(73, 101).
in(73, 106).
in(73, 107).
in(73, 109).
in(73, 112).
in(73, 113).
in(73, 115).
in(73, 117).
in(73, 118).
in(74, 2).
in(74, 5).
in(74, 6).
in(74, 9).
in(74, 11).
in(74, 12).
in(74, 14).
in(74, 15).
in(74, 17).
in(74, 18).
in(74, 21).
in(74, 24).
in(74, 25).
in(74, 32).
in(74, 34).
in(74, 36).
in(74, 38).
in(74, 46).
in(74, 48).
in(74, 51).
in(74, 52).
in(74, 53).
in(74, 55).
in(74, 57).
in(74, 58).
in(74, 61).
in(74, 62).
in(74, 63).
in(74, 64).
in(74, 67).
in(74, 70).
in(74, 71).
in(74, 72).
in(74, 74).
in(74, 77).
in(74, 89).
in(74, 92).
in(74, 93).
in(74, 95).
in(74, 96).
in(74, 102).
in(74, 103).
in(74, 106).
in(74, 107).
in(74, 108).
in(74, 109).
in(74, 110).
in(74, 114).
in(74, 115).
in(74, 116).
in(74, 118).
in(74, 121).
in(74, 122).
in(75, 3).
in(75, 5).
in(75, 7).
in(75, 8).
in(75, 9).
in(75, 10).
in(75, 11).
in(75, 13).
in(75, 14).
in(75, 16).
in(75, 19).
in(75, 20).
in(75, 21).
in(75, 22).
in(75, 24).
in(75, 26).
in(75, 32).
in(75, 33).
in(75, 36).
in(75, 38).
in(75, 45).
in(75, 47).
in(75, 48).
in(75, 52).
in(75, 53).
in(75, 54).
in(75, 57).
in(75, 62).
in(75, 64).
in(75, 68).
in(75, 69).
in(75, 70).
in(75, 71).
in(75, 72).
in(75, 73).
in(75, 74).
in(75, 75).
in(75, 76).
in(75, 79).
in(75, 80).
in(75, 84).
in(75, 85).
in(75, 87).
in(75, 89).
in(75, 90).
in(75, 91).
in(75, 92).
in(75, 93).
in(75, 95).
in(75, 98).
in(75, 99).
in(75, 103).
in(75, 104).
in(75, 110).
in(75, 111).
in(75, 113).
in(75, 114).
in(75, 116).
in(75, 117).
in(76, 1).
in(76, 2).
in(76, 3).
in(76, 5).
in(76, 6).
in(76, 9).
in(76, 12).
in(76, 13).
in(76, 14).
in(76, 19).
in(76, 24).
in(76, 26).
in(76, 28).
in(76, 29).
in(76, 31).
in(76, 32).
in(76, 34).
in(76, 35).
in(76, 39).
in(76, 42).
in(76, 43).
in(76, 44).
in(76, 45).
in(76, 47).
in(76, 49).
in(76, 50).
in(76, 53).
in(76, 55).
in(76, 56).
in(76, 59).
in(76, 61).
in(76, 63).
in(76, 66).
in(76, 67).
in(76, 69).
in(76, 70).
in(76, 72).
in(76, 77).
in(76, 78).
in(76, 82).
in(76, 84).
in(76, 86).
in(76, 87).
in(76, 92).
in(76, 93).
in(76, 96).
in(76, 101).
in(76, 102).
in(76, 105).
in(76, 106).
in(76, 108).
in(76, 111).
in(76, 112).
in(76, 116).
in(76, 117).
in(76, 118).
in(76, 120).
in(77, 2).
in(77, 4).
in(77, 5).
in(77, 6).
in(77, 9).
in(77, 10).
in(77, 12).
in(77, 14).
in(77, 18).
in(77, 19).
in(77, 20).
in(77, 21).
in(77, 22).
in(77, 23).
in(77, 24).
in(77, 25).
in(77, 26).
in(77, 28).
in(77, 29).
in(77, 34).
in(77, 37).
in(77, 40).
in(77, 45).
in(77, 48).
in(77, 50).
in(77, 52).
in(77, 53).
in(77, 56).
in(77, 60).
in(77, 61).
in(77, 62).
in(77, 64).
in(77, 65).
in(77, 67).
in(77, 68).
in(77, 72).
in(77, 73).
in(77, 76).
in(77, 78).
in(77, 79).
in(77, 82).
in(77, 83).
in(77, 86).
in(77, 87).
in(77, 88).
in(77, 89).
in(77, 96).
in(77, 97).
in(77, 99).
in(77, 101).
in(77, 103).
in(77, 104).
in(77, 105).
in(77, 110).
in(77, 112).
in(77, 117).
in(77, 118).
in(77, 120).
in(77, 122).
in(78, 1).
in(78, 2).
in(78, 5).
in(78, 6).
in(78, 7).
in(78, 8).
in(78, 10).
in(78, 11).
in(78, 12).
in(78, 16).
in(78, 20).
in(78, 22).
in(78, 26).
in(78, 28).
in(78, 29).
in(78, 31).
in(78, 33).
in(78, 37).
in(78, 38).
in(78, 39).
in(78, 43).
in(78, 45).
in(78, 46).
in(78, 47).
in(78, 49).
in(78, 50).
in(78, 51).
in(78, 59).
in(78, 61).
in(78, 65).
in(78, 67).
in(78, 71).
in(78, 75).
in(78, 77).
in(78, 78).
in(78, 80).
in(78, 81).
in(78, 84).
in(78, 86).
in(78, 89).
in(78, 92).
in(78, 97).
in(78, 100).
in(78, 103).
in(78, 104).
in(78, 109).
in(78, 111).
in(78, 112).
in(78, 113).
in(78, 118).
in(78, 122).
in(78, 123).
in(79, 3).
in(79, 4).
in(79, 5).
in(79, 6).
in(79, 7).
in(79, 11).
in(79, 13).
in(79, 15).
in(79, 18).
in(79, 21).
in(79, 26).
in(79, 28).
in(79, 30).
in(79, 31).
in(79, 32).
in(79, 33).
in(79, 34).
in(79, 35).
in(79, 39).
in(79, 40).
in(79, 43).
in(79, 46).
in(79, 47).
in(79, 48).
in(79, 49).
in(79, 51).
in(79, 52).
in(79, 57).
in(79, 59).
in(79, 60).
in(79, 61).
in(79, 65).
in(79, 67).
in(79, 71).
in(79, 74).
in(79, 75).
in(79, 76).
in(79, 79).
in(79, 80).
in(79, 82).
in(79, 83).
in(79, 85).
in(79, 86).
in(79, 87).
in(79, 89).
in(79, 91).
in(79, 93).
in(79, 95).
in(79, 97).
in(79, 98).
in(79, 99).
in(79, 100).
in(79, 102).
in(79, 103).
in(79, 104).
in(79, 105).
in(79, 106).
in(79, 111).
in(79, 113).
in(79, 114).
in(79, 116).
in(79, 117).
in(79, 120).
in(79, 121).
in(79, 122).
in(80, 1).
in(80, 2).
in(80, 3).
in(80, 4).
in(80, 6).
in(80, 7).
in(80, 9).
in(80, 10).
in(80, 11).
in(80, 12).
in(80, 13).
in(80, 14).
in(80, 18).
in(80, 21).
in(80, 22).
in(80, 24).
in(80, 25).
in(80, 26).
in(80, 27).
in(80, 28).
in(80, 30).
in(80, 32).
in(80, 34).
in(80, 36).
in(80, 38).
in(80, 39).
in(80, 41).
in(80, 44).
in(80, 48).
in(80, 50).
in(80, 51).
in(80, 52).
in(80, 53).
in(80, 57).
in(80, 58).
in(80, 66).
in(80, 72).
in(80, 74).
in(80, 76).
in(80, 83).
in(80, 86).
in(80, 87).
in(80, 90).
in(80, 93).
in(80, 94).
in(80, 96).
in(80, 106).
in(80, 107).
in(80, 109).
in(80, 111).
in(80, 113).
in(80, 114).
in(80, 115).
in(80, 116).
in(80, 117).
in(80, 119).
in(80, 120).
in(80, 123).
in(81, 1).
in(81, 2).
in(81, 4).
in(81, 5).
in(81, 6).
in(81, 8).
in(81, 9).
in(81, 10).
in(81, 11).
in(81, 18).
in(81, 21).
in(81, 22).
in(81, 24).
in(81, 28).
in(81, 30).
in(81, 33).
in(81, 40).
in(81, 43).
in(81, 44).
in(81, 45).
in(81, 47).
in(81, 49).
in(81, 51).
in(81, 52).
in(81, 54).
in(81, 57).
in(81, 58).
in(81, 62).
in(81, 64).
in(81, 65).
in(81, 66).
in(81, 68).
in(81, 72).
in(81, 76).
in(81, 78).
in(81, 82).
in(81, 84).
in(81, 87).
in(81, 88).
in(81, 90).
in(81, 91).
in(81, 95).
in(81, 98).
in(81, 99).
in(81, 100).
in(81, 102).
in(81, 109).
in(81, 110).
in(81, 113).
in(81, 118).
in(81, 121).
in(82, 1).
in(82, 4).
in(82, 6).
in(82, 7).
in(82, 8).
in(82, 10).
in(82, 11).
in(82, 13).
in(82, 14).
in(82, 17).
in(82, 24).
in(82, 26).
in(82, 28).
in(82, 30).
in(82, 32).
in(82, 35).
in(82, 37).
in(82, 38).
in(82, 39).
in(82, 42).
in(82, 43).
in(82, 45).
in(82, 47).
in(82, 56).
in(82, 62).
in(82, 65).
in(82, 67).
in(82, 68).
in(82, 70).
in(82, 73).
in(82, 75).
in(82, 76).
in(82, 77).
in(82, 79).
in(82, 81).
in(82, 82).
in(82, 84).
in(82, 85).
in(82, 88).
in(82, 93).
in(82, 96).
in(82, 97).
in(82, 102).
in(82, 104).
in(82, 113).
in(82, 114).
in(82, 115).
in(82, 116).
in(82, 118).
in(82, 119).
in(82, 120).
in(82, 121).
in(82, 122).
in(83, 2).
in(83, 8).
in(83, 10).
in(83, 16).
in(83, 20).
in(83, 25).
in(83, 32).
in(83, 33).
in(83, 34).
in(83, 36).
in(83, 37).
in(83, 38).
in(83, 45).
in(83, 46).
in(83, 47).
in(83, 49).
in(83, 50).
in(83, 51).
in(83, 52).
in(83, 53).
in(83, 54).
in(83, 57).
in(83, 59).
in(83, 62).
in(83, 66).
in(83, 75).
in(83, 76).
in(83, 78).
in(83, 80).
in(83, 81).
in(83, 82).
in(83, 83).
in(83, 85).
in(83, 86).
in(83, 89).
in(83, 92).
in(83, 93).
in(83, 97).
in(83, 98).
in(83, 103).
in(83, 104).
in(83, 109).
in(83, 111).
in(83, 112).
in(83, 117).
in(83, 118).
in(83, 119).
in(83, 121).
in(83, 123).
in(84, 4).
in(84, 5).
in(84, 6).
in(84, 14).
in(84, 16).
in(84, 18).
in(84, 22).
in(84, 23).
in(84, 24).
in(84, 28).
in(84, 29).
in(84, 31).
in(84, 34).
in(84, 35).
in(84, 36).
in(84, 40).
in(84, 42).
in(84, 44).
in(84, 45).
in(84, 46).
in(84, 48).
in(84, 49).
in(84, 53).
in(84, 57).
in(84, 59).
in(84, 60).
in(84, 63).
in(84, 64).
in(84, 65).
in(84, 68).
in(84, 69).
in(84, 75).
in(84, 80).
in(84, 82).
in(84, 85).
in(84, 86).
in(84, 90).
in(84, 91).
in(84, 92).
in(84, 95).
in(84, 98).
in(84, 100).
in(84, 103).
in(84, 105).
in(84, 106).
in(84, 109).
in(84, 110).
in(84, 111).
in(84, 112).
in(84, 113).
in(84, 114).
in(84, 116).
in(84, 122).
in(85, 2).
in(85, 6).
in(85, 7).
in(85, 10).
in(85, 12).
in(85, 14).
in(85, 16).
in(85, 17).
in(85, 18).
in(85, 23).
in(85, 25).
in(85, 27).
in(85, 29).
in(85, 30).
in(85, 33).
in(85, 34).
in(85, 35).
in(85, 37).
in(85, 38).
in(85, 39).
in(85, 42).
in(85, 43).
in(85, 44).
in(85, 46).
in(85, 48).
in(85, 52).
in(85, 54).
in(85, 55).
in(85, 56).
in(85, 57).
in(85, 58).
in(85, 60).
in(85, 63).
in(85, 66).
in(85, 70).
in(85, 71).
in(85, 74).
in(85, 75).
in(85, 78).
in(85, 80).
in(85, 82).
in(85, 86).
in(85, 92).
in(85, 95).
in(85, 96).
in(85, 97).
in(85, 98).
in(85, 100).
in(85, 110).
in(85, 113).
in(85, 122).
in(85, 123).
in(86, 3).
in(86, 4).
in(86, 9).
in(86, 13).
in(86, 14).
in(86, 17).
in(86, 18).
in(86, 19).
in(86, 20).
in(86, 21).
in(86, 23).
in(86, 24).
in(86, 25).
in(86, 31).
in(86, 35).
in(86, 36).
in(86, 40).
in(86, 42).
in(86, 45).
in(86, 47).
in(86, 48).
in(86, 50).
in(86, 52).
in(86, 53).
in(86, 55).
in(86, 57).
in(86, 58).
in(86, 61).
in(86, 65).
in(86, 67).
in(86, 68).
in(86, 69).
in(86, 70).
in(86, 73).
in(86, 75).
in(86, 76).
in(86, 80).
in(86, 82).
in(86, 83).
in(86, 87).
in(86, 88).
in(86, 89).
in(86, 90).
in(86, 92).
in(86, 93).
in(86, 95).
in(86, 96).
in(86, 97).
in(86, 98).
in(86, 99).
in(86, 102).
in(86, 103).
in(86, 104).
in(86, 105).
in(86, 106).
in(86, 108).
in(86, 111).
in(86, 112).
in(86, 116).
in(86, 118).
in(86, 119).
in(86, 121).
in(86, 122).
in(87, 1).
in(87, 5).
in(87, 8).
in(87, 10).
in(87, 12).
in(87, 14).
in(87, 23).
in(87, 24).
in(87, 25).
in(87, 26).
in(87, 33).
in(87, 34).
in(87, 36).
in(87, 37).
in(87, 38).
in(87, 40).
in(87, 41).
in(87, 42).
in(87, 45).
in(87, 46).
in(87, 47).
in(87, 48).
in(87, 49).
in(87, 50).
in(87, 51).
in(87, 55).
in(87, 56).
in(87, 57).
in(87, 58).
in(87, 59).
in(87, 60).
in(87, 62).
in(87, 66).
in(87, 72).
in(87, 73).
in(87, 74).
in(87, 75).
in(87, 77).
in(87, 79).
in(87, 81).
in(87, 82).
in(87, 90).
in(87, 91).
in(87, 93).
in(87, 94).
in(87, 95).
in(87, 98).
in(87, 100).
in(87, 103).
in(87, 105).
in(87, 106).
in(87, 107).
in(87, 109).
in(87, 111).
in(87, 113).
in(87, 114).
in(87, 121).
in(87, 123).
in(88, 3).
in(88, 5).
in(88, 7).
in(88, 11).
in(88, 12).
in(88, 17).
in(88, 19).
in(88, 25).
in(88, 26).
in(88, 29).
in(88, 31).
in(88, 33).
in(88, 34).
in(88, 40).
in(88, 42).
in(88, 43).
in(88, 52).
in(88, 53).
in(88, 54).
in(88, 55).
in(88, 56).
in(88, 58).
in(88, 60).
in(88, 61).
in(88, 62).
in(88, 65).
in(88, 67).
in(88, 70).
in(88, 71).
in(88, 74).
in(88, 76).
in(88, 77).
in(88, 79).
in(88, 81).
in(88, 87).
in(88, 88).
in(88, 89).
in(88, 91).
in(88, 92).
in(88, 93).
in(88, 95).
in(88, 96).
in(88, 99).
in(88, 102).
in(88, 103).
in(88, 105).
in(88, 107).
in(88, 108).
in(88, 109).
in(88, 111).
in(88, 113).
in(88, 116).
in(88, 119).
in(88, 120).
in(89, 2).
in(89, 3).
in(89, 7).
in(89, 9).
in(89, 10).
in(89, 11).
in(89, 13).
in(89, 17).
in(89, 20).
in(89, 21).
in(89, 22).
in(89, 31).
in(89, 33).
in(89, 36).
in(89, 37).
in(89, 38).
in(89, 40).
in(89, 43).
in(89, 45).
in(89, 50).
in(89, 51).
in(89, 53).
in(89, 58).
in(89, 59).
in(89, 61).
in(89, 63).
in(89, 64).
in(89, 65).
in(89, 66).
in(89, 67).
in(89, 70).
in(89, 71).
in(89, 74).
in(89, 76).
in(89, 77).
in(89, 78).
in(89, 80).
in(89, 82).
in(89, 83).
in(89, 87).
in(89, 89).
in(89, 90).
in(89, 92).
in(89, 94).
in(89, 98).
in(89, 99).
in(89, 101).
in(89, 103).
in(89, 106).
in(89, 107).
in(89, 108).
in(89, 112).
in(89, 113).
in(89, 117).
in(89, 118).
in(89, 119).
in(89, 120).
in(89, 123).
in(90, 1).
in(90, 2).
in(90, 5).
in(90, 7).
in(90, 9).
in(90, 11).
in(90, 12).
in(90, 13).
in(90, 15).
in(90, 21).
in(90, 22).
in(90, 23).
in(90, 25).
in(90, 26).
in(90, 27).
in(90, 28).
in(90, 29).
in(90, 30).
in(90, 32).
in(90, 35).
in(90, 40).
in(90, 41).
in(90, 44).
in(90, 48).
in(90, 54).
in(90, 56).
in(90, 57).
in(90, 58).
in(90, 60).
in(90, 61).
in(90, 65).
in(90, 66).
in(90, 67).
in(90, 68).
in(90, 69).
in(90, 73).
in(90, 75).
in(90, 76).
in(90, 77).
in(90, 79).
in(90, 86).
in(90, 87).
in(90, 89).
in(90, 90).
in(90, 91).
in(90, 98).
in(90, 99).
in(90, 101).
in(90, 102).
in(90, 103).
in(90, 107).
in(90, 111).
in(90, 112).
in(90, 114).
in(90, 117).
in(90, 118).
in(90, 119).
in(90, 120).
in(90, 122).
in(90, 123).
in(91, 7).
in(91, 16).
in(91, 17).
in(91, 18).
in(91, 19).
in(91, 21).
in(91, 24).
in(91, 25).
in(91, 26).
in(91, 30).
in(91, 37).
in(91, 40).
in(91, 43).
in(91, 45).
in(91, 46).
in(91, 47).
in(91, 48).
in(91, 49).
in(91, 52).
in(91, 54).
in(91, 55).
in(91, 57).
in(91, 60).
in(91, 61).
in(91, 62).
in(91, 63).
in(91, 65).
in(91, 67).
in(91, 68).
in(91, 71).
in(91, 74).
in(91, 75).
in(91, 77).
in(91, 80).
in(91, 81).
in(91, 85).
in(91, 87).
in(91, 89).
in(91, 93).
in(91, 96).
in(91, 97).
in(91, 99).
in(91, 100).
in(91, 101).
in(91, 102).
in(91, 106).
in(91, 108).
in(91, 112).
in(91, 114).
in(91, 115).
in(91, 116).
in(91, 117).
in(91, 118).
in(91, 119).
in(91, 120).
in(91, 122).
in(91, 123).
in(92, 2).
in(92, 3).
in(92, 5).
in(92, 8).
in(92, 9).
in(92, 10).
in(92, 12).
in(92, 15).
in(92, 18).
in(92, 19).
in(92, 20).
in(92, 21).
in(92, 24).
in(92, 28).
in(92, 30).
in(92, 34).
in(92, 36).
in(92, 39).
in(92, 42).
in(92, 45).
in(92, 47).
in(92, 50).
in(92, 51).
in(92, 52).
in(92, 53).
in(92, 55).
in(92, 56).
in(92, 57).
in(92, 59).
in(92, 64).
in(92, 70).
in(92, 73).
in(92, 77).
in(92, 78).
in(92, 80).
in(92, 82).
in(92, 83).
in(92, 84).
in(92, 87).
in(92, 89).
in(92, 90).
in(92, 91).
in(92, 92).
in(92, 94).
in(92, 97).
in(92, 102).
in(92, 104).
in(92, 105).
in(92, 107).
in(92, 109).
in(92, 111).
in(92, 117).
in(92, 119).
in(92, 120).
in(92, 122).
in(93, 1).
in(93, 2).
in(93, 5).
in(93, 6).
in(93, 7).
in(93, 8).
in(93, 9).
in(93, 11).
in(93, 15).
in(93, 20).
in(93, 21).
in(93, 22).
in(93, 30).
in(93, 31).
in(93, 33).
in(93, 37).
in(93, 38).
in(93, 40).
in(93, 42).
in(93, 43).
in(93, 44).
in(93, 45).
in(93, 46).
in(93, 48).
in(93, 49).
in(93, 51).
in(93, 52).
in(93, 54).
in(93, 55).
in(93, 56).
in(93, 59).
in(93, 60).
in(93, 62).
in(93, 63).
in(93, 67).
in(93, 68).
in(93, 70).
in(93, 71).
in(93, 72).
in(93, 74).
in(93, 75).
in(93, 77).
in(93, 82).
in(93, 83).
in(93, 86).
in(93, 87).
in(93, 90).
in(93, 93).
in(93, 96).
in(93, 102).
in(93, 103).
in(93, 109).
in(93, 110).
in(93, 112).
in(93, 115).
in(93, 117).
in(93, 120).
in(93, 122).
in(93, 123).
in(94, 1).
in(94, 6).
in(94, 8).
in(94, 9).
in(94, 11).
in(94, 12).
in(94, 13).
in(94, 15).
in(94, 16).
in(94, 18).
in(94, 20).
in(94, 23).
in(94, 24).
in(94, 26).
in(94, 28).
in(94, 29).
in(94, 30).
in(94, 32).
in(94, 35).
in(94, 38).
in(94, 40).
in(94, 43).
in(94, 44).
in(94, 45).
in(94, 50).
in(94, 52).
in(94, 54).
in(94, 55).
in(94, 57).
in(94, 58).
in(94, 59).
in(94, 61).
in(94, 63).
in(94, 64).
in(94, 66).
in(94, 68).
in(94, 69).
in(94, 70).
in(94, 71).
in(94, 72).
in(94, 74).
in(94, 75).
in(94, 79).
in(94, 80).
in(94, 84).
in(94, 85).
in(94, 86).
in(94, 87).
in(94, 89).
in(94, 91).
in(94, 92).
in(94, 94).
in(94, 95).
in(94, 96).
in(94, 97).
in(94, 100).
in(94, 101).
in(94, 104).
in(94, 105).
in(94, 112).
in(94, 113).
in(94, 114).
in(94, 118).
in(94, 119).
in(94, 120).
in(94, 121).
in(94, 122).
in(95, 3).
in(95, 5).
in(95, 10).
in(95, 12).
in(95, 14).
in(95, 15).
in(95, 17).
in(95, 19).
in(95, 21).
in(95, 22).
in(95, 23).
in(95, 24).
in(95, 26).
in(95, 28).
in(95, 30).
in(95, 34).
in(95, 35).
in(95, 39).
in(95, 41).
in(95, 43).
in(95, 46).
in(95, 47).
in(95, 52).
in(95, 54).
in(95, 55).
in(95, 56).
in(95, 58).
in(95, 60).
in(95, 64).
in(95, 70).
in(95, 71).
in(95, 72).
in(95, 73).
in(95, 74).
in(95, 75).
in(95, 81).
in(95, 83).
in(95, 85).
in(95, 87).
in(95, 89).
in(95, 90).
in(95, 91).
in(95, 92).
in(95, 93).
in(95, 94).
in(95, 95).
in(95, 98).
in(95, 100).
in(95, 102).
in(95, 104).
in(95, 105).
in(95, 107).
in(95, 112).
in(95, 115).
in(95, 117).
in(95, 118).
in(95, 119).
in(95, 121).
in(95, 122).
in(95, 123).
in(96, 1).
in(96, 2).
in(96, 3).
in(96, 4).
in(96, 6).
in(96, 7).
in(96, 14).
in(96, 15).
in(96, 16).
in(96, 21).
in(96, 23).
in(96, 26).
in(96, 29).
in(96, 30).
in(96, 32).
in(96, 33).
in(96, 34).
in(96, 35).
in(96, 37).
in(96, 38).
in(96, 40).
in(96, 41).
in(96, 42).
in(96, 49).
in(96, 51).
in(96, 53).
in(96, 61).
in(96, 62).
in(96, 64).
in(96, 66).
in(96, 67).
in(96, 68).
in(96, 69).
in(96, 72).
in(96, 73).
in(96, 75).
in(96, 77).
in(96, 78).
in(96, 82).
in(96, 85).
in(96, 86).
in(96, 87).
in(96, 88).
in(96, 90).
in(96, 91).
in(96, 92).
in(96, 93).
in(96, 98).
in(96, 102).
in(96, 104).
in(96, 106).
in(96, 107).
in(96, 108).
in(96, 109).
in(96, 110).
in(96, 112).
in(96, 115).
in(96, 117).
in(96, 118).
in(96, 119).
in(96, 120).
in(96, 121).
in(96, 122).
in(96, 123).
in(97, 2).
in(97, 3).
in(97, 4).
in(97, 5).
in(97, 7).
in(97, 8).
in(97, 9).
in(97, 10).
in(97, 12).
in(97, 13).
in(97, 17).
in(97, 18).
in(97, 20).
in(97, 22).
in(97, 23).
in(97, 24).
in(97, 25).
in(97, 26).
in(97, 27).
in(97, 28).
in(97, 30).
in(97, 31).
in(97, 32).
in(97, 37).
in(97, 39).
in(97, 41).
in(97, 43).
in(97, 45).
in(97, 46).
in(97, 50).
in(97, 51).
in(97, 54).
in(97, 57).
in(97, 58).
in(97, 59).
in(97, 60).
in(97, 66).
in(97, 68).
in(97, 69).
in(97, 75).
in(97, 76).
in(97, 82).
in(97, 83).
in(97, 86).
in(97, 88).
in(97, 89).
in(97, 92).
in(97, 93).
in(97, 94).
in(97, 96).
in(97, 97).
in(97, 100).
in(97, 101).
in(97, 103).
in(97, 104).
in(97, 107).
in(97, 110).
in(97, 111).
in(97, 112).
in(97, 114).
in(97, 115).
in(97, 118).
in(97, 120).
in(97, 121).
in(98, 3).
in(98, 4).
in(98, 5).
in(98, 9).
in(98, 10).
in(98, 13).
in(98, 15).
in(98, 19).
in(98, 20).
in(98, 22).
in(98, 28).
in(98, 30).
in(98, 31).
in(98, 33).
in(98, 34).
in(98, 36).
in(98, 37).
in(98, 38).
in(98, 40).
in(98, 42).
in(98, 43).
in(98, 45).
in(98, 46).
in(98, 47).
in(98, 49).
in(98, 52).
in(98, 54).
in(98, 55).
in(98, 56).
in(98, 57).
in(98, 59).
in(98, 60).
in(98, 61).
in(98, 62).
in(98, 63).
in(98, 65).
in(98, 67).
in(98, 69).
in(98, 71).
in(98, 73).
in(98, 74).
in(98, 75).
in(98, 76).
in(98, 78).
in(98, 81).
in(98, 84).
in(98, 88).
in(98, 90).
in(98, 91).
in(98, 92).
in(98, 94).
in(98, 95).
in(98, 96).
in(98, 98).
in(98, 101).
in(98, 102).
in(98, 105).
in(98, 107).
in(98, 108).
in(98, 109).
in(98, 110).
in(98, 111).
in(98, 113).
in(98, 117).
in(98, 118).
in(99, 3).
in(99, 4).
in(99, 12).
in(99, 13).
in(99, 15).
in(99, 18).
in(99, 20).
in(99, 28).
in(99, 29).
in(99, 31).
in(99, 32).
in(99, 35).
in(99, 38).
in(99, 41).
in(99, 42).
in(99, 45).
in(99, 46).
in(99, 48).
in(99, 49).
in(99, 52).
in(99, 55).
in(99, 57).
in(99, 58).
in(99, 60).
in(99, 61).
in(99, 63).
in(99, 64).
in(99, 65).
in(99, 66).
in(99, 70).
in(99, 71).
in(99, 72).
in(99, 77).
in(99, 78).
in(99, 80).
in(99, 83).
in(99, 85).
in(99, 87).
in(99, 90).
in(99, 92).
in(99, 96).
in(99, 97).
in(99, 99).
in(99, 102).
in(99, 103).
in(99, 104).
in(99, 108).
in(99, 111).
in(99, 115).
in(99, 117).
in(99, 120).
in(99, 122).
in(99, 123).
in(100, 2).
in(100, 3).
in(100, 4).
in(100, 5).
in(100, 7).
in(100, 9).
in(100, 11).
in(100, 13).
in(100, 15).
in(100, 21).
in(100, 24).
in(100, 25).
in(100, 27).
in(100, 28).
in(100, 30).
in(100, 31).
in(100, 32).
in(100, 33).
in(100, 34).
in(100, 35).
in(100, 36).
in(100, 37).
in(100, 38).
in(100, 39).
in(100, 41).
in(100, 42).
in(100, 43).
in(100, 44).
in(100, 46).
in(100, 48).
in(100, 52).
in(100, 54).
in(100, 56).
in(100, 57).
in(100, 59).
in(100, 60).
in(100, 61).
in(100, 62).
in(100, 63).
in(100, 64).
in(100, 69).
in(100, 70).
in(100, 71).
in(100, 74).
in(100, 77).
in(100, 78).
in(100, 79).
in(100, 90).
in(100, 92).
in(100, 93).
in(100, 94).
in(100, 95).
in(100, 100).
in(100, 101).
in(100, 102).
in(100, 109).
in(100, 111).
in(100, 112).
in(100, 113).
in(100, 114).
in(100, 116).
in(100, 117).
in(100, 118).
in(100, 119).
in(100, 120).
in(100, 122).
in(101, 6).
in(101, 7).
in(101, 10).
in(101, 11).
in(101, 14).
in(101, 15).
in(101, 17).
in(101, 20).
in(101, 21).
in(101, 25).
in(101, 26).
in(101, 29).
in(101, 30).
in(101, 32).
in(101, 33).
in(101, 36).
in(101, 37).
in(101, 40).
in(101, 41).
in(101, 42).
in(101, 44).
in(101, 48).
in(101, 50).
in(101, 55).
in(101, 57).
in(101, 58).
in(101, 59).
in(101, 65).
in(101, 66).
in(101, 70).
in(101, 75).
in(101, 76).
in(101, 78).
in(101, 81).
in(101, 82).
in(101, 85).
in(101, 87).
in(101, 89).
in(101, 91).
in(101, 93).
in(101, 94).
in(101, 95).
in(101, 97).
in(101, 103).
in(101, 105).
in(101, 106).
in(101, 108).
in(101, 110).
in(101, 111).
in(101, 112).
in(101, 113).
in(101, 114).
in(101, 116).
in(101, 117).
in(101, 118).
in(101, 119).
in(101, 121).
in(101, 123).
in(102, 3).
in(102, 5).
in(102, 6).
in(102, 7).
in(102, 8).
in(102, 9).
in(102, 10).
in(102, 11).
in(102, 12).
in(102, 15).
in(102, 21).
in(102, 23).
in(102, 25).
in(102, 27).
in(102, 28).
in(102, 30).
in(102, 33).
in(102, 34).
in(102, 37).
in(102, 38).
in(102, 39).
in(102, 40).
in(102, 41).
in(102, 42).
in(102, 45).
in(102, 50).
in(102, 52).
in(102, 53).
in(102, 55).
in(102, 56).
in(102, 57).
in(102, 58).
in(102, 60).
in(102, 61).
in(102, 62).
in(102, 63).
in(102, 67).
in(102, 68).
in(102, 71).
in(102, 72).
in(102, 75).
in(102, 81).
in(102, 83).
in(102, 84).
in(102, 85).
in(102, 86).
in(102, 89).
in(102, 90).
in(102, 92).
in(102, 95).
in(102, 96).
in(102, 98).
in(102, 103).
in(102, 105).
in(102, 107).
in(102, 113).
in(102, 117).
in(102, 118).
in(102, 121).
in(102, 122).
in(102, 123).
in(103, 3).
in(103, 4).
in(103, 5).
in(103, 7).
in(103, 9).
in(103, 13).
in(103, 15).
in(103, 16).
in(103, 18).
in(103, 19).
in(103, 21).
in(103, 22).
in(103, 25).
in(103, 28).
in(103, 32).
in(103, 33).
in(103, 35).
in(103, 37).
in(103, 38).
in(103, 45).
in(103, 47).
in(103, 48).
in(103, 51).
in(103, 52).
in(103, 53).
in(103, 54).
in(103, 59).
in(103, 61).
in(103, 63).
in(103, 64).
in(103, 68).
in(103, 69).
in(103, 72).
in(103, 74).
in(103, 75).
in(103, 77).
in(103, 78).
in(103, 79).
in(103, 80).
in(103, 81).
in(103, 83).
in(103, 84).
in(103, 85).
in(103, 87).
in(103, 89).
in(103, 90).
in(103, 92).
in(103, 94).
in(103, 95).
in(103, 96).
in(103, 97).
in(103, 102).
in(103, 103).
in(103, 106).
in(103, 108).
in(103, 109).
in(103, 112).
in(103, 118).
in(103, 119).
in(103, 121).
in(103, 123).
in(104, 3).
in(104, 5).
in(104, 6).
in(104, 8).
in(104, 15).
in(104, 16).
in(104, 17).
in(104, 18).
in(104, 23).
in(104, 27).
in(104, 28).
in(104, 29).
in(104, 32).
in(104, 34).
in(104, 38).
in(104, 39).
in(104, 40).
in(104, 41).
in(104, 43).
in(104, 44).
in(104, 46).
in(104, 47).
in(104, 48).
in(104, 49).
in(104, 52).
in(104, 54).
in(104, 55).
in(104, 57).
in(104, 59).
in(104, 62).
in(104, 64).
in(104, 65).
in(104, 66).
in(104, 68).
in(104, 71).
in(104, 74).
in(104, 75).
in(104, 77).
in(104, 80).
in(104, 82).
in(104, 83).
in(104, 86).
in(104, 88).
in(104, 90).
in(104, 93).
in(104, 94).
in(104, 96).
in(104, 97).
in(104, 98).
in(104, 99).
in(104, 102).
in(104, 103).
in(104, 104).
in(104, 105).
in(104, 106).
in(104, 112).
in(104, 113).
in(104, 114).
in(104, 115).
in(104, 116).
in(104, 117).
in(104, 119).
in(104, 120).
in(104, 121).
in(105, 1).
in(105, 3).
in(105, 4).
in(105, 5).
in(105, 7).
in(105, 9).
in(105, 11).
in(105, 14).
in(105, 15).
in(105, 16).
in(105, 19).
in(105, 24).
in(105, 29).
in(105, 33).
in(105, 34).
in(105, 35).
in(105, 37).
in(105, 41).
in(105, 42).
in(105, 43).
in(105, 44).
in(105, 45).
in(105, 46).
in(105, 47).
in(105, 48).
in(105, 51).
in(105, 53).
in(105, 54).
in(105, 57).
in(105, 59).
in(105, 62).
in(105, 63).
in(105, 65).
in(105, 66).
in(105, 67).
in(105, 72).
in(105, 75).
in(105, 76).
in(105, 77).
in(105, 79).
in(105, 80).
in(105, 82).
in(105, 84).
in(105, 86).
in(105, 92).
in(105, 97).
in(105, 98).
in(105, 99).
in(105, 103).
in(105, 107).
in(105, 108).
in(105, 110).
in(105, 112).
in(105, 113).
in(105, 115).
in(105, 117).
in(105, 118).
in(105, 121).
in(105, 122).
in(106, 1).
in(106, 2).
in(106, 7).
in(106, 8).
in(106, 11).
in(106, 14).
in(106, 17).
in(106, 20).
in(106, 23).
in(106, 24).
in(106, 26).
in(106, 27).
in(106, 35).
in(106, 37).
in(106, 39).
in(106, 48).
in(106, 49).
in(106, 52).
in(106, 55).
in(106, 56).
in(106, 57).
in(106, 59).
in(106, 61).
in(106, 62).
in(106, 63).
in(106, 64).
in(106, 66).
in(106, 67).
in(106, 68).
in(106, 70).
in(106, 71).
in(106, 74).
in(106, 78).
in(106, 87).
in(106, 88).
in(106, 89).
in(106, 91).
in(106, 92).
in(106, 95).
in(106, 104).
in(106, 105).
in(106, 107).
in(106, 111).
in(106, 114).
in(106, 116).
in(106, 118).
in(106, 119).
in(106, 120).
in(106, 121).
in(106, 122).
in(107, 1).
in(107, 4).
in(107, 5).
in(107, 6).
in(107, 7).
in(107, 10).
in(107, 15).
in(107, 16).
in(107, 18).
in(107, 20).
in(107, 22).
in(107, 24).
in(107, 25).
in(107, 26).
in(107, 31).
in(107, 32).
in(107, 33).
in(107, 35).
in(107, 36).
in(107, 37).
in(107, 38).
in(107, 41).
in(107, 43).
in(107, 44).
in(107, 45).
in(107, 47).
in(107, 48).
in(107, 49).
in(107, 50).
in(107, 53).
in(107, 54).
in(107, 55).
in(107, 58).
in(107, 59).
in(107, 61).
in(107, 64).
in(107, 65).
in(107, 66).
in(107, 67).
in(107, 73).
in(107, 74).
in(107, 82).
in(107, 87).
in(107, 89).
in(107, 90).
in(107, 92).
in(107, 95).
in(107, 96).
in(107, 97).
in(107, 98).
in(107, 99).
in(107, 100).
in(107, 102).
in(107, 104).
in(107, 105).
in(107, 106).
in(107, 111).
in(107, 118).
in(108, 1).
in(108, 2).
in(108, 3).
in(108, 4).
in(108, 6).
in(108, 7).
in(108, 11).
in(108, 14).
in(108, 17).
in(108, 19).
in(108, 20).
in(108, 21).
in(108, 24).
in(108, 25).
in(108, 26).
in(108, 27).
in(108, 30).
in(108, 31).
in(108, 33).
in(108, 34).
in(108, 35).
in(108, 37).
in(108, 39).
in(108, 40).
in(108, 51).
in(108, 52).
in(108, 53).
in(108, 55).
in(108, 57).
in(108, 62).
in(108, 66).
in(108, 68).
in(108, 69).
in(108, 71).
in(108, 79).
in(108, 80).
in(108, 82).
in(108, 89).
in(108, 92).
in(108, 93).
in(108, 96).
in(108, 97).
in(108, 98).
in(108, 100).
in(108, 101).
in(108, 105).
in(108, 106).
in(108, 107).
in(108, 108).
in(108, 111).
in(108, 112).
in(108, 113).
in(108, 114).
in(108, 115).
in(108, 116).
in(108, 118).
in(108, 119).
in(108, 121).
in(108, 122).
in(109, 3).
in(109, 4).
in(109, 6).
in(109, 9).
in(109, 14).
in(109, 15).
in(109, 16).
in(109, 17).
in(109, 21).
in(109, 27).
in(109, 35).
in(109, 36).
in(109, 38).
in(109, 45).
in(109, 49).
in(109, 52).
in(109, 53).
in(109, 55).
in(109, 56).
in(109, 59).
in(109, 61).
in(109, 63).
in(109, 64).
in(109, 66).
in(109, 67).
in(109, 69).
in(109, 72).
in(109, 73).
in(109, 74).
in(109, 77).
in(109, 78).
in(109, 80).
in(109, 81).
in(109, 82).
in(109, 83).
in(109, 86).
in(109, 88).
in(109, 91).
in(109, 97).
in(109, 98).
in(109, 100).
in(109, 103).
in(109, 106).
in(109, 108).
in(109, 113).
in(109, 114).
in(109, 116).
in(109, 118).
in(109, 119).
in(109, 120).
in(109, 121).
in(109, 123).
in(110, 1).
in(110, 5).
in(110, 8).
in(110, 9).
in(110, 14).
in(110, 15).
in(110, 17).
in(110, 20).
in(110, 21).
in(110, 27).
in(110, 29).
in(110, 30).
in(110, 34).
in(110, 35).
in(110, 36).
in(110, 42).
in(110, 43).
in(110, 49).
in(110, 50).
in(110, 52).
in(110, 57).
in(110, 62).
in(110, 64).
in(110, 65).
in(110, 66).
in(110, 67).
in(110, 69).
in(110, 75).
in(110, 77).
in(110, 78).
in(110, 82).
in(110, 83).
in(110, 86).
in(110, 87).
in(110, 88).
in(110, 89).
in(110, 94).
in(110, 95).
in(110, 100).
in(110, 102).
in(110, 103).
in(110, 105).
in(110, 106).
in(110, 107).
in(110, 110).
in(110, 111).
in(110, 114).
in(110, 116).
in(110, 117).
in(110, 118).
in(110, 122).
in(110, 123).
in(111, 3).
in(111, 5).
in(111, 6).
in(111, 8).
in(111, 13).
in(111, 14).
in(111, 15).
in(111, 17).
in(111, 20).
in(111, 21).
in(111, 26).
in(111, 29).
in(111, 31).
in(111, 32).
in(111, 34).
in(111, 35).
in(111, 37).
in(111, 38).
in(111, 39).
in(111, 40).
in(111, 44).
in(111, 49).
in(111, 52).
in(111, 53).
in(111, 55).
in(111, 59).
in(111, 61).
in(111, 63).
in(111, 64).
in(111, 65).
in(111, 66).
in(111, 68).
in(111, 69).
in(111, 70).
in(111, 72).
in(111, 73).
in(111, 77).
in(111, 85).
in(111, 90).
in(111, 92).
in(111, 94).
in(111, 96).
in(111, 97).
in(111, 98).
in(111, 100).
in(111, 103).
in(111, 104).
in(111, 105).
in(111, 106).
in(111, 108).
in(111, 109).
in(111, 110).
in(111, 111).
in(111, 113).
in(111, 119).
in(111, 120).
in(111, 123).
in(112, 2).
in(112, 4).
in(112, 6).
in(112, 7).
in(112, 8).
in(112, 10).
in(112, 11).
in(112, 15).
in(112, 16).
in(112, 19).
in(112, 21).
in(112, 22).
in(112, 26).
in(112, 27).
in(112, 29).
in(112, 30).
in(112, 33).
in(112, 34).
in(112, 35).
in(112, 36).
in(112, 39).
in(112, 40).
in(112, 41).
in(112, 42).
in(112, 44).
in(112, 46).
in(112, 47).
in(112, 50).
in(112, 51).
in(112, 53).
in(112, 54).
in(112, 55).
in(112, 57).
in(112, 60).
in(112, 61).
in(112, 62).
in(112, 63).
in(112, 64).
in(112, 66).
in(112, 68).
in(112, 70).
in(112, 71).
in(112, 73).
in(112, 74).
in(112, 75).
in(112, 78).
in(112, 83).
in(112, 84).
in(112, 87).
in(112, 89).
in(112, 94).
in(112, 95).
in(112, 97).
in(112, 100).
in(112, 102).
in(112, 108).
in(112, 109).
in(112, 110).
in(112, 112).
in(112, 113).
in(112, 114).
in(112, 117).
in(112, 122).
in(113, 3).
in(113, 5).
in(113, 6).
in(113, 7).
in(113, 10).
in(113, 11).
in(113, 12).
in(113, 19).
in(113, 20).
in(113, 21).
in(113, 22).
in(113, 23).
in(113, 24).
in(113, 25).
in(113, 26).
in(113, 28).
in(113, 29).
in(113, 31).
in(113, 33).
in(113, 34).
in(113, 39).
in(113, 41).
in(113, 44).
in(113, 46).
in(113, 47).
in(113, 48).
in(113, 55).
in(113, 56).
in(113, 57).
in(113, 58).
in(113, 63).
in(113, 66).
in(113, 70).
in(113, 72).
in(113, 74).
in(113, 75).
in(113, 77).
in(113, 78).
in(113, 80).
in(113, 84).
in(113, 85).
in(113, 86).
in(113, 90).
in(113, 91).
in(113, 96).
in(113, 97).
in(113, 99).
in(113, 101).
in(113, 102).
in(113, 105).
in(113, 109).
in(113, 111).
in(113, 112).
in(113, 113).
in(113, 115).
in(113, 117).
in(113, 118).
in(114, 2).
in(114, 3).
in(114, 7).
in(114, 10).
in(114, 12).
in(114, 13).
in(114, 14).
in(114, 15).
in(114, 16).
in(114, 17).
in(114, 19).
in(114, 28).
in(114, 34).
in(114, 36).
in(114, 39).
in(114, 49).
in(114, 51).
in(114, 52).
in(114, 53).
in(114, 54).
in(114, 59).
in(114, 61).
in(114, 62).
in(114, 63).
in(114, 64).
in(114, 77).
in(114, 78).
in(114, 83).
in(114, 84).
in(114, 86).
in(114, 87).
in(114, 90).
in(114, 92).
in(114, 94).
in(114, 96).
in(114, 99).
in(114, 101).
in(114, 103).
in(114, 104).
in(114, 105).
in(114, 106).
in(114, 108).
in(114, 110).
in(114, 112).
in(114, 114).
in(114, 115).
in(114, 116).
in(114, 117).
in(114, 123).
in(115, 1).
in(115, 2).
in(115, 3).
in(115, 4).
in(115, 5).
in(115, 7).
in(115, 8).
in(115, 9).
in(115, 10).
in(115, 12).
in(115, 14).
in(115, 17).
in(115, 20).
in(115, 31).
in(115, 34).
in(115, 35).
in(115, 37).
in(115, 39).
in(115, 43).
in(115, 48).
in(115, 49).
in(115, 50).
in(115, 51).
in(115, 53).
in(115, 55).
in(115, 57).
in(115, 59).
in(115, 61).
in(115, 62).
in(115, 65).
in(115, 66).
in(115, 67).
in(115, 68).
in(115, 72).
in(115, 73).
in(115, 74).
in(115, 76).
in(115, 78).
in(115, 79).
in(115, 80).
in(115, 81).
in(115, 83).
in(115, 85).
in(115, 86).
in(115, 87).
in(115, 89).
in(115, 90).
in(115, 91).
in(115, 92).
in(115, 93).
in(115, 94).
in(115, 95).
in(115, 97).
in(115, 99).
in(115, 102).
in(115, 106).
in(115, 107).
in(115, 108).
in(115, 109).
in(115, 111).
in(115, 116).
in(115, 117).
in(115, 118).
in(115, 122).
in(115, 123).
in(116, 1).
in(116, 6).
in(116, 7).
in(116, 10).
in(116, 11).
in(116, 12).
in(116, 14).
in(116, 15).
in(116, 18).
in(116, 22).
in(116, 23).
in(116, 24).
in(116, 25).
in(116, 26).
in(116, 27).
in(116, 29).
in(116, 30).
in(116, 32).
in(116, 33).
in(116, 35).
in(116, 37).
in(116, 38).
in(116, 39).
in(116, 41).
in(116, 42).
in(116, 45).
in(116, 47).
in(116, 49).
in(116, 51).
in(116, 52).
in(116, 60).
in(116, 61).
in(116, 62).
in(116, 63).
in(116, 65).
in(116, 66).
in(116, 69).
in(116, 72).
in(116, 73).
in(116, 80).
in(116, 81).
in(116, 82).
in(116, 83).
in(116, 86).
in(116, 87).
in(116, 89).
in(116, 93).
in(116, 96).
in(116, 98).
in(116, 99).
in(116, 101).
in(116, 102).
in(116, 103).
in(116, 108).
in(116, 110).
in(116, 113).
in(116, 114).
in(116, 115).
in(116, 121).
in(116, 122).
in(117, 1).
in(117, 5).
in(117, 8).
in(117, 10).
in(117, 12).
in(117, 15).
in(117, 16).
in(117, 17).
in(117, 19).
in(117, 20).
in(117, 22).
in(117, 23).
in(117, 24).
in(117, 25).
in(117, 27).
in(117, 28).
in(117, 31).
in(117, 34).
in(117, 38).
in(117, 41).
in(117, 42).
in(117, 44).
in(117, 45).
in(117, 49).
in(117, 50).
in(117, 51).
in(117, 53).
in(117, 54).
in(117, 56).
in(117, 57).
in(117, 61).
in(117, 63).
in(117, 65).
in(117, 66).
in(117, 69).
in(117, 72).
in(117, 74).
in(117, 76).
in(117, 77).
in(117, 78).
in(117, 79).
in(117, 80).
in(117, 81).
in(117, 82).
in(117, 83).
in(117, 87).
in(117, 90).
in(117, 91).
in(117, 95).
in(117, 98).
in(117, 101).
in(117, 102).
in(117, 103).
in(117, 104).
in(117, 107).
in(117, 110).
in(117, 115).
in(117, 116).
in(117, 118).
in(117, 119).
in(117, 120).
in(118, 1).
in(118, 3).
in(118, 9).
in(118, 10).
in(118, 11).
in(118, 15).
in(118, 18).
in(118, 20).
in(118, 23).
in(118, 24).
in(118, 26).
in(118, 27).
in(118, 28).
in(118, 32).
in(118, 33).
in(118, 35).
in(118, 38).
in(118, 44).
in(118, 46).
in(118, 47).
in(118, 48).
in(118, 50).
in(118, 54).
in(118, 61).
in(118, 63).
in(118, 64).
in(118, 72).
in(118, 74).
in(118, 75).
in(118, 76).
in(118, 79).
in(118, 80).
in(118, 82).
in(118, 88).
in(118, 89).
in(118, 91).
in(118, 92).
in(118, 93).
in(118, 98).
in(118, 99).
in(118, 100).
in(118, 103).
in(118, 104).
in(118, 105).
in(118, 107).
in(118, 108).
in(118, 110).
in(118, 111).
in(118, 113).
in(118, 116).
in(118, 117).
in(118, 118).
in(118, 123).
in(119, 2).
in(119, 4).
in(119, 5).
in(119, 6).
in(119, 7).
in(119, 9).
in(119, 13).
in(119, 15).
in(119, 18).
in(119, 20).
in(119, 22).
in(119, 26).
in(119, 27).
in(119, 29).
in(119, 31).
in(119, 33).
in(119, 35).
in(119, 36).
in(119, 37).
in(119, 38).
in(119, 39).
in(119, 43).
in(119, 44).
in(119, 45).
in(119, 46).
in(119, 51).
in(119, 55).
in(119, 56).
in(119, 58).
in(119, 60).
in(119, 61).
in(119, 62).
in(119, 63).
in(119, 65).
in(119, 67).
in(119, 68).
in(119, 69).
in(119, 72).
in(119, 73).
in(119, 76).
in(119, 77).
in(119, 78).
in(119, 84).
in(119, 86).
in(119, 90).
in(119, 93).
in(119, 94).
in(119, 96).
in(119, 97).
in(119, 103).
in(119, 104).
in(119, 105).
in(119, 107).
in(119, 108).
in(119, 113).
in(119, 114).
in(119, 115).
in(119, 117).
in(119, 120).
in(119, 122).
in(120, 3).
in(120, 4).
in(120, 5).
in(120, 8).
in(120, 9).
in(120, 10).
in(120, 11).
in(120, 13).
in(120, 14).
in(120, 17).
in(120, 18).
in(120, 19).
in(120, 21).
in(120, 22).
in(120, 25).
in(120, 29).
in(120, 30).
in(120, 32).
in(120, 36).
in(120, 38).
in(120, 41).
in(120, 42).
in(120, 46).
in(120, 50).
in(120, 52).
in(120, 53).
in(120, 54).
in(120, 55).
in(120, 58).
in(120, 59).
in(120, 60).
in(120, 61).
in(120, 62).
in(120, 64).
in(120, 66).
in(120, 67).
in(120, 68).
in(120, 75).
in(120, 76).
in(120, 78).
in(120, 79).
in(120, 82).
in(120, 83).
in(120, 86).
in(120, 88).
in(120, 91).
in(120, 93).
in(120, 94).
in(120, 95).
in(120, 96).
in(120, 97).
in(120, 98).
in(120, 100).
in(120, 101).
in(120, 102).
in(120, 103).
in(120, 104).
in(120, 107).
in(120, 108).
in(120, 112).
in(120, 115).
in(120, 116).
in(120, 118).
in(120, 121).
in(120, 122).
in(121, 1).
in(121, 2).
in(121, 3).
in(121, 5).
in(121, 6).
in(121, 7).
in(121, 9).
in(121, 11).
in(121, 19).
in(121, 20).
in(121, 22).
in(121, 24).
in(121, 26).
in(121, 27).
in(121, 28).
in(121, 30).
in(121, 31).
in(121, 33).
in(121, 34).
in(121, 35).
in(121, 36).
in(121, 38).
in(121, 41).
in(121, 43).
in(121, 49).
in(121, 52).
in(121, 53).
in(121, 58).
in(121, 59).
in(121, 63).
in(121, 65).
in(121, 66).
in(121, 67).
in(121, 69).
in(121, 71).
in(121, 78).
in(121, 82).
in(121, 83).
in(121, 85).
in(121, 90).
in(121, 98).
in(121, 99).
in(121, 102).
in(121, 103).
in(121, 105).
in(121, 106).
in(121, 113).
in(121, 114).
in(121, 115).
in(121, 116).
in(121, 117).
in(121, 122).
in(122, 2).
in(122, 5).
in(122, 6).
in(122, 10).
in(122, 12).
in(122, 13).
in(122, 14).
in(122, 18).
in(122, 21).
in(122, 23).
in(122, 24).
in(122, 26).
in(122, 28).
in(122, 29).
in(122, 32).
in(122, 33).
in(122, 34).
in(122, 35).
in(122, 37).
in(122, 42).
in(122, 44).
in(122, 45).
in(122, 50).
in(122, 59).
in(122, 60).
in(122, 63).
in(122, 65).
in(122, 68).
in(122, 69).
in(122, 73).
in(122, 76).
in(122, 77).
in(122, 78).
in(122, 79).
in(122, 82).
in(122, 85).
in(122, 86).
in(122, 87).
in(122, 88).
in(122, 89).
in(122, 91).
in(122, 92).
in(122, 94).
in(122, 95).
in(122, 97).
in(122, 100).
in(122, 102).
in(122, 103).
in(122, 104).
in(122, 108).
in(122, 109).
in(122, 110).
in(122, 115).
in(122, 116).
in(122, 117).
in(122, 120).
in(123, 2).
in(123, 5).
in(123, 6).
in(123, 7).
in(123, 13).
in(123, 14).
in(123, 15).
in(123, 22).
in(123, 23).
in(123, 27).
in(123, 29).
in(123, 30).
in(123, 32).
in(123, 33).
in(123, 34).
in(123, 45).
in(123, 46).
in(123, 49).
in(123, 50).
in(123, 52).
in(123, 55).
in(123, 56).
in(123, 63).
in(123, 67).
in(123, 68).
in(123, 74).
in(123, 82).
in(123, 84).
in(123, 86).
in(123, 89).
in(123, 93).
in(123, 96).
in(123, 97).
in(123, 99).
in(123, 102).
in(123, 103).
in(123, 104).
in(123, 109).
in(123, 112).
in(123, 113).
in(123, 116).
in(123, 118).
in(123, 120).
in(124, 1).
in(124, 3).
in(124, 7).
in(124, 8).
in(124, 9).
in(124, 11).
in(124, 12).
in(124, 14).
in(124, 17).
in(124, 23).
in(124, 26).
in(124, 27).
in(124, 29).
in(124, 30).
in(124, 31).
in(124, 32).
in(124, 38).
in(124, 39).
in(124, 40).
in(124, 41).
in(124, 43).
in(124, 46).
in(124, 47).
in(124, 50).
in(124, 51).
in(124, 54).
in(124, 55).
in(124, 57).
in(124, 59).
in(124, 60).
in(124, 62).
in(124, 64).
in(124, 65).
in(124, 69).
in(124, 73).
in(124, 75).
in(124, 76).
in(124, 78).
in(124, 82).
in(124, 83).
in(124, 88).
in(124, 89).
in(124, 90).
in(124, 91).
in(124, 92).
in(124, 93).
in(124, 94).
in(124, 96).
in(124, 97).
in(124, 98).
in(124, 99).
in(124, 100).
in(124, 102).
in(124, 105).
in(124, 109).
in(124, 110).
in(124, 112).
in(124, 114).
in(124, 116).
in(124, 119).
in(124, 121).
in(124, 122).
in(125, 1).
in(125, 2).
in(125, 6).
in(125, 7).
in(125, 10).
in(125, 11).
in(125, 14).
in(125, 17).
in(125, 19).
in(125, 23).
in(125, 26).
in(125, 27).
in(125, 28).
in(125, 33).
in(125, 35).
in(125, 37).
in(125, 38).
in(125, 39).
in(125, 42).
in(125, 43).
in(125, 45).
in(125, 48).
in(125, 50).
in(125, 55).
in(125, 56).
in(125, 59).
in(125, 61).
in(125, 65).
in(125, 66).
in(125, 67).
in(125, 68).
in(125, 69).
in(125, 70).
in(125, 80).
in(125, 82).
in(125, 83).
in(125, 87).
in(125, 88).
in(125, 90).
in(125, 94).
in(125, 95).
in(125, 97).
in(125, 101).
in(125, 105).
in(125, 106).
in(125, 107).
in(125, 108).
in(125, 109).
in(125, 110).
in(125, 111).
in(125, 112).
in(125, 113).
in(125, 115).
in(125, 117).
in(125, 118).
in(125, 121).
in(125, 123).
in(126, 2).
in(126, 3).
in(126, 4).
in(126, 5).
in(126, 6).
in(126, 7).
in(126, 8).
in(126, 16).
in(126, 24).
in(126, 25).
in(126, 26).
in(126, 29).
in(126, 30).
in(126, 32).
in(126, 35).
in(126, 37).
in(126, 43).
in(126, 45).
in(126, 46).
in(126, 47).
in(126, 49).
in(126, 50).
in(126, 53).
in(126, 55).
in(126, 57).
in(126, 59).
in(126, 60).
in(126, 64).
in(126, 67).
in(126, 69).
in(126, 70).
in(126, 76).
in(126, 77).
in(126, 78).
in(126, 79).
in(126, 80).
in(126, 81).
in(126, 84).
in(126, 87).
in(126, 88).
in(126, 91).
in(126, 95).
in(126, 96).
in(126, 97).
in(126, 99).
in(126, 102).
in(126, 106).
in(126, 107).
in(126, 109).
in(126, 113).
in(126, 116).
in(126, 119).
in(127, 1).
in(127, 4).
in(127, 9).
in(127, 11).
in(127, 12).
in(127, 13).
in(127, 14).
in(127, 17).
in(127, 18).
in(127, 22).
in(127, 23).
in(127, 24).
in(127, 25).
in(127, 26).
in(127, 28).
in(127, 31).
in(127, 36).
in(127, 37).
in(127, 38).
in(127, 39).
in(127, 40).
in(127, 44).
in(127, 50).
in(127, 54).
in(127, 57).
in(127, 63).
in(127, 64).
in(127, 68).
in(127, 69).
in(127, 75).
in(127, 77).
in(127, 80).
in(127, 82).
in(127, 83).
in(127, 85).
in(127, 87).
in(127, 91).
in(127, 93).
in(127, 94).
in(127, 95).
in(127, 106).
in(127, 109).
in(127, 110).
in(127, 111).
in(127, 112).
in(127, 113).
in(127, 114).
in(127, 115).
in(127, 117).
in(127, 119).
in(127, 120).
in(127, 121).
in(127, 122).
in(127, 123).
in(128, 1).
in(128, 2).
in(128, 4).
in(128, 7).
in(128, 8).
in(128, 9).
in(128, 10).
in(128, 11).
in(128, 12).
in(128, 13).
in(128, 14).
in(128, 17).
in(128, 19).
in(128, 20).
in(128, 21).
in(128, 28).
in(128, 29).
in(128, 31).
in(128, 32).
in(128, 33).
in(128, 34).
in(128, 37).
in(128, 39).
in(128, 42).
in(128, 45).
in(128, 46).
in(128, 48).
in(128, 52).
in(128, 54).
in(128, 56).
in(128, 57).
in(128, 58).
in(128, 60).
in(128, 61).
in(128, 62).
in(128, 63).
in(128, 64).
in(128, 65).
in(128, 68).
in(128, 74).
in(128, 76).
in(128, 77).
in(128, 78).
in(128, 79).
in(128, 82).
in(128, 84).
in(128, 85).
in(128, 86).
in(128, 88).
in(128, 91).
in(128, 96).
in(128, 97).
in(128, 99).
in(128, 100).
in(128, 103).
in(128, 104).
in(128, 106).
in(128, 107).
in(128, 110).
in(128, 111).
in(128, 112).
in(128, 114).
in(128, 115).
in(128, 117).
in(128, 119).
in(128, 120).
in(128, 121).
in(128, 123).
in(129, 1).
in(129, 2).
in(129, 3).
in(129, 5).
in(129, 6).
in(129, 7).
in(129, 10).
in(129, 12).
in(129, 13).
in(129, 14).
in(129, 16).
in(129, 17).
in(129, 19).
in(129, 20).
in(129, 21).
in(129, 22).
in(129, 23).
in(129, 24).
in(129, 25).
in(129, 26).
in(129, 30).
in(129, 31).
in(129, 32).
in(129, 36).
in(129, 40).
in(129, 41).
in(129, 42).
in(129, 43).
in(129, 45).
in(129, 47).
in(129, 49).
in(129, 51).
in(129, 56).
in(129, 57).
in(129, 60).
in(129, 61).
in(129, 63).
in(129, 66).
in(129, 67).
in(129, 68).
in(129, 69).
in(129, 71).
in(129, 73).
in(129, 76).
in(129, 77).
in(129, 82).
in(129, 85).
in(129, 86).
in(129, 88).
in(129, 90).
in(129, 91).
in(129, 95).
in(129, 96).
in(129, 99).
in(129, 100).
in(129, 101).
in(129, 103).
in(129, 105).
in(129, 106).
in(129, 107).
in(129, 109).
in(129, 111).
in(129, 113).
in(129, 115).
in(129, 116).
in(129, 117).
in(129, 118).
in(129, 122).
in(130, 6).
in(130, 8).
in(130, 10).
in(130, 13).
in(130, 19).
in(130, 22).
in(130, 23).
in(130, 24).
in(130, 26).
in(130, 28).
in(130, 29).
in(130, 30).
in(130, 31).
in(130, 32).
in(130, 34).
in(130, 35).
in(130, 39).
in(130, 42).
in(130, 44).
in(130, 45).
in(130, 47).
in(130, 48).
in(130, 50).
in(130, 51).
in(130, 52).
in(130, 53).
in(130, 54).
in(130, 55).
in(130, 56).
in(130, 58).
in(130, 60).
in(130, 61).
in(130, 62).
in(130, 67).
in(130, 71).
in(130, 77).
in(130, 78).
in(130, 79).
in(130, 82).
in(130, 90).
in(130, 91).
in(130, 94).
in(130, 95).
in(130, 98).
in(130, 99).
in(130, 103).
in(130, 105).
in(130, 106).
in(130, 112).
in(130, 119).
in(130, 122).
in(131, 1).
in(131, 2).
in(131, 4).
in(131, 8).
in(131, 9).
in(131, 11).
in(131, 13).
in(131, 15).
in(131, 17).
in(131, 18).
in(131, 20).
in(131, 21).
in(131, 25).
in(131, 26).
in(131, 27).
in(131, 28).
in(131, 29).
in(131, 31).
in(131, 33).
in(131, 36).
in(131, 38).
in(131, 39).
in(131, 40).
in(131, 42).
in(131, 43).
in(131, 44).
in(131, 45).
in(131, 46).
in(131, 47).
in(131, 48).
in(131, 50).
in(131, 51).
in(131, 55).
in(131, 56).
in(131, 58).
in(131, 62).
in(131, 65).
in(131, 66).
in(131, 67).
in(131, 68).
in(131, 69).
in(131, 70).
in(131, 72).
in(131, 74).
in(131, 75).
in(131, 77).
in(131, 80).
in(131, 81).
in(131, 82).
in(131, 88).
in(131, 91).
in(131, 93).
in(131, 95).
in(131, 98).
in(131, 99).
in(131, 102).
in(131, 103).
in(131, 105).
in(131, 108).
in(131, 111).
in(131, 112).
in(131, 114).
in(131, 115).
in(131, 116).
in(131, 117).
in(131, 119).
in(132, 1).
in(132, 3).
in(132, 4).
in(132, 5).
in(132, 7).
in(132, 9).
in(132, 10).
in(132, 11).
in(132, 12).
in(132, 13).
in(132, 17).
in(132, 18).
in(132, 21).
in(132, 22).
in(132, 23).
in(132, 25).
in(132, 26).
in(132, 28).
in(132, 29).
in(132, 33).
in(132, 34).
in(132, 36).
in(132, 37).
in(132, 40).
in(132, 41).
in(132, 42).
in(132, 43).
in(132, 45).
in(132, 46).
in(132, 48).
in(132, 51).
in(132, 56).
in(132, 60).
in(132, 62).
in(132, 64).
in(132, 69).
in(132, 70).
in(132, 74).
in(132, 76).
in(132, 78).
in(132, 79).
in(132, 80).
in(132, 88).
in(132, 90).
in(132, 93).
in(132, 97).
in(132, 98).
in(132, 99).
in(132, 100).
in(132, 101).
in(132, 103).
in(132, 104).
in(132, 107).
in(132, 108).
in(132, 109).
in(132, 110).
in(132, 111).
in(132, 112).
in(132, 113).
in(132, 114).
in(132, 115).
in(132, 117).
in(132, 122).
in(132, 123).
in(133, 2).
in(133, 5).
in(133, 6).
in(133, 9).
in(133, 14).
in(133, 15).
in(133, 17).
in(133, 18).
in(133, 21).
in(133, 22).
in(133, 26).
in(133, 27).
in(133, 28).
in(133, 29).
in(133, 32).
in(133, 34).
in(133, 35).
in(133, 37).
in(133, 38).
in(133, 39).
in(133, 40).
in(133, 46).
in(133, 47).
in(133, 50).
in(133, 53).
in(133, 54).
in(133, 55).
in(133, 56).
in(133, 57).
in(133, 58).
in(133, 60).
in(133, 62).
in(133, 63).
in(133, 64).
in(133, 70).
in(133, 73).
in(133, 75).
in(133, 76).
in(133, 77).
in(133, 78).
in(133, 79).
in(133, 80).
in(133, 83).
in(133, 85).
in(133, 90).
in(133, 91).
in(133, 93).
in(133, 94).
in(133, 96).
in(133, 97).
in(133, 98).
in(133, 100).
in(133, 101).
in(133, 102).
in(133, 103).
in(133, 106).
in(133, 107).
in(133, 110).
in(133, 112).
in(133, 114).
in(133, 116).
in(133, 121).
in(134, 3).
in(134, 4).
in(134, 8).
in(134, 9).
in(134, 10).
in(134, 14).
in(134, 18).
in(134, 21).
in(134, 23).
in(134, 24).
in(134, 26).
in(134, 28).
in(134, 32).
in(134, 33).
in(134, 34).
in(134, 36).
in(134, 37).
in(134, 39).
in(134, 43).
in(134, 44).
in(134, 46).
in(134, 47).
in(134, 48).
in(134, 50).
in(134, 51).
in(134, 53).
in(134, 54).
in(134, 58).
in(134, 61).
in(134, 63).
in(134, 64).
in(134, 65).
in(134, 66).
in(134, 69).
in(134, 70).
in(134, 71).
in(134, 72).
in(134, 75).
in(134, 76).
in(134, 77).
in(134, 78).
in(134, 80).
in(134, 82).
in(134, 84).
in(134, 86).
in(134, 88).
in(134, 97).
in(134, 98).
in(134, 100).
in(134, 104).
in(134, 106).
in(134, 107).
in(134, 109).
in(134, 110).
in(134, 111).
in(134, 112).
in(134, 114).
in(134, 119).
in(134, 120).
in(134, 121).
in(134, 122).
in(135, 3).
in(135, 4).
in(135, 5).
in(135, 6).
in(135, 8).
in(135, 10).
in(135, 11).
in(135, 19).
in(135, 20).
in(135, 22).
in(135, 27).
in(135, 29).
in(135, 30).
in(135, 31).
in(135, 33).
in(135, 35).
in(135, 36).
in(135, 38).
in(135, 39).
in(135, 44).
in(135, 48).
in(135, 49).
in(135, 50).
in(135, 53).
in(135, 55).
in(135, 59).
in(135, 60).
in(135, 65).
in(135, 67).
in(135, 68).
in(135, 69).
in(135, 71).
in(135, 75).
in(135, 76).
in(135, 80).
in(135, 81).
in(135, 83).
in(135, 92).
in(135, 93).
in(135, 94).
in(135, 97).
in(135, 100).
in(135, 101).
in(135, 103).
in(135, 104).
in(135, 105).
in(135, 106).
in(135, 108).
in(135, 109).
in(135, 111).
in(135, 113).
in(135, 116).
in(135, 121).
in(136, 2).
in(136, 4).
in(136, 10).
in(136, 11).
in(136, 12).
in(136, 13).
in(136, 16).
in(136, 17).
in(136, 19).
in(136, 22).
in(136, 24).
in(136, 25).
in(136, 27).
in(136, 28).
in(136, 31).
in(136, 32).
in(136, 36).
in(136, 39).
in(136, 42).
in(136, 44).
in(136, 46).
in(136, 50).
in(136, 54).
in(136, 55).
in(136, 58).
in(136, 62).
in(136, 64).
in(136, 66).
in(136, 68).
in(136, 72).
in(136, 74).
in(136, 75).
in(136, 78).
in(136, 79).
in(136, 80).
in(136, 82).
in(136, 83).
in(136, 88).
in(136, 89).
in(136, 90).
in(136, 93).
in(136, 95).
in(136, 97).
in(136, 104).
in(136, 105).
in(136, 107).
in(136, 109).
in(136, 113).
in(136, 117).
in(136, 118).
in(136, 120).
in(136, 123).
in(137, 1).
in(137, 4).
in(137, 5).
in(137, 6).
in(137, 8).
in(137, 9).
in(137, 10).
in(137, 12).
in(137, 13).
in(137, 14).
in(137, 15).
in(137, 17).
in(137, 18).
in(137, 22).
in(137, 23).
in(137, 24).
in(137, 26).
in(137, 28).
in(137, 29).
in(137, 32).
in(137, 34).
in(137, 35).
in(137, 36).
in(137, 38).
in(137, 39).
in(137, 40).
in(137, 41).
in(137, 44).
in(137, 47).
in(137, 49).
in(137, 55).
in(137, 56).
in(137, 58).
in(137, 59).
in(137, 61).
in(137, 62).
in(137, 64).
in(137, 65).
in(137, 66).
in(137, 67).
in(137, 69).
in(137, 71).
in(137, 74).
in(137, 76).
in(137, 78).
in(137, 79).
in(137, 81).
in(137, 84).
in(137, 85).
in(137, 88).
in(137, 90).
in(137, 92).
in(137, 93).
in(137, 97).
in(137, 98).
in(137, 99).
in(137, 103).
in(137, 107).
in(137, 108).
in(137, 110).
in(137, 113).
in(137, 114).
in(137, 116).
in(137, 118).
in(137, 121).
in(138, 3).
in(138, 5).
in(138, 7).
in(138, 8).
in(138, 9).
in(138, 10).
in(138, 14).
in(138, 18).
in(138, 20).
in(138, 22).
in(138, 25).
in(138, 26).
in(138, 29).
in(138, 32).
in(138, 34).
in(138, 35).
in(138, 36).
in(138, 37).
in(138, 40).
in(138, 42).
in(138, 45).
in(138, 49).
in(138, 52).
in(138, 53).
in(138, 54).
in(138, 55).
in(138, 57).
in(138, 59).
in(138, 61).
in(138, 62).
in(138, 64).
in(138, 65).
in(138, 66).
in(138, 68).
in(138, 69).
in(138, 70).
in(138, 71).
in(138, 73).
in(138, 75).
in(138, 76).
in(138, 77).
in(138, 81).
in(138, 82).
in(138, 83).
in(138, 84).
in(138, 87).
in(138, 88).
in(138, 91).
in(138, 92).
in(138, 93).
in(138, 95).
in(138, 96).
in(138, 97).
in(138, 98).
in(138, 99).
in(138, 100).
in(138, 106).
in(138, 111).
in(138, 113).
in(138, 115).
in(138, 118).
in(138, 120).
in(138, 122).
in(139, 1).
in(139, 4).
in(139, 6).
in(139, 7).
in(139, 10).
in(139, 13).
in(139, 14).
in(139, 16).
in(139, 17).
in(139, 19).
in(139, 21).
in(139, 23).
in(139, 26).
in(139, 27).
in(139, 31).
in(139, 32).
in(139, 33).
in(139, 34).
in(139, 35).
in(139, 36).
in(139, 37).
in(139, 38).
in(139, 39).
in(139, 41).
in(139, 43).
in(139, 44).
in(139, 45).
in(139, 47).
in(139, 54).
in(139, 55).
in(139, 58).
in(139, 59).
in(139, 62).
in(139, 66).
in(139, 67).
in(139, 68).
in(139, 70).
in(139, 71).
in(139, 74).
in(139, 77).
in(139, 80).
in(139, 81).
in(139, 86).
in(139, 88).
in(139, 92).
in(139, 94).
in(139, 95).
in(139, 96).
in(139, 97).
in(139, 99).
in(139, 101).
in(139, 102).
in(139, 107).
in(139, 109).
in(139, 114).
in(139, 116).
in(139, 120).
in(140, 1).
in(140, 5).
in(140, 7).
in(140, 9).
in(140, 10).
in(140, 11).
in(140, 13).
in(140, 17).
in(140, 18).
in(140, 21).
in(140, 23).
in(140, 25).
in(140, 28).
in(140, 30).
in(140, 32).
in(140, 36).
in(140, 39).
in(140, 41).
in(140, 44).
in(140, 51).
in(140, 55).
in(140, 58).
in(140, 59).
in(140, 61).
in(140, 73).
in(140, 74).
in(140, 75).
in(140, 77).
in(140, 78).
in(140, 79).
in(140, 82).
in(140, 83).
in(140, 85).
in(140, 86).
in(140, 88).
in(140, 89).
in(140, 90).
in(140, 91).
in(140, 93).
in(140, 96).
in(140, 98).
in(140, 100).
in(140, 102).
in(140, 103).
in(140, 104).
in(140, 105).
in(140, 108).
in(140, 109).
in(140, 111).
in(140, 114).
in(140, 116).
in(140, 117).
in(140, 120).
in(141, 1).
in(141, 3).
in(141, 4).
in(141, 6).
in(141, 8).
in(141, 10).
in(141, 11).
in(141, 13).
in(141, 16).
in(141, 18).
in(141, 22).
in(141, 23).
in(141, 24).
in(141, 25).
in(141, 26).
in(141, 28).
in(141, 29).
in(141, 33).
in(141, 34).
in(141, 35).
in(141, 36).
in(141, 39).
in(141, 40).
in(141, 43).
in(141, 44).
in(141, 45).
in(141, 52).
in(141, 53).
in(141, 54).
in(141, 55).
in(141, 57).
in(141, 59).
in(141, 65).
in(141, 66).
in(141, 67).
in(141, 73).
in(141, 74).
in(141, 75).
in(141, 76).
in(141, 77).
in(141, 81).
in(141, 83).
in(141, 86).
in(141, 91).
in(141, 93).
in(141, 95).
in(141, 99).
in(141, 100).
in(141, 101).
in(141, 103).
in(141, 104).
in(141, 108).
in(141, 111).
in(141, 112).
in(141, 113).
in(141, 117).
in(141, 119).
in(141, 120).
in(142, 2).
in(142, 3).
in(142, 4).
in(142, 5).
in(142, 7).
in(142, 8).
in(142, 10).
in(142, 13).
in(142, 15).
in(142, 16).
in(142, 17).
in(142, 21).
in(142, 24).
in(142, 29).
in(142, 30).
in(142, 38).
in(142, 48).
in(142, 52).
in(142, 57).
in(142, 58).
in(142, 59).
in(142, 62).
in(142, 63).
in(142, 66).
in(142, 69).
in(142, 70).
in(142, 72).
in(142, 74).
in(142, 75).
in(142, 76).
in(142, 78).
in(142, 84).
in(142, 85).
in(142, 90).
in(142, 91).
in(142, 92).
in(142, 93).
in(142, 96).
in(142, 97).
in(142, 98).
in(142, 103).
in(142, 108).
in(142, 112).
in(142, 113).
in(142, 114).
in(142, 115).
in(142, 118).
in(142, 119).
in(142, 120).
in(142, 121).
in(142, 122).
in(142, 123).
in(143, 2).
in(143, 4).
in(143, 7).
in(143, 11).
in(143, 12).
in(143, 18).
in(143, 19).
in(143, 20).
in(143, 21).
in(143, 24).
in(143, 25).
in(143, 27).
in(143, 28).
in(143, 29).
in(143, 30).
in(143, 31).
in(143, 32).
in(143, 33).
in(143, 37).
in(143, 38).
in(143, 39).
in(143, 40).
in(143, 43).
in(143, 44).
in(143, 45).
in(143, 48).
in(143, 52).
in(143, 55).
in(143, 58).
in(143, 60).
in(143, 62).
in(143, 64).
in(143, 65).
in(143, 67).
in(143, 68).
in(143, 70).
in(143, 73).
in(143, 74).
in(143, 75).
in(143, 80).
in(143, 81).
in(143, 83).
in(143, 84).
in(143, 87).
in(143, 89).
in(143, 90).
in(143, 91).
in(143, 92).
in(143, 96).
in(143, 97).
in(143, 99).
in(143, 105).
in(143, 107).
in(143, 109).
in(143, 110).
in(143, 111).
in(143, 112).
in(143, 113).
in(143, 114).
in(143, 115).
in(143, 116).
in(143, 122).
in(144, 2).
in(144, 3).
in(144, 4).
in(144, 5).
in(144, 6).
in(144, 8).
in(144, 10).
in(144, 13).
in(144, 15).
in(144, 16).
in(144, 19).
in(144, 20).
in(144, 25).
in(144, 26).
in(144, 28).
in(144, 31).
in(144, 32).
in(144, 34).
in(144, 35).
in(144, 37).
in(144, 38).
in(144, 39).
in(144, 42).
in(144, 46).
in(144, 47).
in(144, 48).
in(144, 49).
in(144, 50).
in(144, 51).
in(144, 54).
in(144, 58).
in(144, 59).
in(144, 60).
in(144, 61).
in(144, 63).
in(144, 64).
in(144, 69).
in(144, 72).
in(144, 76).
in(144, 82).
in(144, 84).
in(144, 85).
in(144, 87).
in(144, 89).
in(144, 90).
in(144, 92).
in(144, 97).
in(144, 98).
in(144, 100).
in(144, 101).
in(144, 102).
in(144, 103).
in(144, 104).
in(144, 106).
in(144, 107).
in(144, 108).
in(144, 109).
in(144, 110).
in(144, 111).
in(144, 112).
in(144, 113).
in(144, 115).
in(144, 117).
in(144, 119).
in(144, 120).
in(145, 1).
in(145, 3).
in(145, 5).
in(145, 7).
in(145, 9).
in(145, 11).
in(145, 13).
in(145, 15).
in(145, 17).
in(145, 18).
in(145, 19).
in(145, 26).
in(145, 36).
in(145, 37).
in(145, 38).
in(145, 39).
in(145, 41).
in(145, 42).
in(145, 44).
in(145, 45).
in(145, 46).
in(145, 47).
in(145, 50).
in(145, 53).
in(145, 58).
in(145, 60).
in(145, 61).
in(145, 62).
in(145, 67).
in(145, 69).
in(145, 70).
in(145, 71).
in(145, 72).
in(145, 74).
in(145, 77).
in(145, 78).
in(145, 79).
in(145, 80).
in(145, 81).
in(145, 82).
in(145, 83).
in(145, 84).
in(145, 85).
in(145, 88).
in(145, 95).
in(145, 96).
in(145, 98).
in(145, 99).
in(145, 101).
in(145, 103).
in(145, 104).
in(145, 108).
in(145, 109).
in(145, 111).
in(145, 117).
in(145, 123).
in(146, 3).
in(146, 5).
in(146, 7).
in(146, 9).
in(146, 12).
in(146, 13).
in(146, 15).
in(146, 16).
in(146, 18).
in(146, 20).
in(146, 21).
in(146, 22).
in(146, 23).
in(146, 24).
in(146, 26).
in(146, 27).
in(146, 28).
in(146, 30).
in(146, 31).
in(146, 35).
in(146, 37).
in(146, 39).
in(146, 40).
in(146, 41).
in(146, 44).
in(146, 45).
in(146, 47).
in(146, 48).
in(146, 49).
in(146, 52).
in(146, 55).
in(146, 57).
in(146, 58).
in(146, 59).
in(146, 60).
in(146, 64).
in(146, 69).
in(146, 71).
in(146, 72).
in(146, 73).
in(146, 75).
in(146, 78).
in(146, 79).
in(146, 80).
in(146, 81).
in(146, 83).
in(146, 85).
in(146, 86).
in(146, 88).
in(146, 92).
in(146, 93).
in(146, 94).
in(146, 95).
in(146, 97).
in(146, 98).
in(146, 100).
in(146, 102).
in(146, 104).
in(146, 107).
in(146, 113).
in(146, 115).
in(146, 119).
in(146, 122).
in(146, 123).
in(147, 3).
in(147, 4).
in(147, 5).
in(147, 7).
in(147, 8).
in(147, 9).
in(147, 10).
in(147, 11).
in(147, 12).
in(147, 13).
in(147, 14).
in(147, 20).
in(147, 25).
in(147, 27).
in(147, 31).
in(147, 33).
in(147, 35).
in(147, 36).
in(147, 37).
in(147, 39).
in(147, 41).
in(147, 42).
in(147, 43).
in(147, 45).
in(147, 49).
in(147, 52).
in(147, 54).
in(147, 56).
in(147, 57).
in(147, 58).
in(147, 62).
in(147, 63).
in(147, 64).
in(147, 65).
in(147, 66).
in(147, 69).
in(147, 70).
in(147, 71).
in(147, 73).
in(147, 75).
in(147, 77).
in(147, 78).
in(147, 79).
in(147, 80).
in(147, 81).
in(147, 84).
in(147, 85).
in(147, 89).
in(147, 90).
in(147, 94).
in(147, 97).
in(147, 98).
in(147, 102).
in(147, 105).
in(147, 107).
in(147, 108).
in(147, 111).
in(147, 114).
in(147, 115).
in(147, 117).
in(147, 118).
in(147, 119).
in(147, 121).
in(147, 123).
in(148, 1).
in(148, 3).
in(148, 7).
in(148, 9).
in(148, 10).
in(148, 12).
in(148, 13).
in(148, 16).
in(148, 17).
in(148, 24).
in(148, 25).
in(148, 26).
in(148, 27).
in(148, 29).
in(148, 31).
in(148, 32).
in(148, 34).
in(148, 35).
in(148, 37).
in(148, 41).
in(148, 46).
in(148, 47).
in(148, 48).
in(148, 49).
in(148, 52).
in(148, 53).
in(148, 54).
in(148, 57).
in(148, 59).
in(148, 64).
in(148, 66).
in(148, 67).
in(148, 68).
in(148, 70).
in(148, 72).
in(148, 75).
in(148, 77).
in(148, 79).
in(148, 80).
in(148, 81).
in(148, 82).
in(148, 88).
in(148, 89).
in(148, 94).
in(148, 96).
in(148, 97).
in(148, 100).
in(148, 101).
in(148, 105).
in(148, 107).
in(148, 108).
in(148, 110).
in(148, 112).
in(148, 113).
in(148, 115).
in(148, 116).
in(148, 117).
in(148, 119).
in(148, 122).
in(149, 1).
in(149, 2).
in(149, 3).
in(149, 4).
in(149, 5).
in(149, 6).
in(149, 7).
in(149, 10).
in(149, 12).
in(149, 15).
in(149, 18).
in(149, 19).
in(149, 22).
in(149, 23).
in(149, 25).
in(149, 27).
in(149, 28).
in(149, 35).
in(149, 36).
in(149, 38).
in(149, 39).
in(149, 40).
in(149, 42).
in(149, 43).
in(149, 44).
in(149, 48).
in(149, 50).
in(149, 51).
in(149, 53).
in(149, 54).
in(149, 55).
in(149, 57).
in(149, 59).
in(149, 60).
in(149, 61).
in(149, 62).
in(149, 64).
in(149, 65).
in(149, 66).
in(149, 67).
in(149, 68).
in(149, 69).
in(149, 74).
in(149, 77).
in(149, 78).
in(149, 82).
in(149, 84).
in(149, 86).
in(149, 88).
in(149, 90).
in(149, 91).
in(149, 94).
in(149, 95).
in(149, 96).
in(149, 98).
in(149, 99).
in(149, 101).
in(149, 102).
in(149, 103).
in(149, 105).
in(149, 106).
in(149, 107).
in(149, 111).
in(149, 115).
in(149, 121).
in(149, 122).
in(150, 1).
in(150, 2).
in(150, 3).
in(150, 11).
in(150, 13).
in(150, 14).
in(150, 15).
in(150, 17).
in(150, 18).
in(150, 19).
in(150, 20).
in(150, 21).
in(150, 22).
in(150, 23).
in(150, 24).
in(150, 28).
in(150, 31).
in(150, 33).
in(150, 35).
in(150, 36).
in(150, 38).
in(150, 39).
in(150, 40).
in(150, 41).
in(150, 44).
in(150, 45).
in(150, 47).
in(150, 48).
in(150, 50).
in(150, 51).
in(150, 53).
in(150, 56).
in(150, 58).
in(150, 60).
in(150, 61).
in(150, 62).
in(150, 66).
in(150, 67).
in(150, 68).
in(150, 70).
in(150, 71).
in(150, 74).
in(150, 75).
in(150, 77).
in(150, 82).
in(150, 83).
in(150, 85).
in(150, 88).
in(150, 89).
in(150, 90).
in(150, 94).
in(150, 95).
in(150, 100).
in(150, 101).
in(150, 103).
in(150, 105).
in(150, 111).
in(150, 112).
in(150, 113).
in(150, 115).
in(150, 116).
in(150, 118).
in(150, 119).
in(150, 120).
in(151, 1).
in(151, 2).
in(151, 6).
in(151, 7).
in(151, 8).
in(151, 9).
in(151, 11).
in(151, 12).
in(151, 15).
in(151, 18).
in(151, 23).
in(151, 24).
in(151, 25).
in(151, 27).
in(151, 28).
in(151, 29).
in(151, 30).
in(151, 31).
in(151, 33).
in(151, 34).
in(151, 35).
in(151, 39).
in(151, 40).
in(151, 41).
in(151, 42).
in(151, 45).
in(151, 46).
in(151, 52).
in(151, 54).
in(151, 55).
in(151, 57).
in(151, 60).
in(151, 61).
in(151, 63).
in(151, 65).
in(151, 66).
in(151, 69).
in(151, 70).
in(151, 71).
in(151, 72).
in(151, 74).
in(151, 75).
in(151, 79).
in(151, 81).
in(151, 82).
in(151, 84).
in(151, 85).
in(151, 86).
in(151, 87).
in(151, 89).
in(151, 93).
in(151, 95).
in(151, 98).
in(151, 99).
in(151, 104).
in(151, 105).
in(151, 106).
in(151, 108).
in(151, 109).
in(151, 111).
in(151, 113).
in(151, 116).
in(151, 117).
in(151, 118).
in(151, 119).
in(151, 120).
in(151, 121).
in(151, 123).
in(152, 4).
in(152, 5).
in(152, 6).
in(152, 7).
in(152, 9).
in(152, 10).
in(152, 14).
in(152, 19).
in(152, 21).
in(152, 22).
in(152, 23).
in(152, 26).
in(152, 27).
in(152, 29).
in(152, 30).
in(152, 31).
in(152, 32).
in(152, 33).
in(152, 34).
in(152, 39).
in(152, 40).
in(152, 41).
in(152, 42).
in(152, 43).
in(152, 49).
in(152, 50).
in(152, 54).
in(152, 55).
in(152, 56).
in(152, 57).
in(152, 62).
in(152, 65).
in(152, 66).
in(152, 70).
in(152, 72).
in(152, 73).
in(152, 77).
in(152, 80).
in(152, 83).
in(152, 87).
in(152, 88).
in(152, 89).
in(152, 92).
in(152, 93).
in(152, 97).
in(152, 99).
in(152, 100).
in(152, 102).
in(152, 103).
in(152, 104).
in(152, 106).
in(152, 110).
in(152, 113).
in(152, 114).
in(152, 115).
in(152, 120).
in(152, 123).
in(153, 2).
in(153, 3).
in(153, 6).
in(153, 8).
in(153, 12).
in(153, 13).
in(153, 14).
in(153, 19).
in(153, 20).
in(153, 21).
in(153, 24).
in(153, 30).
in(153, 32).
in(153, 33).
in(153, 34).
in(153, 36).
in(153, 41).
in(153, 42).
in(153, 44).
in(153, 46).
in(153, 51).
in(153, 54).
in(153, 58).
in(153, 60).
in(153, 61).
in(153, 63).
in(153, 72).
in(153, 75).
in(153, 78).
in(153, 79).
in(153, 82).
in(153, 84).
in(153, 91).
in(153, 92).
in(153, 99).
in(153, 101).
in(153, 108).
in(153, 109).
in(153, 110).
in(153, 111).
in(153, 113).
in(153, 114).
in(153, 115).
in(153, 116).
in(153, 120).
in(154, 1).
in(154, 3).
in(154, 4).
in(154, 8).
in(154, 9).
in(154, 12).
in(154, 19).
in(154, 20).
in(154, 21).
in(154, 22).
in(154, 23).
in(154, 24).
in(154, 25).
in(154, 26).
in(154, 27).
in(154, 31).
in(154, 34).
in(154, 36).
in(154, 37).
in(154, 38).
in(154, 39).
in(154, 40).
in(154, 41).
in(154, 48).
in(154, 50).
in(154, 51).
in(154, 52).
in(154, 53).
in(154, 54).
in(154, 55).
in(154, 56).
in(154, 58).
in(154, 60).
in(154, 63).
in(154, 67).
in(154, 71).
in(154, 76).
in(154, 77).
in(154, 78).
in(154, 79).
in(154, 81).
in(154, 84).
in(154, 85).
in(154, 87).
in(154, 89).
in(154, 90).
in(154, 91).
in(154, 97).
in(154, 99).
in(154, 100).
in(154, 105).
in(154, 106).
in(154, 107).
in(154, 113).
in(154, 116).
in(154, 117).
in(154, 118).
in(154, 119).
in(154, 121).
in(154, 122).
in(154, 123).
in(155, 1).
in(155, 3).
in(155, 4).
in(155, 6).
in(155, 7).
in(155, 8).
in(155, 9).
in(155, 11).
in(155, 13).
in(155, 14).
in(155, 15).
in(155, 18).
in(155, 19).
in(155, 21).
in(155, 22).
in(155, 29).
in(155, 31).
in(155, 35).
in(155, 36).
in(155, 38).
in(155, 39).
in(155, 44).
in(155, 46).
in(155, 49).
in(155, 50).
in(155, 52).
in(155, 53).
in(155, 57).
in(155, 58).
in(155, 59).
in(155, 60).
in(155, 61).
in(155, 63).
in(155, 64).
in(155, 65).
in(155, 66).
in(155, 70).
in(155, 73).
in(155, 75).
in(155, 76).
in(155, 77).
in(155, 78).
in(155, 79).
in(155, 81).
in(155, 82).
in(155, 84).
in(155, 85).
in(155, 90).
in(155, 92).
in(155, 93).
in(155, 95).
in(155, 97).
in(155, 98).
in(155, 100).
in(155, 103).
in(155, 104).
in(155, 105).
in(155, 107).
in(155, 108).
in(155, 109).
in(155, 111).
in(155, 112).
in(155, 114).
in(155, 115).
in(155, 119).
in(155, 120).
in(155, 122).
in(155, 123).
in(156, 1).
in(156, 2).
in(156, 3).
in(156, 4).
in(156, 7).
in(156, 8).
in(156, 10).
in(156, 13).
in(156, 17).
in(156, 21).
in(156, 23).
in(156, 25).
in(156, 28).
in(156, 31).
in(156, 34).
in(156, 37).
in(156, 43).
in(156, 44).
in(156, 45).
in(156, 46).
in(156, 47).
in(156, 48).
in(156, 53).
in(156, 54).
in(156, 56).
in(156, 57).
in(156, 59).
in(156, 62).
in(156, 64).
in(156, 65).
in(156, 67).
in(156, 69).
in(156, 75).
in(156, 76).
in(156, 81).
in(156, 83).
in(156, 85).
in(156, 86).
in(156, 87).
in(156, 88).
in(156, 90).
in(156, 91).
in(156, 93).
in(156, 97).
in(156, 98).
in(156, 101).
in(156, 103).
in(156, 104).
in(156, 105).
in(156, 107).
in(156, 108).
in(156, 111).
in(156, 114).
in(156, 118).
in(156, 119).
in(156, 120).
in(157, 6).
in(157, 7).
in(157, 8).
in(157, 10).
in(157, 11).
in(157, 14).
in(157, 15).
in(157, 16).
in(157, 20).
in(157, 21).
in(157, 22).
in(157, 23).
in(157, 25).
in(157, 28).
in(157, 31).
in(157, 32).
in(157, 35).
in(157, 37).
in(157, 38).
in(157, 40).
in(157, 45).
in(157, 47).
in(157, 48).
in(157, 50).
in(157, 52).
in(157, 53).
in(157, 59).
in(157, 61).
in(157, 65).
in(157, 66).
in(157, 67).
in(157, 70).
in(157, 73).
in(157, 74).
in(157, 76).
in(157, 78).
in(157, 81).
in(157, 84).
in(157, 85).
in(157, 86).
in(157, 87).
in(157, 89).
in(157, 90).
in(157, 96).
in(157, 97).
in(157, 98).
in(157, 99).
in(157, 102).
in(157, 104).
in(157, 106).
in(157, 107).
in(157, 109).
in(157, 110).
in(157, 111).
in(157, 113).
in(157, 114).
in(157, 115).
in(157, 117).
in(157, 118).
in(157, 119).
in(157, 120).
in(157, 122).
in(157, 123).
in(158, 3).
in(158, 5).
in(158, 6).
in(158, 9).
in(158, 10).
in(158, 12).
in(158, 13).
in(158, 14).
in(158, 15).
in(158, 18).
in(158, 20).
in(158, 22).
in(158, 23).
in(158, 26).
in(158, 27).
in(158, 29).
in(158, 30).
in(158, 32).
in(158, 33).
in(158, 34).
in(158, 36).
in(158, 40).
in(158, 43).
in(158, 44).
in(158, 46).
in(158, 48).
in(158, 51).
in(158, 53).
in(158, 56).
in(158, 57).
in(158, 60).
in(158, 65).
in(158, 66).
in(158, 68).
in(158, 72).
in(158, 73).
in(158, 74).
in(158, 77).
in(158, 81).
in(158, 83).
in(158, 84).
in(158, 86).
in(158, 88).
in(158, 89).
in(158, 90).
in(158, 91).
in(158, 94).
in(158, 95).
in(158, 96).
in(158, 97).
in(158, 103).
in(158, 107).
in(158, 112).
in(158, 114).
in(158, 115).
in(158, 116).
in(158, 117).
in(158, 118).
in(158, 120).
in(158, 123).
in(159, 3).
in(159, 5).
in(159, 6).
in(159, 7).
in(159, 11).
in(159, 12).
in(159, 13).
in(159, 17).
in(159, 18).
in(159, 23).
in(159, 27).
in(159, 28).
in(159, 29).
in(159, 32).
in(159, 35).
in(159, 37).
in(159, 38).
in(159, 41).
in(159, 42).
in(159, 44).
in(159, 45).
in(159, 46).
in(159, 48).
in(159, 51).
in(159, 63).
in(159, 67).
in(159, 69).
in(159, 70).
in(159, 76).
in(159, 78).
in(159, 79).
in(159, 80).
in(159, 82).
in(159, 87).
in(159, 88).
in(159, 89).
in(159, 90).
in(159, 91).
in(159, 93).
in(159, 94).
in(159, 96).
in(159, 97).
in(159, 99).
in(159, 100).
in(159, 102).
in(159, 103).
in(159, 104).
in(159, 106).
in(159, 107).
in(159, 112).
in(159, 113).
in(159, 114).
in(159, 116).
in(159, 117).
in(159, 119).
in(159, 120).
in(159, 121).
in(159, 122).
in(160, 1).
in(160, 2).
in(160, 3).
in(160, 9).
in(160, 11).
in(160, 12).
in(160, 14).
in(160, 16).
in(160, 18).
in(160, 19).
in(160, 20).
in(160, 23).
in(160, 25).
in(160, 26).
in(160, 28).
in(160, 29).
in(160, 30).
in(160, 31).
in(160, 33).
in(160, 34).
in(160, 35).
in(160, 36).
in(160, 37).
in(160, 42).
in(160, 44).
in(160, 45).
in(160, 50).
in(160, 51).
in(160, 53).
in(160, 55).
in(160, 56).
in(160, 58).
in(160, 59).
in(160, 62).
in(160, 65).
in(160, 66).
in(160, 68).
in(160, 70).
in(160, 71).
in(160, 73).
in(160, 74).
in(160, 76).
in(160, 77).
in(160, 79).
in(160, 81).
in(160, 87).
in(160, 89).
in(160, 93).
in(160, 94).
in(160, 95).
in(160, 97).
in(160, 99).
in(160, 103).
in(160, 104).
in(160, 106).
in(160, 107).
in(160, 108).
in(160, 111).
in(160, 112).
in(160, 113).
in(160, 114).
in(160, 116).
in(160, 117).
in(160, 119).
in(160, 120).
in(160, 122).
in(161, 3).
in(161, 6).
in(161, 8).
in(161, 10).
in(161, 12).
in(161, 13).
in(161, 16).
in(161, 22).
in(161, 23).
in(161, 24).
in(161, 25).
in(161, 26).
in(161, 28).
in(161, 29).
in(161, 30).
in(161, 31).
in(161, 32).
in(161, 33).
in(161, 35).
in(161, 37).
in(161, 38).
in(161, 40).
in(161, 41).
in(161, 45).
in(161, 46).
in(161, 47).
in(161, 48).
in(161, 51).
in(161, 52).
in(161, 53).
in(161, 56).
in(161, 59).
in(161, 63).
in(161, 64).
in(161, 69).
in(161, 73).
in(161, 74).
in(161, 79).
in(161, 81).
in(161, 82).
in(161, 86).
in(161, 87).
in(161, 89).
in(161, 91).
in(161, 93).
in(161, 94).
in(161, 95).
in(161, 96).
in(161, 97).
in(161, 99).
in(161, 100).
in(161, 101).
in(161, 103).
in(161, 104).
in(161, 106).
in(161, 108).
in(161, 110).
in(161, 111).
in(161, 113).
in(161, 118).
in(161, 119).
in(161, 120).
in(161, 121).
in(161, 122).
in(161, 123).
in(162, 3).
in(162, 4).
in(162, 7).
in(162, 9).
in(162, 10).
in(162, 11).
in(162, 14).
in(162, 15).
in(162, 16).
in(162, 17).
in(162, 18).
in(162, 20).
in(162, 21).
in(162, 23).
in(162, 24).
in(162, 25).
in(162, 26).
in(162, 28).
in(162, 29).
in(162, 34).
in(162, 36).
in(162, 37).
in(162, 38).
in(162, 43).
in(162, 44).
in(162, 46).
in(162, 47).
in(162, 48).
in(162, 52).
in(162, 53).
in(162, 55).
in(162, 57).
in(162, 59).
in(162, 63).
in(162, 65).
in(162, 67).
in(162, 69).
in(162, 70).
in(162, 72).
in(162, 73).
in(162, 74).
in(162, 79).
in(162, 85).
in(162, 87).
in(162, 88).
in(162, 89).
in(162, 90).
in(162, 91).
in(162, 92).
in(162, 93).
in(162, 95).
in(162, 96).
in(162, 97).
in(162, 99).
in(162, 101).
in(162, 102).
in(162, 103).
in(162, 105).
in(162, 109).
in(162, 112).
in(162, 115).
in(162, 116).
in(162, 117).
in(162, 118).
in(162, 119).
in(163, 3).
in(163, 4).
in(163, 5).
in(163, 6).
in(163, 8).
in(163, 9).
in(163, 10).
in(163, 11).
in(163, 14).
in(163, 16).
in(163, 18).
in(163, 19).
in(163, 20).
in(163, 22).
in(163, 23).
in(163, 25).
in(163, 28).
in(163, 31).
in(163, 32).
in(163, 33).
in(163, 40).
in(163, 45).
in(163, 48).
in(163, 49).
in(163, 51).
in(163, 53).
in(163, 55).
in(163, 58).
in(163, 59).
in(163, 61).
in(163, 67).
in(163, 69).
in(163, 71).
in(163, 73).
in(163, 74).
in(163, 75).
in(163, 76).
in(163, 77).
in(163, 78).
in(163, 79).
in(163, 80).
in(163, 81).
in(163, 82).
in(163, 84).
in(163, 85).
in(163, 86).
in(163, 88).
in(163, 91).
in(163, 92).
in(163, 93).
in(163, 97).
in(163, 98).
in(163, 100).
in(163, 102).
in(163, 104).
in(163, 105).
in(163, 107).
in(163, 110).
in(163, 112).
in(163, 116).
in(163, 117).
in(163, 121).
in(163, 122).
in(163, 123).
in(164, 1).
in(164, 2).
in(164, 5).
in(164, 6).
in(164, 7).
in(164, 9).
in(164, 10).
in(164, 12).
in(164, 14).
in(164, 16).
in(164, 17).
in(164, 18).
in(164, 19).
in(164, 21).
in(164, 22).
in(164, 24).
in(164, 26).
in(164, 28).
in(164, 30).
in(164, 31).
in(164, 34).
in(164, 36).
in(164, 38).
in(164, 41).
in(164, 42).
in(164, 44).
in(164, 48).
in(164, 50).
in(164, 52).
in(164, 53).
in(164, 55).
in(164, 56).
in(164, 57).
in(164, 59).
in(164, 61).
in(164, 62).
in(164, 63).
in(164, 66).
in(164, 68).
in(164, 70).
in(164, 72).
in(164, 73).
in(164, 74).
in(164, 75).
in(164, 76).
in(164, 80).
in(164, 84).
in(164, 85).
in(164, 90).
in(164, 92).
in(164, 94).
in(164, 95).
in(164, 96).
in(164, 98).
in(164, 99).
in(164, 105).
in(164, 106).
in(164, 108).
in(164, 111).
in(164, 113).
in(164, 116).
in(164, 118).
in(164, 120).
in(164, 121).
in(164, 122).
in(164, 123).
in(165, 1).
in(165, 2).
in(165, 6).
in(165, 7).
in(165, 8).
in(165, 10).
in(165, 11).
in(165, 12).
in(165, 14).
in(165, 15).
in(165, 19).
in(165, 20).
in(165, 24).
in(165, 25).
in(165, 26).
in(165, 27).
in(165, 32).
in(165, 35).
in(165, 38).
in(165, 41).
in(165, 42).
in(165, 47).
in(165, 48).
in(165, 49).
in(165, 52).
in(165, 57).
in(165, 59).
in(165, 61).
in(165, 62).
in(165, 63).
in(165, 64).
in(165, 65).
in(165, 67).
in(165, 69).
in(165, 70).
in(165, 71).
in(165, 73).
in(165, 77).
in(165, 78).
in(165, 79).
in(165, 80).
in(165, 82).
in(165, 83).
in(165, 85).
in(165, 86).
in(165, 89).
in(165, 92).
in(165, 96).
in(165, 97).
in(165, 98).
in(165, 105).
in(165, 108).
in(165, 110).
in(165, 111).
in(165, 113).
in(165, 114).
in(165, 115).
in(165, 120).
in(166, 1).
in(166, 3).
in(166, 5).
in(166, 6).
in(166, 8).
in(166, 10).
in(166, 11).
in(166, 12).
in(166, 13).
in(166, 14).
in(166, 15).
in(166, 21).
in(166, 26).
in(166, 31).
in(166, 32).
in(166, 33).
in(166, 36).
in(166, 37).
in(166, 38).
in(166, 39).
in(166, 40).
in(166, 43).
in(166, 44).
in(166, 45).
in(166, 46).
in(166, 47).
in(166, 48).
in(166, 49).
in(166, 50).
in(166, 51).
in(166, 52).
in(166, 53).
in(166, 54).
in(166, 57).
in(166, 63).
in(166, 64).
in(166, 67).
in(166, 68).
in(166, 69).
in(166, 71).
in(166, 72).
in(166, 75).
in(166, 81).
in(166, 82).
in(166, 85).
in(166, 86).
in(166, 91).
in(166, 92).
in(166, 93).
in(166, 98).
in(166, 100).
in(166, 101).
in(166, 103).
in(166, 105).
in(166, 106).
in(166, 107).
in(166, 108).
in(166, 110).
in(166, 113).
in(166, 116).
in(166, 119).
in(166, 123).
in(167, 5).
in(167, 8).
in(167, 9).
in(167, 10).
in(167, 16).
in(167, 17).
in(167, 18).
in(167, 22).
in(167, 24).
in(167, 30).
in(167, 31).
in(167, 33).
in(167, 34).
in(167, 38).
in(167, 39).
in(167, 40).
in(167, 42).
in(167, 47).
in(167, 49).
in(167, 50).
in(167, 56).
in(167, 57).
in(167, 59).
in(167, 61).
in(167, 62).
in(167, 64).
in(167, 68).
in(167, 69).
in(167, 72).
in(167, 73).
in(167, 74).
in(167, 75).
in(167, 79).
in(167, 81).
in(167, 84).
in(167, 85).
in(167, 86).
in(167, 87).
in(167, 88).
in(167, 89).
in(167, 91).
in(167, 92).
in(167, 96).
in(167, 99).
in(167, 104).
in(167, 105).
in(167, 106).
in(167, 107).
in(167, 109).
in(167, 112).
in(167, 114).
in(167, 115).
in(167, 116).
in(167, 118).
in(167, 121).
in(167, 122).
in(168, 2).
in(168, 3).
in(168, 5).
in(168, 6).
in(168, 7).
in(168, 8).
in(168, 9).
in(168, 11).
in(168, 12).
in(168, 21).
in(168, 22).
in(168, 24).
in(168, 27).
in(168, 28).
in(168, 31).
in(168, 32).
in(168, 36).
in(168, 37).
in(168, 40).
in(168, 41).
in(168, 42).
in(168, 44).
in(168, 47).
in(168, 50).
in(168, 52).
in(168, 54).
in(168, 56).
in(168, 57).
in(168, 59).
in(168, 60).
in(168, 64).
in(168, 65).
in(168, 73).
in(168, 76).
in(168, 77).
in(168, 83).
in(168, 86).
in(168, 88).
in(168, 89).
in(168, 90).
in(168, 91).
in(168, 93).
in(168, 94).
in(168, 96).
in(168, 99).
in(168, 100).
in(168, 105).
in(168, 108).
in(168, 110).
in(168, 117).
in(168, 118).
in(168, 119).
in(168, 122).
in(169, 4).
in(169, 5).
in(169, 8).
in(169, 9).
in(169, 11).
in(169, 12).
in(169, 13).
in(169, 14).
in(169, 20).
in(169, 21).
in(169, 23).
in(169, 24).
in(169, 28).
in(169, 30).
in(169, 32).
in(169, 33).
in(169, 35).
in(169, 38).
in(169, 39).
in(169, 42).
in(169, 43).
in(169, 44).
in(169, 45).
in(169, 48).
in(169, 49).
in(169, 50).
in(169, 53).
in(169, 54).
in(169, 56).
in(169, 59).
in(169, 61).
in(169, 63).
in(169, 64).
in(169, 65).
in(169, 67).
in(169, 68).
in(169, 70).
in(169, 71).
in(169, 72).
in(169, 74).
in(169, 75).
in(169, 77).
in(169, 82).
in(169, 87).
in(169, 88).
in(169, 90).
in(169, 91).
in(169, 96).
in(169, 97).
in(169, 101).
in(169, 108).
in(169, 109).
in(169, 111).
in(169, 113).
in(169, 114).
in(169, 115).
in(169, 117).
in(169, 118).
in(169, 120).
in(170, 5).
in(170, 6).
in(170, 8).
in(170, 14).
in(170, 15).
in(170, 17).
in(170, 20).
in(170, 22).
in(170, 24).
in(170, 25).
in(170, 29).
in(170, 32).
in(170, 34).
in(170, 36).
in(170, 37).
in(170, 38).
in(170, 39).
in(170, 43).
in(170, 45).
in(170, 47).
in(170, 48).
in(170, 49).
in(170, 50).
in(170, 51).
in(170, 52).
in(170, 56).
in(170, 65).
in(170, 70).
in(170, 72).
in(170, 74).
in(170, 79).
in(170, 80).
in(170, 81).
in(170, 83).
in(170, 84).
in(170, 85).
in(170, 86).
in(170, 89).
in(170, 91).
in(170, 93).
in(170, 95).
in(170, 97).
in(170, 98).
in(170, 101).
in(170, 109).
in(170, 110).
in(170, 111).
in(170, 117).
in(170, 118).
in(170, 120).
in(170, 121).
in(170, 122).
in(171, 1).
in(171, 4).
in(171, 5).
in(171, 6).
in(171, 7).
in(171, 8).
in(171, 9).
in(171, 10).
in(171, 11).
in(171, 14).
in(171, 18).
in(171, 20).
in(171, 21).
in(171, 23).
in(171, 24).
in(171, 25).
in(171, 26).
in(171, 30).
in(171, 38).
in(171, 39).
in(171, 41).
in(171, 42).
in(171, 45).
in(171, 47).
in(171, 48).
in(171, 52).
in(171, 53).
in(171, 56).
in(171, 59).
in(171, 63).
in(171, 64).
in(171, 66).
in(171, 69).
in(171, 70).
in(171, 72).
in(171, 75).
in(171, 76).
in(171, 77).
in(171, 78).
in(171, 79).
in(171, 80).
in(171, 82).
in(171, 83).
in(171, 84).
in(171, 86).
in(171, 88).
in(171, 91).
in(171, 92).
in(171, 94).
in(171, 95).
in(171, 97).
in(171, 99).
in(171, 100).
in(171, 102).
in(171, 103).
in(171, 105).
in(171, 107).
in(171, 108).
in(171, 109).
in(171, 110).
in(171, 111).
in(171, 112).
in(171, 119).
in(171, 120).
in(171, 121).
in(172, 1).
in(172, 2).
in(172, 3).
in(172, 5).
in(172, 7).
in(172, 10).
in(172, 11).
in(172, 12).
in(172, 15).
in(172, 16).
in(172, 19).
in(172, 21).
in(172, 23).
in(172, 25).
in(172, 27).
in(172, 28).
in(172, 29).
in(172, 30).
in(172, 32).
in(172, 33).
in(172, 39).
in(172, 40).
in(172, 41).
in(172, 43).
in(172, 44).
in(172, 51).
in(172, 52).
in(172, 54).
in(172, 55).
in(172, 56).
in(172, 59).
in(172, 60).
in(172, 62).
in(172, 63).
in(172, 67).
in(172, 72).
in(172, 73).
in(172, 74).
in(172, 75).
in(172, 77).
in(172, 80).
in(172, 81).
in(172, 82).
in(172, 86).
in(172, 90).
in(172, 92).
in(172, 94).
in(172, 98).
in(172, 99).
in(172, 100).
in(172, 102).
in(172, 103).
in(172, 105).
in(172, 106).
in(172, 115).
in(172, 116).
in(172, 119).
in(172, 121).
in(173, 1).
in(173, 2).
in(173, 3).
in(173, 4).
in(173, 5).
in(173, 6).
in(173, 7).
in(173, 11).
in(173, 12).
in(173, 13).
in(173, 16).
in(173, 17).
in(173, 20).
in(173, 22).
in(173, 26).
in(173, 27).
in(173, 29).
in(173, 30).
in(173, 36).
in(173, 37).
in(173, 38).
in(173, 40).
in(173, 46).
in(173, 47).
in(173, 50).
in(173, 51).
in(173, 53).
in(173, 54).
in(173, 56).
in(173, 60).
in(173, 61).
in(173, 62).
in(173, 65).
in(173, 66).
in(173, 68).
in(173, 69).
in(173, 71).
in(173, 75).
in(173, 78).
in(173, 82).
in(173, 83).
in(173, 87).
in(173, 89).
in(173, 93).
in(173, 94).
in(173, 95).
in(173, 96).
in(173, 101).
in(173, 104).
in(173, 105).
in(173, 107).
in(173, 108).
in(173, 109).
in(173, 111).
in(173, 113).
in(173, 115).
in(173, 116).
in(173, 117).
in(173, 118).
in(173, 119).
in(173, 121).
in(173, 122).
in(173, 123).
in(174, 2).
in(174, 4).
in(174, 6).
in(174, 9).
in(174, 10).
in(174, 12).
in(174, 13).
in(174, 15).
in(174, 16).
in(174, 19).
in(174, 24).
in(174, 25).
in(174, 26).
in(174, 29).
in(174, 32).
in(174, 35).
in(174, 37).
in(174, 38).
in(174, 40).
in(174, 43).
in(174, 44).
in(174, 46).
in(174, 47).
in(174, 49).
in(174, 50).
in(174, 51).
in(174, 52).
in(174, 55).
in(174, 56).
in(174, 60).
in(174, 61).
in(174, 62).
in(174, 63).
in(174, 64).
in(174, 67).
in(174, 70).
in(174, 73).
in(174, 74).
in(174, 79).
in(174, 80).
in(174, 81).
in(174, 84).
in(174, 85).
in(174, 86).
in(174, 87).
in(174, 88).
in(174, 89).
in(174, 90).
in(174, 92).
in(174, 93).
in(174, 95).
in(174, 96).
in(174, 97).
in(174, 105).
in(174, 106).
in(174, 108).
in(174, 109).
in(174, 111).
in(174, 112).
in(174, 117).
in(174, 119).
in(174, 120).
in(174, 123).
in(175, 3).
in(175, 5).
in(175, 6).
in(175, 8).
in(175, 10).
in(175, 11).
in(175, 12).
in(175, 13).
in(175, 14).
in(175, 16).
in(175, 17).
in(175, 18).
in(175, 19).
in(175, 20).
in(175, 22).
in(175, 25).
in(175, 27).
in(175, 28).
in(175, 29).
in(175, 33).
in(175, 37).
in(175, 40).
in(175, 41).
in(175, 42).
in(175, 44).
in(175, 46).
in(175, 48).
in(175, 49).
in(175, 57).
in(175, 61).
in(175, 62).
in(175, 66).
in(175, 68).
in(175, 72).
in(175, 74).
in(175, 75).
in(175, 78).
in(175, 82).
in(175, 85).
in(175, 86).
in(175, 89).
in(175, 93).
in(175, 94).
in(175, 97).
in(175, 99).
in(175, 100).
in(175, 101).
in(175, 102).
in(175, 104).
in(175, 108).
in(175, 109).
in(175, 113).
in(175, 116).
in(175, 117).
in(175, 120).
in(175, 122).
in(176, 1).
in(176, 2).
in(176, 4).
in(176, 6).
in(176, 7).
in(176, 11).
in(176, 17).
in(176, 20).
in(176, 21).
in(176, 22).
in(176, 25).
in(176, 26).
in(176, 27).
in(176, 28).
in(176, 30).
in(176, 32).
in(176, 34).
in(176, 35).
in(176, 36).
in(176, 37).
in(176, 39).
in(176, 40).
in(176, 41).
in(176, 42).
in(176, 45).
in(176, 46).
in(176, 47).
in(176, 49).
in(176, 55).
in(176, 57).
in(176, 58).
in(176, 59).
in(176, 61).
in(176, 62).
in(176, 63).
in(176, 64).
in(176, 67).
in(176, 69).
in(176, 73).
in(176, 74).
in(176, 75).
in(176, 76).
in(176, 79).
in(176, 80).
in(176, 81).
in(176, 83).
in(176, 85).
in(176, 86).
in(176, 88).
in(176, 89).
in(176, 91).
in(176, 94).
in(176, 95).
in(176, 98).
in(176, 100).
in(176, 101).
in(176, 102).
in(176, 103).
in(176, 106).
in(176, 109).
in(176, 111).
in(176, 113).
in(176, 117).
in(176, 120).
in(176, 123).
in(177, 4).
in(177, 5).
in(177, 6).
in(177, 8).
in(177, 9).
in(177, 13).
in(177, 16).
in(177, 21).
in(177, 22).
in(177, 23).
in(177, 25).
in(177, 26).
in(177, 27).
in(177, 29).
in(177, 30).
in(177, 31).
in(177, 32).
in(177, 34).
in(177, 38).
in(177, 40).
in(177, 41).
in(177, 44).
in(177, 45).
in(177, 46).
in(177, 48).
in(177, 49).
in(177, 50).
in(177, 52).
in(177, 59).
in(177, 64).
in(177, 65).
in(177, 68).
in(177, 73).
in(177, 74).
in(177, 75).
in(177, 76).
in(177, 78).
in(177, 79).
in(177, 82).
in(177, 86).
in(177, 88).
in(177, 94).
in(177, 96).
in(177, 97).
in(177, 98).
in(177, 99).
in(177, 101).
in(177, 104).
in(177, 105).
in(177, 107).
in(177, 110).
in(177, 112).
in(177, 113).
in(177, 119).
in(177, 120).
in(177, 121).
in(177, 123).
in(178, 2).
in(178, 4).
in(178, 6).
in(178, 9).
in(178, 10).
in(178, 11).
in(178, 13).
in(178, 14).
in(178, 15).
in(178, 16).
in(178, 17).
in(178, 25).
in(178, 30).
in(178, 31).
in(178, 32).
in(178, 33).
in(178, 34).
in(178, 35).
in(178, 36).
in(178, 37).
in(178, 40).
in(178, 43).
in(178, 44).
in(178, 45).
in(178, 47).
in(178, 52).
in(178, 53).
in(178, 55).
in(178, 56).
in(178, 65).
in(178, 67).
in(178, 69).
in(178, 71).
in(178, 73).
in(178, 76).
in(178, 77).
in(178, 80).
in(178, 83).
in(178, 86).
in(178, 87).
in(178, 91).
in(178, 92).
in(178, 93).
in(178, 96).
in(178, 98).
in(178, 100).
in(178, 101).
in(178, 102).
in(178, 106).
in(178, 111).
in(178, 113).
in(178, 117).
in(178, 118).
in(178, 119).
in(178, 120).
in(178, 121).
in(179, 5).
in(179, 6).
in(179, 7).
in(179, 11).
in(179, 13).
in(179, 15).
in(179, 22).
in(179, 23).
in(179, 28).
in(179, 30).
in(179, 31).
in(179, 36).
in(179, 37).
in(179, 40).
in(179, 42).
in(179, 43).
in(179, 44).
in(179, 46).
in(179, 48).
in(179, 51).
in(179, 54).
in(179, 55).
in(179, 57).
in(179, 59).
in(179, 60).
in(179, 61).
in(179, 65).
in(179, 67).
in(179, 70).
in(179, 75).
in(179, 76).
in(179, 78).
in(179, 80).
in(179, 86).
in(179, 87).
in(179, 90).
in(179, 91).
in(179, 92).
in(179, 98).
in(179, 100).
in(179, 101).
in(179, 102).
in(179, 105).
in(179, 106).
in(179, 108).
in(179, 109).
in(179, 113).
in(179, 115).
in(179, 116).
in(179, 117).
in(179, 118).
in(179, 119).
in(179, 120).
in(179, 123).
in(180, 1).
in(180, 3).
in(180, 7).
in(180, 9).
in(180, 10).
in(180, 16).
in(180, 19).
in(180, 20).
in(180, 21).
in(180, 23).
in(180, 24).
in(180, 25).
in(180, 28).
in(180, 32).
in(180, 34).
in(180, 37).
in(180, 38).
in(180, 45).
in(180, 46).
in(180, 47).
in(180, 48).
in(180, 49).
in(180, 51).
in(180, 52).
in(180, 53).
in(180, 54).
in(180, 55).
in(180, 59).
in(180, 62).
in(180, 63).
in(180, 66).
in(180, 69).
in(180, 72).
in(180, 75).
in(180, 77).
in(180, 79).
in(180, 80).
in(180, 81).
in(180, 83).
in(180, 84).
in(180, 86).
in(180, 90).
in(180, 91).
in(180, 92).
in(180, 95).
in(180, 97).
in(180, 98).
in(180, 100).
in(180, 106).
in(180, 109).
in(180, 111).
in(180, 114).
in(180, 116).
in(180, 123).
in(181, 2).
in(181, 3).
in(181, 4).
in(181, 6).
in(181, 10).
in(181, 13).
in(181, 14).
in(181, 16).
in(181, 18).
in(181, 19).
in(181, 23).
in(181, 31).
in(181, 33).
in(181, 36).
in(181, 41).
in(181, 43).
in(181, 48).
in(181, 49).
in(181, 50).
in(181, 53).
in(181, 55).
in(181, 56).
in(181, 59).
in(181, 60).
in(181, 61).
in(181, 67).
in(181, 68).
in(181, 69).
in(181, 72).
in(181, 74).
in(181, 75).
in(181, 76).
in(181, 78).
in(181, 80).
in(181, 84).
in(181, 86).
in(181, 87).
in(181, 89).
in(181, 96).
in(181, 97).
in(181, 99).
in(181, 102).
in(181, 103).
in(181, 104).
in(181, 106).
in(181, 107).
in(181, 109).
in(181, 112).
in(181, 113).
in(181, 117).
in(181, 122).
in(182, 1).
in(182, 2).
in(182, 3).
in(182, 4).
in(182, 7).
in(182, 8).
in(182, 9).
in(182, 10).
in(182, 11).
in(182, 12).
in(182, 16).
in(182, 17).
in(182, 18).
in(182, 21).
in(182, 22).
in(182, 25).
in(182, 27).
in(182, 29).
in(182, 32).
in(182, 33).
in(182, 34).
in(182, 36).
in(182, 37).
in(182, 38).
in(182, 39).
in(182, 41).
in(182, 43).
in(182, 44).
in(182, 45).
in(182, 46).
in(182, 50).
in(182, 51).
in(182, 53).
in(182, 54).
in(182, 56).
in(182, 59).
in(182, 61).
in(182, 62).
in(182, 64).
in(182, 68).
in(182, 70).
in(182, 73).
in(182, 74).
in(182, 75).
in(182, 76).
in(182, 77).
in(182, 78).
in(182, 80).
in(182, 87).
in(182, 88).
in(182, 89).
in(182, 91).
in(182, 92).
in(182, 99).
in(182, 101).
in(182, 103).
in(182, 104).
in(182, 106).
in(182, 108).
in(182, 110).
in(182, 112).
in(182, 115).
in(182, 116).
in(182, 117).
in(182, 120).
in(183, 4).
in(183, 5).
in(183, 7).
in(183, 9).
in(183, 11).
in(183, 12).
in(183, 15).
in(183, 16).
in(183, 17).
in(183, 18).
in(183, 20).
in(183, 22).
in(183, 24).
in(183, 25).
in(183, 26).
in(183, 28).
in(183, 31).
in(183, 35).
in(183, 36).
in(183, 38).
in(183, 39).
in(183, 40).
in(183, 45).
in(183, 46).
in(183, 47).
in(183, 48).
in(183, 49).
in(183, 52).
in(183, 54).
in(183, 55).
in(183, 56).
in(183, 59).
in(183, 63).
in(183, 67).
in(183, 68).
in(183, 69).
in(183, 71).
in(183, 73).
in(183, 76).
in(183, 81).
in(183, 83).
in(183, 84).
in(183, 85).
in(183, 89).
in(183, 91).
in(183, 95).
in(183, 96).
in(183, 100).
in(183, 101).
in(183, 103).
in(183, 105).
in(183, 106).
in(183, 113).
in(183, 115).
in(183, 116).
in(183, 118).
in(183, 120).
in(183, 121).
in(183, 123).
in(184, 3).
in(184, 5).
in(184, 6).
in(184, 9).
in(184, 11).
in(184, 13).
in(184, 14).
in(184, 16).
in(184, 25).
in(184, 26).
in(184, 27).
in(184, 28).
in(184, 29).
in(184, 33).
in(184, 36).
in(184, 38).
in(184, 39).
in(184, 41).
in(184, 43).
in(184, 44).
in(184, 45).
in(184, 47).
in(184, 48).
in(184, 49).
in(184, 50).
in(184, 53).
in(184, 55).
in(184, 59).
in(184, 61).
in(184, 62).
in(184, 67).
in(184, 69).
in(184, 73).
in(184, 77).
in(184, 80).
in(184, 81).
in(184, 82).
in(184, 84).
in(184, 85).
in(184, 86).
in(184, 88).
in(184, 90).
in(184, 92).
in(184, 94).
in(184, 95).
in(184, 96).
in(184, 97).
in(184, 98).
in(184, 100).
in(184, 103).
in(184, 104).
in(184, 105).
in(184, 106).
in(184, 108).
in(184, 114).
in(184, 116).
in(184, 118).
in(184, 119).
in(184, 123).
in(185, 1).
in(185, 2).
in(185, 7).
in(185, 10).
in(185, 11).
in(185, 12).
in(185, 13).
in(185, 17).
in(185, 18).
in(185, 21).
in(185, 22).
in(185, 24).
in(185, 27).
in(185, 28).
in(185, 29).
in(185, 30).
in(185, 37).
in(185, 38).
in(185, 43).
in(185, 44).
in(185, 45).
in(185, 47).
in(185, 49).
in(185, 50).
in(185, 52).
in(185, 54).
in(185, 55).
in(185, 58).
in(185, 59).
in(185, 62).
in(185, 65).
in(185, 66).
in(185, 69).
in(185, 70).
in(185, 73).
in(185, 74).
in(185, 75).
in(185, 76).
in(185, 79).
in(185, 80).
in(185, 82).
in(185, 83).
in(185, 84).
in(185, 85).
in(185, 86).
in(185, 87).
in(185, 91).
in(185, 92).
in(185, 95).
in(185, 96).
in(185, 99).
in(185, 101).
in(185, 107).
in(185, 117).
in(185, 118).
in(185, 119).
in(185, 121).
in(186, 2).
in(186, 8).
in(186, 11).
in(186, 13).
in(186, 14).
in(186, 18).
in(186, 22).
in(186, 24).
in(186, 25).
in(186, 27).
in(186, 28).
in(186, 29).
in(186, 31).
in(186, 35).
in(186, 40).
in(186, 43).
in(186, 45).
in(186, 53).
in(186, 57).
in(186, 58).
in(186, 59).
in(186, 60).
in(186, 63).
in(186, 64).
in(186, 65).
in(186, 66).
in(186, 70).
in(186, 72).
in(186, 74).
in(186, 75).
in(186, 78).
in(186, 79).
in(186, 82).
in(186, 83).
in(186, 84).
in(186, 87).
in(186, 91).
in(186, 93).
in(186, 95).
in(186, 96).
in(186, 98).
in(186, 99).
in(186, 101).
in(186, 105).
in(186, 107).
in(186, 108).
in(186, 109).
in(186, 110).
in(186, 113).
in(186, 115).
in(186, 123).
in(187, 2).
in(187, 6).
in(187, 8).
in(187, 10).
in(187, 13).
in(187, 14).
in(187, 15).
in(187, 16).
in(187, 17).
in(187, 19).
in(187, 21).
in(187, 22).
in(187, 23).
in(187, 24).
in(187, 27).
in(187, 29).
in(187, 30).
in(187, 31).
in(187, 33).
in(187, 38).
in(187, 39).
in(187, 41).
in(187, 43).
in(187, 44).
in(187, 46).
in(187, 47).
in(187, 49).
in(187, 54).
in(187, 55).
in(187, 57).
in(187, 59).
in(187, 60).
in(187, 61).
in(187, 63).
in(187, 66).
in(187, 69).
in(187, 70).
in(187, 71).
in(187, 73).
in(187, 74).
in(187, 76).
in(187, 78).
in(187, 79).
in(187, 81).
in(187, 83).
in(187, 84).
in(187, 88).
in(187, 89).
in(187, 91).
in(187, 92).
in(187, 100).
in(187, 101).
in(187, 106).
in(187, 108).
in(187, 112).
in(187, 113).
in(187, 114).
in(187, 115).
in(187, 117).
in(187, 121).
in(187, 123).
in(188, 2).
in(188, 3).
in(188, 5).
in(188, 6).
in(188, 9).
in(188, 17).
in(188, 20).
in(188, 21).
in(188, 24).
in(188, 31).
in(188, 32).
in(188, 33).
in(188, 36).
in(188, 37).
in(188, 38).
in(188, 39).
in(188, 41).
in(188, 44).
in(188, 48).
in(188, 50).
in(188, 51).
in(188, 56).
in(188, 60).
in(188, 62).
in(188, 63).
in(188, 64).
in(188, 71).
in(188, 72).
in(188, 74).
in(188, 75).
in(188, 76).
in(188, 77).
in(188, 78).
in(188, 79).
in(188, 83).
in(188, 85).
in(188, 86).
in(188, 87).
in(188, 88).
in(188, 89).
in(188, 92).
in(188, 97).
in(188, 100).
in(188, 101).
in(188, 102).
in(188, 103).
in(188, 105).
in(188, 106).
in(188, 107).
in(188, 108).
in(188, 109).
in(188, 110).
in(188, 112).
in(188, 114).
in(188, 116).
in(188, 118).
in(188, 119).
in(188, 123).
in(189, 1).
in(189, 4).
in(189, 6).
in(189, 9).
in(189, 12).
in(189, 13).
in(189, 14).
in(189, 17).
in(189, 19).
in(189, 20).
in(189, 25).
in(189, 27).
in(189, 28).
in(189, 30).
in(189, 32).
in(189, 36).
in(189, 41).
in(189, 42).
in(189, 44).
in(189, 45).
in(189, 46).
in(189, 47).
in(189, 50).
in(189, 51).
in(189, 54).
in(189, 55).
in(189, 58).
in(189, 59).
in(189, 60).
in(189, 64).
in(189, 68).
in(189, 69).
in(189, 71).
in(189, 72).
in(189, 73).
in(189, 76).
in(189, 80).
in(189, 81).
in(189, 82).
in(189, 83).
in(189, 85).
in(189, 86).
in(189, 87).
in(189, 88).
in(189, 89).
in(189, 91).
in(189, 92).
in(189, 93).
in(189, 96).
in(189, 97).
in(189, 99).
in(189, 109).
in(189, 111).
in(189, 112).
in(189, 114).
in(189, 118).
in(189, 119).
in(189, 120).
in(189, 121).
in(189, 122).
in(190, 3).
in(190, 4).
in(190, 7).
in(190, 10).
in(190, 11).
in(190, 12).
in(190, 14).
in(190, 16).
in(190, 21).
in(190, 23).
in(190, 26).
in(190, 27).
in(190, 31).
in(190, 32).
in(190, 37).
in(190, 38).
in(190, 41).
in(190, 42).
in(190, 46).
in(190, 53).
in(190, 54).
in(190, 58).
in(190, 59).
in(190, 60).
in(190, 62).
in(190, 64).
in(190, 66).
in(190, 67).
in(190, 68).
in(190, 70).
in(190, 71).
in(190, 79).
in(190, 81).
in(190, 83).
in(190, 92).
in(190, 93).
in(190, 96).
in(190, 98).
in(190, 99).
in(190, 100).
in(190, 104).
in(190, 105).
in(190, 106).
in(190, 107).
in(190, 108).
in(190, 109).
in(190, 110).
in(190, 112).
in(190, 113).
in(190, 114).
in(190, 117).
in(190, 121).
in(190, 122).
in(191, 1).
in(191, 2).
in(191, 3).
in(191, 8).
in(191, 9).
in(191, 11).
in(191, 13).
in(191, 15).
in(191, 16).
in(191, 18).
in(191, 19).
in(191, 20).
in(191, 21).
in(191, 23).
in(191, 24).
in(191, 26).
in(191, 27).
in(191, 28).
in(191, 31).
in(191, 32).
in(191, 34).
in(191, 35).
in(191, 37).
in(191, 39).
in(191, 40).
in(191, 43).
in(191, 44).
in(191, 46).
in(191, 48).
in(191, 49).
in(191, 51).
in(191, 52).
in(191, 54).
in(191, 56).
in(191, 58).
in(191, 59).
in(191, 60).
in(191, 61).
in(191, 62).
in(191, 63).
in(191, 66).
in(191, 69).
in(191, 70).
in(191, 72).
in(191, 73).
in(191, 75).
in(191, 78).
in(191, 79).
in(191, 81).
in(191, 84).
in(191, 85).
in(191, 88).
in(191, 90).
in(191, 93).
in(191, 94).
in(191, 95).
in(191, 96).
in(191, 98).
in(191, 101).
in(191, 103).
in(191, 106).
in(191, 109).
in(191, 110).
in(191, 113).
in(191, 116).
in(191, 120).
in(191, 122).
in(191, 123).
in(192, 1).
in(192, 3).
in(192, 5).
in(192, 9).
in(192, 11).
in(192, 12).
in(192, 14).
in(192, 15).
in(192, 16).
in(192, 18).
in(192, 19).
in(192, 20).
in(192, 23).
in(192, 25).
in(192, 26).
in(192, 27).
in(192, 28).
in(192, 36).
in(192, 37).
in(192, 39).
in(192, 43).
in(192, 46).
in(192, 49).
in(192, 50).
in(192, 52).
in(192, 56).
in(192, 57).
in(192, 59).
in(192, 60).
in(192, 61).
in(192, 62).
in(192, 64).
in(192, 65).
in(192, 66).
in(192, 68).
in(192, 70).
in(192, 72).
in(192, 76).
in(192, 77).
in(192, 78).
in(192, 81).
in(192, 82).
in(192, 84).
in(192, 86).
in(192, 87).
in(192, 88).
in(192, 89).
in(192, 96).
in(192, 100).
in(192, 102).
in(192, 103).
in(192, 106).
in(192, 107).
in(192, 108).
in(192, 111).
in(192, 114).
in(192, 115).
in(192, 119).
in(192, 120).
in(192, 122).
in(192, 123).
weight(1, 9).
weight(2, 4).
weight(3, 5).
weight(4, 1).
weight(5, 9).
weight(6, 5).
weight(7, 10).
weight(8, 2).
weight(9, 10).
weight(10, 4).
weight(11, 9).
weight(12, 3).
weight(13, 9).
weight(14, 10).
weight(15, 5).
weight(16, 9).
weight(17, 6).
weight(18, 2).
weight(19, 9).
weight(20, 10).
weight(21, 10).
weight(22, 3).
weight(23, 4).
weight(24, 2).
weight(25, 2).
weight(26, 8).
weight(27, 4).
weight(28, 1).
weight(29, 6).
weight(30, 2).
weight(31, 3).
weight(32, 2).
weight(33, 2).
weight(34, 3).
weight(35, 1).
weight(36, 9).
weight(37, 5).
weight(38, 9).
weight(39, 3).
weight(40, 4).
weight(41, 5).
weight(42, 5).
weight(43, 7).
weight(44, 8).
weight(45, 10).
weight(46, 6).
weight(47, 3).
weight(48, 10).
weight(49, 1).
weight(50, 1).
weight(51, 6).
weight(52, 8).
weight(53, 4).
weight(54, 9).
weight(55, 9).
weight(56, 4).
weight(57, 4).
weight(58, 6).
weight(59, 9).
weight(60, 3).
weight(61, 8).
weight(62, 7).
weight(63, 7).
weight(64, 9).
weight(65, 9).
weight(66, 2).
weight(67, 8).
weight(68, 9).
weight(69, 8).
weight(70, 8).
weight(71, 3).
weight(72, 9).
weight(73, 6).
weight(74, 4).
weight(75, 5).
weight(76, 5).
weight(77, 5).
weight(78, 6).
weight(79, 2).
weight(80, 4).
weight(81, 9).
weight(82, 3).
weight(83, 7).
weight(84, 6).
weight(85, 5).
weight(86, 8).
weight(87, 5).
weight(88, 9).
weight(89, 9).
weight(90, 6).
weight(91, 10).
weight(92, 8).
weight(93, 1).
weight(94, 6).
weight(95, 1).
weight(96, 6).
weight(97, 7).
weight(98, 3).
weight(99, 6).
weight(100, 3).
weight(101, 5).
weight(102, 8).
weight(103, 4).
weight(104, 6).
weight(105, 8).
weight(106, 9).
weight(107, 7).
weight(108, 3).
weight(109, 2).
weight(110, 3).
weight(111, 7).
weight(112, 5).
weight(113, 10).
weight(114, 10).
weight(115, 9).
weight(116, 4).
weight(117, 5).
weight(118, 6).
weight(119, 1).
weight(120, 5).
weight(121, 2).
weight(122, 1).
weight(123, 9).
weight(124, 4).
weight(125, 7).
weight(126, 3).
weight(127, 5).
weight(128, 3).
weight(129, 1).
weight(130, 1).
weight(131, 6).
weight(132, 7).
weight(133, 5).
weight(134, 10).
weight(135, 10).
weight(136, 7).
weight(137, 4).
weight(138, 8).
weight(139, 2).
weight(140, 2).
weight(141, 3).
weight(142, 4).
weight(143, 1).
weight(144, 9).
weight(145, 2).
weight(146, 1).
weight(147, 3).
weight(148, 5).
weight(149, 8).
weight(150, 3).
weight(151, 3).
weight(152, 2).
weight(153, 6).
weight(154, 8).
weight(155, 4).
weight(156, 9).
weight(157, 8).
weight(158, 6).
weight(159, 2).
weight(160, 1).
weight(161, 7).
weight(162, 6).
weight(163, 8).
weight(164, 5).
weight(165, 6).
weight(166, 7).
weight(167, 3).
weight(168, 2).
weight(169, 6).
weight(170, 1).
weight(171, 8).
weight(172, 4).
weight(173, 8).
weight(174, 2).
weight(175, 5).
weight(176, 10).
weight(177, 2).
weight(178, 6).
weight(179, 10).
weight(180, 1).
weight(181, 8).
weight(182, 4).
weight(183, 9).
weight(184, 6).
weight(185, 10).
weight(186, 10).
weight(187, 8).
weight(188, 4).
weight(189, 8).
weight(190, 8).
weight(191, 8).
weight(192, 10).

{ choose(S) } :- set(S).
:- choose(S1), choose(S2), S1 < S2, in(S1,E), in(S2,E).
:~ not choose(S), weight(S,W). [W@1,S]
