elem(1..135).
set(1..213).
in(1, 128).
in(1, 1).
in(1, 2).
in(1, 3).
in(1, 131).
in(1, 132).
in(1, 7).
in(1, 10).
in(1, 16).
in(1, 18).
in(1, 19).
in(1, 20).
in(1, 21).
in(1, 22).
in(1, 24).
in(1, 26).
in(1, 31).
in(1, 33).
in(1, 36).
in(1, 37).
in(1, 42).
in(1, 43).
in(1, 44).
in(1, 48).
in(1, 49).
in(1, 53).
in(1, 54).
in(1, 55).
in(1, 57).
in(1, 60).
in(1, 63).
in(1, 65).
in(1, 67).
in(1, 69).
in(1, 71).
in(1, 72).
in(1, 74).
in(1, 76).
in(1, 77).
in(1, 78).
in(1, 80).
in(1, 81).
in(1, 82).
in(1, 86).
in(1, 89).
in(1, 92).
in(1, 94).
in(1, 95).
in(1, 97).
in(1, 99).
in(1, 101).
in(1, 103).
in(1, 104).
in(1, 105).
in(1, 106).
in(1, 107).
in(1, 111).
in(1, 112).
in(1, 113).
in(1, 115).
in(1, 116).
in(1, 117).
in(1, 118).
in(1, 119).
in(1, 122).
in(2, 1).
in(2, 2).
in(2, 3).
in(2, 4).
in(2, 7).
in(2, 9).
in(2, 11).
in(2, 16).
in(2, 17).
in(2, 20).
in(2, 21).
in(2, 23).
in(2, 24).
in(2, 26).
in(2, 27).
in(2, 32).
in(2, 33).
in(2, 34).
in(2, 36).
in(2, 37).
in(2, 39).
in(2, 40).
in(2, 41).
in(2, 42).
in(2, 44).
in(2, 45).
in(2, 46).
in(2, 48).
in(2, 50).
in(2, 51).
in(2, 56).
in(2, 58).
in(2, 60).
in(2, 62).
in(2, 63).
in(2, 65).
in(2, 66).
in(2, 69).
in(2, 71).
in(2, 73).
in(2, 74).
in(2, 77).
in(2, 79).
in(2, 80).
in(2, 81).
in(2, 82).
in(2, 83).
in(2, 86).
in(2, 88).
in(2, 90).
in(2, 93).
in(2, 94).
in(2, 95).
in(2, 96).
in(2, 97).
in(2, 98).
in(2, 99).
in(2, 100).
in(2, 102).
in(2, 103).
in(2, 105).
in(2, 106).
in(2, 107).
in(2, 112).
in(2, 113).
in(2, 114).
in(2, 116).
in(2, 118).
in(2, 120).
in(2, 121).
in(2, 122).
in(2, 123).
in(2, 124).
in(2, 125).
in(2, 126).
in(2, 129).
in(2, 130).
in(2, 132).
in(2, 134).
in(2, 135).
in(3, 1).
in(3, 2).
in(3, 6).
in(3, 7).
in(3, 8).
in(3, 12).
in(3, 13).
in(3, 14).
in(3, 15).
in(3, 16).
in(3, 17).
in(3, 18).
in(3, 24).
in(3, 25).
in(3, 26).
in(3, 27).
in(3, 30).
in(3, 32).
in(3, 33).
in(3, 34).
in(3, 39).
in(3, 40).
in(3, 41).
in(3, 42).
in(3, 45).
in(3, 46).
in(3, 48).
in(3, 51).
in(3, 52).
in(3, 53).
in(3, 54).
in(3, 55).
in(3, 57).
in(3, 58).
in(3, 60).
in(3, 61).
in(3, 62).
in(3, 63).
in(3, 66).
in(3, 70).
in(3, 71).
in(3, 72).
in(3, 73).
in(3, 74).
in(3, 75).
in(3, 76).
in(3, 77).
in(3, 78).
in(3, 79).
in(3, 80).
in(3, 82).
in(3, 84).
in(3, 86).
in(3, 88).
in(3, 90).
in(3, 91).
in(3, 93).
in(3, 94).
in(3, 95).
in(3, 96).
in(3, 98).
in(3, 99).
in(3, 101).
in(3, 104).
in(3, 105).
in(3, 107).
in(3, 108).
in(3, 109).
in(3, 110).
in(3, 112).
in(3, 114).
in(3, 117).
in(3, 118).
in(3, 120).
in(3, 121).
in(3, 122).
in(3, 125).
in(3, 128).
in(3, 130).
in(3, 131).
in(3, 132).
in(3, 133).
in(3, 135).
in(4, 1).
in(4, 130).
in(4, 131).
in(4, 5).
in(4, 133).
in(4, 7).
in(4, 8).
in(4, 9).
in(4, 134).
in(4, 11).
in(4, 12).
in(4, 14).
in(4, 16).
in(4, 17).
in(4, 18).
in(4, 21).
in(4, 24).
in(4, 25).
in(4, 27).
in(4, 33).
in(4, 34).
in(4, 36).
in(4, 38).
in(4, 40).
in(4, 41).
in(4, 42).
in(4, 45).
in(4, 46).
in(4, 50).
in(4, 55).
in(4, 56).
in(4, 59).
in(4, 60).
in(4, 62).
in(4, 65).
in(4, 66).
in(4, 68).
in(4, 69).
in(4, 71).
in(4, 72).
in(4, 74).
in(4, 75).
in(4, 77).
in(4, 79).
in(4, 80).
in(4, 81).
in(4, 82).
in(4, 85).
in(4, 87).
in(4, 89).
in(4, 90).
in(4, 91).
in(4, 93).
in(4, 95).
in(4, 96).
in(4, 98).
in(4, 100).
in(4, 103).
in(4, 105).
in(4, 106).
in(4, 111).
in(4, 112).
in(4, 113).
in(4, 119).
in(4, 120).
in(4, 124).
in(4, 127).
in(5, 128).
in(5, 129).
in(5, 2).
in(5, 3).
in(5, 131).
in(5, 5).
in(5, 6).
in(5, 132).
in(5, 134).
in(5, 11).
in(5, 13).
in(5, 16).
in(5, 18).
in(5, 19).
in(5, 27).
in(5, 28).
in(5, 29).
in(5, 32).
in(5, 35).
in(5, 37).
in(5, 40).
in(5, 41).
in(5, 42).
in(5, 43).
in(5, 44).
in(5, 45).
in(5, 50).
in(5, 51).
in(5, 56).
in(5, 57).
in(5, 58).
in(5, 59).
in(5, 60).
in(5, 62).
in(5, 63).
in(5, 64).
in(5, 67).
in(5, 70).
in(5, 72).
in(5, 73).
in(5, 74).
in(5, 77).
in(5, 78).
in(5, 81).
in(5, 82).
in(5, 84).
in(5, 86).
in(5, 87).
in(5, 90).
in(5, 91).
in(5, 92).
in(5, 93).
in(5, 94).
in(5, 95).
in(5, 96).
in(5, 98).
in(5, 99).
in(5, 101).
in(5, 105).
in(5, 106).
in(5, 108).
in(5, 109).
in(5, 113).
in(5, 116).
in(5, 118).
in(5, 119).
in(5, 120).
in(5, 123).
in(5, 125).
in(5, 126).
in(6, 128).
in(6, 129).
in(6, 2).
in(6, 130).
in(6, 4).
in(6, 5).
in(6, 131).
in(6, 7).
in(6, 133).
in(6, 9).
in(6, 10).
in(6, 11).
in(6, 12).
in(6, 13).
in(6, 17).
in(6, 18).
in(6, 21).
in(6, 22).
in(6, 23).
in(6, 24).
in(6, 28).
in(6, 30).
in(6, 31).
in(6, 32).
in(6, 33).
in(6, 36).
in(6, 38).
in(6, 39).
in(6, 40).
in(6, 41).
in(6, 43).
in(6, 44).
in(6, 47).
in(6, 49).
in(6, 51).
in(6, 53).
in(6, 54).
in(6, 57).
in(6, 59).
in(6, 61).
in(6, 62).
in(6, 65).
in(6, 66).
in(6, 73).
in(6, 74).
in(6, 77).
in(6, 78).
in(6, 81).
in(6, 82).
in(6, 83).
in(6, 85).
in(6, 87).
in(6, 89).
in(6, 90).
in(6, 93).
in(6, 95).
in(6, 97).
in(6, 99).
in(6, 100).
in(6, 101).
in(6, 104).
in(6, 106).
in(6, 109).
in(6, 110).
in(6, 115).
in(6, 117).
in(6, 120).
in(6, 125).
in(6, 126).
in(6, 127).
in(7, 2).
in(7, 3).
in(7, 5).
in(7, 6).
in(7, 7).
in(7, 8).
in(7, 9).
in(7, 10).
in(7, 12).
in(7, 13).
in(7, 14).
in(7, 16).
in(7, 17).
in(7, 20).
in(7, 21).
in(7, 26).
in(7, 28).
in(7, 31).
in(7, 32).
in(7, 33).
in(7, 35).
in(7, 36).
in(7, 40).
in(7, 43).
in(7, 45).
in(7, 46).
in(7, 47).
in(7, 48).
in(7, 49).
in(7, 51).
in(7, 54).
in(7, 55).
in(7, 56).
in(7, 57).
in(7, 58).
in(7, 60).
in(7, 62).
in(7, 66).
in(7, 67).
in(7, 68).
in(7, 72).
in(7, 74).
in(7, 75).
in(7, 76).
in(7, 77).
in(7, 78).
in(7, 81).
in(7, 83).
in(7, 86).
in(7, 87).
in(7, 88).
in(7, 89).
in(7, 90).
in(7, 91).
in(7, 92).
in(7, 93).
in(7, 94).
in(7, 95).
in(7, 96).
in(7, 97).
in(7, 98).
in(7, 103).
in(7, 105).
in(7, 107).
in(7, 108).
in(7, 109).
in(7, 111).
in(7, 112).
in(7, 115).
in(7, 116).
in(7, 118).
in(7, 119).
in(7, 120).
in(7, 122).
in(7, 124).
in(7, 125).
in(7, 127).
in(7, 132).
in(7, 133).
in(7, 135).
in(8, 1).
in(8, 2).
in(8, 5).
in(8, 7).
in(8, 9).
in(8, 11).
in(8, 14).
in(8, 15).
in(8, 16).
in(8, 17).
in(8, 19).
in(8, 20).
in(8, 21).
in(8, 24).
in(8, 25).
in(8, 26).
in(8, 28).
in(8, 32).
in(8, 34).
in(8, 35).
in(8, 36).
in(8, 37).
in(8, 38).
in(8, 40).
in(8, 41).
in(8, 42).
in(8, 46).
in(8, 48).
in(8, 49).
in(8, 52).
in(8, 57).
in(8, 58).
in(8, 59).
in(8, 60).
in(8, 61).
in(8, 62).
in(8, 64).
in(8, 66).
in(8, 67).
in(8, 68).
in(8, 71).
in(8, 72).
in(8, 76).
in(8, 79).
in(8, 80).
in(8, 85).
in(8, 86).
in(8, 89).
in(8, 92).
in(8, 93).
in(8, 95).
in(8, 96).
in(8, 99).
in(8, 100).
in(8, 101).
in(8, 102).
in(8, 103).
in(8, 105).
in(8, 107).
in(8, 108).
in(8, 109).
in(8, 110).
in(8, 111).
in(8, 112).
in(8, 113).
in(8, 115).
in(8, 118).
in(8, 119).
in(8, 120).
in(8, 124).
in(8, 125).
in(8, 126).
in(8, 127).
in(8, 128).
in(8, 129).
in(8, 131).
in(8, 133).
in(8, 135).
in(9, 2).
in(9, 131).
in(9, 5).
in(9, 6).
in(9, 7).
in(9, 8).
in(9, 9).
in(9, 10).
in(9, 11).
in(9, 12).
in(9, 135).
in(9, 14).
in(9, 16).
in(9, 19).
in(9, 25).
in(9, 26).
in(9, 27).
in(9, 29).
in(9, 30).
in(9, 33).
in(9, 35).
in(9, 36).
in(9, 38).
in(9, 39).
in(9, 43).
in(9, 45).
in(9, 46).
in(9, 47).
in(9, 48).
in(9, 51).
in(9, 52).
in(9, 54).
in(9, 56).
in(9, 57).
in(9, 58).
in(9, 60).
in(9, 62).
in(9, 64).
in(9, 65).
in(9, 67).
in(9, 68).
in(9, 71).
in(9, 72).
in(9, 75).
in(9, 83).
in(9, 84).
in(9, 85).
in(9, 87).
in(9, 89).
in(9, 90).
in(9, 93).
in(9, 94).
in(9, 95).
in(9, 100).
in(9, 101).
in(9, 102).
in(9, 104).
in(9, 105).
in(9, 106).
in(9, 107).
in(9, 110).
in(9, 111).
in(9, 113).
in(9, 117).
in(9, 119).
in(9, 120).
in(9, 124).
in(9, 126).
in(9, 127).
in(10, 1).
in(10, 4).
in(10, 5).
in(10, 6).
in(10, 8).
in(10, 9).
in(10, 11).
in(10, 12).
in(10, 13).
in(10, 14).
in(10, 17).
in(10, 22).
in(10, 23).
in(10, 24).
in(10, 25).
in(10, 26).
in(10, 27).
in(10, 28).
in(10, 29).
in(10, 31).
in(10, 32).
in(10, 33).
in(10, 34).
in(10, 36).
in(10, 37).
in(10, 38).
in(10, 40).
in(10, 42).
in(10, 43).
in(10, 44).
in(10, 45).
in(10, 46).
in(10, 48).
in(10, 51).
in(10, 54).
in(10, 57).
in(10, 60).
in(10, 61).
in(10, 65).
in(10, 66).
in(10, 68).
in(10, 69).
in(10, 70).
in(10, 71).
in(10, 73).
in(10, 74).
in(10, 78).
in(10, 79).
in(10, 80).
in(10, 81).
in(10, 84).
in(10, 89).
in(10, 91).
in(10, 95).
in(10, 96).
in(10, 97).
in(10, 99).
in(10, 100).
in(10, 105).
in(10, 108).
in(10, 109).
in(10, 111).
in(10, 112).
in(10, 113).
in(10, 114).
in(10, 115).
in(10, 117).
in(10, 120).
in(10, 121).
in(10, 123).
in(10, 125).
in(10, 126).
in(10, 127).
in(10, 129).
in(10, 130).
in(10, 132).
in(10, 133).
in(10, 135).
in(11, 2).
in(11, 3).
in(11, 4).
in(11, 5).
in(11, 6).
in(11, 7).
in(11, 8).
in(11, 10).
in(11, 12).
in(11, 13).
in(11, 14).
in(11, 18).
in(11, 19).
in(11, 20).
in(11, 21).
in(11, 22).
in(11, 24).
in(11, 25).
in(11, 26).
in(11, 30).
in(11, 33).
in(11, 34).
in(11, 35).
in(11, 36).
in(11, 37).
in(11, 39).
in(11, 41).
in(11, 42).
in(11, 43).
in(11, 45).
in(11, 46).
in(11, 47).
in(11, 48).
in(11, 50).
in(11, 55).
in(11, 60).
in(11, 61).
in(11, 62).
in(11, 63).
in(11, 64).
in(11, 65).
in(11, 66).
in(11, 67).
in(11, 68).
in(11, 69).
in(11, 71).
in(11, 72).
in(11, 75).
in(11, 78).
in(11, 80).
in(11, 81).
in(11, 83).
in(11, 84).
in(11, 87).
in(11, 88).
in(11, 93).
in(11, 95).
in(11, 96).
in(11, 100).
in(11, 101).
in(11, 102).
in(11, 103).
in(11, 104).
in(11, 108).
in(11, 109).
in(11, 110).
in(11, 113).
in(11, 117).
in(11, 120).
in(11, 121).
in(11, 122).
in(11, 124).
in(11, 125).
in(11, 126).
in(11, 127).
in(11, 129).
in(11, 132).
in(11, 133).
in(12, 128).
in(12, 129).
in(12, 130).
in(12, 3).
in(12, 135).
in(12, 8).
in(12, 9).
in(12, 10).
in(12, 15).
in(12, 19).
in(12, 22).
in(12, 23).
in(12, 24).
in(12, 25).
in(12, 29).
in(12, 32).
in(12, 33).
in(12, 35).
in(12, 36).
in(12, 37).
in(12, 38).
in(12, 39).
in(12, 45).
in(12, 46).
in(12, 48).
in(12, 49).
in(12, 50).
in(12, 51).
in(12, 53).
in(12, 54).
in(12, 55).
in(12, 56).
in(12, 57).
in(12, 58).
in(12, 59).
in(12, 60).
in(12, 62).
in(12, 64).
in(12, 65).
in(12, 67).
in(12, 68).
in(12, 72).
in(12, 75).
in(12, 76).
in(12, 77).
in(12, 79).
in(12, 80).
in(12, 81).
in(12, 83).
in(12, 84).
in(12, 85).
in(12, 86).
in(12, 87).
in(12, 91).
in(12, 93).
in(12, 94).
in(12, 95).
in(12, 96).
in(12, 98).
in(12, 99).
in(12, 100).
in(12, 103).
in(12, 104).
in(12, 105).
in(12, 107).
in(12, 108).
in(12, 109).
in(12, 112).
in(12, 114).
in(12, 116).
in(12, 117).
in(12, 118).
in(12, 120).
in(12, 122).
in(12, 126).
in(13, 129).
in(13, 2).
in(13, 4).
in(13, 5).
in(13, 6).
in(13, 133).
in(13, 8).
in(13, 135).
in(13, 10).
in(13, 12).
in(13, 14).
in(13, 21).
in(13, 22).
in(13, 25).
in(13, 27).
in(13, 28).
in(13, 29).
in(13, 32).
in(13, 33).
in(13, 35).
in(13, 36).
in(13, 39).
in(13, 40).
in(13, 43).
in(13, 44).
in(13, 46).
in(13, 48).
in(13, 49).
in(13, 50).
in(13, 53).
in(13, 55).
in(13, 57).
in(13, 58).
in(13, 62).
in(13, 63).
in(13, 64).
in(13, 68).
in(13, 69).
in(13, 70).
in(13, 73).
in(13, 75).
in(13, 76).
in(13, 79).
in(13, 80).
in(13, 81).
in(13, 82).
in(13, 83).
in(13, 84).
in(13, 85).
in(13, 90).
in(13, 93).
in(13, 95).
in(13, 96).
in(13, 97).
in(13, 98).
in(13, 100).
in(13, 101).
in(13, 104).
in(13, 105).
in(13, 107).
in(13, 108).
in(13, 111).
in(13, 113).
in(13, 116).
in(13, 117).
in(13, 120).
in(13, 122).
in(13, 123).
in(13, 125).
in(13, 126).
in(14, 1).
in(14, 129).
in(14, 3).
in(14, 130).
in(14, 5).
in(14, 6).
in(14, 7).
in(14, 132).
in(14, 134).
in(14, 135).
in(14, 11).
in(14, 12).
in(14, 14).
in(14, 15).
in(14, 18).
in(14, 25).
in(14, 26).
in(14, 27).
in(14, 28).
in(14, 29).
in(14, 31).
in(14, 37).
in(14, 39).
in(14, 40).
in(14, 42).
in(14, 43).
in(14, 44).
in(14, 46).
in(14, 51).
in(14, 52).
in(14, 56).
in(14, 57).
in(14, 58).
in(14, 62).
in(14, 66).
in(14, 68).
in(14, 69).
in(14, 70).
in(14, 72).
in(14, 73).
in(14, 75).
in(14, 76).
in(14, 77).
in(14, 78).
in(14, 80).
in(14, 82).
in(14, 87).
in(14, 88).
in(14, 89).
in(14, 90).
in(14, 91).
in(14, 93).
in(14, 94).
in(14, 95).
in(14, 96).
in(14, 97).
in(14, 98).
in(14, 99).
in(14, 102).
in(14, 104).
in(14, 109).
in(14, 111).
in(14, 114).
in(14, 117).
in(14, 118).
in(14, 119).
in(14, 121).
in(14, 124).
in(14, 126).
in(14, 127).
in(15, 128).
in(15, 129).
in(15, 2).
in(15, 3).
in(15, 4).
in(15, 131).
in(15, 134).
in(15, 7).
in(15, 8).
in(15, 14).
in(15, 16).
in(15, 17).
in(15, 18).
in(15, 21).
in(15, 23).
in(15, 24).
in(15, 29).
in(15, 30).
in(15, 31).
in(15, 32).
in(15, 35).
in(15, 41).
in(15, 42).
in(15, 43).
in(15, 46).
in(15, 48).
in(15, 49).
in(15, 50).
in(15, 52).
in(15, 53).
in(15, 57).
in(15, 59).
in(15, 60).
in(15, 62).
in(15, 63).
in(15, 65).
in(15, 66).
in(15, 67).
in(15, 68).
in(15, 71).
in(15, 74).
in(15, 76).
in(15, 81).
in(15, 84).
in(15, 88).
in(15, 89).
in(15, 90).
in(15, 91).
in(15, 92).
in(15, 93).
in(15, 94).
in(15, 95).
in(15, 96).
in(15, 98).
in(15, 99).
in(15, 102).
in(15, 103).
in(15, 105).
in(15, 106).
in(15, 108).
in(15, 110).
in(15, 112).
in(15, 113).
in(15, 115).
in(15, 117).
in(15, 118).
in(15, 122).
in(15, 123).
in(15, 124).
in(15, 125).
in(15, 126).
in(16, 1).
in(16, 2).
in(16, 4).
in(16, 5).
in(16, 6).
in(16, 8).
in(16, 9).
in(16, 11).
in(16, 12).
in(16, 13).
in(16, 14).
in(16, 15).
in(16, 17).
in(16, 18).
in(16, 19).
in(16, 20).
in(16, 21).
in(16, 22).
in(16, 23).
in(16, 24).
in(16, 25).
in(16, 27).
in(16, 32).
in(16, 33).
in(16, 35).
in(16, 36).
in(16, 37).
in(16, 39).
in(16, 40).
in(16, 42).
in(16, 43).
in(16, 44).
in(16, 46).
in(16, 48).
in(16, 49).
in(16, 50).
in(16, 51).
in(16, 52).
in(16, 56).
in(16, 57).
in(16, 58).
in(16, 59).
in(16, 61).
in(16, 62).
in(16, 63).
in(16, 64).
in(16, 65).
in(16, 66).
in(16, 68).
in(16, 69).
in(16, 70).
in(16, 71).
in(16, 72).
in(16, 73).
in(16, 74).
in(16, 75).
in(16, 77).
in(16, 79).
in(16, 81).
in(16, 82).
in(16, 85).
in(16, 86).
in(16, 87).
in(16, 88).
in(16, 89).
in(16, 90).
in(16, 93).
in(16, 94).
in(16, 95).
in(16, 96).
in(16, 97).
in(16, 99).
in(16, 103).
in(16, 104).
in(16, 108).
in(16, 109).
in(16, 110).
in(16, 111).
in(16, 112).
in(16, 114).
in(16, 115).
in(16, 116).
in(16, 125).
in(16, 127).
in(16, 133).
in(16, 135).
in(17, 128).
in(17, 1).
in(17, 129).
in(17, 130).
in(17, 4).
in(17, 131).
in(17, 6).
in(17, 134).
in(17, 8).
in(17, 11).
in(17, 13).
in(17, 20).
in(17, 21).
in(17, 23).
in(17, 26).
in(17, 28).
in(17, 29).
in(17, 30).
in(17, 31).
in(17, 32).
in(17, 33).
in(17, 35).
in(17, 36).
in(17, 37).
in(17, 39).
in(17, 40).
in(17, 44).
in(17, 45).
in(17, 47).
in(17, 49).
in(17, 52).
in(17, 58).
in(17, 59).
in(17, 62).
in(17, 64).
in(17, 65).
in(17, 67).
in(17, 68).
in(17, 69).
in(17, 71).
in(17, 74).
in(17, 75).
in(17, 76).
in(17, 78).
in(17, 79).
in(17, 81).
in(17, 82).
in(17, 83).
in(17, 85).
in(17, 86).
in(17, 87).
in(17, 88).
in(17, 90).
in(17, 91).
in(17, 93).
in(17, 96).
in(17, 97).
in(17, 98).
in(17, 100).
in(17, 101).
in(17, 104).
in(17, 105).
in(17, 106).
in(17, 110).
in(17, 112).
in(17, 113).
in(17, 115).
in(17, 121).
in(17, 122).
in(17, 124).
in(17, 125).
in(17, 127).
in(18, 128).
in(18, 1).
in(18, 130).
in(18, 3).
in(18, 131).
in(18, 5).
in(18, 133).
in(18, 7).
in(18, 8).
in(18, 9).
in(18, 10).
in(18, 12).
in(18, 13).
in(18, 14).
in(18, 16).
in(18, 18).
in(18, 19).
in(18, 20).
in(18, 21).
in(18, 22).
in(18, 24).
in(18, 32).
in(18, 33).
in(18, 34).
in(18, 36).
in(18, 37).
in(18, 40).
in(18, 44).
in(18, 46).
in(18, 47).
in(18, 49).
in(18, 52).
in(18, 54).
in(18, 56).
in(18, 57).
in(18, 58).
in(18, 60).
in(18, 61).
in(18, 64).
in(18, 68).
in(18, 71).
in(18, 82).
in(18, 85).
in(18, 88).
in(18, 91).
in(18, 93).
in(18, 94).
in(18, 95).
in(18, 97).
in(18, 101).
in(18, 103).
in(18, 104).
in(18, 106).
in(18, 109).
in(18, 110).
in(18, 111).
in(18, 112).
in(18, 120).
in(18, 124).
in(19, 2).
in(19, 3).
in(19, 6).
in(19, 7).
in(19, 9).
in(19, 10).
in(19, 11).
in(19, 12).
in(19, 14).
in(19, 15).
in(19, 17).
in(19, 19).
in(19, 23).
in(19, 24).
in(19, 25).
in(19, 27).
in(19, 28).
in(19, 30).
in(19, 33).
in(19, 34).
in(19, 35).
in(19, 37).
in(19, 40).
in(19, 41).
in(19, 43).
in(19, 46).
in(19, 49).
in(19, 50).
in(19, 57).
in(19, 61).
in(19, 62).
in(19, 63).
in(19, 64).
in(19, 65).
in(19, 66).
in(19, 69).
in(19, 71).
in(19, 72).
in(19, 73).
in(19, 74).
in(19, 75).
in(19, 76).
in(19, 79).
in(19, 82).
in(19, 84).
in(19, 85).
in(19, 86).
in(19, 87).
in(19, 90).
in(19, 92).
in(19, 94).
in(19, 95).
in(19, 97).
in(19, 98).
in(19, 99).
in(19, 100).
in(19, 101).
in(19, 102).
in(19, 103).
in(19, 104).
in(19, 105).
in(19, 106).
in(19, 109).
in(19, 110).
in(19, 111).
in(19, 112).
in(19, 113).
in(19, 115).
in(19, 116).
in(19, 117).
in(19, 118).
in(19, 122).
in(19, 124).
in(19, 126).
in(19, 128).
in(19, 130).
in(19, 131).
in(19, 134).
in(19, 135).
in(20, 128).
in(20, 2).
in(20, 130).
in(20, 4).
in(20, 131).
in(20, 6).
in(20, 7).
in(20, 8).
in(20, 133).
in(20, 10).
in(20, 11).
in(20, 12).
in(20, 134).
in(20, 15).
in(20, 18).
in(20, 19).
in(20, 21).
in(20, 23).
in(20, 24).
in(20, 26).
in(20, 27).
in(20, 29).
in(20, 30).
in(20, 31).
in(20, 34).
in(20, 35).
in(20, 36).
in(20, 42).
in(20, 44).
in(20, 45).
in(20, 46).
in(20, 48).
in(20, 49).
in(20, 50).
in(20, 52).
in(20, 55).
in(20, 58).
in(20, 59).
in(20, 60).
in(20, 61).
in(20, 62).
in(20, 63).
in(20, 67).
in(20, 69).
in(20, 70).
in(20, 72).
in(20, 75).
in(20, 77).
in(20, 81).
in(20, 84).
in(20, 87).
in(20, 89).
in(20, 92).
in(20, 97).
in(20, 98).
in(20, 102).
in(20, 107).
in(20, 108).
in(20, 109).
in(20, 110).
in(20, 111).
in(20, 114).
in(20, 115).
in(20, 118).
in(20, 119).
in(20, 120).
in(20, 121).
in(20, 122).
in(20, 123).
in(20, 125).
in(20, 127).
in(21, 1).
in(21, 4).
in(21, 6).
in(21, 8).
in(21, 10).
in(21, 11).
in(21, 12).
in(21, 14).
in(21, 16).
in(21, 17).
in(21, 18).
in(21, 19).
in(21, 23).
in(21, 24).
in(21, 25).
in(21, 26).
in(21, 27).
in(21, 29).
in(21, 30).
in(21, 31).
in(21, 32).
in(21, 33).
in(21, 34).
in(21, 35).
in(21, 36).
in(21, 37).
in(21, 38).
in(21, 41).
in(21, 42).
in(21, 44).
in(21, 45).
in(21, 48).
in(21, 49).
in(21, 51).
in(21, 52).
in(21, 53).
in(21, 54).
in(21, 55).
in(21, 56).
in(21, 57).
in(21, 58).
in(21, 59).
in(21, 61).
in(21, 64).
in(21, 65).
in(21, 66).
in(21, 68).
in(21, 69).
in(21, 72).
in(21, 73).
in(21, 74).
in(21, 77).
in(21, 84).
in(21, 88).
in(21, 89).
in(21, 90).
in(21, 91).
in(21, 93).
in(21, 95).
in(21, 96).
in(21, 97).
in(21, 98).
in(21, 99).
in(21, 103).
in(21, 104).
in(21, 105).
in(21, 107).
in(21, 110).
in(21, 113).
in(21, 114).
in(21, 116).
in(21, 119).
in(21, 120).
in(21, 121).
in(21, 122).
in(21, 123).
in(21, 124).
in(21, 127).
in(21, 128).
in(21, 130).
in(21, 131).
in(21, 134).
in(22, 3).
in(22, 4).
in(22, 5).
in(22, 6).
in(22, 9).
in(22, 12).
in(22, 16).
in(22, 17).
in(22, 22).
in(22, 23).
in(22, 26).
in(22, 27).
in(22, 28).
in(22, 30).
in(22, 31).
in(22, 32).
in(22, 33).
in(22, 34).
in(22, 38).
in(22, 39).
in(22, 40).
in(22, 43).
in(22, 44).
in(22, 46).
in(22, 47).
in(22, 49).
in(22, 50).
in(22, 52).
in(22, 55).
in(22, 56).
in(22, 59).
in(22, 60).
in(22, 61).
in(22, 63).
in(22, 64).
in(22, 65).
in(22, 66).
in(22, 67).
in(22, 69).
in(22, 70).
in(22, 71).
in(22, 72).
in(22, 74).
in(22, 75).
in(22, 76).
in(22, 77).
in(22, 78).
in(22, 79).
in(22, 80).
in(22, 81).
in(22, 83).
in(22, 84).
in(22, 85).
in(22, 86).
in(22, 87).
in(22, 92).
in(22, 93).
in(22, 94).
in(22, 96).
in(22, 99).
in(22, 101).
in(22, 103).
in(22, 105).
in(22, 107).
in(22, 108).
in(22, 109).
in(22, 110).
in(22, 111).
in(22, 112).
in(22, 113).
in(22, 115).
in(22, 118).
in(22, 121).
in(22, 123).
in(22, 131).
in(22, 132).
in(22, 135).
in(23, 1).
in(23, 2).
in(23, 3).
in(23, 4).
in(23, 5).
in(23, 8).
in(23, 9).
in(23, 10).
in(23, 11).
in(23, 12).
in(23, 13).
in(23, 14).
in(23, 15).
in(23, 16).
in(23, 17).
in(23, 20).
in(23, 22).
in(23, 24).
in(23, 26).
in(23, 27).
in(23, 29).
in(23, 30).
in(23, 31).
in(23, 32).
in(23, 33).
in(23, 34).
in(23, 35).
in(23, 37).
in(23, 38).
in(23, 39).
in(23, 41).
in(23, 44).
in(23, 45).
in(23, 46).
in(23, 47).
in(23, 48).
in(23, 49).
in(23, 50).
in(23, 53).
in(23, 54).
in(23, 57).
in(23, 59).
in(23, 60).
in(23, 65).
in(23, 66).
in(23, 70).
in(23, 71).
in(23, 72).
in(23, 73).
in(23, 74).
in(23, 77).
in(23, 78).
in(23, 79).
in(23, 80).
in(23, 81).
in(23, 82).
in(23, 83).
in(23, 85).
in(23, 86).
in(23, 87).
in(23, 90).
in(23, 92).
in(23, 94).
in(23, 96).
in(23, 97).
in(23, 98).
in(23, 99).
in(23, 100).
in(23, 102).
in(23, 104).
in(23, 107).
in(23, 108).
in(23, 109).
in(23, 110).
in(23, 111).
in(23, 113).
in(23, 115).
in(23, 116).
in(23, 118).
in(23, 122).
in(23, 124).
in(23, 125).
in(23, 127).
in(23, 128).
in(23, 129).
in(23, 130).
in(23, 133).
in(23, 134).
in(24, 1).
in(24, 2).
in(24, 129).
in(24, 4).
in(24, 5).
in(24, 6).
in(24, 7).
in(24, 130).
in(24, 9).
in(24, 10).
in(24, 135).
in(24, 12).
in(24, 13).
in(24, 14).
in(24, 15).
in(24, 16).
in(24, 19).
in(24, 21).
in(24, 22).
in(24, 23).
in(24, 24).
in(24, 27).
in(24, 30).
in(24, 31).
in(24, 33).
in(24, 36).
in(24, 40).
in(24, 41).
in(24, 43).
in(24, 44).
in(24, 46).
in(24, 47).
in(24, 48).
in(24, 51).
in(24, 55).
in(24, 58).
in(24, 60).
in(24, 64).
in(24, 65).
in(24, 67).
in(24, 69).
in(24, 70).
in(24, 72).
in(24, 73).
in(24, 75).
in(24, 76).
in(24, 79).
in(24, 81).
in(24, 82).
in(24, 83).
in(24, 86).
in(24, 87).
in(24, 91).
in(24, 92).
in(24, 94).
in(24, 95).
in(24, 103).
in(24, 104).
in(24, 105).
in(24, 107).
in(24, 109).
in(24, 110).
in(24, 111).
in(24, 113).
in(24, 115).
in(24, 117).
in(24, 120).
in(24, 121).
in(24, 122).
in(24, 125).
in(25, 1).
in(25, 4).
in(25, 6).
in(25, 7).
in(25, 8).
in(25, 9).
in(25, 10).
in(25, 13).
in(25, 15).
in(25, 16).
in(25, 17).
in(25, 19).
in(25, 21).
in(25, 23).
in(25, 24).
in(25, 25).
in(25, 28).
in(25, 30).
in(25, 31).
in(25, 32).
in(25, 33).
in(25, 34).
in(25, 38).
in(25, 39).
in(25, 41).
in(25, 42).
in(25, 44).
in(25, 46).
in(25, 47).
in(25, 49).
in(25, 50).
in(25, 51).
in(25, 52).
in(25, 53).
in(25, 55).
in(25, 56).
in(25, 58).
in(25, 61).
in(25, 62).
in(25, 64).
in(25, 66).
in(25, 67).
in(25, 68).
in(25, 71).
in(25, 74).
in(25, 78).
in(25, 79).
in(25, 80).
in(25, 81).
in(25, 82).
in(25, 83).
in(25, 88).
in(25, 89).
in(25, 90).
in(25, 91).
in(25, 92).
in(25, 93).
in(25, 95).
in(25, 97).
in(25, 98).
in(25, 102).
in(25, 103).
in(25, 104).
in(25, 105).
in(25, 106).
in(25, 107).
in(25, 108).
in(25, 109).
in(25, 111).
in(25, 113).
in(25, 120).
in(25, 122).
in(25, 123).
in(25, 126).
in(25, 127).
in(25, 129).
in(25, 130).
in(25, 131).
in(25, 132).
in(25, 133).
in(25, 134).
in(26, 1).
in(26, 2).
in(26, 3).
in(26, 7).
in(26, 8).
in(26, 9).
in(26, 13).
in(26, 14).
in(26, 16).
in(26, 17).
in(26, 18).
in(26, 21).
in(26, 23).
in(26, 24).
in(26, 25).
in(26, 26).
in(26, 27).
in(26, 28).
in(26, 30).
in(26, 31).
in(26, 32).
in(26, 33).
in(26, 35).
in(26, 36).
in(26, 37).
in(26, 40).
in(26, 42).
in(26, 44).
in(26, 45).
in(26, 46).
in(26, 49).
in(26, 50).
in(26, 51).
in(26, 56).
in(26, 57).
in(26, 58).
in(26, 59).
in(26, 61).
in(26, 63).
in(26, 64).
in(26, 66).
in(26, 68).
in(26, 69).
in(26, 72).
in(26, 73).
in(26, 74).
in(26, 75).
in(26, 76).
in(26, 77).
in(26, 79).
in(26, 80).
in(26, 82).
in(26, 84).
in(26, 85).
in(26, 86).
in(26, 87).
in(26, 88).
in(26, 90).
in(26, 92).
in(26, 94).
in(26, 95).
in(26, 96).
in(26, 100).
in(26, 102).
in(26, 105).
in(26, 107).
in(26, 108).
in(26, 109).
in(26, 110).
in(26, 112).
in(26, 115).
in(26, 116).
in(26, 117).
in(26, 120).
in(26, 122).
in(26, 127).
in(26, 128).
in(26, 131).
in(26, 132).
in(26, 134).
in(27, 1).
in(27, 129).
in(27, 131).
in(27, 4).
in(27, 5).
in(27, 6).
in(27, 7).
in(27, 8).
in(27, 9).
in(27, 133).
in(27, 134).
in(27, 135).
in(27, 15).
in(27, 16).
in(27, 17).
in(27, 19).
in(27, 22).
in(27, 24).
in(27, 27).
in(27, 29).
in(27, 30).
in(27, 32).
in(27, 33).
in(27, 35).
in(27, 37).
in(27, 38).
in(27, 39).
in(27, 44).
in(27, 46).
in(27, 47).
in(27, 48).
in(27, 51).
in(27, 53).
in(27, 55).
in(27, 58).
in(27, 59).
in(27, 60).
in(27, 63).
in(27, 67).
in(27, 69).
in(27, 71).
in(27, 74).
in(27, 75).
in(27, 77).
in(27, 80).
in(27, 83).
in(27, 84).
in(27, 85).
in(27, 86).
in(27, 89).
in(27, 93).
in(27, 95).
in(27, 96).
in(27, 99).
in(27, 100).
in(27, 102).
in(27, 103).
in(27, 105).
in(27, 108).
in(27, 110).
in(27, 111).
in(27, 112).
in(27, 118).
in(27, 119).
in(27, 120).
in(27, 123).
in(27, 125).
in(27, 127).
in(28, 128).
in(28, 1).
in(28, 130).
in(28, 3).
in(28, 131).
in(28, 5).
in(28, 132).
in(28, 7).
in(28, 8).
in(28, 9).
in(28, 10).
in(28, 135).
in(28, 13).
in(28, 14).
in(28, 16).
in(28, 17).
in(28, 18).
in(28, 19).
in(28, 20).
in(28, 21).
in(28, 22).
in(28, 23).
in(28, 27).
in(28, 28).
in(28, 29).
in(28, 30).
in(28, 33).
in(28, 34).
in(28, 38).
in(28, 43).
in(28, 44).
in(28, 50).
in(28, 51).
in(28, 52).
in(28, 54).
in(28, 55).
in(28, 56).
in(28, 57).
in(28, 59).
in(28, 60).
in(28, 61).
in(28, 62).
in(28, 63).
in(28, 64).
in(28, 68).
in(28, 71).
in(28, 72).
in(28, 73).
in(28, 75).
in(28, 76).
in(28, 77).
in(28, 81).
in(28, 82).
in(28, 83).
in(28, 84).
in(28, 85).
in(28, 87).
in(28, 88).
in(28, 92).
in(28, 94).
in(28, 97).
in(28, 99).
in(28, 103).
in(28, 109).
in(28, 110).
in(28, 111).
in(28, 112).
in(28, 113).
in(28, 114).
in(28, 116).
in(28, 117).
in(28, 119).
in(28, 121).
in(28, 126).
in(28, 127).
in(29, 2).
in(29, 4).
in(29, 5).
in(29, 6).
in(29, 7).
in(29, 9).
in(29, 10).
in(29, 11).
in(29, 12).
in(29, 14).
in(29, 15).
in(29, 16).
in(29, 17).
in(29, 18).
in(29, 19).
in(29, 20).
in(29, 21).
in(29, 27).
in(29, 28).
in(29, 29).
in(29, 31).
in(29, 32).
in(29, 33).
in(29, 36).
in(29, 37).
in(29, 38).
in(29, 40).
in(29, 41).
in(29, 43).
in(29, 46).
in(29, 48).
in(29, 49).
in(29, 50).
in(29, 51).
in(29, 52).
in(29, 54).
in(29, 58).
in(29, 60).
in(29, 61).
in(29, 62).
in(29, 63).
in(29, 65).
in(29, 68).
in(29, 70).
in(29, 72).
in(29, 74).
in(29, 75).
in(29, 76).
in(29, 77).
in(29, 78).
in(29, 82).
in(29, 83).
in(29, 84).
in(29, 86).
in(29, 87).
in(29, 90).
in(29, 91).
in(29, 93).
in(29, 94).
in(29, 95).
in(29, 96).
in(29, 97).
in(29, 99).
in(29, 100).
in(29, 102).
in(29, 105).
in(29, 106).
in(29, 107).
in(29, 109).
in(29, 110).
in(29, 115).
in(29, 116).
in(29, 119).
in(29, 120).
in(29, 121).
in(29, 122).
in(29, 127).
in(29, 129).
in(29, 131).
in(29, 132).
in(29, 134).
in(30, 128).
in(30, 129).
in(30, 130).
in(30, 133).
in(30, 6).
in(30, 7).
in(30, 8).
in(30, 135).
in(30, 10).
in(30, 11).
in(30, 13).
in(30, 14).
in(30, 16).
in(30, 18).
in(30, 19).
in(30, 24).
in(30, 30).
in(30, 31).
in(30, 32).
in(30, 34).
in(30, 35).
in(30, 38).
in(30, 40).
in(30, 42).
in(30, 43).
in(30, 44).
in(30, 45).
in(30, 46).
in(30, 47).
in(30, 48).
in(30, 50).
in(30, 52).
in(30, 53).
in(30, 54).
in(30, 55).
in(30, 56).
in(30, 57).
in(30, 58).
in(30, 60).
in(30, 61).
in(30, 62).
in(30, 64).
in(30, 67).
in(30, 72).
in(30, 73).
in(30, 74).
in(30, 75).
in(30, 80).
in(30, 81).
in(30, 82).
in(30, 83).
in(30, 85).
in(30, 86).
in(30, 88).
in(30, 92).
in(30, 94).
in(30, 95).
in(30, 96).
in(30, 99).
in(30, 101).
in(30, 102).
in(30, 103).
in(30, 104).
in(30, 106).
in(30, 107).
in(30, 108).
in(30, 115).
in(30, 117).
in(30, 119).
in(30, 121).
in(30, 122).
in(30, 125).
in(31, 2).
in(31, 3).
in(31, 4).
in(31, 5).
in(31, 6).
in(31, 8).
in(31, 10).
in(31, 11).
in(31, 12).
in(31, 15).
in(31, 16).
in(31, 18).
in(31, 20).
in(31, 22).
in(31, 23).
in(31, 25).
in(31, 26).
in(31, 29).
in(31, 30).
in(31, 31).
in(31, 33).
in(31, 35).
in(31, 37).
in(31, 38).
in(31, 40).
in(31, 41).
in(31, 42).
in(31, 43).
in(31, 45).
in(31, 46).
in(31, 48).
in(31, 49).
in(31, 52).
in(31, 54).
in(31, 55).
in(31, 57).
in(31, 59).
in(31, 60).
in(31, 63).
in(31, 65).
in(31, 69).
in(31, 75).
in(31, 76).
in(31, 79).
in(31, 81).
in(31, 82).
in(31, 83).
in(31, 85).
in(31, 87).
in(31, 88).
in(31, 89).
in(31, 90).
in(31, 91).
in(31, 92).
in(31, 93).
in(31, 95).
in(31, 99).
in(31, 101).
in(31, 102).
in(31, 103).
in(31, 105).
in(31, 107).
in(31, 108).
in(31, 109).
in(31, 110).
in(31, 111).
in(31, 113).
in(31, 114).
in(31, 115).
in(31, 118).
in(31, 120).
in(31, 123).
in(31, 124).
in(31, 127).
in(31, 129).
in(31, 130).
in(31, 134).
in(32, 4).
in(32, 132).
in(32, 6).
in(32, 7).
in(32, 8).
in(32, 133).
in(32, 134).
in(32, 135).
in(32, 12).
in(32, 16).
in(32, 17).
in(32, 19).
in(32, 20).
in(32, 21).
in(32, 23).
in(32, 29).
in(32, 30).
in(32, 33).
in(32, 34).
in(32, 38).
in(32, 39).
in(32, 41).
in(32, 42).
in(32, 43).
in(32, 44).
in(32, 46).
in(32, 47).
in(32, 48).
in(32, 49).
in(32, 50).
in(32, 52).
in(32, 53).
in(32, 55).
in(32, 56).
in(32, 57).
in(32, 59).
in(32, 61).
in(32, 64).
in(32, 66).
in(32, 67).
in(32, 69).
in(32, 70).
in(32, 73).
in(32, 75).
in(32, 77).
in(32, 78).
in(32, 82).
in(32, 86).
in(32, 87).
in(32, 90).
in(32, 92).
in(32, 93).
in(32, 94).
in(32, 96).
in(32, 97).
in(32, 99).
in(32, 103).
in(32, 104).
in(32, 105).
in(32, 106).
in(32, 107).
in(32, 108).
in(32, 109).
in(32, 112).
in(32, 113).
in(32, 117).
in(32, 119).
in(32, 121).
in(32, 122).
in(32, 123).
in(32, 125).
in(32, 126).
in(33, 2).
in(33, 130).
in(33, 131).
in(33, 5).
in(33, 6).
in(33, 132).
in(33, 133).
in(33, 134).
in(33, 10).
in(33, 11).
in(33, 12).
in(33, 13).
in(33, 14).
in(33, 135).
in(33, 17).
in(33, 19).
in(33, 21).
in(33, 22).
in(33, 23).
in(33, 24).
in(33, 25).
in(33, 29).
in(33, 32).
in(33, 36).
in(33, 38).
in(33, 40).
in(33, 43).
in(33, 44).
in(33, 45).
in(33, 48).
in(33, 49).
in(33, 50).
in(33, 52).
in(33, 55).
in(33, 58).
in(33, 60).
in(33, 61).
in(33, 62).
in(33, 65).
in(33, 68).
in(33, 70).
in(33, 72).
in(33, 73).
in(33, 74).
in(33, 75).
in(33, 78).
in(33, 81).
in(33, 82).
in(33, 83).
in(33, 84).
in(33, 85).
in(33, 86).
in(33, 87).
in(33, 88).
in(33, 90).
in(33, 91).
in(33, 95).
in(33, 100).
in(33, 102).
in(33, 103).
in(33, 104).
in(33, 105).
in(33, 107).
in(33, 110).
in(33, 112).
in(33, 114).
in(33, 115).
in(33, 119).
in(33, 120).
in(33, 121).
in(33, 123).
in(33, 124).
in(33, 125).
in(33, 126).
in(34, 3).
in(34, 5).
in(34, 9).
in(34, 10).
in(34, 11).
in(34, 13).
in(34, 14).
in(34, 15).
in(34, 16).
in(34, 18).
in(34, 22).
in(34, 23).
in(34, 25).
in(34, 26).
in(34, 28).
in(34, 30).
in(34, 31).
in(34, 32).
in(34, 36).
in(34, 38).
in(34, 41).
in(34, 42).
in(34, 46).
in(34, 49).
in(34, 50).
in(34, 52).
in(34, 53).
in(34, 54).
in(34, 57).
in(34, 60).
in(34, 61).
in(34, 62).
in(34, 63).
in(34, 64).
in(34, 65).
in(34, 66).
in(34, 67).
in(34, 68).
in(34, 70).
in(34, 73).
in(34, 74).
in(34, 75).
in(34, 76).
in(34, 78).
in(34, 79).
in(34, 82).
in(34, 83).
in(34, 84).
in(34, 87).
in(34, 89).
in(34, 90).
in(34, 91).
in(34, 92).
in(34, 93).
in(34, 94).
in(34, 96).
in(34, 97).
in(34, 101).
in(34, 103).
in(34, 106).
in(34, 107).
in(34, 108).
in(34, 109).
in(34, 111).
in(34, 112).
in(34, 113).
in(34, 115).
in(34, 117).
in(34, 119).
in(34, 120).
in(34, 121).
in(34, 122).
in(34, 123).
in(34, 124).
in(34, 126).
in(34, 127).
in(34, 128).
in(34, 130).
in(34, 132).
in(34, 133).
in(34, 135).
in(35, 1).
in(35, 2).
in(35, 3).
in(35, 5).
in(35, 6).
in(35, 8).
in(35, 9).
in(35, 10).
in(35, 11).
in(35, 13).
in(35, 14).
in(35, 15).
in(35, 16).
in(35, 17).
in(35, 19).
in(35, 21).
in(35, 24).
in(35, 27).
in(35, 29).
in(35, 30).
in(35, 31).
in(35, 34).
in(35, 35).
in(35, 36).
in(35, 37).
in(35, 38).
in(35, 40).
in(35, 41).
in(35, 42).
in(35, 43).
in(35, 44).
in(35, 46).
in(35, 47).
in(35, 48).
in(35, 49).
in(35, 52).
in(35, 53).
in(35, 54).
in(35, 55).
in(35, 56).
in(35, 57).
in(35, 61).
in(35, 62).
in(35, 65).
in(35, 67).
in(35, 69).
in(35, 72).
in(35, 73).
in(35, 74).
in(35, 75).
in(35, 76).
in(35, 77).
in(35, 78).
in(35, 79).
in(35, 80).
in(35, 82).
in(35, 83).
in(35, 85).
in(35, 86).
in(35, 87).
in(35, 90).
in(35, 92).
in(35, 93).
in(35, 94).
in(35, 95).
in(35, 97).
in(35, 98).
in(35, 99).
in(35, 101).
in(35, 102).
in(35, 103).
in(35, 107).
in(35, 108).
in(35, 109).
in(35, 110).
in(35, 111).
in(35, 112).
in(35, 114).
in(35, 116).
in(35, 118).
in(35, 119).
in(35, 120).
in(35, 121).
in(35, 122).
in(35, 127).
in(35, 128).
in(35, 129).
in(35, 130).
in(35, 132).
in(35, 133).
in(35, 134).
in(35, 135).
in(36, 129).
in(36, 130).
in(36, 3).
in(36, 131).
in(36, 5).
in(36, 132).
in(36, 134).
in(36, 8).
in(36, 9).
in(36, 10).
in(36, 13).
in(36, 14).
in(36, 15).
in(36, 16).
in(36, 17).
in(36, 20).
in(36, 21).
in(36, 25).
in(36, 28).
in(36, 29).
in(36, 30).
in(36, 32).
in(36, 36).
in(36, 37).
in(36, 41).
in(36, 42).
in(36, 44).
in(36, 47).
in(36, 48).
in(36, 50).
in(36, 51).
in(36, 52).
in(36, 53).
in(36, 54).
in(36, 55).
in(36, 56).
in(36, 57).
in(36, 62).
in(36, 63).
in(36, 65).
in(36, 66).
in(36, 72).
in(36, 74).
in(36, 77).
in(36, 78).
in(36, 80).
in(36, 84).
in(36, 90).
in(36, 93).
in(36, 95).
in(36, 97).
in(36, 105).
in(36, 106).
in(36, 108).
in(36, 109).
in(36, 110).
in(36, 114).
in(36, 115).
in(36, 119).
in(36, 120).
in(36, 121).
in(36, 122).
in(36, 124).
in(36, 125).
in(36, 126).
in(36, 127).
in(37, 128).
in(37, 1).
in(37, 130).
in(37, 4).
in(37, 5).
in(37, 132).
in(37, 134).
in(37, 15).
in(37, 17).
in(37, 18).
in(37, 19).
in(37, 21).
in(37, 22).
in(37, 24).
in(37, 25).
in(37, 26).
in(37, 28).
in(37, 30).
in(37, 31).
in(37, 32).
in(37, 33).
in(37, 34).
in(37, 35).
in(37, 38).
in(37, 39).
in(37, 40).
in(37, 42).
in(37, 43).
in(37, 47).
in(37, 49).
in(37, 50).
in(37, 52).
in(37, 53).
in(37, 55).
in(37, 58).
in(37, 59).
in(37, 61).
in(37, 62).
in(37, 63).
in(37, 64).
in(37, 66).
in(37, 69).
in(37, 73).
in(37, 75).
in(37, 78).
in(37, 81).
in(37, 83).
in(37, 84).
in(37, 87).
in(37, 88).
in(37, 90).
in(37, 91).
in(37, 93).
in(37, 94).
in(37, 97).
in(37, 98).
in(37, 99).
in(37, 100).
in(37, 103).
in(37, 104).
in(37, 107).
in(37, 110).
in(37, 113).
in(37, 115).
in(37, 117).
in(37, 118).
in(37, 120).
in(37, 121).
in(37, 122).
in(37, 124).
in(37, 125).
in(37, 126).
in(38, 3).
in(38, 5).
in(38, 6).
in(38, 11).
in(38, 14).
in(38, 16).
in(38, 17).
in(38, 18).
in(38, 20).
in(38, 21).
in(38, 22).
in(38, 23).
in(38, 24).
in(38, 25).
in(38, 27).
in(38, 33).
in(38, 34).
in(38, 35).
in(38, 36).
in(38, 37).
in(38, 38).
in(38, 41).
in(38, 43).
in(38, 45).
in(38, 48).
in(38, 53).
in(38, 55).
in(38, 56).
in(38, 57).
in(38, 58).
in(38, 59).
in(38, 61).
in(38, 63).
in(38, 64).
in(38, 66).
in(38, 68).
in(38, 69).
in(38, 70).
in(38, 72).
in(38, 73).
in(38, 75).
in(38, 76).
in(38, 80).
in(38, 81).
in(38, 82).
in(38, 83).
in(38, 84).
in(38, 85).
in(38, 86).
in(38, 87).
in(38, 88).
in(38, 89).
in(38, 90).
in(38, 93).
in(38, 94).
in(38, 95).
in(38, 97).
in(38, 98).
in(38, 99).
in(38, 100).
in(38, 101).
in(38, 104).
in(38, 105).
in(38, 107).
in(38, 111).
in(38, 112).
in(38, 115).
in(38, 117).
in(38, 118).
in(38, 119).
in(38, 120).
in(38, 122).
in(38, 123).
in(38, 124).
in(38, 125).
in(38, 126).
in(38, 127).
in(38, 130).
in(38, 133).
in(38, 134).
in(38, 135).
in(39, 128).
in(39, 1).
in(39, 3).
in(39, 4).
in(39, 5).
in(39, 132).
in(39, 7).
in(39, 8).
in(39, 9).
in(39, 11).
in(39, 13).
in(39, 16).
in(39, 21).
in(39, 22).
in(39, 24).
in(39, 25).
in(39, 28).
in(39, 30).
in(39, 33).
in(39, 36).
in(39, 37).
in(39, 38).
in(39, 42).
in(39, 44).
in(39, 45).
in(39, 46).
in(39, 48).
in(39, 49).
in(39, 51).
in(39, 52).
in(39, 56).
in(39, 58).
in(39, 60).
in(39, 61).
in(39, 63).
in(39, 65).
in(39, 66).
in(39, 67).
in(39, 68).
in(39, 69).
in(39, 70).
in(39, 71).
in(39, 72).
in(39, 73).
in(39, 74).
in(39, 75).
in(39, 77).
in(39, 79).
in(39, 81).
in(39, 83).
in(39, 84).
in(39, 86).
in(39, 88).
in(39, 89).
in(39, 92).
in(39, 96).
in(39, 98).
in(39, 99).
in(39, 100).
in(39, 101).
in(39, 102).
in(39, 103).
in(39, 105).
in(39, 106).
in(39, 114).
in(39, 115).
in(39, 117).
in(39, 118).
in(39, 119).
in(39, 120).
in(39, 123).
in(39, 126).
in(39, 127).
in(40, 1).
in(40, 129).
in(40, 130).
in(40, 131).
in(40, 132).
in(40, 6).
in(40, 7).
in(40, 134).
in(40, 9).
in(40, 10).
in(40, 12).
in(40, 13).
in(40, 15).
in(40, 16).
in(40, 17).
in(40, 18).
in(40, 19).
in(40, 21).
in(40, 23).
in(40, 25).
in(40, 27).
in(40, 28).
in(40, 29).
in(40, 30).
in(40, 32).
in(40, 33).
in(40, 34).
in(40, 40).
in(40, 42).
in(40, 44).
in(40, 45).
in(40, 47).
in(40, 48).
in(40, 50).
in(40, 52).
in(40, 55).
in(40, 59).
in(40, 60).
in(40, 62).
in(40, 63).
in(40, 66).
in(40, 68).
in(40, 69).
in(40, 71).
in(40, 73).
in(40, 74).
in(40, 76).
in(40, 77).
in(40, 78).
in(40, 83).
in(40, 86).
in(40, 87).
in(40, 88).
in(40, 90).
in(40, 93).
in(40, 94).
in(40, 99).
in(40, 100).
in(40, 101).
in(40, 102).
in(40, 104).
in(40, 106).
in(40, 107).
in(40, 111).
in(40, 113).
in(40, 114).
in(40, 115).
in(40, 116).
in(40, 117).
in(40, 120).
in(40, 122).
in(40, 124).
in(40, 126).
in(40, 127).
in(41, 1).
in(41, 2).
in(41, 3).
in(41, 4).
in(41, 7).
in(41, 8).
in(41, 11).
in(41, 12).
in(41, 13).
in(41, 14).
in(41, 15).
in(41, 16).
in(41, 18).
in(41, 21).
in(41, 22).
in(41, 23).
in(41, 24).
in(41, 26).
in(41, 27).
in(41, 28).
in(41, 32).
in(41, 33).
in(41, 35).
in(41, 36).
in(41, 38).
in(41, 39).
in(41, 40).
in(41, 42).
in(41, 43).
in(41, 45).
in(41, 50).
in(41, 51).
in(41, 53).
in(41, 58).
in(41, 60).
in(41, 64).
in(41, 65).
in(41, 66).
in(41, 67).
in(41, 70).
in(41, 71).
in(41, 73).
in(41, 74).
in(41, 75).
in(41, 76).
in(41, 80).
in(41, 83).
in(41, 84).
in(41, 85).
in(41, 87).
in(41, 89).
in(41, 90).
in(41, 92).
in(41, 93).
in(41, 94).
in(41, 95).
in(41, 96).
in(41, 98).
in(41, 99).
in(41, 100).
in(41, 101).
in(41, 102).
in(41, 103).
in(41, 104).
in(41, 107).
in(41, 110).
in(41, 111).
in(41, 112).
in(41, 118).
in(41, 120).
in(41, 122).
in(41, 123).
in(41, 125).
in(41, 127).
in(41, 128).
in(41, 130).
in(41, 131).
in(41, 132).
in(41, 134).
in(41, 135).
in(42, 1).
in(42, 2).
in(42, 3).
in(42, 4).
in(42, 6).
in(42, 7).
in(42, 8).
in(42, 9).
in(42, 10).
in(42, 12).
in(42, 13).
in(42, 15).
in(42, 17).
in(42, 18).
in(42, 19).
in(42, 20).
in(42, 21).
in(42, 22).
in(42, 24).
in(42, 27).
in(42, 29).
in(42, 30).
in(42, 31).
in(42, 39).
in(42, 40).
in(42, 41).
in(42, 44).
in(42, 45).
in(42, 49).
in(42, 50).
in(42, 53).
in(42, 55).
in(42, 57).
in(42, 60).
in(42, 62).
in(42, 63).
in(42, 64).
in(42, 65).
in(42, 66).
in(42, 67).
in(42, 68).
in(42, 69).
in(42, 70).
in(42, 71).
in(42, 72).
in(42, 74).
in(42, 75).
in(42, 77).
in(42, 79).
in(42, 81).
in(42, 82).
in(42, 83).
in(42, 84).
in(42, 85).
in(42, 87).
in(42, 88).
in(42, 89).
in(42, 91).
in(42, 92).
in(42, 97).
in(42, 98).
in(42, 99).
in(42, 100).
in(42, 101).
in(42, 102).
in(42, 103).
in(42, 104).
in(42, 108).
in(42, 109).
in(42, 110).
in(42, 111).
in(42, 112).
in(42, 114).
in(42, 118).
in(42, 119).
in(42, 120).
in(42, 122).
in(42, 123).
in(42, 127).
in(42, 128).
in(42, 132).
in(42, 133).
in(43, 2).
in(43, 3).
in(43, 4).
in(43, 6).
in(43, 9).
in(43, 10).
in(43, 12).
in(43, 13).
in(43, 15).
in(43, 16).
in(43, 19).
in(43, 20).
in(43, 21).
in(43, 23).
in(43, 24).
in(43, 27).
in(43, 28).
in(43, 29).
in(43, 30).
in(43, 31).
in(43, 32).
in(43, 33).
in(43, 35).
in(43, 36).
in(43, 37).
in(43, 39).
in(43, 40).
in(43, 42).
in(43, 43).
in(43, 44).
in(43, 46).
in(43, 47).
in(43, 48).
in(43, 49).
in(43, 50).
in(43, 51).
in(43, 52).
in(43, 54).
in(43, 55).
in(43, 56).
in(43, 59).
in(43, 60).
in(43, 61).
in(43, 62).
in(43, 64).
in(43, 66).
in(43, 69).
in(43, 70).
in(43, 73).
in(43, 75).
in(43, 76).
in(43, 77).
in(43, 80).
in(43, 81).
in(43, 86).
in(43, 94).
in(43, 95).
in(43, 97).
in(43, 98).
in(43, 99).
in(43, 101).
in(43, 105).
in(43, 108).
in(43, 110).
in(43, 112).
in(43, 113).
in(43, 114).
in(43, 115).
in(43, 116).
in(43, 117).
in(43, 118).
in(43, 119).
in(43, 120).
in(43, 123).
in(43, 127).
in(43, 128).
in(43, 129).
in(43, 130).
in(43, 132).
in(43, 133).
in(43, 134).
in(44, 128).
in(44, 1).
in(44, 2).
in(44, 3).
in(44, 129).
in(44, 5).
in(44, 6).
in(44, 7).
in(44, 130).
in(44, 131).
in(44, 133).
in(44, 134).
in(44, 12).
in(44, 14).
in(44, 17).
in(44, 18).
in(44, 20).
in(44, 21).
in(44, 22).
in(44, 24).
in(44, 25).
in(44, 28).
in(44, 29).
in(44, 30).
in(44, 31).
in(44, 35).
in(44, 43).
in(44, 45).
in(44, 48).
in(44, 50).
in(44, 51).
in(44, 52).
in(44, 56).
in(44, 57).
in(44, 58).
in(44, 59).
in(44, 68).
in(44, 73).
in(44, 77).
in(44, 78).
in(44, 79).
in(44, 80).
in(44, 81).
in(44, 82).
in(44, 84).
in(44, 85).
in(44, 87).
in(44, 88).
in(44, 90).
in(44, 92).
in(44, 93).
in(44, 95).
in(44, 96).
in(44, 98).
in(44, 99).
in(44, 100).
in(44, 102).
in(44, 104).
in(44, 106).
in(44, 107).
in(44, 108).
in(44, 113).
in(44, 114).
in(44, 115).
in(44, 116).
in(44, 117).
in(44, 119).
in(44, 121).
in(44, 123).
in(44, 124).
in(44, 125).
in(44, 126).
in(44, 127).
in(45, 1).
in(45, 2).
in(45, 130).
in(45, 4).
in(45, 5).
in(45, 6).
in(45, 7).
in(45, 132).
in(45, 9).
in(45, 10).
in(45, 133).
in(45, 12).
in(45, 13).
in(45, 14).
in(45, 15).
in(45, 135).
in(45, 19).
in(45, 20).
in(45, 21).
in(45, 22).
in(45, 24).
in(45, 25).
in(45, 28).
in(45, 29).
in(45, 31).
in(45, 33).
in(45, 34).
in(45, 35).
in(45, 134).
in(45, 37).
in(45, 38).
in(45, 43).
in(45, 44).
in(45, 46).
in(45, 48).
in(45, 51).
in(45, 54).
in(45, 58).
in(45, 61).
in(45, 62).
in(45, 63).
in(45, 64).
in(45, 65).
in(45, 66).
in(45, 68).
in(45, 72).
in(45, 73).
in(45, 74).
in(45, 76).
in(45, 77).
in(45, 80).
in(45, 82).
in(45, 84).
in(45, 85).
in(45, 86).
in(45, 87).
in(45, 88).
in(45, 93).
in(45, 94).
in(45, 95).
in(45, 96).
in(45, 97).
in(45, 98).
in(45, 100).
in(45, 104).
in(45, 105).
in(45, 106).
in(45, 107).
in(45, 111).
in(45, 114).
in(45, 115).
in(45, 116).
in(45, 117).
in(45, 118).
in(45, 121).
in(45, 125).
in(46, 2).
in(46, 3).
in(46, 4).
in(46, 5).
in(46, 6).
in(46, 7).
in(46, 8).
in(46, 9).
in(46, 11).
in(46, 12).
in(46, 14).
in(46, 17).
in(46, 19).
in(46, 20).
in(46, 21).
in(46, 22).
in(46, 23).
in(46, 25).
in(46, 26).
in(46, 29).
in(46, 30).
in(46, 32).
in(46, 33).
in(46, 34).
in(46, 35).
in(46, 36).
in(46, 37).
in(46, 38).
in(46, 39).
in(46, 42).
in(46, 43).
in(46, 44).
in(46, 45).
in(46, 47).
in(46, 51).
in(46, 54).
in(46, 55).
in(46, 56).
in(46, 57).
in(46, 58).
in(46, 59).
in(46, 61).
in(46, 62).
in(46, 66).
in(46, 67).
in(46, 68).
in(46, 69).
in(46, 70).
in(46, 71).
in(46, 75).
in(46, 76).
in(46, 77).
in(46, 78).
in(46, 79).
in(46, 80).
in(46, 81).
in(46, 84).
in(46, 85).
in(46, 87).
in(46, 88).
in(46, 91).
in(46, 92).
in(46, 94).
in(46, 95).
in(46, 96).
in(46, 98).
in(46, 99).
in(46, 100).
in(46, 103).
in(46, 105).
in(46, 107).
in(46, 108).
in(46, 110).
in(46, 120).
in(46, 123).
in(46, 126).
in(46, 129).
in(46, 130).
in(46, 131).
in(46, 133).
in(47, 2).
in(47, 3).
in(47, 7).
in(47, 10).
in(47, 14).
in(47, 15).
in(47, 16).
in(47, 20).
in(47, 21).
in(47, 22).
in(47, 25).
in(47, 28).
in(47, 30).
in(47, 33).
in(47, 34).
in(47, 35).
in(47, 36).
in(47, 37).
in(47, 38).
in(47, 40).
in(47, 41).
in(47, 42).
in(47, 44).
in(47, 45).
in(47, 47).
in(47, 49).
in(47, 50).
in(47, 51).
in(47, 53).
in(47, 55).
in(47, 56).
in(47, 57).
in(47, 58).
in(47, 60).
in(47, 61).
in(47, 64).
in(47, 65).
in(47, 69).
in(47, 71).
in(47, 74).
in(47, 77).
in(47, 78).
in(47, 79).
in(47, 80).
in(47, 82).
in(47, 83).
in(47, 84).
in(47, 86).
in(47, 91).
in(47, 93).
in(47, 95).
in(47, 98).
in(47, 99).
in(47, 100).
in(47, 101).
in(47, 102).
in(47, 103).
in(47, 104).
in(47, 107).
in(47, 112).
in(47, 113).
in(47, 114).
in(47, 116).
in(47, 117).
in(47, 119).
in(47, 120).
in(47, 121).
in(47, 123).
in(47, 124).
in(47, 125).
in(47, 126).
in(47, 128).
in(47, 130).
in(47, 131).
in(47, 132).
in(47, 133).
in(47, 134).
in(48, 129).
in(48, 2).
in(48, 131).
in(48, 4).
in(48, 132).
in(48, 7).
in(48, 8).
in(48, 135).
in(48, 12).
in(48, 15).
in(48, 16).
in(48, 17).
in(48, 20).
in(48, 21).
in(48, 27).
in(48, 29).
in(48, 32).
in(48, 33).
in(48, 35).
in(48, 36).
in(48, 38).
in(48, 42).
in(48, 44).
in(48, 45).
in(48, 46).
in(48, 49).
in(48, 51).
in(48, 53).
in(48, 56).
in(48, 58).
in(48, 61).
in(48, 65).
in(48, 66).
in(48, 68).
in(48, 70).
in(48, 72).
in(48, 75).
in(48, 76).
in(48, 78).
in(48, 80).
in(48, 82).
in(48, 85).
in(48, 87).
in(48, 88).
in(48, 89).
in(48, 91).
in(48, 92).
in(48, 94).
in(48, 96).
in(48, 97).
in(48, 100).
in(48, 101).
in(48, 103).
in(48, 104).
in(48, 109).
in(48, 110).
in(48, 111).
in(48, 112).
in(48, 113).
in(48, 114).
in(48, 116).
in(48, 118).
in(48, 120).
in(48, 121).
in(48, 124).
in(48, 125).
in(48, 127).
in(49, 128).
in(49, 1).
in(49, 2).
in(49, 130).
in(49, 4).
in(49, 5).
in(49, 6).
in(49, 7).
in(49, 132).
in(49, 9).
in(49, 10).
in(49, 133).
in(49, 135).
in(49, 14).
in(49, 18).
in(49, 23).
in(49, 24).
in(49, 26).
in(49, 27).
in(49, 28).
in(49, 30).
in(49, 31).
in(49, 33).
in(49, 34).
in(49, 39).
in(49, 40).
in(49, 41).
in(49, 42).
in(49, 45).
in(49, 50).
in(49, 51).
in(49, 52).
in(49, 53).
in(49, 54).
in(49, 55).
in(49, 56).
in(49, 57).
in(49, 58).
in(49, 60).
in(49, 61).
in(49, 64).
in(49, 65).
in(49, 68).
in(49, 69).
in(49, 70).
in(49, 72).
in(49, 73).
in(49, 75).
in(49, 80).
in(49, 81).
in(49, 82).
in(49, 85).
in(49, 86).
in(49, 89).
in(49, 93).
in(49, 94).
in(49, 96).
in(49, 97).
in(49, 100).
in(49, 105).
in(49, 106).
in(49, 108).
in(49, 109).
in(49, 110).
in(49, 113).
in(49, 116).
in(49, 119).
in(49, 122).
in(49, 123).
in(49, 124).
in(50, 3).
in(50, 4).
in(50, 6).
in(50, 10).
in(50, 11).
in(50, 13).
in(50, 14).
in(50, 18).
in(50, 19).
in(50, 22).
in(50, 24).
in(50, 26).
in(50, 27).
in(50, 28).
in(50, 29).
in(50, 30).
in(50, 31).
in(50, 32).
in(50, 33).
in(50, 39).
in(50, 40).
in(50, 41).
in(50, 42).
in(50, 43).
in(50, 44).
in(50, 45).
in(50, 46).
in(50, 49).
in(50, 54).
in(50, 55).
in(50, 56).
in(50, 57).
in(50, 61).
in(50, 64).
in(50, 65).
in(50, 66).
in(50, 68).
in(50, 69).
in(50, 72).
in(50, 73).
in(50, 75).
in(50, 77).
in(50, 78).
in(50, 79).
in(50, 82).
in(50, 84).
in(50, 85).
in(50, 86).
in(50, 89).
in(50, 91).
in(50, 92).
in(50, 94).
in(50, 95).
in(50, 96).
in(50, 97).
in(50, 98).
in(50, 102).
in(50, 104).
in(50, 105).
in(50, 106).
in(50, 107).
in(50, 108).
in(50, 110).
in(50, 113).
in(50, 118).
in(50, 119).
in(50, 120).
in(50, 123).
in(50, 124).
in(50, 125).
in(50, 127).
in(50, 128).
in(50, 129).
in(50, 130).
in(50, 131).
in(50, 134).
in(50, 135).
in(51, 1).
in(51, 2).
in(51, 3).
in(51, 7).
in(51, 8).
in(51, 10).
in(51, 12).
in(51, 15).
in(51, 16).
in(51, 17).
in(51, 18).
in(51, 19).
in(51, 20).
in(51, 21).
in(51, 22).
in(51, 23).
in(51, 24).
in(51, 25).
in(51, 26).
in(51, 27).
in(51, 28).
in(51, 31).
in(51, 32).
in(51, 33).
in(51, 35).
in(51, 37).
in(51, 38).
in(51, 40).
in(51, 41).
in(51, 44).
in(51, 45).
in(51, 46).
in(51, 48).
in(51, 49).
in(51, 51).
in(51, 52).
in(51, 53).
in(51, 57).
in(51, 58).
in(51, 60).
in(51, 61).
in(51, 63).
in(51, 64).
in(51, 67).
in(51, 69).
in(51, 71).
in(51, 73).
in(51, 77).
in(51, 78).
in(51, 79).
in(51, 85).
in(51, 89).
in(51, 91).
in(51, 92).
in(51, 93).
in(51, 94).
in(51, 95).
in(51, 96).
in(51, 97).
in(51, 98).
in(51, 104).
in(51, 105).
in(51, 106).
in(51, 108).
in(51, 109).
in(51, 110).
in(51, 111).
in(51, 112).
in(51, 113).
in(51, 114).
in(51, 116).
in(51, 118).
in(51, 119).
in(51, 121).
in(51, 123).
in(51, 124).
in(51, 126).
in(51, 127).
in(51, 128).
in(51, 132).
in(52, 2).
in(52, 3).
in(52, 6).
in(52, 9).
in(52, 12).
in(52, 13).
in(52, 14).
in(52, 16).
in(52, 17).
in(52, 20).
in(52, 21).
in(52, 24).
in(52, 25).
in(52, 27).
in(52, 28).
in(52, 29).
in(52, 30).
in(52, 31).
in(52, 32).
in(52, 33).
in(52, 34).
in(52, 38).
in(52, 39).
in(52, 40).
in(52, 41).
in(52, 42).
in(52, 43).
in(52, 47).
in(52, 49).
in(52, 50).
in(52, 51).
in(52, 53).
in(52, 54).
in(52, 56).
in(52, 57).
in(52, 58).
in(52, 61).
in(52, 62).
in(52, 64).
in(52, 65).
in(52, 66).
in(52, 67).
in(52, 68).
in(52, 69).
in(52, 71).
in(52, 72).
in(52, 76).
in(52, 78).
in(52, 79).
in(52, 80).
in(52, 82).
in(52, 84).
in(52, 85).
in(52, 86).
in(52, 89).
in(52, 92).
in(52, 93).
in(52, 98).
in(52, 99).
in(52, 100).
in(52, 101).
in(52, 103).
in(52, 108).
in(52, 110).
in(52, 112).
in(52, 113).
in(52, 114).
in(52, 115).
in(52, 116).
in(52, 117).
in(52, 118).
in(52, 119).
in(52, 120).
in(52, 121).
in(52, 122).
in(52, 124).
in(52, 125).
in(52, 127).
in(52, 129).
in(52, 130).
in(52, 131).
in(52, 132).
in(52, 133).
in(52, 134).
in(53, 1).
in(53, 130).
in(53, 4).
in(53, 133).
in(53, 6).
in(53, 7).
in(53, 135).
in(53, 9).
in(53, 13).
in(53, 14).
in(53, 15).
in(53, 16).
in(53, 18).
in(53, 19).
in(53, 20).
in(53, 21).
in(53, 22).
in(53, 27).
in(53, 28).
in(53, 29).
in(53, 31).
in(53, 32).
in(53, 33).
in(53, 37).
in(53, 38).
in(53, 39).
in(53, 40).
in(53, 41).
in(53, 42).
in(53, 43).
in(53, 45).
in(53, 51).
in(53, 52).
in(53, 54).
in(53, 56).
in(53, 57).
in(53, 58).
in(53, 59).
in(53, 63).
in(53, 65).
in(53, 67).
in(53, 68).
in(53, 69).
in(53, 71).
in(53, 72).
in(53, 74).
in(53, 75).
in(53, 76).
in(53, 78).
in(53, 80).
in(53, 82).
in(53, 83).
in(53, 89).
in(53, 90).
in(53, 91).
in(53, 95).
in(53, 96).
in(53, 97).
in(53, 98).
in(53, 99).
in(53, 100).
in(53, 106).
in(53, 108).
in(53, 109).
in(53, 110).
in(53, 114).
in(53, 115).
in(53, 118).
in(53, 123).
in(53, 124).
in(53, 125).
in(54, 1).
in(54, 2).
in(54, 3).
in(54, 4).
in(54, 5).
in(54, 6).
in(54, 7).
in(54, 8).
in(54, 10).
in(54, 11).
in(54, 13).
in(54, 16).
in(54, 18).
in(54, 19).
in(54, 20).
in(54, 22).
in(54, 23).
in(54, 24).
in(54, 27).
in(54, 28).
in(54, 29).
in(54, 30).
in(54, 32).
in(54, 34).
in(54, 35).
in(54, 37).
in(54, 38).
in(54, 40).
in(54, 41).
in(54, 42).
in(54, 43).
in(54, 45).
in(54, 46).
in(54, 47).
in(54, 49).
in(54, 51).
in(54, 52).
in(54, 53).
in(54, 54).
in(54, 55).
in(54, 57).
in(54, 58).
in(54, 60).
in(54, 61).
in(54, 63).
in(54, 64).
in(54, 65).
in(54, 68).
in(54, 69).
in(54, 70).
in(54, 71).
in(54, 73).
in(54, 74).
in(54, 76).
in(54, 78).
in(54, 80).
in(54, 81).
in(54, 84).
in(54, 89).
in(54, 92).
in(54, 94).
in(54, 95).
in(54, 98).
in(54, 99).
in(54, 101).
in(54, 102).
in(54, 103).
in(54, 104).
in(54, 105).
in(54, 109).
in(54, 112).
in(54, 113).
in(54, 115).
in(54, 116).
in(54, 120).
in(54, 121).
in(54, 123).
in(54, 125).
in(54, 127).
in(54, 128).
in(54, 132).
in(54, 133).
in(54, 134).
in(55, 1).
in(55, 2).
in(55, 129).
in(55, 130).
in(55, 131).
in(55, 133).
in(55, 135).
in(55, 10).
in(55, 11).
in(55, 12).
in(55, 13).
in(55, 16).
in(55, 18).
in(55, 19).
in(55, 20).
in(55, 22).
in(55, 23).
in(55, 27).
in(55, 33).
in(55, 37).
in(55, 38).
in(55, 41).
in(55, 45).
in(55, 47).
in(55, 48).
in(55, 50).
in(55, 51).
in(55, 53).
in(55, 57).
in(55, 59).
in(55, 61).
in(55, 65).
in(55, 67).
in(55, 69).
in(55, 72).
in(55, 75).
in(55, 77).
in(55, 81).
in(55, 82).
in(55, 84).
in(55, 85).
in(55, 88).
in(55, 89).
in(55, 90).
in(55, 92).
in(55, 93).
in(55, 96).
in(55, 97).
in(55, 100).
in(55, 102).
in(55, 104).
in(55, 106).
in(55, 107).
in(55, 110).
in(55, 111).
in(55, 113).
in(55, 114).
in(55, 116).
in(55, 118).
in(55, 119).
in(55, 121).
in(55, 122).
in(55, 124).
in(55, 125).
in(55, 126).
in(55, 127).
in(56, 3).
in(56, 4).
in(56, 7).
in(56, 10).
in(56, 12).
in(56, 13).
in(56, 14).
in(56, 15).
in(56, 16).
in(56, 17).
in(56, 20).
in(56, 21).
in(56, 23).
in(56, 28).
in(56, 29).
in(56, 31).
in(56, 34).
in(56, 37).
in(56, 40).
in(56, 42).
in(56, 43).
in(56, 44).
in(56, 45).
in(56, 46).
in(56, 47).
in(56, 49).
in(56, 50).
in(56, 52).
in(56, 53).
in(56, 54).
in(56, 55).
in(56, 56).
in(56, 57).
in(56, 59).
in(56, 62).
in(56, 63).
in(56, 64).
in(56, 65).
in(56, 66).
in(56, 68).
in(56, 70).
in(56, 72).
in(56, 73).
in(56, 75).
in(56, 76).
in(56, 78).
in(56, 80).
in(56, 82).
in(56, 83).
in(56, 84).
in(56, 86).
in(56, 88).
in(56, 89).
in(56, 90).
in(56, 91).
in(56, 92).
in(56, 94).
in(56, 96).
in(56, 97).
in(56, 98).
in(56, 99).
in(56, 100).
in(56, 102).
in(56, 103).
in(56, 105).
in(56, 106).
in(56, 108).
in(56, 109).
in(56, 112).
in(56, 113).
in(56, 115).
in(56, 118).
in(56, 119).
in(56, 121).
in(56, 122).
in(56, 123).
in(56, 125).
in(56, 126).
in(56, 127).
in(56, 129).
in(56, 130).
in(56, 132).
in(57, 1).
in(57, 2).
in(57, 3).
in(57, 129).
in(57, 5).
in(57, 130).
in(57, 7).
in(57, 8).
in(57, 131).
in(57, 133).
in(57, 135).
in(57, 12).
in(57, 15).
in(57, 17).
in(57, 18).
in(57, 19).
in(57, 22).
in(57, 24).
in(57, 26).
in(57, 30).
in(57, 31).
in(57, 32).
in(57, 33).
in(57, 38).
in(57, 40).
in(57, 43).
in(57, 46).
in(57, 49).
in(57, 50).
in(57, 52).
in(57, 54).
in(57, 56).
in(57, 59).
in(57, 60).
in(57, 61).
in(57, 65).
in(57, 67).
in(57, 68).
in(57, 69).
in(57, 74).
in(57, 77).
in(57, 78).
in(57, 80).
in(57, 83).
in(57, 84).
in(57, 85).
in(57, 87).
in(57, 88).
in(57, 89).
in(57, 91).
in(57, 92).
in(57, 96).
in(57, 100).
in(57, 101).
in(57, 102).
in(57, 103).
in(57, 105).
in(57, 107).
in(57, 108).
in(57, 109).
in(57, 111).
in(57, 113).
in(57, 115).
in(57, 117).
in(57, 119).
in(57, 120).
in(57, 125).
in(57, 126).
in(58, 3).
in(58, 5).
in(58, 7).
in(58, 8).
in(58, 9).
in(58, 11).
in(58, 12).
in(58, 13).
in(58, 14).
in(58, 16).
in(58, 18).
in(58, 19).
in(58, 21).
in(58, 24).
in(58, 25).
in(58, 27).
in(58, 28).
in(58, 30).
in(58, 31).
in(58, 32).
in(58, 35).
in(58, 36).
in(58, 38).
in(58, 39).
in(58, 40).
in(58, 42).
in(58, 43).
in(58, 44).
in(58, 45).
in(58, 47).
in(58, 48).
in(58, 50).
in(58, 51).
in(58, 52).
in(58, 54).
in(58, 55).
in(58, 56).
in(58, 57).
in(58, 58).
in(58, 59).
in(58, 60).
in(58, 61).
in(58, 62).
in(58, 66).
in(58, 67).
in(58, 74).
in(58, 75).
in(58, 76).
in(58, 78).
in(58, 80).
in(58, 81).
in(58, 85).
in(58, 86).
in(58, 88).
in(58, 89).
in(58, 92).
in(58, 94).
in(58, 95).
in(58, 102).
in(58, 103).
in(58, 106).
in(58, 108).
in(58, 109).
in(58, 112).
in(58, 115).
in(58, 117).
in(58, 118).
in(58, 119).
in(58, 120).
in(58, 121).
in(58, 122).
in(58, 123).
in(58, 124).
in(58, 125).
in(58, 127).
in(58, 128).
in(58, 130).
in(58, 135).
in(59, 1).
in(59, 2).
in(59, 3).
in(59, 4).
in(59, 130).
in(59, 6).
in(59, 7).
in(59, 133).
in(59, 9).
in(59, 10).
in(59, 11).
in(59, 12).
in(59, 13).
in(59, 14).
in(59, 134).
in(59, 17).
in(59, 20).
in(59, 22).
in(59, 24).
in(59, 26).
in(59, 28).
in(59, 29).
in(59, 30).
in(59, 32).
in(59, 34).
in(59, 36).
in(59, 38).
in(59, 39).
in(59, 42).
in(59, 43).
in(59, 47).
in(59, 48).
in(59, 50).
in(59, 51).
in(59, 53).
in(59, 54).
in(59, 55).
in(59, 56).
in(59, 57).
in(59, 58).
in(59, 59).
in(59, 61).
in(59, 68).
in(59, 69).
in(59, 70).
in(59, 71).
in(59, 72).
in(59, 73).
in(59, 74).
in(59, 76).
in(59, 79).
in(59, 82).
in(59, 84).
in(59, 86).
in(59, 91).
in(59, 92).
in(59, 96).
in(59, 98).
in(59, 100).
in(59, 102).
in(59, 103).
in(59, 105).
in(59, 106).
in(59, 107).
in(59, 108).
in(59, 109).
in(59, 110).
in(59, 111).
in(59, 117).
in(59, 120).
in(59, 121).
in(59, 122).
in(59, 123).
in(59, 127).
in(60, 128).
in(60, 2).
in(60, 3).
in(60, 4).
in(60, 130).
in(60, 131).
in(60, 133).
in(60, 8).
in(60, 134).
in(60, 10).
in(60, 11).
in(60, 135).
in(60, 15).
in(60, 17).
in(60, 18).
in(60, 19).
in(60, 21).
in(60, 22).
in(60, 24).
in(60, 25).
in(60, 27).
in(60, 30).
in(60, 32).
in(60, 33).
in(60, 35).
in(60, 36).
in(60, 39).
in(60, 41).
in(60, 42).
in(60, 45).
in(60, 46).
in(60, 48).
in(60, 49).
in(60, 52).
in(60, 53).
in(60, 56).
in(60, 59).
in(60, 61).
in(60, 62).
in(60, 63).
in(60, 64).
in(60, 69).
in(60, 70).
in(60, 71).
in(60, 75).
in(60, 77).
in(60, 78).
in(60, 82).
in(60, 86).
in(60, 90).
in(60, 94).
in(60, 95).
in(60, 99).
in(60, 101).
in(60, 102).
in(60, 103).
in(60, 104).
in(60, 106).
in(60, 110).
in(60, 111).
in(60, 114).
in(60, 115).
in(60, 116).
in(60, 118).
in(60, 119).
in(60, 120).
in(60, 121).
in(60, 124).
in(60, 125).
in(60, 126).
in(61, 128).
in(61, 129).
in(61, 2).
in(61, 4).
in(61, 132).
in(61, 6).
in(61, 7).
in(61, 134).
in(61, 9).
in(61, 13).
in(61, 14).
in(61, 16).
in(61, 17).
in(61, 18).
in(61, 20).
in(61, 21).
in(61, 23).
in(61, 24).
in(61, 25).
in(61, 26).
in(61, 27).
in(61, 28).
in(61, 29).
in(61, 30).
in(61, 32).
in(61, 35).
in(61, 40).
in(61, 41).
in(61, 42).
in(61, 44).
in(61, 45).
in(61, 46).
in(61, 48).
in(61, 49).
in(61, 50).
in(61, 51).
in(61, 53).
in(61, 55).
in(61, 56).
in(61, 61).
in(61, 64).
in(61, 65).
in(61, 66).
in(61, 68).
in(61, 69).
in(61, 72).
in(61, 74).
in(61, 76).
in(61, 79).
in(61, 81).
in(61, 82).
in(61, 83).
in(61, 86).
in(61, 87).
in(61, 89).
in(61, 90).
in(61, 95).
in(61, 96).
in(61, 97).
in(61, 98).
in(61, 99).
in(61, 102).
in(61, 103).
in(61, 104).
in(61, 105).
in(61, 106).
in(61, 108).
in(61, 111).
in(61, 112).
in(61, 114).
in(61, 115).
in(61, 117).
in(61, 119).
in(61, 125).
in(61, 126).
in(62, 129).
in(62, 4).
in(62, 132).
in(62, 133).
in(62, 7).
in(62, 10).
in(62, 13).
in(62, 14).
in(62, 15).
in(62, 17).
in(62, 22).
in(62, 25).
in(62, 26).
in(62, 27).
in(62, 28).
in(62, 29).
in(62, 30).
in(62, 31).
in(62, 32).
in(62, 33).
in(62, 34).
in(62, 35).
in(62, 36).
in(62, 37).
in(62, 38).
in(62, 41).
in(62, 42).
in(62, 43).
in(62, 44).
in(62, 47).
in(62, 48).
in(62, 49).
in(62, 51).
in(62, 52).
in(62, 53).
in(62, 54).
in(62, 56).
in(62, 63).
in(62, 66).
in(62, 68).
in(62, 69).
in(62, 70).
in(62, 71).
in(62, 72).
in(62, 77).
in(62, 81).
in(62, 83).
in(62, 85).
in(62, 87).
in(62, 90).
in(62, 91).
in(62, 92).
in(62, 94).
in(62, 95).
in(62, 96).
in(62, 100).
in(62, 102).
in(62, 103).
in(62, 105).
in(62, 106).
in(62, 111).
in(62, 112).
in(62, 113).
in(62, 114).
in(62, 115).
in(62, 116).
in(62, 117).
in(62, 119).
in(62, 120).
in(62, 122).
in(62, 124).
in(62, 125).
in(62, 127).
in(63, 128).
in(63, 1).
in(63, 2).
in(63, 130).
in(63, 4).
in(63, 5).
in(63, 6).
in(63, 132).
in(63, 133).
in(63, 9).
in(63, 12).
in(63, 15).
in(63, 16).
in(63, 17).
in(63, 18).
in(63, 19).
in(63, 22).
in(63, 26).
in(63, 27).
in(63, 28).
in(63, 31).
in(63, 32).
in(63, 33).
in(63, 34).
in(63, 45).
in(63, 48).
in(63, 50).
in(63, 51).
in(63, 54).
in(63, 56).
in(63, 57).
in(63, 58).
in(63, 59).
in(63, 61).
in(63, 62).
in(63, 64).
in(63, 66).
in(63, 67).
in(63, 68).
in(63, 72).
in(63, 75).
in(63, 77).
in(63, 78).
in(63, 80).
in(63, 81).
in(63, 82).
in(63, 83).
in(63, 84).
in(63, 85).
in(63, 87).
in(63, 88).
in(63, 89).
in(63, 94).
in(63, 97).
in(63, 98).
in(63, 100).
in(63, 104).
in(63, 105).
in(63, 107).
in(63, 108).
in(63, 109).
in(63, 114).
in(63, 115).
in(63, 118).
in(63, 120).
in(63, 121).
in(63, 123).
in(63, 124).
in(63, 127).
in(64, 128).
in(64, 129).
in(64, 130).
in(64, 3).
in(64, 132).
in(64, 133).
in(64, 135).
in(64, 8).
in(64, 12).
in(64, 18).
in(64, 19).
in(64, 20).
in(64, 21).
in(64, 25).
in(64, 27).
in(64, 28).
in(64, 32).
in(64, 33).
in(64, 34).
in(64, 35).
in(64, 38).
in(64, 40).
in(64, 43).
in(64, 44).
in(64, 48).
in(64, 49).
in(64, 50).
in(64, 51).
in(64, 53).
in(64, 54).
in(64, 59).
in(64, 61).
in(64, 63).
in(64, 65).
in(64, 69).
in(64, 70).
in(64, 71).
in(64, 72).
in(64, 73).
in(64, 75).
in(64, 77).
in(64, 78).
in(64, 79).
in(64, 80).
in(64, 81).
in(64, 82).
in(64, 84).
in(64, 87).
in(64, 90).
in(64, 93).
in(64, 94).
in(64, 95).
in(64, 96).
in(64, 99).
in(64, 101).
in(64, 102).
in(64, 105).
in(64, 106).
in(64, 107).
in(64, 108).
in(64, 112).
in(64, 113).
in(64, 115).
in(64, 116).
in(64, 118).
in(64, 119).
in(64, 121).
in(64, 122).
in(64, 123).
in(64, 127).
in(65, 2).
in(65, 4).
in(65, 6).
in(65, 7).
in(65, 8).
in(65, 9).
in(65, 10).
in(65, 11).
in(65, 12).
in(65, 13).
in(65, 16).
in(65, 17).
in(65, 18).
in(65, 21).
in(65, 22).
in(65, 23).
in(65, 24).
in(65, 25).
in(65, 26).
in(65, 29).
in(65, 32).
in(65, 38).
in(65, 40).
in(65, 42).
in(65, 44).
in(65, 47).
in(65, 48).
in(65, 49).
in(65, 51).
in(65, 52).
in(65, 53).
in(65, 54).
in(65, 58).
in(65, 59).
in(65, 60).
in(65, 61).
in(65, 63).
in(65, 64).
in(65, 67).
in(65, 69).
in(65, 70).
in(65, 71).
in(65, 73).
in(65, 74).
in(65, 76).
in(65, 78).
in(65, 79).
in(65, 80).
in(65, 81).
in(65, 83).
in(65, 84).
in(65, 86).
in(65, 87).
in(65, 89).
in(65, 90).
in(65, 92).
in(65, 93).
in(65, 95).
in(65, 96).
in(65, 97).
in(65, 101).
in(65, 102).
in(65, 104).
in(65, 105).
in(65, 106).
in(65, 108).
in(65, 109).
in(65, 110).
in(65, 111).
in(65, 113).
in(65, 116).
in(65, 117).
in(65, 120).
in(65, 121).
in(65, 123).
in(65, 126).
in(65, 128).
in(65, 130).
in(65, 132).
in(65, 134).
in(66, 1).
in(66, 2).
in(66, 129).
in(66, 4).
in(66, 5).
in(66, 6).
in(66, 131).
in(66, 8).
in(66, 9).
in(66, 10).
in(66, 11).
in(66, 133).
in(66, 15).
in(66, 16).
in(66, 20).
in(66, 21).
in(66, 22).
in(66, 23).
in(66, 24).
in(66, 26).
in(66, 29).
in(66, 30).
in(66, 31).
in(66, 32).
in(66, 34).
in(66, 35).
in(66, 36).
in(66, 43).
in(66, 44).
in(66, 45).
in(66, 48).
in(66, 49).
in(66, 54).
in(66, 57).
in(66, 58).
in(66, 60).
in(66, 62).
in(66, 63).
in(66, 64).
in(66, 67).
in(66, 68).
in(66, 70).
in(66, 77).
in(66, 78).
in(66, 83).
in(66, 84).
in(66, 87).
in(66, 88).
in(66, 89).
in(66, 90).
in(66, 91).
in(66, 93).
in(66, 95).
in(66, 96).
in(66, 99).
in(66, 100).
in(66, 101).
in(66, 103).
in(66, 106).
in(66, 107).
in(66, 109).
in(66, 111).
in(66, 112).
in(66, 113).
in(66, 115).
in(66, 116).
in(66, 117).
in(66, 118).
in(66, 120).
in(66, 121).
in(66, 122).
in(66, 124).
in(67, 128).
in(67, 1).
in(67, 129).
in(67, 3).
in(67, 4).
in(67, 133).
in(67, 135).
in(67, 8).
in(67, 9).
in(67, 11).
in(67, 12).
in(67, 13).
in(67, 14).
in(67, 15).
in(67, 16).
in(67, 19).
in(67, 23).
in(67, 25).
in(67, 26).
in(67, 28).
in(67, 29).
in(67, 32).
in(67, 33).
in(67, 34).
in(67, 36).
in(67, 40).
in(67, 42).
in(67, 43).
in(67, 45).
in(67, 47).
in(67, 50).
in(67, 51).
in(67, 52).
in(67, 53).
in(67, 54).
in(67, 56).
in(67, 58).
in(67, 59).
in(67, 60).
in(67, 61).
in(67, 62).
in(67, 65).
in(67, 66).
in(67, 67).
in(67, 68).
in(67, 70).
in(67, 72).
in(67, 73).
in(67, 74).
in(67, 77).
in(67, 78).
in(67, 79).
in(67, 80).
in(67, 81).
in(67, 85).
in(67, 86).
in(67, 88).
in(67, 89).
in(67, 91).
in(67, 92).
in(67, 93).
in(67, 96).
in(67, 98).
in(67, 99).
in(67, 100).
in(67, 103).
in(67, 105).
in(67, 106).
in(67, 109).
in(67, 110).
in(67, 114).
in(67, 116).
in(67, 120).
in(67, 121).
in(67, 122).
in(67, 126).
in(68, 128).
in(68, 1).
in(68, 2).
in(68, 3).
in(68, 4).
in(68, 130).
in(68, 6).
in(68, 7).
in(68, 131).
in(68, 9).
in(68, 10).
in(68, 11).
in(68, 12).
in(68, 13).
in(68, 134).
in(68, 15).
in(68, 18).
in(68, 23).
in(68, 24).
in(68, 25).
in(68, 26).
in(68, 29).
in(68, 34).
in(68, 35).
in(68, 36).
in(68, 37).
in(68, 41).
in(68, 43).
in(68, 44).
in(68, 45).
in(68, 46).
in(68, 47).
in(68, 48).
in(68, 50).
in(68, 53).
in(68, 55).
in(68, 57).
in(68, 58).
in(68, 61).
in(68, 64).
in(68, 65).
in(68, 67).
in(68, 70).
in(68, 71).
in(68, 72).
in(68, 73).
in(68, 74).
in(68, 75).
in(68, 76).
in(68, 78).
in(68, 80).
in(68, 81).
in(68, 82).
in(68, 83).
in(68, 84).
in(68, 85).
in(68, 86).
in(68, 87).
in(68, 89).
in(68, 91).
in(68, 92).
in(68, 96).
in(68, 98).
in(68, 99).
in(68, 101).
in(68, 103).
in(68, 107).
in(68, 109).
in(68, 111).
in(68, 112).
in(68, 113).
in(68, 114).
in(68, 118).
in(68, 119).
in(68, 120).
in(68, 123).
in(69, 1).
in(69, 129).
in(69, 130).
in(69, 4).
in(69, 5).
in(69, 6).
in(69, 7).
in(69, 8).
in(69, 9).
in(69, 132).
in(69, 11).
in(69, 133).
in(69, 13).
in(69, 14).
in(69, 15).
in(69, 16).
in(69, 17).
in(69, 18).
in(69, 20).
in(69, 23).
in(69, 24).
in(69, 27).
in(69, 30).
in(69, 33).
in(69, 34).
in(69, 35).
in(69, 36).
in(69, 134).
in(69, 38).
in(69, 39).
in(69, 40).
in(69, 41).
in(69, 43).
in(69, 44).
in(69, 49).
in(69, 50).
in(69, 51).
in(69, 53).
in(69, 55).
in(69, 56).
in(69, 58).
in(69, 59).
in(69, 61).
in(69, 62).
in(69, 66).
in(69, 69).
in(69, 70).
in(69, 72).
in(69, 73).
in(69, 74).
in(69, 75).
in(69, 79).
in(69, 84).
in(69, 86).
in(69, 88).
in(69, 90).
in(69, 91).
in(69, 93).
in(69, 94).
in(69, 96).
in(69, 98).
in(69, 99).
in(69, 100).
in(69, 102).
in(69, 104).
in(69, 108).
in(69, 115).
in(69, 116).
in(69, 117).
in(69, 119).
in(69, 121).
in(69, 122).
in(69, 124).
in(69, 126).
in(69, 127).
in(70, 1).
in(70, 129).
in(70, 3).
in(70, 130).
in(70, 6).
in(70, 7).
in(70, 8).
in(70, 9).
in(70, 134).
in(70, 11).
in(70, 135).
in(70, 13).
in(70, 14).
in(70, 18).
in(70, 19).
in(70, 22).
in(70, 26).
in(70, 27).
in(70, 29).
in(70, 32).
in(70, 33).
in(70, 35).
in(70, 38).
in(70, 39).
in(70, 41).
in(70, 42).
in(70, 47).
in(70, 48).
in(70, 50).
in(70, 52).
in(70, 53).
in(70, 59).
in(70, 60).
in(70, 61).
in(70, 64).
in(70, 66).
in(70, 67).
in(70, 69).
in(70, 70).
in(70, 71).
in(70, 73).
in(70, 74).
in(70, 75).
in(70, 77).
in(70, 79).
in(70, 80).
in(70, 81).
in(70, 83).
in(70, 84).
in(70, 85).
in(70, 88).
in(70, 90).
in(70, 92).
in(70, 93).
in(70, 95).
in(70, 97).
in(70, 98).
in(70, 99).
in(70, 100).
in(70, 101).
in(70, 104).
in(70, 105).
in(70, 106).
in(70, 107).
in(70, 109).
in(70, 110).
in(70, 112).
in(70, 114).
in(70, 116).
in(70, 118).
in(70, 120).
in(70, 121).
in(70, 125).
in(71, 1).
in(71, 3).
in(71, 4).
in(71, 5).
in(71, 7).
in(71, 8).
in(71, 9).
in(71, 10).
in(71, 11).
in(71, 12).
in(71, 15).
in(71, 16).
in(71, 17).
in(71, 18).
in(71, 20).
in(71, 21).
in(71, 22).
in(71, 23).
in(71, 29).
in(71, 30).
in(71, 32).
in(71, 34).
in(71, 37).
in(71, 38).
in(71, 39).
in(71, 40).
in(71, 41).
in(71, 42).
in(71, 43).
in(71, 45).
in(71, 46).
in(71, 47).
in(71, 48).
in(71, 50).
in(71, 53).
in(71, 56).
in(71, 59).
in(71, 61).
in(71, 63).
in(71, 64).
in(71, 65).
in(71, 66).
in(71, 67).
in(71, 68).
in(71, 74).
in(71, 75).
in(71, 76).
in(71, 77).
in(71, 78).
in(71, 80).
in(71, 82).
in(71, 84).
in(71, 85).
in(71, 87).
in(71, 88).
in(71, 90).
in(71, 94).
in(71, 95).
in(71, 96).
in(71, 97).
in(71, 102).
in(71, 103).
in(71, 104).
in(71, 105).
in(71, 108).
in(71, 109).
in(71, 111).
in(71, 113).
in(71, 114).
in(71, 115).
in(71, 117).
in(71, 119).
in(71, 120).
in(71, 124).
in(71, 127).
in(71, 129).
in(71, 130).
in(71, 131).
in(71, 132).
in(71, 134).
in(72, 1).
in(72, 129).
in(72, 3).
in(72, 4).
in(72, 5).
in(72, 130).
in(72, 7).
in(72, 8).
in(72, 132).
in(72, 134).
in(72, 135).
in(72, 13).
in(72, 18).
in(72, 20).
in(72, 21).
in(72, 24).
in(72, 26).
in(72, 28).
in(72, 29).
in(72, 31).
in(72, 33).
in(72, 34).
in(72, 35).
in(72, 39).
in(72, 41).
in(72, 42).
in(72, 46).
in(72, 48).
in(72, 50).
in(72, 53).
in(72, 55).
in(72, 56).
in(72, 57).
in(72, 59).
in(72, 60).
in(72, 61).
in(72, 63).
in(72, 65).
in(72, 66).
in(72, 67).
in(72, 70).
in(72, 73).
in(72, 74).
in(72, 76).
in(72, 77).
in(72, 79).
in(72, 80).
in(72, 82).
in(72, 84).
in(72, 86).
in(72, 89).
in(72, 90).
in(72, 92).
in(72, 93).
in(72, 94).
in(72, 97).
in(72, 98).
in(72, 101).
in(72, 102).
in(72, 103).
in(72, 108).
in(72, 110).
in(72, 112).
in(72, 114).
in(72, 115).
in(72, 116).
in(72, 117).
in(72, 119).
in(72, 120).
in(72, 121).
in(72, 123).
in(72, 124).
in(72, 125).
in(72, 127).
in(73, 128).
in(73, 1).
in(73, 131).
in(73, 4).
in(73, 5).
in(73, 132).
in(73, 134).
in(73, 8).
in(73, 135).
in(73, 12).
in(73, 13).
in(73, 14).
in(73, 15).
in(73, 16).
in(73, 17).
in(73, 19).
in(73, 20).
in(73, 23).
in(73, 24).
in(73, 28).
in(73, 30).
in(73, 31).
in(73, 32).
in(73, 34).
in(73, 36).
in(73, 40).
in(73, 41).
in(73, 42).
in(73, 44).
in(73, 45).
in(73, 46).
in(73, 47).
in(73, 49).
in(73, 56).
in(73, 57).
in(73, 58).
in(73, 60).
in(73, 62).
in(73, 64).
in(73, 65).
in(73, 66).
in(73, 68).
in(73, 69).
in(73, 71).
in(73, 75).
in(73, 78).
in(73, 79).
in(73, 80).
in(73, 82).
in(73, 83).
in(73, 84).
in(73, 87).
in(73, 89).
in(73, 90).
in(73, 91).
in(73, 92).
in(73, 97).
in(73, 98).
in(73, 99).
in(73, 101).
in(73, 103).
in(73, 105).
in(73, 106).
in(73, 110).
in(73, 112).
in(73, 113).
in(73, 114).
in(73, 115).
in(73, 117).
in(73, 120).
in(73, 123).
in(73, 124).
in(74, 1).
in(74, 2).
in(74, 6).
in(74, 12).
in(74, 13).
in(74, 17).
in(74, 21).
in(74, 22).
in(74, 24).
in(74, 25).
in(74, 26).
in(74, 27).
in(74, 28).
in(74, 29).
in(74, 31).
in(74, 32).
in(74, 33).
in(74, 34).
in(74, 36).
in(74, 37).
in(74, 38).
in(74, 39).
in(74, 40).
in(74, 42).
in(74, 43).
in(74, 44).
in(74, 46).
in(74, 49).
in(74, 50).
in(74, 51).
in(74, 54).
in(74, 56).
in(74, 60).
in(74, 61).
in(74, 62).
in(74, 63).
in(74, 64).
in(74, 66).
in(74, 67).
in(74, 68).
in(74, 69).
in(74, 70).
in(74, 72).
in(74, 73).
in(74, 74).
in(74, 75).
in(74, 77).
in(74, 80).
in(74, 82).
in(74, 83).
in(74, 84).
in(74, 85).
in(74, 88).
in(74, 89).
in(74, 90).
in(74, 91).
in(74, 95).
in(74, 98).
in(74, 99).
in(74, 101).
in(74, 103).
in(74, 105).
in(74, 106).
in(74, 107).
in(74, 108).
in(74, 109).
in(74, 110).
in(74, 111).
in(74, 113).
in(74, 114).
in(74, 115).
in(74, 116).
in(74, 117).
in(74, 118).
in(74, 120).
in(74, 121).
in(74, 122).
in(74, 123).
in(74, 124).
in(74, 125).
in(74, 126).
in(74, 128).
in(74, 129).
in(74, 134).
in(75, 1).
in(75, 2).
in(75, 3).
in(75, 4).
in(75, 5).
in(75, 6).
in(75, 7).
in(75, 8).
in(75, 9).
in(75, 10).
in(75, 11).
in(75, 13).
in(75, 15).
in(75, 18).
in(75, 20).
in(75, 21).
in(75, 26).
in(75, 27).
in(75, 30).
in(75, 32).
in(75, 33).
in(75, 34).
in(75, 36).
in(75, 38).
in(75, 40).
in(75, 42).
in(75, 43).
in(75, 44).
in(75, 46).
in(75, 47).
in(75, 48).
in(75, 52).
in(75, 53).
in(75, 54).
in(75, 55).
in(75, 57).
in(75, 61).
in(75, 63).
in(75, 66).
in(75, 67).
in(75, 69).
in(75, 72).
in(75, 74).
in(75, 76).
in(75, 79).
in(75, 85).
in(75, 86).
in(75, 87).
in(75, 88).
in(75, 90).
in(75, 91).
in(75, 93).
in(75, 94).
in(75, 95).
in(75, 96).
in(75, 97).
in(75, 98).
in(75, 101).
in(75, 102).
in(75, 103).
in(75, 104).
in(75, 105).
in(75, 108).
in(75, 110).
in(75, 112).
in(75, 113).
in(75, 114).
in(75, 115).
in(75, 116).
in(75, 117).
in(75, 118).
in(75, 119).
in(75, 120).
in(75, 121).
in(75, 123).
in(75, 125).
in(75, 126).
in(75, 127).
in(75, 128).
in(75, 131).
in(75, 134).
in(76, 128).
in(76, 1).
in(76, 130).
in(76, 3).
in(76, 4).
in(76, 131).
in(76, 132).
in(76, 7).
in(76, 9).
in(76, 10).
in(76, 11).
in(76, 20).
in(76, 21).
in(76, 24).
in(76, 25).
in(76, 27).
in(76, 28).
in(76, 29).
in(76, 30).
in(76, 31).
in(76, 32).
in(76, 35).
in(76, 36).
in(76, 37).
in(76, 39).
in(76, 40).
in(76, 42).
in(76, 43).
in(76, 45).
in(76, 46).
in(76, 49).
in(76, 50).
in(76, 52).
in(76, 56).
in(76, 59).
in(76, 62).
in(76, 64).
in(76, 66).
in(76, 67).
in(76, 71).
in(76, 72).
in(76, 74).
in(76, 81).
in(76, 82).
in(76, 83).
in(76, 84).
in(76, 85).
in(76, 86).
in(76, 88).
in(76, 89).
in(76, 92).
in(76, 94).
in(76, 97).
in(76, 100).
in(76, 101).
in(76, 108).
in(76, 109).
in(76, 112).
in(76, 113).
in(76, 114).
in(76, 115).
in(76, 117).
in(76, 118).
in(76, 120).
in(76, 124).
in(76, 126).
in(77, 2).
in(77, 130).
in(77, 131).
in(77, 5).
in(77, 134).
in(77, 135).
in(77, 8).
in(77, 9).
in(77, 10).
in(77, 12).
in(77, 16).
in(77, 17).
in(77, 22).
in(77, 24).
in(77, 25).
in(77, 26).
in(77, 27).
in(77, 32).
in(77, 34).
in(77, 35).
in(77, 37).
in(77, 39).
in(77, 40).
in(77, 41).
in(77, 42).
in(77, 43).
in(77, 44).
in(77, 45).
in(77, 47).
in(77, 48).
in(77, 49).
in(77, 50).
in(77, 51).
in(77, 52).
in(77, 55).
in(77, 57).
in(77, 58).
in(77, 59).
in(77, 62).
in(77, 64).
in(77, 65).
in(77, 66).
in(77, 67).
in(77, 71).
in(77, 73).
in(77, 74).
in(77, 75).
in(77, 78).
in(77, 79).
in(77, 81).
in(77, 82).
in(77, 83).
in(77, 84).
in(77, 87).
in(77, 90).
in(77, 92).
in(77, 94).
in(77, 95).
in(77, 96).
in(77, 97).
in(77, 98).
in(77, 100).
in(77, 102).
in(77, 103).
in(77, 106).
in(77, 108).
in(77, 110).
in(77, 111).
in(77, 114).
in(77, 117).
in(77, 121).
in(77, 122).
in(77, 127).
in(78, 1).
in(78, 3).
in(78, 131).
in(78, 132).
in(78, 6).
in(78, 133).
in(78, 8).
in(78, 135).
in(78, 13).
in(78, 17).
in(78, 18).
in(78, 20).
in(78, 21).
in(78, 22).
in(78, 26).
in(78, 27).
in(78, 29).
in(78, 30).
in(78, 31).
in(78, 32).
in(78, 35).
in(78, 36).
in(78, 38).
in(78, 39).
in(78, 41).
in(78, 44).
in(78, 46).
in(78, 48).
in(78, 52).
in(78, 53).
in(78, 54).
in(78, 55).
in(78, 56).
in(78, 58).
in(78, 59).
in(78, 60).
in(78, 61).
in(78, 62).
in(78, 64).
in(78, 65).
in(78, 66).
in(78, 67).
in(78, 68).
in(78, 69).
in(78, 70).
in(78, 73).
in(78, 74).
in(78, 75).
in(78, 76).
in(78, 77).
in(78, 78).
in(78, 83).
in(78, 85).
in(78, 88).
in(78, 89).
in(78, 91).
in(78, 93).
in(78, 94).
in(78, 97).
in(78, 103).
in(78, 104).
in(78, 105).
in(78, 106).
in(78, 107).
in(78, 110).
in(78, 112).
in(78, 113).
in(78, 114).
in(78, 115).
in(78, 120).
in(78, 121).
in(78, 122).
in(78, 123).
in(78, 126).
in(78, 127).
in(79, 2).
in(79, 3).
in(79, 4).
in(79, 130).
in(79, 7).
in(79, 9).
in(79, 10).
in(79, 11).
in(79, 12).
in(79, 13).
in(79, 15).
in(79, 18).
in(79, 19).
in(79, 21).
in(79, 23).
in(79, 24).
in(79, 25).
in(79, 26).
in(79, 28).
in(79, 30).
in(79, 36).
in(79, 37).
in(79, 40).
in(79, 42).
in(79, 45).
in(79, 46).
in(79, 48).
in(79, 49).
in(79, 50).
in(79, 54).
in(79, 57).
in(79, 58).
in(79, 59).
in(79, 60).
in(79, 62).
in(79, 64).
in(79, 65).
in(79, 66).
in(79, 67).
in(79, 69).
in(79, 70).
in(79, 71).
in(79, 72).
in(79, 73).
in(79, 76).
in(79, 78).
in(79, 82).
in(79, 84).
in(79, 86).
in(79, 87).
in(79, 90).
in(79, 91).
in(79, 92).
in(79, 95).
in(79, 96).
in(79, 98).
in(79, 99).
in(79, 103).
in(79, 105).
in(79, 110).
in(79, 111).
in(79, 113).
in(79, 118).
in(79, 122).
in(79, 123).
in(79, 124).
in(79, 127).
in(80, 1).
in(80, 2).
in(80, 5).
in(80, 8).
in(80, 10).
in(80, 11).
in(80, 14).
in(80, 15).
in(80, 16).
in(80, 18).
in(80, 19).
in(80, 20).
in(80, 21).
in(80, 22).
in(80, 23).
in(80, 26).
in(80, 27).
in(80, 28).
in(80, 30).
in(80, 31).
in(80, 33).
in(80, 36).
in(80, 37).
in(80, 40).
in(80, 41).
in(80, 42).
in(80, 43).
in(80, 44).
in(80, 45).
in(80, 46).
in(80, 47).
in(80, 49).
in(80, 50).
in(80, 51).
in(80, 52).
in(80, 53).
in(80, 54).
in(80, 55).
in(80, 57).
in(80, 60).
in(80, 63).
in(80, 64).
in(80, 66).
in(80, 67).
in(80, 70).
in(80, 71).
in(80, 72).
in(80, 74).
in(80, 75).
in(80, 76).
in(80, 79).
in(80, 81).
in(80, 86).
in(80, 90).
in(80, 92).
in(80, 94).
in(80, 96).
in(80, 97).
in(80, 98).
in(80, 99).
in(80, 100).
in(80, 105).
in(80, 106).
in(80, 108).
in(80, 109).
in(80, 111).
in(80, 114).
in(80, 118).
in(80, 121).
in(80, 122).
in(80, 123).
in(80, 124).
in(80, 125).
in(80, 126).
in(80, 128).
in(80, 129).
in(80, 130).
in(80, 131).
in(80, 134).
in(80, 135).
in(81, 4).
in(81, 5).
in(81, 6).
in(81, 7).
in(81, 8).
in(81, 9).
in(81, 12).
in(81, 13).
in(81, 14).
in(81, 15).
in(81, 17).
in(81, 18).
in(81, 20).
in(81, 21).
in(81, 22).
in(81, 23).
in(81, 24).
in(81, 25).
in(81, 28).
in(81, 29).
in(81, 30).
in(81, 31).
in(81, 32).
in(81, 34).
in(81, 35).
in(81, 37).
in(81, 40).
in(81, 42).
in(81, 44).
in(81, 45).
in(81, 46).
in(81, 48).
in(81, 50).
in(81, 51).
in(81, 53).
in(81, 55).
in(81, 61).
in(81, 64).
in(81, 65).
in(81, 67).
in(81, 69).
in(81, 70).
in(81, 71).
in(81, 74).
in(81, 75).
in(81, 76).
in(81, 77).
in(81, 78).
in(81, 79).
in(81, 80).
in(81, 82).
in(81, 83).
in(81, 84).
in(81, 85).
in(81, 86).
in(81, 87).
in(81, 88).
in(81, 90).
in(81, 94).
in(81, 95).
in(81, 97).
in(81, 99).
in(81, 102).
in(81, 105).
in(81, 106).
in(81, 107).
in(81, 108).
in(81, 110).
in(81, 111).
in(81, 112).
in(81, 113).
in(81, 115).
in(81, 118).
in(81, 120).
in(81, 123).
in(81, 125).
in(81, 126).
in(81, 127).
in(81, 128).
in(81, 129).
in(81, 130).
in(81, 131).
in(81, 132).
in(81, 134).
in(81, 135).
in(82, 128).
in(82, 129).
in(82, 130).
in(82, 3).
in(82, 5).
in(82, 133).
in(82, 135).
in(82, 11).
in(82, 13).
in(82, 14).
in(82, 16).
in(82, 18).
in(82, 21).
in(82, 24).
in(82, 25).
in(82, 26).
in(82, 27).
in(82, 29).
in(82, 31).
in(82, 33).
in(82, 34).
in(82, 36).
in(82, 40).
in(82, 43).
in(82, 44).
in(82, 47).
in(82, 50).
in(82, 52).
in(82, 53).
in(82, 55).
in(82, 60).
in(82, 62).
in(82, 64).
in(82, 65).
in(82, 66).
in(82, 68).
in(82, 69).
in(82, 70).
in(82, 72).
in(82, 74).
in(82, 75).
in(82, 76).
in(82, 77).
in(82, 78).
in(82, 81).
in(82, 85).
in(82, 88).
in(82, 89).
in(82, 90).
in(82, 93).
in(82, 94).
in(82, 97).
in(82, 99).
in(82, 100).
in(82, 102).
in(82, 104).
in(82, 105).
in(82, 107).
in(82, 108).
in(82, 111).
in(82, 113).
in(82, 119).
in(82, 122).
in(82, 123).
in(82, 125).
in(82, 126).
in(82, 127).
in(83, 1).
in(83, 2).
in(83, 3).
in(83, 4).
in(83, 132).
in(83, 7).
in(83, 135).
in(83, 10).
in(83, 13).
in(83, 15).
in(83, 16).
in(83, 21).
in(83, 22).
in(83, 23).
in(83, 25).
in(83, 26).
in(83, 27).
in(83, 30).
in(83, 32).
in(83, 33).
in(83, 35).
in(83, 36).
in(83, 37).
in(83, 38).
in(83, 39).
in(83, 43).
in(83, 45).
in(83, 46).
in(83, 47).
in(83, 50).
in(83, 51).
in(83, 52).
in(83, 53).
in(83, 54).
in(83, 55).
in(83, 56).
in(83, 62).
in(83, 67).
in(83, 69).
in(83, 70).
in(83, 73).
in(83, 75).
in(83, 76).
in(83, 77).
in(83, 78).
in(83, 83).
in(83, 84).
in(83, 86).
in(83, 87).
in(83, 88).
in(83, 89).
in(83, 90).
in(83, 91).
in(83, 92).
in(83, 93).
in(83, 95).
in(83, 97).
in(83, 101).
in(83, 102).
in(83, 105).
in(83, 106).
in(83, 107).
in(83, 111).
in(83, 113).
in(83, 114).
in(83, 116).
in(83, 117).
in(83, 123).
in(83, 125).
in(83, 126).
in(83, 127).
in(84, 1).
in(84, 3).
in(84, 4).
in(84, 5).
in(84, 7).
in(84, 9).
in(84, 10).
in(84, 11).
in(84, 13).
in(84, 15).
in(84, 16).
in(84, 17).
in(84, 21).
in(84, 23).
in(84, 24).
in(84, 26).
in(84, 27).
in(84, 28).
in(84, 29).
in(84, 30).
in(84, 32).
in(84, 34).
in(84, 37).
in(84, 38).
in(84, 40).
in(84, 41).
in(84, 42).
in(84, 43).
in(84, 44).
in(84, 45).
in(84, 46).
in(84, 49).
in(84, 51).
in(84, 54).
in(84, 55).
in(84, 56).
in(84, 60).
in(84, 62).
in(84, 63).
in(84, 64).
in(84, 65).
in(84, 67).
in(84, 70).
in(84, 72).
in(84, 80).
in(84, 82).
in(84, 84).
in(84, 86).
in(84, 87).
in(84, 88).
in(84, 89).
in(84, 90).
in(84, 91).
in(84, 92).
in(84, 93).
in(84, 96).
in(84, 98).
in(84, 100).
in(84, 101).
in(84, 103).
in(84, 105).
in(84, 106).
in(84, 109).
in(84, 110).
in(84, 113).
in(84, 114).
in(84, 117).
in(84, 118).
in(84, 120).
in(84, 124).
in(84, 126).
in(84, 127).
in(84, 129).
in(84, 131).
in(84, 132).
in(84, 133).
in(84, 135).
in(85, 129).
in(85, 2).
in(85, 5).
in(85, 133).
in(85, 135).
in(85, 8).
in(85, 12).
in(85, 14).
in(85, 15).
in(85, 17).
in(85, 21).
in(85, 23).
in(85, 24).
in(85, 26).
in(85, 28).
in(85, 29).
in(85, 30).
in(85, 31).
in(85, 33).
in(85, 34).
in(85, 35).
in(85, 37).
in(85, 39).
in(85, 42).
in(85, 46).
in(85, 48).
in(85, 49).
in(85, 50).
in(85, 51).
in(85, 52).
in(85, 53).
in(85, 54).
in(85, 55).
in(85, 57).
in(85, 59).
in(85, 60).
in(85, 63).
in(85, 64).
in(85, 65).
in(85, 70).
in(85, 72).
in(85, 73).
in(85, 76).
in(85, 78).
in(85, 80).
in(85, 82).
in(85, 83).
in(85, 84).
in(85, 85).
in(85, 86).
in(85, 88).
in(85, 89).
in(85, 90).
in(85, 91).
in(85, 93).
in(85, 94).
in(85, 95).
in(85, 97).
in(85, 99).
in(85, 100).
in(85, 103).
in(85, 104).
in(85, 107).
in(85, 108).
in(85, 109).
in(85, 110).
in(85, 111).
in(85, 114).
in(85, 116).
in(85, 119).
in(85, 121).
in(85, 122).
in(85, 123).
in(85, 126).
in(86, 1).
in(86, 129).
in(86, 3).
in(86, 4).
in(86, 132).
in(86, 6).
in(86, 133).
in(86, 135).
in(86, 11).
in(86, 12).
in(86, 15).
in(86, 17).
in(86, 19).
in(86, 20).
in(86, 21).
in(86, 22).
in(86, 23).
in(86, 24).
in(86, 27).
in(86, 29).
in(86, 30).
in(86, 32).
in(86, 33).
in(86, 34).
in(86, 35).
in(86, 36).
in(86, 38).
in(86, 39).
in(86, 40).
in(86, 42).
in(86, 43).
in(86, 45).
in(86, 47).
in(86, 48).
in(86, 49).
in(86, 51).
in(86, 53).
in(86, 54).
in(86, 56).
in(86, 61).
in(86, 63).
in(86, 66).
in(86, 70).
in(86, 73).
in(86, 79).
in(86, 86).
in(86, 89).
in(86, 90).
in(86, 91).
in(86, 94).
in(86, 96).
in(86, 98).
in(86, 101).
in(86, 103).
in(86, 104).
in(86, 106).
in(86, 107).
in(86, 109).
in(86, 111).
in(86, 112).
in(86, 113).
in(86, 114).
in(86, 115).
in(86, 116).
in(86, 117).
in(86, 118).
in(86, 120).
in(86, 121).
in(86, 122).
in(86, 126).
in(87, 128).
in(87, 129).
in(87, 2).
in(87, 3).
in(87, 4).
in(87, 5).
in(87, 6).
in(87, 131).
in(87, 8).
in(87, 9).
in(87, 132).
in(87, 11).
in(87, 12).
in(87, 133).
in(87, 15).
in(87, 18).
in(87, 20).
in(87, 21).
in(87, 23).
in(87, 24).
in(87, 29).
in(87, 30).
in(87, 31).
in(87, 35).
in(87, 37).
in(87, 38).
in(87, 39).
in(87, 40).
in(87, 42).
in(87, 44).
in(87, 48).
in(87, 49).
in(87, 52).
in(87, 53).
in(87, 54).
in(87, 55).
in(87, 56).
in(87, 57).
in(87, 58).
in(87, 60).
in(87, 68).
in(87, 69).
in(87, 70).
in(87, 71).
in(87, 73).
in(87, 74).
in(87, 76).
in(87, 78).
in(87, 80).
in(87, 81).
in(87, 83).
in(87, 85).
in(87, 86).
in(87, 88).
in(87, 90).
in(87, 93).
in(87, 94).
in(87, 97).
in(87, 100).
in(87, 101).
in(87, 107).
in(87, 108).
in(87, 109).
in(87, 112).
in(87, 118).
in(87, 119).
in(87, 120).
in(87, 122).
in(87, 125).
in(87, 127).
in(88, 3).
in(88, 4).
in(88, 5).
in(88, 6).
in(88, 7).
in(88, 8).
in(88, 10).
in(88, 11).
in(88, 12).
in(88, 14).
in(88, 15).
in(88, 16).
in(88, 17).
in(88, 18).
in(88, 19).
in(88, 20).
in(88, 21).
in(88, 22).
in(88, 23).
in(88, 24).
in(88, 25).
in(88, 26).
in(88, 29).
in(88, 31).
in(88, 32).
in(88, 34).
in(88, 35).
in(88, 37).
in(88, 40).
in(88, 42).
in(88, 43).
in(88, 44).
in(88, 45).
in(88, 49).
in(88, 52).
in(88, 54).
in(88, 56).
in(88, 57).
in(88, 59).
in(88, 62).
in(88, 64).
in(88, 67).
in(88, 68).
in(88, 70).
in(88, 72).
in(88, 73).
in(88, 74).
in(88, 76).
in(88, 78).
in(88, 80).
in(88, 81).
in(88, 83).
in(88, 84).
in(88, 85).
in(88, 86).
in(88, 87).
in(88, 88).
in(88, 89).
in(88, 92).
in(88, 93).
in(88, 94).
in(88, 96).
in(88, 98).
in(88, 99).
in(88, 102).
in(88, 103).
in(88, 104).
in(88, 105).
in(88, 107).
in(88, 108).
in(88, 110).
in(88, 111).
in(88, 114).
in(88, 115).
in(88, 116).
in(88, 120).
in(88, 122).
in(88, 126).
in(88, 129).
in(88, 130).
in(88, 132).
in(88, 134).
in(88, 135).
in(89, 1).
in(89, 2).
in(89, 3).
in(89, 4).
in(89, 5).
in(89, 6).
in(89, 129).
in(89, 8).
in(89, 130).
in(89, 10).
in(89, 133).
in(89, 12).
in(89, 14).
in(89, 15).
in(89, 16).
in(89, 19).
in(89, 20).
in(89, 22).
in(89, 23).
in(89, 24).
in(89, 28).
in(89, 30).
in(89, 31).
in(89, 33).
in(89, 34).
in(89, 35).
in(89, 36).
in(89, 38).
in(89, 40).
in(89, 41).
in(89, 43).
in(89, 44).
in(89, 47).
in(89, 48).
in(89, 49).
in(89, 53).
in(89, 54).
in(89, 55).
in(89, 56).
in(89, 58).
in(89, 59).
in(89, 60).
in(89, 61).
in(89, 62).
in(89, 69).
in(89, 70).
in(89, 71).
in(89, 74).
in(89, 75).
in(89, 78).
in(89, 80).
in(89, 84).
in(89, 85).
in(89, 86).
in(89, 87).
in(89, 89).
in(89, 92).
in(89, 94).
in(89, 100).
in(89, 101).
in(89, 102).
in(89, 103).
in(89, 106).
in(89, 107).
in(89, 109).
in(89, 110).
in(89, 111).
in(89, 112).
in(89, 116).
in(89, 117).
in(89, 119).
in(89, 120).
in(89, 121).
in(89, 122).
in(89, 124).
in(90, 1).
in(90, 130).
in(90, 4).
in(90, 133).
in(90, 6).
in(90, 7).
in(90, 8).
in(90, 9).
in(90, 134).
in(90, 135).
in(90, 12).
in(90, 14).
in(90, 18).
in(90, 20).
in(90, 21).
in(90, 23).
in(90, 24).
in(90, 25).
in(90, 27).
in(90, 29).
in(90, 30).
in(90, 31).
in(90, 32).
in(90, 33).
in(90, 34).
in(90, 35).
in(90, 36).
in(90, 37).
in(90, 38).
in(90, 39).
in(90, 41).
in(90, 42).
in(90, 43).
in(90, 44).
in(90, 47).
in(90, 49).
in(90, 50).
in(90, 53).
in(90, 59).
in(90, 60).
in(90, 66).
in(90, 67).
in(90, 68).
in(90, 74).
in(90, 79).
in(90, 80).
in(90, 82).
in(90, 84).
in(90, 85).
in(90, 86).
in(90, 87).
in(90, 88).
in(90, 89).
in(90, 93).
in(90, 94).
in(90, 95).
in(90, 96).
in(90, 97).
in(90, 99).
in(90, 102).
in(90, 104).
in(90, 106).
in(90, 107).
in(90, 108).
in(90, 112).
in(90, 118).
in(90, 119).
in(90, 120).
in(90, 121).
in(90, 122).
in(91, 1).
in(91, 2).
in(91, 7).
in(91, 8).
in(91, 10).
in(91, 11).
in(91, 12).
in(91, 13).
in(91, 17).
in(91, 20).
in(91, 21).
in(91, 22).
in(91, 24).
in(91, 25).
in(91, 27).
in(91, 28).
in(91, 29).
in(91, 32).
in(91, 33).
in(91, 34).
in(91, 35).
in(91, 37).
in(91, 38).
in(91, 40).
in(91, 43).
in(91, 45).
in(91, 46).
in(91, 47).
in(91, 48).
in(91, 49).
in(91, 50).
in(91, 51).
in(91, 54).
in(91, 58).
in(91, 59).
in(91, 62).
in(91, 63).
in(91, 64).
in(91, 65).
in(91, 68).
in(91, 69).
in(91, 70).
in(91, 71).
in(91, 76).
in(91, 78).
in(91, 79).
in(91, 80).
in(91, 81).
in(91, 83).
in(91, 85).
in(91, 86).
in(91, 87).
in(91, 89).
in(91, 91).
in(91, 92).
in(91, 94).
in(91, 95).
in(91, 97).
in(91, 98).
in(91, 99).
in(91, 103).
in(91, 105).
in(91, 109).
in(91, 110).
in(91, 111).
in(91, 112).
in(91, 113).
in(91, 114).
in(91, 115).
in(91, 116).
in(91, 118).
in(91, 119).
in(91, 121).
in(91, 123).
in(91, 124).
in(91, 125).
in(91, 126).
in(91, 127).
in(91, 128).
in(91, 132).
in(91, 133).
in(91, 134).
in(91, 135).
in(92, 2).
in(92, 3).
in(92, 5).
in(92, 6).
in(92, 8).
in(92, 9).
in(92, 10).
in(92, 15).
in(92, 16).
in(92, 18).
in(92, 20).
in(92, 21).
in(92, 22).
in(92, 23).
in(92, 24).
in(92, 25).
in(92, 26).
in(92, 27).
in(92, 28).
in(92, 31).
in(92, 32).
in(92, 33).
in(92, 35).
in(92, 36).
in(92, 37).
in(92, 39).
in(92, 41).
in(92, 45).
in(92, 47).
in(92, 48).
in(92, 49).
in(92, 51).
in(92, 54).
in(92, 55).
in(92, 56).
in(92, 57).
in(92, 58).
in(92, 59).
in(92, 62).
in(92, 64).
in(92, 65).
in(92, 66).
in(92, 67).
in(92, 68).
in(92, 69).
in(92, 72).
in(92, 73).
in(92, 75).
in(92, 76).
in(92, 77).
in(92, 78).
in(92, 80).
in(92, 81).
in(92, 85).
in(92, 87).
in(92, 91).
in(92, 94).
in(92, 95).
in(92, 97).
in(92, 98).
in(92, 100).
in(92, 101).
in(92, 102).
in(92, 106).
in(92, 109).
in(92, 113).
in(92, 114).
in(92, 115).
in(92, 118).
in(92, 119).
in(92, 120).
in(92, 123).
in(92, 124).
in(92, 125).
in(92, 126).
in(92, 127).
in(92, 129).
in(92, 132).
in(92, 133).
in(92, 135).
in(93, 1).
in(93, 2).
in(93, 3).
in(93, 129).
in(93, 130).
in(93, 6).
in(93, 131).
in(93, 8).
in(93, 9).
in(93, 132).
in(93, 134).
in(93, 16).
in(93, 17).
in(93, 18).
in(93, 20).
in(93, 21).
in(93, 23).
in(93, 24).
in(93, 25).
in(93, 26).
in(93, 27).
in(93, 29).
in(93, 31).
in(93, 33).
in(93, 35).
in(93, 37).
in(93, 39).
in(93, 40).
in(93, 42).
in(93, 44).
in(93, 45).
in(93, 46).
in(93, 48).
in(93, 49).
in(93, 51).
in(93, 53).
in(93, 54).
in(93, 57).
in(93, 58).
in(93, 59).
in(93, 66).
in(93, 67).
in(93, 68).
in(93, 69).
in(93, 71).
in(93, 73).
in(93, 74).
in(93, 76).
in(93, 77).
in(93, 78).
in(93, 80).
in(93, 81).
in(93, 82).
in(93, 83).
in(93, 85).
in(93, 87).
in(93, 90).
in(93, 91).
in(93, 93).
in(93, 94).
in(93, 96).
in(93, 98).
in(93, 101).
in(93, 102).
in(93, 103).
in(93, 104).
in(93, 106).
in(93, 107).
in(93, 111).
in(93, 112).
in(93, 117).
in(93, 118).
in(93, 124).
in(93, 125).
in(93, 126).
in(93, 127).
in(94, 1).
in(94, 5).
in(94, 6).
in(94, 7).
in(94, 8).
in(94, 9).
in(94, 10).
in(94, 11).
in(94, 13).
in(94, 15).
in(94, 16).
in(94, 17).
in(94, 19).
in(94, 21).
in(94, 22).
in(94, 23).
in(94, 26).
in(94, 28).
in(94, 30).
in(94, 31).
in(94, 34).
in(94, 37).
in(94, 39).
in(94, 42).
in(94, 49).
in(94, 50).
in(94, 51).
in(94, 52).
in(94, 53).
in(94, 55).
in(94, 56).
in(94, 58).
in(94, 63).
in(94, 64).
in(94, 66).
in(94, 67).
in(94, 69).
in(94, 72).
in(94, 73).
in(94, 75).
in(94, 76).
in(94, 77).
in(94, 78).
in(94, 81).
in(94, 82).
in(94, 83).
in(94, 84).
in(94, 86).
in(94, 87).
in(94, 88).
in(94, 91).
in(94, 92).
in(94, 93).
in(94, 94).
in(94, 95).
in(94, 99).
in(94, 100).
in(94, 101).
in(94, 102).
in(94, 103).
in(94, 104).
in(94, 106).
in(94, 108).
in(94, 109).
in(94, 110).
in(94, 111).
in(94, 112).
in(94, 113).
in(94, 115).
in(94, 118).
in(94, 120).
in(94, 122).
in(94, 125).
in(94, 126).
in(94, 127).
in(94, 129).
in(94, 131).
in(94, 132).
in(94, 133).
in(94, 134).
in(94, 135).
in(95, 128).
in(95, 129).
in(95, 2).
in(95, 130).
in(95, 132).
in(95, 6).
in(95, 12).
in(95, 13).
in(95, 14).
in(95, 22).
in(95, 23).
in(95, 27).
in(95, 28).
in(95, 30).
in(95, 31).
in(95, 35).
in(95, 36).
in(95, 39).
in(95, 40).
in(95, 41).
in(95, 44).
in(95, 46).
in(95, 47).
in(95, 49).
in(95, 50).
in(95, 51).
in(95, 54).
in(95, 55).
in(95, 56).
in(95, 59).
in(95, 60).
in(95, 63).
in(95, 64).
in(95, 65).
in(95, 68).
in(95, 71).
in(95, 74).
in(95, 75).
in(95, 80).
in(95, 81).
in(95, 82).
in(95, 84).
in(95, 85).
in(95, 86).
in(95, 88).
in(95, 90).
in(95, 92).
in(95, 93).
in(95, 94).
in(95, 96).
in(95, 97).
in(95, 101).
in(95, 103).
in(95, 104).
in(95, 105).
in(95, 106).
in(95, 107).
in(95, 108).
in(95, 109).
in(95, 111).
in(95, 114).
in(95, 115).
in(95, 116).
in(95, 117).
in(95, 119).
in(95, 120).
in(95, 122).
in(95, 123).
in(95, 125).
in(95, 126).
in(95, 127).
in(96, 1).
in(96, 2).
in(96, 129).
in(96, 130).
in(96, 5).
in(96, 6).
in(96, 131).
in(96, 8).
in(96, 134).
in(96, 10).
in(96, 135).
in(96, 13).
in(96, 16).
in(96, 19).
in(96, 21).
in(96, 23).
in(96, 26).
in(96, 28).
in(96, 29).
in(96, 32).
in(96, 33).
in(96, 35).
in(96, 36).
in(96, 37).
in(96, 38).
in(96, 39).
in(96, 44).
in(96, 45).
in(96, 46).
in(96, 50).
in(96, 52).
in(96, 53).
in(96, 54).
in(96, 55).
in(96, 58).
in(96, 61).
in(96, 63).
in(96, 64).
in(96, 66).
in(96, 70).
in(96, 71).
in(96, 74).
in(96, 78).
in(96, 79).
in(96, 86).
in(96, 90).
in(96, 92).
in(96, 93).
in(96, 94).
in(96, 95).
in(96, 99).
in(96, 100).
in(96, 101).
in(96, 102).
in(96, 103).
in(96, 105).
in(96, 106).
in(96, 108).
in(96, 109).
in(96, 111).
in(96, 113).
in(96, 115).
in(96, 119).
in(96, 123).
in(96, 124).
in(96, 127).
in(97, 1).
in(97, 2).
in(97, 3).
in(97, 4).
in(97, 5).
in(97, 6).
in(97, 7).
in(97, 8).
in(97, 129).
in(97, 10).
in(97, 11).
in(97, 12).
in(97, 132).
in(97, 134).
in(97, 130).
in(97, 135).
in(97, 17).
in(97, 18).
in(97, 131).
in(97, 21).
in(97, 22).
in(97, 24).
in(97, 25).
in(97, 29).
in(97, 30).
in(97, 32).
in(97, 33).
in(97, 38).
in(97, 39).
in(97, 42).
in(97, 43).
in(97, 44).
in(97, 47).
in(97, 48).
in(97, 50).
in(97, 52).
in(97, 55).
in(97, 56).
in(97, 57).
in(97, 64).
in(97, 66).
in(97, 70).
in(97, 72).
in(97, 76).
in(97, 77).
in(97, 78).
in(97, 79).
in(97, 81).
in(97, 84).
in(97, 89).
in(97, 92).
in(97, 94).
in(97, 95).
in(97, 96).
in(97, 98).
in(97, 99).
in(97, 100).
in(97, 101).
in(97, 102).
in(97, 103).
in(97, 104).
in(97, 105).
in(97, 107).
in(97, 110).
in(97, 113).
in(97, 114).
in(97, 115).
in(97, 116).
in(97, 117).
in(97, 121).
in(97, 122).
in(97, 124).
in(97, 126).
in(97, 127).
in(98, 3).
in(98, 4).
in(98, 5).
in(98, 6).
in(98, 7).
in(98, 9).
in(98, 10).
in(98, 14).
in(98, 16).
in(98, 17).
in(98, 19).
in(98, 20).
in(98, 21).
in(98, 22).
in(98, 23).
in(98, 24).
in(98, 25).
in(98, 28).
in(98, 30).
in(98, 33).
in(98, 35).
in(98, 36).
in(98, 37).
in(98, 39).
in(98, 40).
in(98, 42).
in(98, 43).
in(98, 44).
in(98, 46).
in(98, 48).
in(98, 49).
in(98, 50).
in(98, 51).
in(98, 53).
in(98, 55).
in(98, 56).
in(98, 57).
in(98, 58).
in(98, 61).
in(98, 63).
in(98, 64).
in(98, 65).
in(98, 66).
in(98, 67).
in(98, 68).
in(98, 71).
in(98, 72).
in(98, 74).
in(98, 75).
in(98, 78).
in(98, 81).
in(98, 82).
in(98, 85).
in(98, 86).
in(98, 89).
in(98, 90).
in(98, 92).
in(98, 93).
in(98, 94).
in(98, 100).
in(98, 101).
in(98, 103).
in(98, 104).
in(98, 105).
in(98, 106).
in(98, 107).
in(98, 109).
in(98, 110).
in(98, 111).
in(98, 112).
in(98, 113).
in(98, 116).
in(98, 117).
in(98, 118).
in(98, 119).
in(98, 120).
in(98, 121).
in(98, 122).
in(98, 123).
in(98, 124).
in(98, 125).
in(98, 127).
in(98, 129).
in(98, 131).
in(98, 134).
in(98, 135).
in(99, 128).
in(99, 1).
in(99, 2).
in(99, 3).
in(99, 130).
in(99, 5).
in(99, 132).
in(99, 7).
in(99, 11).
in(99, 15).
in(99, 17).
in(99, 19).
in(99, 22).
in(99, 26).
in(99, 27).
in(99, 30).
in(99, 31).
in(99, 32).
in(99, 33).
in(99, 34).
in(99, 35).
in(99, 37).
in(99, 38).
in(99, 39).
in(99, 40).
in(99, 43).
in(99, 45).
in(99, 49).
in(99, 50).
in(99, 51).
in(99, 52).
in(99, 53).
in(99, 59).
in(99, 61).
in(99, 63).
in(99, 64).
in(99, 65).
in(99, 68).
in(99, 69).
in(99, 70).
in(99, 71).
in(99, 74).
in(99, 75).
in(99, 81).
in(99, 82).
in(99, 83).
in(99, 86).
in(99, 87).
in(99, 88).
in(99, 89).
in(99, 90).
in(99, 91).
in(99, 92).
in(99, 94).
in(99, 95).
in(99, 96).
in(99, 98).
in(99, 99).
in(99, 101).
in(99, 103).
in(99, 104).
in(99, 105).
in(99, 108).
in(99, 109).
in(99, 111).
in(99, 113).
in(99, 114).
in(99, 116).
in(99, 122).
in(99, 123).
in(99, 125).
in(99, 127).
in(100, 1).
in(100, 2).
in(100, 3).
in(100, 4).
in(100, 7).
in(100, 10).
in(100, 12).
in(100, 13).
in(100, 14).
in(100, 16).
in(100, 17).
in(100, 22).
in(100, 24).
in(100, 25).
in(100, 27).
in(100, 29).
in(100, 30).
in(100, 31).
in(100, 37).
in(100, 39).
in(100, 40).
in(100, 41).
in(100, 42).
in(100, 44).
in(100, 45).
in(100, 46).
in(100, 47).
in(100, 48).
in(100, 49).
in(100, 51).
in(100, 53).
in(100, 54).
in(100, 55).
in(100, 56).
in(100, 57).
in(100, 59).
in(100, 60).
in(100, 61).
in(100, 63).
in(100, 64).
in(100, 71).
in(100, 73).
in(100, 74).
in(100, 75).
in(100, 76).
in(100, 77).
in(100, 78).
in(100, 81).
in(100, 82).
in(100, 83).
in(100, 84).
in(100, 86).
in(100, 87).
in(100, 88).
in(100, 90).
in(100, 91).
in(100, 92).
in(100, 94).
in(100, 95).
in(100, 96).
in(100, 97).
in(100, 98).
in(100, 99).
in(100, 100).
in(100, 102).
in(100, 104).
in(100, 108).
in(100, 109).
in(100, 111).
in(100, 113).
in(100, 115).
in(100, 116).
in(100, 117).
in(100, 118).
in(100, 120).
in(100, 124).
in(100, 125).
in(100, 129).
in(100, 130).
in(101, 4).
in(101, 5).
in(101, 135).
in(101, 8).
in(101, 10).
in(101, 11).
in(101, 17).
in(101, 18).
in(101, 19).
in(101, 20).
in(101, 24).
in(101, 27).
in(101, 29).
in(101, 30).
in(101, 32).
in(101, 35).
in(101, 38).
in(101, 39).
in(101, 40).
in(101, 42).
in(101, 44).
in(101, 48).
in(101, 52).
in(101, 53).
in(101, 54).
in(101, 56).
in(101, 58).
in(101, 59).
in(101, 60).
in(101, 61).
in(101, 63).
in(101, 64).
in(101, 65).
in(101, 66).
in(101, 70).
in(101, 71).
in(101, 73).
in(101, 74).
in(101, 75).
in(101, 76).
in(101, 78).
in(101, 79).
in(101, 81).
in(101, 82).
in(101, 83).
in(101, 84).
in(101, 85).
in(101, 91).
in(101, 93).
in(101, 95).
in(101, 96).
in(101, 97).
in(101, 98).
in(101, 99).
in(101, 102).
in(101, 104).
in(101, 105).
in(101, 106).
in(101, 108).
in(101, 110).
in(101, 112).
in(101, 113).
in(101, 114).
in(101, 116).
in(101, 118).
in(101, 119).
in(101, 121).
in(101, 122).
in(101, 124).
in(101, 125).
in(101, 126).
in(102, 1).
in(102, 5).
in(102, 6).
in(102, 8).
in(102, 9).
in(102, 12).
in(102, 14).
in(102, 16).
in(102, 18).
in(102, 19).
in(102, 20).
in(102, 24).
in(102, 27).
in(102, 28).
in(102, 30).
in(102, 31).
in(102, 33).
in(102, 34).
in(102, 35).
in(102, 36).
in(102, 37).
in(102, 40).
in(102, 43).
in(102, 44).
in(102, 45).
in(102, 46).
in(102, 47).
in(102, 50).
in(102, 53).
in(102, 54).
in(102, 55).
in(102, 56).
in(102, 60).
in(102, 66).
in(102, 68).
in(102, 71).
in(102, 74).
in(102, 76).
in(102, 77).
in(102, 78).
in(102, 79).
in(102, 80).
in(102, 83).
in(102, 85).
in(102, 86).
in(102, 87).
in(102, 88).
in(102, 89).
in(102, 90).
in(102, 91).
in(102, 92).
in(102, 95).
in(102, 96).
in(102, 97).
in(102, 98).
in(102, 99).
in(102, 100).
in(102, 102).
in(102, 104).
in(102, 105).
in(102, 108).
in(102, 109).
in(102, 111).
in(102, 115).
in(102, 116).
in(102, 117).
in(102, 120).
in(102, 121).
in(102, 122).
in(102, 124).
in(102, 126).
in(102, 128).
in(102, 129).
in(102, 130).
in(102, 131).
in(102, 132).
in(102, 135).
in(103, 1).
in(103, 2).
in(103, 3).
in(103, 4).
in(103, 5).
in(103, 6).
in(103, 7).
in(103, 8).
in(103, 9).
in(103, 11).
in(103, 13).
in(103, 14).
in(103, 16).
in(103, 17).
in(103, 18).
in(103, 20).
in(103, 22).
in(103, 23).
in(103, 27).
in(103, 28).
in(103, 29).
in(103, 30).
in(103, 31).
in(103, 35).
in(103, 36).
in(103, 37).
in(103, 39).
in(103, 40).
in(103, 41).
in(103, 42).
in(103, 43).
in(103, 44).
in(103, 45).
in(103, 46).
in(103, 47).
in(103, 48).
in(103, 53).
in(103, 55).
in(103, 56).
in(103, 58).
in(103, 60).
in(103, 62).
in(103, 66).
in(103, 67).
in(103, 68).
in(103, 69).
in(103, 70).
in(103, 71).
in(103, 74).
in(103, 75).
in(103, 77).
in(103, 78).
in(103, 79).
in(103, 82).
in(103, 83).
in(103, 84).
in(103, 86).
in(103, 91).
in(103, 92).
in(103, 94).
in(103, 95).
in(103, 99).
in(103, 100).
in(103, 101).
in(103, 102).
in(103, 104).
in(103, 107).
in(103, 109).
in(103, 111).
in(103, 112).
in(103, 113).
in(103, 114).
in(103, 115).
in(103, 116).
in(103, 117).
in(103, 118).
in(103, 119).
in(103, 120).
in(103, 121).
in(103, 124).
in(103, 127).
in(103, 128).
in(103, 129).
in(103, 130).
in(103, 132).
in(103, 133).
in(103, 135).
in(104, 1).
in(104, 129).
in(104, 131).
in(104, 132).
in(104, 133).
in(104, 135).
in(104, 10).
in(104, 12).
in(104, 17).
in(104, 18).
in(104, 19).
in(104, 24).
in(104, 25).
in(104, 26).
in(104, 29).
in(104, 31).
in(104, 33).
in(104, 36).
in(104, 42).
in(104, 44).
in(104, 46).
in(104, 47).
in(104, 49).
in(104, 53).
in(104, 54).
in(104, 55).
in(104, 56).
in(104, 59).
in(104, 60).
in(104, 61).
in(104, 63).
in(104, 64).
in(104, 65).
in(104, 66).
in(104, 67).
in(104, 69).
in(104, 72).
in(104, 75).
in(104, 76).
in(104, 78).
in(104, 79).
in(104, 82).
in(104, 84).
in(104, 87).
in(104, 88).
in(104, 90).
in(104, 92).
in(104, 94).
in(104, 95).
in(104, 96).
in(104, 98).
in(104, 99).
in(104, 101).
in(104, 102).
in(104, 103).
in(104, 105).
in(104, 106).
in(104, 108).
in(104, 110).
in(104, 112).
in(104, 115).
in(104, 117).
in(104, 118).
in(104, 125).
in(104, 127).
in(105, 128).
in(105, 1).
in(105, 130).
in(105, 131).
in(105, 132).
in(105, 133).
in(105, 6).
in(105, 7).
in(105, 8).
in(105, 9).
in(105, 10).
in(105, 135).
in(105, 15).
in(105, 16).
in(105, 17).
in(105, 18).
in(105, 20).
in(105, 22).
in(105, 23).
in(105, 25).
in(105, 27).
in(105, 28).
in(105, 29).
in(105, 30).
in(105, 31).
in(105, 32).
in(105, 33).
in(105, 34).
in(105, 40).
in(105, 42).
in(105, 43).
in(105, 44).
in(105, 46).
in(105, 47).
in(105, 48).
in(105, 50).
in(105, 51).
in(105, 52).
in(105, 53).
in(105, 54).
in(105, 56).
in(105, 58).
in(105, 59).
in(105, 60).
in(105, 61).
in(105, 63).
in(105, 64).
in(105, 66).
in(105, 67).
in(105, 71).
in(105, 72).
in(105, 73).
in(105, 74).
in(105, 75).
in(105, 76).
in(105, 80).
in(105, 84).
in(105, 87).
in(105, 89).
in(105, 91).
in(105, 92).
in(105, 94).
in(105, 96).
in(105, 97).
in(105, 100).
in(105, 103).
in(105, 104).
in(105, 109).
in(105, 111).
in(105, 114).
in(105, 115).
in(105, 119).
in(105, 121).
in(105, 123).
in(105, 125).
in(106, 128).
in(106, 1).
in(106, 2).
in(106, 130).
in(106, 131).
in(106, 132).
in(106, 6).
in(106, 7).
in(106, 133).
in(106, 9).
in(106, 11).
in(106, 15).
in(106, 21).
in(106, 24).
in(106, 26).
in(106, 27).
in(106, 28).
in(106, 29).
in(106, 31).
in(106, 33).
in(106, 34).
in(106, 35).
in(106, 36).
in(106, 37).
in(106, 38).
in(106, 40).
in(106, 41).
in(106, 44).
in(106, 46).
in(106, 47).
in(106, 51).
in(106, 52).
in(106, 55).
in(106, 56).
in(106, 57).
in(106, 60).
in(106, 62).
in(106, 66).
in(106, 69).
in(106, 72).
in(106, 76).
in(106, 77).
in(106, 78).
in(106, 80).
in(106, 81).
in(106, 84).
in(106, 85).
in(106, 86).
in(106, 88).
in(106, 89).
in(106, 92).
in(106, 94).
in(106, 95).
in(106, 96).
in(106, 98).
in(106, 99).
in(106, 100).
in(106, 102).
in(106, 103).
in(106, 104).
in(106, 105).
in(106, 107).
in(106, 108).
in(106, 109).
in(106, 110).
in(106, 111).
in(106, 112).
in(106, 113).
in(106, 114).
in(106, 116).
in(106, 117).
in(106, 118).
in(106, 120).
in(106, 123).
in(106, 126).
in(106, 127).
in(107, 2).
in(107, 3).
in(107, 5).
in(107, 6).
in(107, 7).
in(107, 8).
in(107, 9).
in(107, 10).
in(107, 12).
in(107, 16).
in(107, 17).
in(107, 18).
in(107, 21).
in(107, 23).
in(107, 24).
in(107, 25).
in(107, 28).
in(107, 30).
in(107, 32).
in(107, 33).
in(107, 37).
in(107, 38).
in(107, 40).
in(107, 41).
in(107, 42).
in(107, 43).
in(107, 44).
in(107, 45).
in(107, 46).
in(107, 47).
in(107, 49).
in(107, 51).
in(107, 52).
in(107, 53).
in(107, 57).
in(107, 59).
in(107, 61).
in(107, 62).
in(107, 63).
in(107, 64).
in(107, 66).
in(107, 69).
in(107, 71).
in(107, 75).
in(107, 77).
in(107, 78).
in(107, 80).
in(107, 82).
in(107, 83).
in(107, 84).
in(107, 86).
in(107, 87).
in(107, 89).
in(107, 90).
in(107, 91).
in(107, 92).
in(107, 94).
in(107, 96).
in(107, 98).
in(107, 99).
in(107, 102).
in(107, 103).
in(107, 105).
in(107, 106).
in(107, 107).
in(107, 109).
in(107, 110).
in(107, 114).
in(107, 115).
in(107, 116).
in(107, 119).
in(107, 121).
in(107, 123).
in(107, 125).
in(107, 126).
in(107, 127).
in(107, 132).
in(107, 133).
in(108, 1).
in(108, 2).
in(108, 129).
in(108, 4).
in(108, 131).
in(108, 6).
in(108, 132).
in(108, 8).
in(108, 134).
in(108, 135).
in(108, 11).
in(108, 15).
in(108, 16).
in(108, 17).
in(108, 20).
in(108, 27).
in(108, 29).
in(108, 31).
in(108, 32).
in(108, 34).
in(108, 38).
in(108, 39).
in(108, 40).
in(108, 43).
in(108, 45).
in(108, 46).
in(108, 47).
in(108, 48).
in(108, 51).
in(108, 52).
in(108, 53).
in(108, 55).
in(108, 56).
in(108, 59).
in(108, 60).
in(108, 66).
in(108, 72).
in(108, 75).
in(108, 77).
in(108, 79).
in(108, 81).
in(108, 88).
in(108, 89).
in(108, 90).
in(108, 94).
in(108, 100).
in(108, 103).
in(108, 105).
in(108, 106).
in(108, 108).
in(108, 109).
in(108, 115).
in(108, 116).
in(108, 117).
in(108, 120).
in(108, 121).
in(108, 123).
in(108, 126).
in(108, 127).
in(109, 1).
in(109, 2).
in(109, 9).
in(109, 10).
in(109, 11).
in(109, 12).
in(109, 13).
in(109, 14).
in(109, 15).
in(109, 16).
in(109, 18).
in(109, 21).
in(109, 23).
in(109, 24).
in(109, 25).
in(109, 26).
in(109, 27).
in(109, 28).
in(109, 29).
in(109, 33).
in(109, 35).
in(109, 36).
in(109, 37).
in(109, 39).
in(109, 40).
in(109, 43).
in(109, 44).
in(109, 45).
in(109, 46).
in(109, 47).
in(109, 48).
in(109, 49).
in(109, 51).
in(109, 52).
in(109, 54).
in(109, 55).
in(109, 56).
in(109, 57).
in(109, 59).
in(109, 60).
in(109, 62).
in(109, 64).
in(109, 67).
in(109, 68).
in(109, 72).
in(109, 73).
in(109, 75).
in(109, 76).
in(109, 77).
in(109, 79).
in(109, 80).
in(109, 81).
in(109, 83).
in(109, 84).
in(109, 86).
in(109, 88).
in(109, 89).
in(109, 92).
in(109, 93).
in(109, 95).
in(109, 96).
in(109, 99).
in(109, 100).
in(109, 101).
in(109, 106).
in(109, 107).
in(109, 110).
in(109, 114).
in(109, 115).
in(109, 117).
in(109, 118).
in(109, 119).
in(109, 120).
in(109, 121).
in(109, 123).
in(109, 124).
in(109, 127).
in(109, 132).
in(109, 133).
in(110, 2).
in(110, 130).
in(110, 133).
in(110, 7).
in(110, 8).
in(110, 12).
in(110, 13).
in(110, 14).
in(110, 15).
in(110, 16).
in(110, 18).
in(110, 19).
in(110, 22).
in(110, 23).
in(110, 28).
in(110, 32).
in(110, 34).
in(110, 37).
in(110, 38).
in(110, 40).
in(110, 41).
in(110, 42).
in(110, 43).
in(110, 44).
in(110, 45).
in(110, 46).
in(110, 49).
in(110, 50).
in(110, 51).
in(110, 52).
in(110, 54).
in(110, 55).
in(110, 59).
in(110, 60).
in(110, 62).
in(110, 63).
in(110, 64).
in(110, 65).
in(110, 66).
in(110, 69).
in(110, 74).
in(110, 75).
in(110, 76).
in(110, 79).
in(110, 80).
in(110, 82).
in(110, 83).
in(110, 85).
in(110, 87).
in(110, 89).
in(110, 96).
in(110, 98).
in(110, 99).
in(110, 100).
in(110, 102).
in(110, 103).
in(110, 104).
in(110, 105).
in(110, 106).
in(110, 107).
in(110, 108).
in(110, 111).
in(110, 112).
in(110, 113).
in(110, 114).
in(110, 115).
in(110, 116).
in(110, 117).
in(110, 121).
in(110, 123).
in(110, 124).
in(110, 126).
in(110, 127).
in(111, 128).
in(111, 1).
in(111, 130).
in(111, 131).
in(111, 5).
in(111, 6).
in(111, 133).
in(111, 8).
in(111, 9).
in(111, 134).
in(111, 12).
in(111, 13).
in(111, 14).
in(111, 16).
in(111, 19).
in(111, 21).
in(111, 22).
in(111, 23).
in(111, 25).
in(111, 27).
in(111, 28).
in(111, 31).
in(111, 33).
in(111, 35).
in(111, 36).
in(111, 40).
in(111, 41).
in(111, 42).
in(111, 45).
in(111, 47).
in(111, 49).
in(111, 50).
in(111, 56).
in(111, 58).
in(111, 59).
in(111, 60).
in(111, 62).
in(111, 64).
in(111, 65).
in(111, 66).
in(111, 70).
in(111, 71).
in(111, 73).
in(111, 75).
in(111, 77).
in(111, 79).
in(111, 82).
in(111, 86).
in(111, 88).
in(111, 89).
in(111, 90).
in(111, 92).
in(111, 94).
in(111, 95).
in(111, 96).
in(111, 98).
in(111, 99).
in(111, 100).
in(111, 101).
in(111, 103).
in(111, 106).
in(111, 107).
in(111, 108).
in(111, 112).
in(111, 113).
in(111, 114).
in(111, 116).
in(111, 118).
in(111, 121).
in(111, 122).
in(111, 124).
in(111, 125).
in(111, 127).
in(112, 129).
in(112, 130).
in(112, 131).
in(112, 132).
in(112, 133).
in(112, 6).
in(112, 134).
in(112, 8).
in(112, 9).
in(112, 10).
in(112, 135).
in(112, 12).
in(112, 14).
in(112, 15).
in(112, 16).
in(112, 17).
in(112, 18).
in(112, 20).
in(112, 21).
in(112, 25).
in(112, 26).
in(112, 27).
in(112, 28).
in(112, 31).
in(112, 32).
in(112, 35).
in(112, 36).
in(112, 38).
in(112, 39).
in(112, 40).
in(112, 42).
in(112, 45).
in(112, 49).
in(112, 50).
in(112, 51).
in(112, 55).
in(112, 57).
in(112, 58).
in(112, 59).
in(112, 60).
in(112, 62).
in(112, 64).
in(112, 65).
in(112, 67).
in(112, 70).
in(112, 72).
in(112, 73).
in(112, 74).
in(112, 78).
in(112, 79).
in(112, 81).
in(112, 82).
in(112, 84).
in(112, 86).
in(112, 89).
in(112, 92).
in(112, 95).
in(112, 98).
in(112, 99).
in(112, 100).
in(112, 104).
in(112, 105).
in(112, 106).
in(112, 107).
in(112, 108).
in(112, 109).
in(112, 111).
in(112, 114).
in(112, 116).
in(112, 117).
in(112, 119).
in(112, 120).
in(112, 121).
in(112, 123).
in(112, 125).
in(113, 1).
in(113, 2).
in(113, 129).
in(113, 130).
in(113, 131).
in(113, 6).
in(113, 133).
in(113, 8).
in(113, 9).
in(113, 10).
in(113, 134).
in(113, 12).
in(113, 13).
in(113, 14).
in(113, 15).
in(113, 16).
in(113, 20).
in(113, 22).
in(113, 26).
in(113, 30).
in(113, 31).
in(113, 32).
in(113, 34).
in(113, 35).
in(113, 36).
in(113, 38).
in(113, 42).
in(113, 43).
in(113, 45).
in(113, 46).
in(113, 48).
in(113, 53).
in(113, 57).
in(113, 59).
in(113, 60).
in(113, 63).
in(113, 65).
in(113, 66).
in(113, 67).
in(113, 68).
in(113, 70).
in(113, 71).
in(113, 74).
in(113, 75).
in(113, 77).
in(113, 78).
in(113, 79).
in(113, 80).
in(113, 81).
in(113, 85).
in(113, 86).
in(113, 89).
in(113, 90).
in(113, 91).
in(113, 92).
in(113, 94).
in(113, 95).
in(113, 98).
in(113, 102).
in(113, 104).
in(113, 107).
in(113, 109).
in(113, 111).
in(113, 115).
in(113, 116).
in(113, 117).
in(113, 121).
in(113, 123).
in(113, 124).
in(113, 125).
in(114, 1).
in(114, 8).
in(114, 9).
in(114, 10).
in(114, 11).
in(114, 12).
in(114, 14).
in(114, 17).
in(114, 20).
in(114, 21).
in(114, 23).
in(114, 25).
in(114, 27).
in(114, 30).
in(114, 31).
in(114, 33).
in(114, 34).
in(114, 38).
in(114, 39).
in(114, 40).
in(114, 41).
in(114, 42).
in(114, 44).
in(114, 45).
in(114, 47).
in(114, 48).
in(114, 49).
in(114, 53).
in(114, 54).
in(114, 57).
in(114, 58).
in(114, 59).
in(114, 61).
in(114, 62).
in(114, 63).
in(114, 65).
in(114, 68).
in(114, 70).
in(114, 73).
in(114, 74).
in(114, 77).
in(114, 78).
in(114, 80).
in(114, 81).
in(114, 82).
in(114, 83).
in(114, 84).
in(114, 85).
in(114, 90).
in(114, 91).
in(114, 92).
in(114, 93).
in(114, 94).
in(114, 96).
in(114, 98).
in(114, 99).
in(114, 102).
in(114, 103).
in(114, 104).
in(114, 106).
in(114, 107).
in(114, 108).
in(114, 109).
in(114, 111).
in(114, 112).
in(114, 114).
in(114, 115).
in(114, 117).
in(114, 118).
in(114, 119).
in(114, 120).
in(114, 122).
in(114, 126).
in(114, 128).
in(114, 129).
in(114, 130).
in(114, 135).
in(115, 128).
in(115, 1).
in(115, 2).
in(115, 129).
in(115, 130).
in(115, 131).
in(115, 132).
in(115, 7).
in(115, 135).
in(115, 9).
in(115, 10).
in(115, 14).
in(115, 15).
in(115, 16).
in(115, 17).
in(115, 18).
in(115, 19).
in(115, 22).
in(115, 23).
in(115, 24).
in(115, 29).
in(115, 31).
in(115, 36).
in(115, 38).
in(115, 39).
in(115, 40).
in(115, 42).
in(115, 46).
in(115, 47).
in(115, 49).
in(115, 52).
in(115, 57).
in(115, 58).
in(115, 59).
in(115, 63).
in(115, 64).
in(115, 65).
in(115, 66).
in(115, 68).
in(115, 70).
in(115, 71).
in(115, 76).
in(115, 77).
in(115, 79).
in(115, 80).
in(115, 83).
in(115, 84).
in(115, 85).
in(115, 88).
in(115, 90).
in(115, 91).
in(115, 92).
in(115, 93).
in(115, 94).
in(115, 96).
in(115, 100).
in(115, 101).
in(115, 106).
in(115, 107).
in(115, 109).
in(115, 113).
in(115, 114).
in(115, 115).
in(115, 117).
in(115, 118).
in(115, 120).
in(115, 122).
in(115, 126).
in(116, 130).
in(116, 6).
in(116, 7).
in(116, 11).
in(116, 12).
in(116, 14).
in(116, 15).
in(116, 16).
in(116, 17).
in(116, 18).
in(116, 20).
in(116, 21).
in(116, 22).
in(116, 23).
in(116, 25).
in(116, 27).
in(116, 28).
in(116, 29).
in(116, 35).
in(116, 36).
in(116, 38).
in(116, 39).
in(116, 42).
in(116, 44).
in(116, 45).
in(116, 46).
in(116, 47).
in(116, 49).
in(116, 50).
in(116, 51).
in(116, 52).
in(116, 53).
in(116, 56).
in(116, 57).
in(116, 59).
in(116, 60).
in(116, 61).
in(116, 62).
in(116, 63).
in(116, 64).
in(116, 65).
in(116, 67).
in(116, 68).
in(116, 69).
in(116, 70).
in(116, 71).
in(116, 72).
in(116, 73).
in(116, 75).
in(116, 76).
in(116, 77).
in(116, 78).
in(116, 81).
in(116, 82).
in(116, 83).
in(116, 84).
in(116, 85).
in(116, 92).
in(116, 93).
in(116, 95).
in(116, 98).
in(116, 99).
in(116, 104).
in(116, 106).
in(116, 108).
in(116, 109).
in(116, 112).
in(116, 114).
in(116, 115).
in(116, 116).
in(116, 120).
in(116, 122).
in(116, 123).
in(116, 125).
in(116, 126).
in(116, 127).
in(117, 1).
in(117, 2).
in(117, 3).
in(117, 4).
in(117, 129).
in(117, 6).
in(117, 7).
in(117, 130).
in(117, 9).
in(117, 132).
in(117, 11).
in(117, 12).
in(117, 15).
in(117, 17).
in(117, 19).
in(117, 20).
in(117, 21).
in(117, 23).
in(117, 24).
in(117, 25).
in(117, 28).
in(117, 32).
in(117, 34).
in(117, 38).
in(117, 39).
in(117, 41).
in(117, 42).
in(117, 43).
in(117, 44).
in(117, 45).
in(117, 46).
in(117, 47).
in(117, 48).
in(117, 49).
in(117, 52).
in(117, 53).
in(117, 54).
in(117, 55).
in(117, 57).
in(117, 58).
in(117, 59).
in(117, 62).
in(117, 63).
in(117, 66).
in(117, 68).
in(117, 69).
in(117, 73).
in(117, 75).
in(117, 76).
in(117, 77).
in(117, 78).
in(117, 80).
in(117, 85).
in(117, 86).
in(117, 90).
in(117, 91).
in(117, 94).
in(117, 95).
in(117, 96).
in(117, 98).
in(117, 99).
in(117, 100).
in(117, 106).
in(117, 107).
in(117, 109).
in(117, 111).
in(117, 112).
in(117, 117).
in(117, 118).
in(117, 119).
in(117, 120).
in(117, 126).
in(118, 1).
in(118, 129).
in(118, 131).
in(118, 132).
in(118, 5).
in(118, 6).
in(118, 7).
in(118, 8).
in(118, 134).
in(118, 11).
in(118, 12).
in(118, 16).
in(118, 18).
in(118, 19).
in(118, 20).
in(118, 23).
in(118, 26).
in(118, 28).
in(118, 29).
in(118, 31).
in(118, 32).
in(118, 33).
in(118, 34).
in(118, 39).
in(118, 40).
in(118, 41).
in(118, 46).
in(118, 47).
in(118, 48).
in(118, 50).
in(118, 51).
in(118, 53).
in(118, 54).
in(118, 55).
in(118, 56).
in(118, 58).
in(118, 59).
in(118, 60).
in(118, 66).
in(118, 67).
in(118, 68).
in(118, 69).
in(118, 70).
in(118, 71).
in(118, 72).
in(118, 78).
in(118, 81).
in(118, 82).
in(118, 84).
in(118, 87).
in(118, 88).
in(118, 90).
in(118, 91).
in(118, 93).
in(118, 94).
in(118, 95).
in(118, 97).
in(118, 98).
in(118, 99).
in(118, 100).
in(118, 101).
in(118, 102).
in(118, 104).
in(118, 108).
in(118, 109).
in(118, 113).
in(118, 118).
in(118, 121).
in(118, 122).
in(118, 123).
in(118, 125).
in(119, 1).
in(119, 5).
in(119, 6).
in(119, 7).
in(119, 9).
in(119, 10).
in(119, 11).
in(119, 12).
in(119, 13).
in(119, 14).
in(119, 15).
in(119, 16).
in(119, 19).
in(119, 23).
in(119, 24).
in(119, 25).
in(119, 29).
in(119, 32).
in(119, 33).
in(119, 35).
in(119, 36).
in(119, 37).
in(119, 38).
in(119, 41).
in(119, 45).
in(119, 46).
in(119, 47).
in(119, 48).
in(119, 49).
in(119, 50).
in(119, 51).
in(119, 52).
in(119, 53).
in(119, 54).
in(119, 56).
in(119, 58).
in(119, 60).
in(119, 61).
in(119, 63).
in(119, 64).
in(119, 66).
in(119, 67).
in(119, 69).
in(119, 70).
in(119, 71).
in(119, 72).
in(119, 77).
in(119, 80).
in(119, 81).
in(119, 82).
in(119, 84).
in(119, 86).
in(119, 87).
in(119, 89).
in(119, 90).
in(119, 91).
in(119, 93).
in(119, 94).
in(119, 95).
in(119, 96).
in(119, 98).
in(119, 100).
in(119, 101).
in(119, 102).
in(119, 107).
in(119, 108).
in(119, 109).
in(119, 111).
in(119, 114).
in(119, 115).
in(119, 116).
in(119, 119).
in(119, 121).
in(119, 122).
in(119, 126).
in(119, 129).
in(119, 130).
in(119, 131).
in(119, 132).
in(120, 2).
in(120, 3).
in(120, 5).
in(120, 6).
in(120, 8).
in(120, 9).
in(120, 10).
in(120, 11).
in(120, 13).
in(120, 15).
in(120, 16).
in(120, 19).
in(120, 20).
in(120, 22).
in(120, 23).
in(120, 25).
in(120, 28).
in(120, 29).
in(120, 35).
in(120, 36).
in(120, 37).
in(120, 38).
in(120, 42).
in(120, 43).
in(120, 45).
in(120, 46).
in(120, 47).
in(120, 48).
in(120, 49).
in(120, 50).
in(120, 52).
in(120, 53).
in(120, 56).
in(120, 57).
in(120, 59).
in(120, 60).
in(120, 62).
in(120, 63).
in(120, 65).
in(120, 66).
in(120, 67).
in(120, 68).
in(120, 71).
in(120, 72).
in(120, 75).
in(120, 76).
in(120, 82).
in(120, 83).
in(120, 85).
in(120, 86).
in(120, 87).
in(120, 92).
in(120, 95).
in(120, 97).
in(120, 98).
in(120, 100).
in(120, 102).
in(120, 103).
in(120, 104).
in(120, 109).
in(120, 110).
in(120, 112).
in(120, 114).
in(120, 115).
in(120, 118).
in(120, 119).
in(120, 120).
in(120, 122).
in(120, 123).
in(120, 125).
in(120, 127).
in(120, 128).
in(120, 130).
in(120, 131).
in(120, 133).
in(120, 134).
in(120, 135).
in(121, 2).
in(121, 130).
in(121, 132).
in(121, 5).
in(121, 133).
in(121, 9).
in(121, 10).
in(121, 11).
in(121, 13).
in(121, 15).
in(121, 16).
in(121, 18).
in(121, 19).
in(121, 21).
in(121, 24).
in(121, 29).
in(121, 31).
in(121, 33).
in(121, 34).
in(121, 35).
in(121, 36).
in(121, 37).
in(121, 41).
in(121, 45).
in(121, 46).
in(121, 47).
in(121, 55).
in(121, 56).
in(121, 57).
in(121, 59).
in(121, 62).
in(121, 64).
in(121, 66).
in(121, 68).
in(121, 70).
in(121, 71).
in(121, 72).
in(121, 76).
in(121, 80).
in(121, 81).
in(121, 82).
in(121, 83).
in(121, 85).
in(121, 86).
in(121, 87).
in(121, 93).
in(121, 94).
in(121, 95).
in(121, 96).
in(121, 98).
in(121, 100).
in(121, 101).
in(121, 109).
in(121, 112).
in(121, 113).
in(121, 115).
in(121, 116).
in(121, 119).
in(121, 120).
in(121, 121).
in(121, 122).
in(121, 123).
in(121, 125).
in(121, 126).
in(122, 1).
in(122, 4).
in(122, 8).
in(122, 9).
in(122, 12).
in(122, 14).
in(122, 15).
in(122, 16).
in(122, 17).
in(122, 18).
in(122, 21).
in(122, 22).
in(122, 23).
in(122, 24).
in(122, 26).
in(122, 27).
in(122, 28).
in(122, 29).
in(122, 30).
in(122, 31).
in(122, 33).
in(122, 34).
in(122, 35).
in(122, 36).
in(122, 37).
in(122, 38).
in(122, 39).
in(122, 40).
in(122, 41).
in(122, 43).
in(122, 45).
in(122, 47).
in(122, 49).
in(122, 51).
in(122, 53).
in(122, 54).
in(122, 57).
in(122, 58).
in(122, 59).
in(122, 61).
in(122, 62).
in(122, 64).
in(122, 65).
in(122, 66).
in(122, 67).
in(122, 68).
in(122, 69).
in(122, 72).
in(122, 73).
in(122, 75).
in(122, 77).
in(122, 81).
in(122, 83).
in(122, 85).
in(122, 87).
in(122, 89).
in(122, 90).
in(122, 95).
in(122, 97).
in(122, 99).
in(122, 101).
in(122, 102).
in(122, 103).
in(122, 104).
in(122, 106).
in(122, 108).
in(122, 109).
in(122, 110).
in(122, 111).
in(122, 112).
in(122, 114).
in(122, 116).
in(122, 117).
in(122, 119).
in(122, 120).
in(122, 121).
in(122, 122).
in(122, 123).
in(122, 124).
in(122, 127).
in(122, 129).
in(122, 131).
in(122, 135).
in(123, 129).
in(123, 2).
in(123, 3).
in(123, 4).
in(123, 130).
in(123, 6).
in(123, 7).
in(123, 131).
in(123, 132).
in(123, 10).
in(123, 133).
in(123, 12).
in(123, 134).
in(123, 15).
in(123, 16).
in(123, 19).
in(123, 21).
in(123, 23).
in(123, 24).
in(123, 25).
in(123, 26).
in(123, 27).
in(123, 31).
in(123, 35).
in(123, 36).
in(123, 38).
in(123, 39).
in(123, 40).
in(123, 43).
in(123, 45).
in(123, 46).
in(123, 47).
in(123, 48).
in(123, 49).
in(123, 52).
in(123, 53).
in(123, 55).
in(123, 58).
in(123, 62).
in(123, 63).
in(123, 65).
in(123, 66).
in(123, 67).
in(123, 70).
in(123, 72).
in(123, 74).
in(123, 76).
in(123, 77).
in(123, 78).
in(123, 79).
in(123, 80).
in(123, 83).
in(123, 84).
in(123, 86).
in(123, 87).
in(123, 88).
in(123, 89).
in(123, 92).
in(123, 95).
in(123, 96).
in(123, 98).
in(123, 100).
in(123, 101).
in(123, 102).
in(123, 106).
in(123, 108).
in(123, 110).
in(123, 112).
in(123, 114).
in(123, 115).
in(123, 116).
in(123, 118).
in(123, 121).
in(123, 124).
in(123, 125).
in(123, 127).
in(124, 128).
in(124, 1).
in(124, 129).
in(124, 3).
in(124, 130).
in(124, 5).
in(124, 6).
in(124, 7).
in(124, 133).
in(124, 11).
in(124, 12).
in(124, 13).
in(124, 15).
in(124, 18).
in(124, 19).
in(124, 21).
in(124, 23).
in(124, 25).
in(124, 26).
in(124, 28).
in(124, 30).
in(124, 33).
in(124, 34).
in(124, 35).
in(124, 36).
in(124, 40).
in(124, 46).
in(124, 48).
in(124, 49).
in(124, 50).
in(124, 51).
in(124, 52).
in(124, 53).
in(124, 58).
in(124, 59).
in(124, 62).
in(124, 63).
in(124, 66).
in(124, 69).
in(124, 70).
in(124, 71).
in(124, 73).
in(124, 75).
in(124, 78).
in(124, 79).
in(124, 80).
in(124, 82).
in(124, 83).
in(124, 86).
in(124, 88).
in(124, 89).
in(124, 92).
in(124, 93).
in(124, 94).
in(124, 95).
in(124, 97).
in(124, 98).
in(124, 99).
in(124, 100).
in(124, 101).
in(124, 105).
in(124, 107).
in(124, 109).
in(124, 110).
in(124, 111).
in(124, 114).
in(124, 116).
in(124, 119).
in(124, 121).
in(124, 124).
in(124, 125).
in(124, 127).
in(125, 3).
in(125, 5).
in(125, 6).
in(125, 7).
in(125, 8).
in(125, 12).
in(125, 13).
in(125, 17).
in(125, 18).
in(125, 19).
in(125, 20).
in(125, 21).
in(125, 22).
in(125, 23).
in(125, 24).
in(125, 26).
in(125, 29).
in(125, 30).
in(125, 32).
in(125, 33).
in(125, 34).
in(125, 35).
in(125, 37).
in(125, 40).
in(125, 42).
in(125, 44).
in(125, 46).
in(125, 47).
in(125, 48).
in(125, 49).
in(125, 50).
in(125, 51).
in(125, 53).
in(125, 54).
in(125, 56).
in(125, 58).
in(125, 62).
in(125, 63).
in(125, 64).
in(125, 65).
in(125, 66).
in(125, 69).
in(125, 70).
in(125, 72).
in(125, 73).
in(125, 77).
in(125, 80).
in(125, 81).
in(125, 82).
in(125, 83).
in(125, 87).
in(125, 88).
in(125, 91).
in(125, 92).
in(125, 93).
in(125, 95).
in(125, 96).
in(125, 98).
in(125, 101).
in(125, 103).
in(125, 105).
in(125, 106).
in(125, 108).
in(125, 109).
in(125, 110).
in(125, 111).
in(125, 113).
in(125, 114).
in(125, 115).
in(125, 116).
in(125, 118).
in(125, 121).
in(125, 122).
in(125, 123).
in(125, 126).
in(125, 129).
in(125, 130).
in(125, 132).
in(125, 133).
in(125, 135).
in(126, 128).
in(126, 1).
in(126, 2).
in(126, 129).
in(126, 131).
in(126, 5).
in(126, 134).
in(126, 7).
in(126, 8).
in(126, 9).
in(126, 10).
in(126, 135).
in(126, 16).
in(126, 17).
in(126, 20).
in(126, 22).
in(126, 23).
in(126, 24).
in(126, 26).
in(126, 27).
in(126, 29).
in(126, 30).
in(126, 31).
in(126, 33).
in(126, 36).
in(126, 41).
in(126, 42).
in(126, 43).
in(126, 46).
in(126, 47).
in(126, 48).
in(126, 53).
in(126, 56).
in(126, 57).
in(126, 59).
in(126, 61).
in(126, 62).
in(126, 63).
in(126, 65).
in(126, 71).
in(126, 72).
in(126, 73).
in(126, 74).
in(126, 75).
in(126, 76).
in(126, 77).
in(126, 78).
in(126, 79).
in(126, 80).
in(126, 82).
in(126, 87).
in(126, 88).
in(126, 90).
in(126, 92).
in(126, 93).
in(126, 94).
in(126, 96).
in(126, 98).
in(126, 100).
in(126, 101).
in(126, 103).
in(126, 106).
in(126, 107).
in(126, 111).
in(126, 113).
in(126, 114).
in(126, 115).
in(126, 117).
in(126, 118).
in(126, 119).
in(126, 121).
in(126, 122).
in(126, 123).
in(126, 124).
in(126, 125).
in(127, 3).
in(127, 4).
in(127, 134).
in(127, 8).
in(127, 9).
in(127, 12).
in(127, 14).
in(127, 18).
in(127, 22).
in(127, 24).
in(127, 26).
in(127, 28).
in(127, 29).
in(127, 30).
in(127, 32).
in(127, 35).
in(127, 36).
in(127, 41).
in(127, 42).
in(127, 43).
in(127, 44).
in(127, 46).
in(127, 48).
in(127, 49).
in(127, 54).
in(127, 55).
in(127, 56).
in(127, 57).
in(127, 58).
in(127, 59).
in(127, 60).
in(127, 61).
in(127, 64).
in(127, 66).
in(127, 68).
in(127, 69).
in(127, 70).
in(127, 71).
in(127, 73).
in(127, 75).
in(127, 76).
in(127, 79).
in(127, 80).
in(127, 84).
in(127, 85).
in(127, 86).
in(127, 89).
in(127, 94).
in(127, 95).
in(127, 100).
in(127, 101).
in(127, 102).
in(127, 103).
in(127, 104).
in(127, 106).
in(127, 107).
in(127, 108).
in(127, 111).
in(127, 116).
in(127, 118).
in(127, 122).
in(127, 123).
in(127, 124).
in(127, 126).
in(128, 1).
in(128, 6).
in(128, 7).
in(128, 11).
in(128, 12).
in(128, 13).
in(128, 18).
in(128, 19).
in(128, 20).
in(128, 23).
in(128, 24).
in(128, 25).
in(128, 26).
in(128, 28).
in(128, 29).
in(128, 32).
in(128, 33).
in(128, 34).
in(128, 35).
in(128, 36).
in(128, 37).
in(128, 38).
in(128, 40).
in(128, 41).
in(128, 42).
in(128, 43).
in(128, 44).
in(128, 45).
in(128, 46).
in(128, 47).
in(128, 48).
in(128, 50).
in(128, 51).
in(128, 52).
in(128, 54).
in(128, 55).
in(128, 57).
in(128, 58).
in(128, 59).
in(128, 64).
in(128, 65).
in(128, 68).
in(128, 70).
in(128, 71).
in(128, 72).
in(128, 73).
in(128, 75).
in(128, 77).
in(128, 78).
in(128, 80).
in(128, 81).
in(128, 82).
in(128, 83).
in(128, 84).
in(128, 85).
in(128, 86).
in(128, 87).
in(128, 88).
in(128, 89).
in(128, 90).
in(128, 91).
in(128, 92).
in(128, 93).
in(128, 94).
in(128, 105).
in(128, 106).
in(128, 111).
in(128, 114).
in(128, 116).
in(128, 118).
in(128, 119).
in(128, 120).
in(128, 121).
in(128, 123).
in(128, 125).
in(128, 128).
in(128, 129).
in(128, 130).
in(128, 131).
in(128, 134).
in(128, 135).
in(129, 128).
in(129, 1).
in(129, 130).
in(129, 131).
in(129, 4).
in(129, 6).
in(129, 134).
in(129, 8).
in(129, 9).
in(129, 14).
in(129, 15).
in(129, 17).
in(129, 19).
in(129, 20).
in(129, 21).
in(129, 24).
in(129, 25).
in(129, 26).
in(129, 29).
in(129, 31).
in(129, 32).
in(129, 33).
in(129, 35).
in(129, 37).
in(129, 40).
in(129, 42).
in(129, 43).
in(129, 44).
in(129, 45).
in(129, 46).
in(129, 49).
in(129, 50).
in(129, 51).
in(129, 52).
in(129, 53).
in(129, 56).
in(129, 58).
in(129, 62).
in(129, 63).
in(129, 64).
in(129, 66).
in(129, 67).
in(129, 68).
in(129, 69).
in(129, 70).
in(129, 71).
in(129, 73).
in(129, 75).
in(129, 77).
in(129, 78).
in(129, 79).
in(129, 80).
in(129, 81).
in(129, 82).
in(129, 84).
in(129, 89).
in(129, 90).
in(129, 91).
in(129, 92).
in(129, 93).
in(129, 94).
in(129, 97).
in(129, 98).
in(129, 99).
in(129, 100).
in(129, 103).
in(129, 104).
in(129, 105).
in(129, 109).
in(129, 110).
in(129, 115).
in(129, 119).
in(129, 121).
in(129, 126).
in(129, 127).
in(130, 1).
in(130, 2).
in(130, 6).
in(130, 7).
in(130, 10).
in(130, 11).
in(130, 13).
in(130, 14).
in(130, 15).
in(130, 16).
in(130, 17).
in(130, 20).
in(130, 22).
in(130, 23).
in(130, 25).
in(130, 26).
in(130, 27).
in(130, 29).
in(130, 31).
in(130, 34).
in(130, 35).
in(130, 37).
in(130, 38).
in(130, 40).
in(130, 42).
in(130, 46).
in(130, 48).
in(130, 49).
in(130, 51).
in(130, 52).
in(130, 53).
in(130, 57).
in(130, 59).
in(130, 60).
in(130, 61).
in(130, 64).
in(130, 65).
in(130, 66).
in(130, 69).
in(130, 70).
in(130, 73).
in(130, 74).
in(130, 76).
in(130, 77).
in(130, 80).
in(130, 82).
in(130, 83).
in(130, 84).
in(130, 85).
in(130, 86).
in(130, 88).
in(130, 90).
in(130, 92).
in(130, 93).
in(130, 95).
in(130, 96).
in(130, 100).
in(130, 101).
in(130, 102).
in(130, 103).
in(130, 104).
in(130, 105).
in(130, 108).
in(130, 109).
in(130, 111).
in(130, 112).
in(130, 113).
in(130, 115).
in(130, 116).
in(130, 118).
in(130, 119).
in(130, 120).
in(130, 122).
in(130, 123).
in(130, 126).
in(130, 127).
in(130, 129).
in(130, 130).
in(130, 131).
in(130, 132).
in(130, 133).
in(130, 134).
in(130, 135).
in(131, 2).
in(131, 3).
in(131, 4).
in(131, 5).
in(131, 10).
in(131, 12).
in(131, 13).
in(131, 17).
in(131, 18).
in(131, 19).
in(131, 20).
in(131, 21).
in(131, 22).
in(131, 23).
in(131, 25).
in(131, 26).
in(131, 28).
in(131, 30).
in(131, 31).
in(131, 33).
in(131, 35).
in(131, 36).
in(131, 38).
in(131, 40).
in(131, 41).
in(131, 44).
in(131, 45).
in(131, 46).
in(131, 47).
in(131, 49).
in(131, 51).
in(131, 52).
in(131, 53).
in(131, 54).
in(131, 57).
in(131, 59).
in(131, 60).
in(131, 63).
in(131, 64).
in(131, 67).
in(131, 68).
in(131, 69).
in(131, 70).
in(131, 74).
in(131, 76).
in(131, 79).
in(131, 82).
in(131, 83).
in(131, 85).
in(131, 86).
in(131, 87).
in(131, 88).
in(131, 91).
in(131, 93).
in(131, 94).
in(131, 95).
in(131, 97).
in(131, 100).
in(131, 101).
in(131, 102).
in(131, 105).
in(131, 106).
in(131, 107).
in(131, 109).
in(131, 112).
in(131, 113).
in(131, 114).
in(131, 116).
in(131, 120).
in(131, 122).
in(131, 124).
in(131, 125).
in(131, 126).
in(131, 130).
in(131, 131).
in(131, 132).
in(131, 134).
in(131, 135).
in(132, 128).
in(132, 1).
in(132, 129).
in(132, 3).
in(132, 130).
in(132, 131).
in(132, 133).
in(132, 134).
in(132, 8).
in(132, 9).
in(132, 12).
in(132, 14).
in(132, 15).
in(132, 17).
in(132, 19).
in(132, 20).
in(132, 23).
in(132, 25).
in(132, 29).
in(132, 31).
in(132, 32).
in(132, 34).
in(132, 35).
in(132, 36).
in(132, 37).
in(132, 39).
in(132, 40).
in(132, 41).
in(132, 42).
in(132, 43).
in(132, 44).
in(132, 45).
in(132, 46).
in(132, 48).
in(132, 50).
in(132, 51).
in(132, 54).
in(132, 56).
in(132, 57).
in(132, 58).
in(132, 59).
in(132, 60).
in(132, 63).
in(132, 65).
in(132, 66).
in(132, 70).
in(132, 71).
in(132, 73).
in(132, 74).
in(132, 76).
in(132, 77).
in(132, 78).
in(132, 79).
in(132, 82).
in(132, 86).
in(132, 87).
in(132, 88).
in(132, 90).
in(132, 93).
in(132, 98).
in(132, 99).
in(132, 100).
in(132, 102).
in(132, 103).
in(132, 106).
in(132, 108).
in(132, 114).
in(132, 115).
in(132, 116).
in(132, 118).
in(132, 120).
in(132, 121).
in(132, 123).
in(132, 125).
in(132, 126).
in(133, 1).
in(133, 2).
in(133, 3).
in(133, 4).
in(133, 7).
in(133, 8).
in(133, 9).
in(133, 11).
in(133, 13).
in(133, 15).
in(133, 16).
in(133, 18).
in(133, 19).
in(133, 22).
in(133, 23).
in(133, 24).
in(133, 25).
in(133, 26).
in(133, 27).
in(133, 28).
in(133, 29).
in(133, 33).
in(133, 34).
in(133, 35).
in(133, 37).
in(133, 39).
in(133, 40).
in(133, 42).
in(133, 43).
in(133, 44).
in(133, 51).
in(133, 52).
in(133, 54).
in(133, 55).
in(133, 56).
in(133, 57).
in(133, 59).
in(133, 60).
in(133, 61).
in(133, 62).
in(133, 63).
in(133, 68).
in(133, 69).
in(133, 71).
in(133, 72).
in(133, 73).
in(133, 75).
in(133, 76).
in(133, 79).
in(133, 81).
in(133, 82).
in(133, 85).
in(133, 86).
in(133, 87).
in(133, 89).
in(133, 91).
in(133, 94).
in(133, 95).
in(133, 96).
in(133, 98).
in(133, 99).
in(133, 101).
in(133, 104).
in(133, 107).
in(133, 108).
in(133, 113).
in(133, 114).
in(133, 115).
in(133, 116).
in(133, 119).
in(133, 121).
in(133, 125).
in(133, 129).
in(133, 130).
in(133, 131).
in(133, 132).
in(133, 134).
in(133, 135).
in(134, 1).
in(134, 129).
in(134, 3).
in(134, 4).
in(134, 5).
in(134, 130).
in(134, 132).
in(134, 133).
in(134, 9).
in(134, 134).
in(134, 12).
in(134, 13).
in(134, 16).
in(134, 17).
in(134, 21).
in(134, 22).
in(134, 24).
in(134, 25).
in(134, 31).
in(134, 32).
in(134, 33).
in(134, 34).
in(134, 36).
in(134, 40).
in(134, 43).
in(134, 45).
in(134, 46).
in(134, 47).
in(134, 48).
in(134, 49).
in(134, 52).
in(134, 53).
in(134, 57).
in(134, 59).
in(134, 61).
in(134, 64).
in(134, 65).
in(134, 66).
in(134, 67).
in(134, 70).
in(134, 73).
in(134, 74).
in(134, 75).
in(134, 79).
in(134, 81).
in(134, 82).
in(134, 85).
in(134, 87).
in(134, 90).
in(134, 91).
in(134, 92).
in(134, 94).
in(134, 95).
in(134, 96).
in(134, 99).
in(134, 101).
in(134, 102).
in(134, 103).
in(134, 104).
in(134, 105).
in(134, 107).
in(134, 109).
in(134, 110).
in(134, 114).
in(134, 115).
in(134, 116).
in(134, 117).
in(134, 119).
in(134, 122).
in(134, 124).
in(134, 125).
in(134, 126).
in(135, 128).
in(135, 1).
in(135, 2).
in(135, 131).
in(135, 132).
in(135, 5).
in(135, 6).
in(135, 134).
in(135, 135).
in(135, 9).
in(135, 10).
in(135, 11).
in(135, 12).
in(135, 13).
in(135, 14).
in(135, 18).
in(135, 19).
in(135, 20).
in(135, 22).
in(135, 23).
in(135, 24).
in(135, 26).
in(135, 27).
in(135, 28).
in(135, 29).
in(135, 32).
in(135, 33).
in(135, 34).
in(135, 36).
in(135, 37).
in(135, 42).
in(135, 43).
in(135, 44).
in(135, 45).
in(135, 47).
in(135, 50).
in(135, 51).
in(135, 52).
in(135, 53).
in(135, 54).
in(135, 58).
in(135, 60).
in(135, 64).
in(135, 65).
in(135, 66).
in(135, 67).
in(135, 68).
in(135, 69).
in(135, 70).
in(135, 72).
in(135, 73).
in(135, 74).
in(135, 75).
in(135, 76).
in(135, 81).
in(135, 85).
in(135, 88).
in(135, 92).
in(135, 93).
in(135, 98).
in(135, 101).
in(135, 103).
in(135, 104).
in(135, 105).
in(135, 107).
in(135, 108).
in(135, 110).
in(135, 112).
in(135, 117).
in(135, 119).
in(135, 120).
in(135, 123).
in(135, 124).
in(135, 126).
in(135, 127).
in(136, 1).
in(136, 2).
in(136, 3).
in(136, 129).
in(136, 5).
in(136, 130).
in(136, 131).
in(136, 8).
in(136, 9).
in(136, 10).
in(136, 11).
in(136, 12).
in(136, 132).
in(136, 14).
in(136, 17).
in(136, 18).
in(136, 20).
in(136, 22).
in(136, 23).
in(136, 26).
in(136, 28).
in(136, 29).
in(136, 30).
in(136, 31).
in(136, 133).
in(136, 33).
in(136, 34).
in(136, 36).
in(136, 40).
in(136, 46).
in(136, 48).
in(136, 51).
in(136, 52).
in(136, 53).
in(136, 54).
in(136, 55).
in(136, 57).
in(136, 58).
in(136, 60).
in(136, 61).
in(136, 65).
in(136, 66).
in(136, 69).
in(136, 70).
in(136, 72).
in(136, 74).
in(136, 75).
in(136, 76).
in(136, 77).
in(136, 78).
in(136, 80).
in(136, 84).
in(136, 86).
in(136, 87).
in(136, 90).
in(136, 93).
in(136, 95).
in(136, 97).
in(136, 101).
in(136, 104).
in(136, 106).
in(136, 107).
in(136, 109).
in(136, 111).
in(136, 113).
in(136, 114).
in(136, 116).
in(136, 117).
in(136, 119).
in(136, 120).
in(136, 121).
in(137, 128).
in(137, 129).
in(137, 2).
in(137, 3).
in(137, 4).
in(137, 5).
in(137, 6).
in(137, 133).
in(137, 134).
in(137, 9).
in(137, 14).
in(137, 15).
in(137, 19).
in(137, 21).
in(137, 22).
in(137, 23).
in(137, 24).
in(137, 25).
in(137, 26).
in(137, 27).
in(137, 28).
in(137, 31).
in(137, 32).
in(137, 34).
in(137, 37).
in(137, 40).
in(137, 42).
in(137, 43).
in(137, 44).
in(137, 45).
in(137, 48).
in(137, 50).
in(137, 51).
in(137, 53).
in(137, 55).
in(137, 56).
in(137, 57).
in(137, 62).
in(137, 63).
in(137, 65).
in(137, 69).
in(137, 70).
in(137, 72).
in(137, 73).
in(137, 74).
in(137, 75).
in(137, 82).
in(137, 85).
in(137, 87).
in(137, 92).
in(137, 94).
in(137, 95).
in(137, 99).
in(137, 101).
in(137, 103).
in(137, 105).
in(137, 106).
in(137, 111).
in(137, 113).
in(137, 114).
in(137, 116).
in(137, 119).
in(137, 121).
in(137, 123).
in(137, 125).
in(137, 127).
in(138, 1).
in(138, 4).
in(138, 5).
in(138, 14).
in(138, 15).
in(138, 16).
in(138, 20).
in(138, 21).
in(138, 22).
in(138, 23).
in(138, 24).
in(138, 25).
in(138, 27).
in(138, 28).
in(138, 30).
in(138, 31).
in(138, 32).
in(138, 33).
in(138, 34).
in(138, 35).
in(138, 38).
in(138, 39).
in(138, 41).
in(138, 42).
in(138, 45).
in(138, 46).
in(138, 48).
in(138, 49).
in(138, 50).
in(138, 51).
in(138, 53).
in(138, 54).
in(138, 56).
in(138, 57).
in(138, 60).
in(138, 61).
in(138, 64).
in(138, 65).
in(138, 66).
in(138, 67).
in(138, 69).
in(138, 70).
in(138, 72).
in(138, 73).
in(138, 75).
in(138, 76).
in(138, 77).
in(138, 79).
in(138, 83).
in(138, 84).
in(138, 85).
in(138, 88).
in(138, 89).
in(138, 91).
in(138, 92).
in(138, 94).
in(138, 98).
in(138, 99).
in(138, 100).
in(138, 101).
in(138, 103).
in(138, 104).
in(138, 105).
in(138, 108).
in(138, 110).
in(138, 112).
in(138, 115).
in(138, 116).
in(138, 117).
in(138, 119).
in(138, 121).
in(138, 123).
in(138, 125).
in(138, 126).
in(138, 127).
in(138, 128).
in(138, 129).
in(138, 131).
in(138, 132).
in(138, 134).
in(138, 135).
in(139, 128).
in(139, 129).
in(139, 4).
in(139, 133).
in(139, 134).
in(139, 7).
in(139, 8).
in(139, 9).
in(139, 10).
in(139, 12).
in(139, 14).
in(139, 15).
in(139, 16).
in(139, 18).
in(139, 22).
in(139, 24).
in(139, 26).
in(139, 27).
in(139, 29).
in(139, 30).
in(139, 31).
in(139, 32).
in(139, 33).
in(139, 35).
in(139, 38).
in(139, 40).
in(139, 41).
in(139, 42).
in(139, 47).
in(139, 48).
in(139, 51).
in(139, 53).
in(139, 57).
in(139, 59).
in(139, 60).
in(139, 65).
in(139, 66).
in(139, 68).
in(139, 69).
in(139, 74).
in(139, 75).
in(139, 76).
in(139, 78).
in(139, 80).
in(139, 82).
in(139, 84).
in(139, 85).
in(139, 87).
in(139, 88).
in(139, 89).
in(139, 90).
in(139, 92).
in(139, 93).
in(139, 94).
in(139, 96).
in(139, 97).
in(139, 98).
in(139, 99).
in(139, 101).
in(139, 102).
in(139, 105).
in(139, 108).
in(139, 109).
in(139, 111).
in(139, 113).
in(139, 114).
in(139, 116).
in(139, 118).
in(139, 119).
in(139, 121).
in(139, 122).
in(139, 124).
in(139, 125).
in(139, 127).
in(140, 129).
in(140, 2).
in(140, 3).
in(140, 5).
in(140, 133).
in(140, 7).
in(140, 8).
in(140, 9).
in(140, 10).
in(140, 11).
in(140, 134).
in(140, 135).
in(140, 18).
in(140, 19).
in(140, 25).
in(140, 26).
in(140, 27).
in(140, 29).
in(140, 31).
in(140, 34).
in(140, 35).
in(140, 36).
in(140, 37).
in(140, 38).
in(140, 39).
in(140, 43).
in(140, 44).
in(140, 49).
in(140, 51).
in(140, 52).
in(140, 53).
in(140, 55).
in(140, 56).
in(140, 57).
in(140, 58).
in(140, 59).
in(140, 60).
in(140, 63).
in(140, 65).
in(140, 67).
in(140, 68).
in(140, 69).
in(140, 70).
in(140, 71).
in(140, 73).
in(140, 75).
in(140, 80).
in(140, 81).
in(140, 82).
in(140, 83).
in(140, 85).
in(140, 86).
in(140, 88).
in(140, 89).
in(140, 91).
in(140, 93).
in(140, 94).
in(140, 96).
in(140, 97).
in(140, 100).
in(140, 101).
in(140, 102).
in(140, 104).
in(140, 105).
in(140, 106).
in(140, 107).
in(140, 108).
in(140, 112).
in(140, 113).
in(140, 114).
in(140, 117).
in(140, 118).
in(140, 119).
in(140, 120).
in(140, 121).
in(140, 127).
in(141, 2).
in(141, 3).
in(141, 4).
in(141, 5).
in(141, 6).
in(141, 7).
in(141, 9).
in(141, 10).
in(141, 12).
in(141, 14).
in(141, 15).
in(141, 17).
in(141, 22).
in(141, 24).
in(141, 26).
in(141, 27).
in(141, 28).
in(141, 31).
in(141, 32).
in(141, 33).
in(141, 34).
in(141, 37).
in(141, 40).
in(141, 41).
in(141, 43).
in(141, 44).
in(141, 47).
in(141, 48).
in(141, 49).
in(141, 51).
in(141, 52).
in(141, 54).
in(141, 55).
in(141, 56).
in(141, 57).
in(141, 63).
in(141, 66).
in(141, 69).
in(141, 70).
in(141, 71).
in(141, 75).
in(141, 77).
in(141, 78).
in(141, 79).
in(141, 81).
in(141, 82).
in(141, 83).
in(141, 84).
in(141, 85).
in(141, 86).
in(141, 88).
in(141, 89).
in(141, 91).
in(141, 92).
in(141, 94).
in(141, 96).
in(141, 97).
in(141, 98).
in(141, 102).
in(141, 104).
in(141, 105).
in(141, 106).
in(141, 107).
in(141, 108).
in(141, 111).
in(141, 112).
in(141, 113).
in(141, 115).
in(141, 119).
in(141, 120).
in(141, 122).
in(141, 124).
in(141, 125).
in(141, 127).
in(141, 128).
in(141, 129).
in(141, 130).
in(141, 131).
in(141, 132).
in(141, 133).
in(141, 134).
in(142, 129).
in(142, 2).
in(142, 130).
in(142, 4).
in(142, 6).
in(142, 8).
in(142, 9).
in(142, 10).
in(142, 12).
in(142, 13).
in(142, 14).
in(142, 15).
in(142, 16).
in(142, 21).
in(142, 23).
in(142, 25).
in(142, 26).
in(142, 28).
in(142, 29).
in(142, 30).
in(142, 31).
in(142, 32).
in(142, 33).
in(142, 36).
in(142, 38).
in(142, 43).
in(142, 46).
in(142, 48).
in(142, 49).
in(142, 51).
in(142, 53).
in(142, 54).
in(142, 55).
in(142, 58).
in(142, 59).
in(142, 60).
in(142, 61).
in(142, 62).
in(142, 64).
in(142, 66).
in(142, 68).
in(142, 70).
in(142, 71).
in(142, 72).
in(142, 73).
in(142, 74).
in(142, 75).
in(142, 76).
in(142, 78).
in(142, 86).
in(142, 89).
in(142, 93).
in(142, 95).
in(142, 98).
in(142, 100).
in(142, 102).
in(142, 105).
in(142, 108).
in(142, 110).
in(142, 114).
in(142, 118).
in(142, 119).
in(142, 122).
in(142, 124).
in(142, 125).
in(142, 126).
in(142, 127).
in(143, 1).
in(143, 2).
in(143, 3).
in(143, 5).
in(143, 7).
in(143, 9).
in(143, 10).
in(143, 11).
in(143, 13).
in(143, 16).
in(143, 18).
in(143, 19).
in(143, 20).
in(143, 21).
in(143, 22).
in(143, 23).
in(143, 25).
in(143, 26).
in(143, 27).
in(143, 31).
in(143, 36).
in(143, 37).
in(143, 38).
in(143, 39).
in(143, 40).
in(143, 41).
in(143, 43).
in(143, 44).
in(143, 45).
in(143, 46).
in(143, 49).
in(143, 51).
in(143, 52).
in(143, 54).
in(143, 56).
in(143, 57).
in(143, 58).
in(143, 59).
in(143, 61).
in(143, 65).
in(143, 66).
in(143, 68).
in(143, 70).
in(143, 72).
in(143, 74).
in(143, 76).
in(143, 79).
in(143, 80).
in(143, 81).
in(143, 82).
in(143, 84).
in(143, 85).
in(143, 87).
in(143, 89).
in(143, 90).
in(143, 94).
in(143, 95).
in(143, 96).
in(143, 101).
in(143, 103).
in(143, 104).
in(143, 105).
in(143, 107).
in(143, 110).
in(143, 111).
in(143, 112).
in(143, 115).
in(143, 116).
in(143, 119).
in(143, 122).
in(143, 123).
in(143, 125).
in(143, 126).
in(143, 128).
in(143, 130).
in(143, 132).
in(143, 135).
in(144, 131).
in(144, 5).
in(144, 134).
in(144, 135).
in(144, 10).
in(144, 12).
in(144, 13).
in(144, 14).
in(144, 15).
in(144, 18).
in(144, 20).
in(144, 21).
in(144, 23).
in(144, 25).
in(144, 26).
in(144, 27).
in(144, 28).
in(144, 29).
in(144, 30).
in(144, 32).
in(144, 34).
in(144, 35).
in(144, 36).
in(144, 37).
in(144, 38).
in(144, 40).
in(144, 42).
in(144, 43).
in(144, 45).
in(144, 47).
in(144, 48).
in(144, 50).
in(144, 51).
in(144, 52).
in(144, 53).
in(144, 55).
in(144, 56).
in(144, 57).
in(144, 58).
in(144, 59).
in(144, 61).
in(144, 62).
in(144, 63).
in(144, 65).
in(144, 67).
in(144, 69).
in(144, 71).
in(144, 72).
in(144, 73).
in(144, 74).
in(144, 75).
in(144, 78).
in(144, 79).
in(144, 80).
in(144, 83).
in(144, 84).
in(144, 87).
in(144, 89).
in(144, 90).
in(144, 91).
in(144, 94).
in(144, 96).
in(144, 97).
in(144, 98).
in(144, 104).
in(144, 106).
in(144, 107).
in(144, 108).
in(144, 111).
in(144, 113).
in(144, 115).
in(144, 120).
in(144, 123).
in(144, 124).
in(144, 125).
in(145, 1).
in(145, 3).
in(145, 5).
in(145, 7).
in(145, 8).
in(145, 12).
in(145, 13).
in(145, 15).
in(145, 21).
in(145, 22).
in(145, 23).
in(145, 24).
in(145, 26).
in(145, 28).
in(145, 29).
in(145, 30).
in(145, 31).
in(145, 34).
in(145, 35).
in(145, 36).
in(145, 39).
in(145, 42).
in(145, 43).
in(145, 44).
in(145, 45).
in(145, 49).
in(145, 50).
in(145, 51).
in(145, 52).
in(145, 53).
in(145, 55).
in(145, 62).
in(145, 63).
in(145, 64).
in(145, 65).
in(145, 66).
in(145, 67).
in(145, 70).
in(145, 73).
in(145, 74).
in(145, 76).
in(145, 77).
in(145, 79).
in(145, 83).
in(145, 84).
in(145, 86).
in(145, 87).
in(145, 88).
in(145, 89).
in(145, 90).
in(145, 91).
in(145, 92).
in(145, 97).
in(145, 100).
in(145, 101).
in(145, 103).
in(145, 104).
in(145, 106).
in(145, 108).
in(145, 109).
in(145, 110).
in(145, 112).
in(145, 114).
in(145, 115).
in(145, 116).
in(145, 117).
in(145, 118).
in(145, 122).
in(145, 123).
in(145, 124).
in(145, 126).
in(145, 127).
in(145, 129).
in(145, 131).
in(145, 132).
in(145, 133).
in(145, 134).
in(145, 135).
in(146, 128).
in(146, 1).
in(146, 131).
in(146, 133).
in(146, 6).
in(146, 134).
in(146, 8).
in(146, 135).
in(146, 10).
in(146, 12).
in(146, 14).
in(146, 15).
in(146, 16).
in(146, 17).
in(146, 18).
in(146, 20).
in(146, 23).
in(146, 25).
in(146, 29).
in(146, 33).
in(146, 35).
in(146, 38).
in(146, 39).
in(146, 42).
in(146, 47).
in(146, 49).
in(146, 50).
in(146, 52).
in(146, 55).
in(146, 56).
in(146, 59).
in(146, 60).
in(146, 62).
in(146, 63).
in(146, 67).
in(146, 69).
in(146, 70).
in(146, 71).
in(146, 75).
in(146, 78).
in(146, 79).
in(146, 82).
in(146, 83).
in(146, 86).
in(146, 88).
in(146, 89).
in(146, 92).
in(146, 93).
in(146, 94).
in(146, 96).
in(146, 100).
in(146, 101).
in(146, 103).
in(146, 105).
in(146, 106).
in(146, 108).
in(146, 116).
in(146, 119).
in(146, 120).
in(146, 125).
in(146, 127).
in(147, 1).
in(147, 129).
in(147, 3).
in(147, 4).
in(147, 5).
in(147, 132).
in(147, 7).
in(147, 8).
in(147, 9).
in(147, 10).
in(147, 11).
in(147, 13).
in(147, 16).
in(147, 18).
in(147, 19).
in(147, 20).
in(147, 21).
in(147, 23).
in(147, 24).
in(147, 25).
in(147, 27).
in(147, 28).
in(147, 31).
in(147, 33).
in(147, 35).
in(147, 37).
in(147, 40).
in(147, 42).
in(147, 43).
in(147, 45).
in(147, 47).
in(147, 48).
in(147, 49).
in(147, 50).
in(147, 51).
in(147, 53).
in(147, 55).
in(147, 56).
in(147, 58).
in(147, 59).
in(147, 61).
in(147, 63).
in(147, 65).
in(147, 66).
in(147, 69).
in(147, 70).
in(147, 71).
in(147, 74).
in(147, 75).
in(147, 77).
in(147, 79).
in(147, 82).
in(147, 83).
in(147, 86).
in(147, 92).
in(147, 93).
in(147, 94).
in(147, 95).
in(147, 96).
in(147, 97).
in(147, 98).
in(147, 101).
in(147, 105).
in(147, 106).
in(147, 107).
in(147, 109).
in(147, 110).
in(147, 112).
in(147, 115).
in(147, 116).
in(147, 122).
in(147, 123).
in(147, 124).
in(147, 126).
in(148, 1).
in(148, 3).
in(148, 4).
in(148, 5).
in(148, 10).
in(148, 12).
in(148, 13).
in(148, 14).
in(148, 15).
in(148, 17).
in(148, 18).
in(148, 19).
in(148, 20).
in(148, 21).
in(148, 26).
in(148, 27).
in(148, 28).
in(148, 30).
in(148, 33).
in(148, 34).
in(148, 38).
in(148, 39).
in(148, 40).
in(148, 41).
in(148, 42).
in(148, 43).
in(148, 44).
in(148, 46).
in(148, 47).
in(148, 48).
in(148, 49).
in(148, 50).
in(148, 51).
in(148, 52).
in(148, 53).
in(148, 55).
in(148, 56).
in(148, 57).
in(148, 58).
in(148, 65).
in(148, 66).
in(148, 68).
in(148, 69).
in(148, 72).
in(148, 73).
in(148, 76).
in(148, 78).
in(148, 79).
in(148, 81).
in(148, 83).
in(148, 84).
in(148, 85).
in(148, 86).
in(148, 87).
in(148, 89).
in(148, 90).
in(148, 91).
in(148, 92).
in(148, 93).
in(148, 94).
in(148, 95).
in(148, 97).
in(148, 98).
in(148, 99).
in(148, 100).
in(148, 101).
in(148, 103).
in(148, 106).
in(148, 108).
in(148, 109).
in(148, 110).
in(148, 111).
in(148, 115).
in(148, 120).
in(148, 124).
in(148, 127).
in(148, 128).
in(148, 129).
in(148, 130).
in(148, 131).
in(148, 133).
in(148, 134).
in(148, 135).
in(149, 1).
in(149, 2).
in(149, 3).
in(149, 4).
in(149, 5).
in(149, 6).
in(149, 9).
in(149, 13).
in(149, 16).
in(149, 17).
in(149, 19).
in(149, 21).
in(149, 24).
in(149, 25).
in(149, 27).
in(149, 28).
in(149, 29).
in(149, 30).
in(149, 32).
in(149, 33).
in(149, 34).
in(149, 36).
in(149, 37).
in(149, 38).
in(149, 41).
in(149, 42).
in(149, 43).
in(149, 44).
in(149, 46).
in(149, 47).
in(149, 48).
in(149, 51).
in(149, 53).
in(149, 54).
in(149, 55).
in(149, 56).
in(149, 58).
in(149, 59).
in(149, 60).
in(149, 61).
in(149, 62).
in(149, 64).
in(149, 65).
in(149, 67).
in(149, 68).
in(149, 70).
in(149, 71).
in(149, 74).
in(149, 76).
in(149, 77).
in(149, 79).
in(149, 80).
in(149, 83).
in(149, 84).
in(149, 86).
in(149, 89).
in(149, 92).
in(149, 93).
in(149, 94).
in(149, 95).
in(149, 96).
in(149, 97).
in(149, 99).
in(149, 100).
in(149, 101).
in(149, 102).
in(149, 103).
in(149, 104).
in(149, 107).
in(149, 109).
in(149, 110).
in(149, 115).
in(149, 116).
in(149, 117).
in(149, 119).
in(149, 120).
in(149, 121).
in(149, 124).
in(149, 125).
in(149, 126).
in(149, 128).
in(149, 130).
in(149, 131).
in(149, 132).
in(149, 133).
in(150, 1).
in(150, 2).
in(150, 4).
in(150, 5).
in(150, 7).
in(150, 8).
in(150, 15).
in(150, 17).
in(150, 20).
in(150, 22).
in(150, 23).
in(150, 24).
in(150, 25).
in(150, 27).
in(150, 28).
in(150, 29).
in(150, 30).
in(150, 31).
in(150, 33).
in(150, 34).
in(150, 36).
in(150, 37).
in(150, 38).
in(150, 39).
in(150, 42).
in(150, 43).
in(150, 45).
in(150, 47).
in(150, 49).
in(150, 53).
in(150, 54).
in(150, 55).
in(150, 56).
in(150, 58).
in(150, 59).
in(150, 61).
in(150, 64).
in(150, 65).
in(150, 66).
in(150, 67).
in(150, 68).
in(150, 70).
in(150, 75).
in(150, 77).
in(150, 81).
in(150, 86).
in(150, 88).
in(150, 90).
in(150, 91).
in(150, 93).
in(150, 94).
in(150, 97).
in(150, 99).
in(150, 102).
in(150, 103).
in(150, 105).
in(150, 107).
in(150, 109).
in(150, 110).
in(150, 111).
in(150, 112).
in(150, 115).
in(150, 116).
in(150, 117).
in(150, 120).
in(150, 121).
in(150, 122).
in(150, 123).
in(150, 124).
in(150, 125).
in(150, 126).
in(150, 128).
in(150, 130).
in(150, 131).
in(150, 133).
in(150, 134).
in(150, 135).
in(151, 1).
in(151, 2).
in(151, 3).
in(151, 5).
in(151, 7).
in(151, 8).
in(151, 11).
in(151, 12).
in(151, 13).
in(151, 15).
in(151, 18).
in(151, 20).
in(151, 21).
in(151, 22).
in(151, 23).
in(151, 24).
in(151, 27).
in(151, 31).
in(151, 32).
in(151, 33).
in(151, 36).
in(151, 37).
in(151, 38).
in(151, 39).
in(151, 43).
in(151, 44).
in(151, 46).
in(151, 47).
in(151, 48).
in(151, 49).
in(151, 50).
in(151, 54).
in(151, 55).
in(151, 59).
in(151, 62).
in(151, 64).
in(151, 65).
in(151, 67).
in(151, 69).
in(151, 70).
in(151, 71).
in(151, 72).
in(151, 73).
in(151, 74).
in(151, 77).
in(151, 81).
in(151, 84).
in(151, 85).
in(151, 86).
in(151, 88).
in(151, 89).
in(151, 90).
in(151, 91).
in(151, 92).
in(151, 94).
in(151, 95).
in(151, 97).
in(151, 99).
in(151, 100).
in(151, 103).
in(151, 108).
in(151, 109).
in(151, 111).
in(151, 114).
in(151, 115).
in(151, 116).
in(151, 117).
in(151, 119).
in(151, 121).
in(151, 123).
in(151, 125).
in(151, 126).
in(151, 127).
in(151, 128).
in(151, 129).
in(151, 130).
in(151, 135).
in(152, 3).
in(152, 5).
in(152, 6).
in(152, 7).
in(152, 9).
in(152, 10).
in(152, 12).
in(152, 16).
in(152, 19).
in(152, 20).
in(152, 22).
in(152, 24).
in(152, 25).
in(152, 26).
in(152, 27).
in(152, 28).
in(152, 32).
in(152, 34).
in(152, 38).
in(152, 40).
in(152, 41).
in(152, 45).
in(152, 47).
in(152, 49).
in(152, 50).
in(152, 52).
in(152, 53).
in(152, 55).
in(152, 58).
in(152, 59).
in(152, 60).
in(152, 62).
in(152, 65).
in(152, 66).
in(152, 67).
in(152, 68).
in(152, 71).
in(152, 72).
in(152, 73).
in(152, 74).
in(152, 75).
in(152, 77).
in(152, 78).
in(152, 79).
in(152, 80).
in(152, 81).
in(152, 82).
in(152, 83).
in(152, 84).
in(152, 85).
in(152, 86).
in(152, 87).
in(152, 89).
in(152, 91).
in(152, 92).
in(152, 94).
in(152, 96).
in(152, 97).
in(152, 98).
in(152, 99).
in(152, 100).
in(152, 101).
in(152, 102).
in(152, 103).
in(152, 104).
in(152, 106).
in(152, 109).
in(152, 111).
in(152, 112).
in(152, 113).
in(152, 114).
in(152, 115).
in(152, 117).
in(152, 120).
in(152, 124).
in(152, 125).
in(152, 126).
in(152, 129).
in(152, 130).
in(152, 131).
in(152, 132).
in(152, 133).
in(152, 135).
in(153, 129).
in(153, 3).
in(153, 131).
in(153, 132).
in(153, 6).
in(153, 7).
in(153, 134).
in(153, 135).
in(153, 11).
in(153, 15).
in(153, 17).
in(153, 18).
in(153, 19).
in(153, 22).
in(153, 25).
in(153, 27).
in(153, 28).
in(153, 29).
in(153, 30).
in(153, 33).
in(153, 34).
in(153, 37).
in(153, 39).
in(153, 41).
in(153, 42).
in(153, 43).
in(153, 47).
in(153, 49).
in(153, 51).
in(153, 52).
in(153, 53).
in(153, 54).
in(153, 55).
in(153, 56).
in(153, 57).
in(153, 58).
in(153, 60).
in(153, 61).
in(153, 63).
in(153, 65).
in(153, 66).
in(153, 69).
in(153, 70).
in(153, 71).
in(153, 72).
in(153, 74).
in(153, 76).
in(153, 77).
in(153, 80).
in(153, 83).
in(153, 84).
in(153, 85).
in(153, 86).
in(153, 87).
in(153, 90).
in(153, 91).
in(153, 92).
in(153, 95).
in(153, 96).
in(153, 98).
in(153, 105).
in(153, 107).
in(153, 108).
in(153, 109).
in(153, 110).
in(153, 111).
in(153, 114).
in(153, 115).
in(153, 116).
in(153, 118).
in(153, 120).
in(153, 121).
in(153, 123).
in(153, 124).
in(153, 126).
in(153, 127).
in(154, 1).
in(154, 4).
in(154, 5).
in(154, 8).
in(154, 9).
in(154, 12).
in(154, 14).
in(154, 16).
in(154, 17).
in(154, 19).
in(154, 20).
in(154, 22).
in(154, 23).
in(154, 25).
in(154, 26).
in(154, 29).
in(154, 30).
in(154, 31).
in(154, 32).
in(154, 33).
in(154, 34).
in(154, 35).
in(154, 36).
in(154, 37).
in(154, 38).
in(154, 41).
in(154, 42).
in(154, 44).
in(154, 45).
in(154, 46).
in(154, 48).
in(154, 49).
in(154, 50).
in(154, 51).
in(154, 52).
in(154, 55).
in(154, 57).
in(154, 58).
in(154, 59).
in(154, 61).
in(154, 65).
in(154, 66).
in(154, 70).
in(154, 71).
in(154, 73).
in(154, 74).
in(154, 75).
in(154, 77).
in(154, 78).
in(154, 83).
in(154, 84).
in(154, 85).
in(154, 87).
in(154, 88).
in(154, 90).
in(154, 91).
in(154, 92).
in(154, 96).
in(154, 97).
in(154, 98).
in(154, 100).
in(154, 102).
in(154, 107).
in(154, 108).
in(154, 110).
in(154, 112).
in(154, 113).
in(154, 115).
in(154, 116).
in(154, 118).
in(154, 125).
in(154, 128).
in(154, 129).
in(154, 130).
in(154, 131).
in(154, 132).
in(154, 133).
in(155, 129).
in(155, 2).
in(155, 130).
in(155, 4).
in(155, 5).
in(155, 6).
in(155, 131).
in(155, 8).
in(155, 9).
in(155, 132).
in(155, 133).
in(155, 135).
in(155, 13).
in(155, 14).
in(155, 18).
in(155, 19).
in(155, 20).
in(155, 21).
in(155, 24).
in(155, 25).
in(155, 28).
in(155, 30).
in(155, 31).
in(155, 33).
in(155, 34).
in(155, 36).
in(155, 37).
in(155, 39).
in(155, 40).
in(155, 43).
in(155, 44).
in(155, 45).
in(155, 47).
in(155, 49).
in(155, 50).
in(155, 51).
in(155, 52).
in(155, 53).
in(155, 57).
in(155, 59).
in(155, 62).
in(155, 63).
in(155, 64).
in(155, 65).
in(155, 69).
in(155, 71).
in(155, 74).
in(155, 78).
in(155, 83).
in(155, 84).
in(155, 87).
in(155, 90).
in(155, 91).
in(155, 93).
in(155, 96).
in(155, 99).
in(155, 101).
in(155, 102).
in(155, 103).
in(155, 105).
in(155, 106).
in(155, 108).
in(155, 109).
in(155, 111).
in(155, 112).
in(155, 114).
in(155, 115).
in(155, 116).
in(155, 118).
in(155, 119).
in(155, 120).
in(155, 121).
in(155, 122).
in(155, 123).
in(155, 124).
in(155, 126).
in(156, 1).
in(156, 129).
in(156, 3).
in(156, 131).
in(156, 132).
in(156, 6).
in(156, 7).
in(156, 134).
in(156, 9).
in(156, 10).
in(156, 11).
in(156, 12).
in(156, 13).
in(156, 135).
in(156, 16).
in(156, 17).
in(156, 19).
in(156, 20).
in(156, 22).
in(156, 24).
in(156, 25).
in(156, 28).
in(156, 31).
in(156, 33).
in(156, 36).
in(156, 37).
in(156, 38).
in(156, 42).
in(156, 44).
in(156, 47).
in(156, 50).
in(156, 53).
in(156, 54).
in(156, 55).
in(156, 57).
in(156, 59).
in(156, 60).
in(156, 62).
in(156, 65).
in(156, 66).
in(156, 69).
in(156, 70).
in(156, 71).
in(156, 72).
in(156, 74).
in(156, 75).
in(156, 77).
in(156, 78).
in(156, 81).
in(156, 82).
in(156, 84).
in(156, 85).
in(156, 86).
in(156, 87).
in(156, 88).
in(156, 89).
in(156, 90).
in(156, 93).
in(156, 94).
in(156, 95).
in(156, 97).
in(156, 98).
in(156, 101).
in(156, 106).
in(156, 109).
in(156, 110).
in(156, 113).
in(156, 114).
in(156, 117).
in(156, 119).
in(156, 120).
in(156, 121).
in(156, 123).
in(156, 126).
in(156, 127).
in(157, 128).
in(157, 1).
in(157, 129).
in(157, 131).
in(157, 4).
in(157, 5).
in(157, 6).
in(157, 7).
in(157, 132).
in(157, 9).
in(157, 10).
in(157, 11).
in(157, 12).
in(157, 13).
in(157, 14).
in(157, 135).
in(157, 18).
in(157, 19).
in(157, 21).
in(157, 22).
in(157, 23).
in(157, 24).
in(157, 25).
in(157, 26).
in(157, 27).
in(157, 28).
in(157, 29).
in(157, 133).
in(157, 31).
in(157, 34).
in(157, 35).
in(157, 40).
in(157, 41).
in(157, 42).
in(157, 44).
in(157, 45).
in(157, 48).
in(157, 49).
in(157, 50).
in(157, 51).
in(157, 52).
in(157, 53).
in(157, 56).
in(157, 58).
in(157, 60).
in(157, 64).
in(157, 67).
in(157, 69).
in(157, 70).
in(157, 73).
in(157, 75).
in(157, 76).
in(157, 80).
in(157, 82).
in(157, 83).
in(157, 88).
in(157, 91).
in(157, 92).
in(157, 94).
in(157, 96).
in(157, 100).
in(157, 101).
in(157, 102).
in(157, 106).
in(157, 109).
in(157, 113).
in(157, 116).
in(157, 118).
in(157, 119).
in(157, 120).
in(157, 123).
in(157, 125).
in(157, 127).
in(158, 1).
in(158, 130).
in(158, 3).
in(158, 4).
in(158, 5).
in(158, 6).
in(158, 7).
in(158, 8).
in(158, 9).
in(158, 10).
in(158, 131).
in(158, 132).
in(158, 13).
in(158, 14).
in(158, 15).
in(158, 16).
in(158, 18).
in(158, 19).
in(158, 21).
in(158, 24).
in(158, 25).
in(158, 26).
in(158, 28).
in(158, 30).
in(158, 33).
in(158, 34).
in(158, 134).
in(158, 39).
in(158, 40).
in(158, 135).
in(158, 43).
in(158, 44).
in(158, 45).
in(158, 46).
in(158, 47).
in(158, 48).
in(158, 49).
in(158, 51).
in(158, 53).
in(158, 56).
in(158, 57).
in(158, 60).
in(158, 63).
in(158, 66).
in(158, 67).
in(158, 70).
in(158, 71).
in(158, 72).
in(158, 74).
in(158, 77).
in(158, 80).
in(158, 84).
in(158, 87).
in(158, 89).
in(158, 90).
in(158, 92).
in(158, 93).
in(158, 94).
in(158, 97).
in(158, 98).
in(158, 99).
in(158, 101).
in(158, 103).
in(158, 106).
in(158, 108).
in(158, 109).
in(158, 111).
in(158, 114).
in(158, 116).
in(158, 117).
in(158, 118).
in(158, 123).
in(158, 124).
in(159, 1).
in(159, 2).
in(159, 4).
in(159, 8).
in(159, 11).
in(159, 12).
in(159, 13).
in(159, 16).
in(159, 17).
in(159, 18).
in(159, 19).
in(159, 21).
in(159, 22).
in(159, 23).
in(159, 24).
in(159, 26).
in(159, 27).
in(159, 31).
in(159, 34).
in(159, 35).
in(159, 36).
in(159, 37).
in(159, 38).
in(159, 40).
in(159, 41).
in(159, 42).
in(159, 43).
in(159, 45).
in(159, 46).
in(159, 49).
in(159, 50).
in(159, 51).
in(159, 53).
in(159, 54).
in(159, 55).
in(159, 56).
in(159, 58).
in(159, 61).
in(159, 63).
in(159, 64).
in(159, 68).
in(159, 69).
in(159, 71).
in(159, 74).
in(159, 75).
in(159, 78).
in(159, 80).
in(159, 81).
in(159, 82).
in(159, 83).
in(159, 84).
in(159, 85).
in(159, 88).
in(159, 89).
in(159, 90).
in(159, 91).
in(159, 93).
in(159, 94).
in(159, 97).
in(159, 98).
in(159, 99).
in(159, 101).
in(159, 103).
in(159, 104).
in(159, 105).
in(159, 107).
in(159, 108).
in(159, 109).
in(159, 111).
in(159, 112).
in(159, 114).
in(159, 115).
in(159, 117).
in(159, 119).
in(159, 120).
in(159, 121).
in(159, 122).
in(159, 124).
in(159, 126).
in(159, 129).
in(159, 133).
in(159, 135).
in(160, 1).
in(160, 5).
in(160, 8).
in(160, 9).
in(160, 10).
in(160, 11).
in(160, 13).
in(160, 14).
in(160, 18).
in(160, 20).
in(160, 22).
in(160, 23).
in(160, 24).
in(160, 25).
in(160, 27).
in(160, 30).
in(160, 31).
in(160, 32).
in(160, 33).
in(160, 36).
in(160, 38).
in(160, 39).
in(160, 41).
in(160, 42).
in(160, 43).
in(160, 44).
in(160, 45).
in(160, 46).
in(160, 48).
in(160, 49).
in(160, 50).
in(160, 55).
in(160, 56).
in(160, 59).
in(160, 62).
in(160, 65).
in(160, 67).
in(160, 68).
in(160, 69).
in(160, 73).
in(160, 74).
in(160, 75).
in(160, 78).
in(160, 79).
in(160, 80).
in(160, 82).
in(160, 83).
in(160, 86).
in(160, 87).
in(160, 88).
in(160, 90).
in(160, 91).
in(160, 92).
in(160, 94).
in(160, 95).
in(160, 96).
in(160, 98).
in(160, 101).
in(160, 102).
in(160, 103).
in(160, 105).
in(160, 106).
in(160, 107).
in(160, 115).
in(160, 116).
in(160, 117).
in(160, 118).
in(160, 119).
in(160, 120).
in(160, 124).
in(160, 125).
in(160, 126).
in(160, 130).
in(160, 132).
in(160, 133).
in(160, 134).
in(160, 135).
in(161, 129).
in(161, 130).
in(161, 3).
in(161, 131).
in(161, 5).
in(161, 6).
in(161, 7).
in(161, 8).
in(161, 9).
in(161, 132).
in(161, 11).
in(161, 12).
in(161, 134).
in(161, 135).
in(161, 15).
in(161, 17).
in(161, 19).
in(161, 22).
in(161, 25).
in(161, 27).
in(161, 29).
in(161, 30).
in(161, 33).
in(161, 34).
in(161, 36).
in(161, 37).
in(161, 39).
in(161, 43).
in(161, 47).
in(161, 48).
in(161, 49).
in(161, 54).
in(161, 56).
in(161, 60).
in(161, 61).
in(161, 62).
in(161, 63).
in(161, 64).
in(161, 65).
in(161, 66).
in(161, 68).
in(161, 71).
in(161, 73).
in(161, 77).
in(161, 78).
in(161, 82).
in(161, 83).
in(161, 84).
in(161, 85).
in(161, 86).
in(161, 88).
in(161, 89).
in(161, 91).
in(161, 92).
in(161, 93).
in(161, 96).
in(161, 97).
in(161, 98).
in(161, 99).
in(161, 100).
in(161, 101).
in(161, 104).
in(161, 105).
in(161, 106).
in(161, 108).
in(161, 109).
in(161, 114).
in(161, 115).
in(161, 118).
in(161, 119).
in(161, 120).
in(161, 122).
in(161, 123).
in(161, 124).
in(161, 126).
in(162, 4).
in(162, 5).
in(162, 8).
in(162, 10).
in(162, 11).
in(162, 12).
in(162, 14).
in(162, 15).
in(162, 16).
in(162, 18).
in(162, 19).
in(162, 21).
in(162, 22).
in(162, 23).
in(162, 26).
in(162, 27).
in(162, 28).
in(162, 29).
in(162, 31).
in(162, 32).
in(162, 34).
in(162, 35).
in(162, 36).
in(162, 37).
in(162, 38).
in(162, 41).
in(162, 42).
in(162, 44).
in(162, 47).
in(162, 49).
in(162, 52).
in(162, 54).
in(162, 55).
in(162, 56).
in(162, 57).
in(162, 58).
in(162, 61).
in(162, 63).
in(162, 65).
in(162, 66).
in(162, 67).
in(162, 68).
in(162, 69).
in(162, 74).
in(162, 75).
in(162, 76).
in(162, 77).
in(162, 79).
in(162, 80).
in(162, 81).
in(162, 82).
in(162, 83).
in(162, 84).
in(162, 86).
in(162, 87).
in(162, 92).
in(162, 93).
in(162, 95).
in(162, 96).
in(162, 97).
in(162, 99).
in(162, 100).
in(162, 103).
in(162, 104).
in(162, 105).
in(162, 107).
in(162, 108).
in(162, 109).
in(162, 110).
in(162, 111).
in(162, 112).
in(162, 113).
in(162, 114).
in(162, 115).
in(162, 116).
in(162, 121).
in(162, 125).
in(162, 128).
in(162, 131).
in(162, 133).
in(162, 134).
in(162, 135).
in(163, 2).
in(163, 3).
in(163, 6).
in(163, 7).
in(163, 9).
in(163, 10).
in(163, 14).
in(163, 16).
in(163, 17).
in(163, 18).
in(163, 20).
in(163, 24).
in(163, 25).
in(163, 26).
in(163, 28).
in(163, 29).
in(163, 31).
in(163, 32).
in(163, 34).
in(163, 35).
in(163, 36).
in(163, 37).
in(163, 39).
in(163, 40).
in(163, 42).
in(163, 43).
in(163, 45).
in(163, 47).
in(163, 49).
in(163, 50).
in(163, 52).
in(163, 54).
in(163, 55).
in(163, 56).
in(163, 61).
in(163, 62).
in(163, 64).
in(163, 66).
in(163, 68).
in(163, 69).
in(163, 70).
in(163, 72).
in(163, 73).
in(163, 75).
in(163, 76).
in(163, 77).
in(163, 79).
in(163, 82).
in(163, 83).
in(163, 84).
in(163, 85).
in(163, 89).
in(163, 90).
in(163, 91).
in(163, 92).
in(163, 95).
in(163, 96).
in(163, 97).
in(163, 98).
in(163, 100).
in(163, 101).
in(163, 103).
in(163, 104).
in(163, 106).
in(163, 108).
in(163, 109).
in(163, 110).
in(163, 113).
in(163, 114).
in(163, 116).
in(163, 117).
in(163, 120).
in(163, 123).
in(163, 126).
in(163, 127).
in(163, 128).
in(163, 130).
in(163, 131).
in(163, 135).
in(164, 1).
in(164, 2).
in(164, 3).
in(164, 4).
in(164, 6).
in(164, 7).
in(164, 8).
in(164, 12).
in(164, 14).
in(164, 16).
in(164, 17).
in(164, 18).
in(164, 19).
in(164, 21).
in(164, 23).
in(164, 24).
in(164, 28).
in(164, 29).
in(164, 31).
in(164, 34).
in(164, 35).
in(164, 37).
in(164, 38).
in(164, 39).
in(164, 40).
in(164, 41).
in(164, 45).
in(164, 46).
in(164, 47).
in(164, 48).
in(164, 50).
in(164, 51).
in(164, 52).
in(164, 53).
in(164, 54).
in(164, 55).
in(164, 56).
in(164, 57).
in(164, 58).
in(164, 60).
in(164, 62).
in(164, 64).
in(164, 65).
in(164, 71).
in(164, 75).
in(164, 76).
in(164, 77).
in(164, 78).
in(164, 80).
in(164, 82).
in(164, 83).
in(164, 84).
in(164, 85).
in(164, 88).
in(164, 91).
in(164, 92).
in(164, 96).
in(164, 97).
in(164, 98).
in(164, 99).
in(164, 101).
in(164, 104).
in(164, 107).
in(164, 112).
in(164, 114).
in(164, 115).
in(164, 118).
in(164, 120).
in(164, 122).
in(164, 124).
in(164, 125).
in(164, 126).
in(164, 127).
in(164, 128).
in(164, 129).
in(164, 130).
in(164, 134).
in(165, 130).
in(165, 131).
in(165, 4).
in(165, 133).
in(165, 134).
in(165, 7).
in(165, 8).
in(165, 9).
in(165, 135).
in(165, 11).
in(165, 15).
in(165, 17).
in(165, 18).
in(165, 21).
in(165, 24).
in(165, 25).
in(165, 26).
in(165, 28).
in(165, 30).
in(165, 31).
in(165, 36).
in(165, 38).
in(165, 39).
in(165, 43).
in(165, 44).
in(165, 45).
in(165, 47).
in(165, 48).
in(165, 50).
in(165, 51).
in(165, 52).
in(165, 53).
in(165, 56).
in(165, 57).
in(165, 58).
in(165, 59).
in(165, 60).
in(165, 61).
in(165, 63).
in(165, 64).
in(165, 65).
in(165, 68).
in(165, 70).
in(165, 73).
in(165, 75).
in(165, 76).
in(165, 77).
in(165, 78).
in(165, 80).
in(165, 83).
in(165, 85).
in(165, 87).
in(165, 91).
in(165, 92).
in(165, 96).
in(165, 97).
in(165, 98).
in(165, 102).
in(165, 105).
in(165, 106).
in(165, 107).
in(165, 108).
in(165, 109).
in(165, 110).
in(165, 111).
in(165, 112).
in(165, 113).
in(165, 114).
in(165, 116).
in(165, 117).
in(165, 118).
in(165, 120).
in(165, 121).
in(165, 122).
in(165, 123).
in(166, 2).
in(166, 6).
in(166, 7).
in(166, 8).
in(166, 9).
in(166, 10).
in(166, 16).
in(166, 18).
in(166, 20).
in(166, 21).
in(166, 22).
in(166, 23).
in(166, 24).
in(166, 25).
in(166, 26).
in(166, 28).
in(166, 30).
in(166, 31).
in(166, 34).
in(166, 35).
in(166, 36).
in(166, 38).
in(166, 39).
in(166, 40).
in(166, 41).
in(166, 43).
in(166, 46).
in(166, 47).
in(166, 48).
in(166, 51).
in(166, 52).
in(166, 54).
in(166, 59).
in(166, 63).
in(166, 64).
in(166, 69).
in(166, 70).
in(166, 71).
in(166, 73).
in(166, 74).
in(166, 75).
in(166, 78).
in(166, 79).
in(166, 82).
in(166, 83).
in(166, 84).
in(166, 85).
in(166, 90).
in(166, 92).
in(166, 93).
in(166, 94).
in(166, 96).
in(166, 97).
in(166, 98).
in(166, 100).
in(166, 102).
in(166, 104).
in(166, 106).
in(166, 107).
in(166, 109).
in(166, 110).
in(166, 112).
in(166, 113).
in(166, 115).
in(166, 117).
in(166, 118).
in(166, 119).
in(166, 121).
in(166, 122).
in(166, 124).
in(166, 126).
in(166, 128).
in(166, 130).
in(166, 131).
in(166, 132).
in(166, 133).
in(166, 134).
in(166, 135).
in(167, 128).
in(167, 1).
in(167, 2).
in(167, 3).
in(167, 130).
in(167, 5).
in(167, 133).
in(167, 7).
in(167, 8).
in(167, 10).
in(167, 11).
in(167, 12).
in(167, 13).
in(167, 14).
in(167, 15).
in(167, 18).
in(167, 21).
in(167, 23).
in(167, 25).
in(167, 26).
in(167, 27).
in(167, 29).
in(167, 30).
in(167, 32).
in(167, 41).
in(167, 42).
in(167, 43).
in(167, 44).
in(167, 45).
in(167, 47).
in(167, 48).
in(167, 50).
in(167, 53).
in(167, 56).
in(167, 57).
in(167, 60).
in(167, 61).
in(167, 62).
in(167, 63).
in(167, 65).
in(167, 66).
in(167, 68).
in(167, 69).
in(167, 70).
in(167, 71).
in(167, 73).
in(167, 75).
in(167, 79).
in(167, 81).
in(167, 84).
in(167, 86).
in(167, 87).
in(167, 89).
in(167, 90).
in(167, 91).
in(167, 92).
in(167, 93).
in(167, 94).
in(167, 97).
in(167, 99).
in(167, 101).
in(167, 103).
in(167, 104).
in(167, 105).
in(167, 106).
in(167, 109).
in(167, 110).
in(167, 111).
in(167, 116).
in(167, 117).
in(167, 118).
in(167, 119).
in(167, 121).
in(167, 122).
in(167, 125).
in(168, 128).
in(168, 1).
in(168, 3).
in(168, 4).
in(168, 131).
in(168, 6).
in(168, 7).
in(168, 134).
in(168, 9).
in(168, 10).
in(168, 135).
in(168, 12).
in(168, 13).
in(168, 14).
in(168, 18).
in(168, 21).
in(168, 22).
in(168, 25).
in(168, 31).
in(168, 32).
in(168, 33).
in(168, 34).
in(168, 36).
in(168, 37).
in(168, 41).
in(168, 42).
in(168, 44).
in(168, 45).
in(168, 46).
in(168, 48).
in(168, 49).
in(168, 52).
in(168, 53).
in(168, 56).
in(168, 58).
in(168, 59).
in(168, 60).
in(168, 61).
in(168, 62).
in(168, 64).
in(168, 66).
in(168, 67).
in(168, 68).
in(168, 71).
in(168, 72).
in(168, 73).
in(168, 76).
in(168, 77).
in(168, 86).
in(168, 88).
in(168, 89).
in(168, 91).
in(168, 92).
in(168, 95).
in(168, 100).
in(168, 102).
in(168, 104).
in(168, 105).
in(168, 106).
in(168, 108).
in(168, 112).
in(168, 116).
in(168, 117).
in(168, 118).
in(168, 120).
in(168, 122).
in(169, 2).
in(169, 4).
in(169, 5).
in(169, 6).
in(169, 8).
in(169, 11).
in(169, 12).
in(169, 13).
in(169, 15).
in(169, 17).
in(169, 18).
in(169, 20).
in(169, 23).
in(169, 24).
in(169, 25).
in(169, 28).
in(169, 29).
in(169, 30).
in(169, 32).
in(169, 33).
in(169, 35).
in(169, 37).
in(169, 38).
in(169, 39).
in(169, 40).
in(169, 41).
in(169, 42).
in(169, 43).
in(169, 44).
in(169, 48).
in(169, 50).
in(169, 52).
in(169, 53).
in(169, 57).
in(169, 58).
in(169, 59).
in(169, 60).
in(169, 62).
in(169, 63).
in(169, 66).
in(169, 69).
in(169, 70).
in(169, 72).
in(169, 73).
in(169, 74).
in(169, 76).
in(169, 79).
in(169, 83).
in(169, 84).
in(169, 86).
in(169, 88).
in(169, 93).
in(169, 95).
in(169, 97).
in(169, 98).
in(169, 99).
in(169, 100).
in(169, 101).
in(169, 102).
in(169, 103).
in(169, 104).
in(169, 107).
in(169, 108).
in(169, 110).
in(169, 111).
in(169, 112).
in(169, 113).
in(169, 114).
in(169, 115).
in(169, 117).
in(169, 118).
in(169, 120).
in(169, 122).
in(169, 127).
in(169, 128).
in(169, 129).
in(169, 130).
in(169, 132).
in(169, 133).
in(170, 1).
in(170, 2).
in(170, 3).
in(170, 5).
in(170, 6).
in(170, 7).
in(170, 8).
in(170, 11).
in(170, 13).
in(170, 14).
in(170, 15).
in(170, 17).
in(170, 18).
in(170, 19).
in(170, 22).
in(170, 23).
in(170, 26).
in(170, 27).
in(170, 29).
in(170, 30).
in(170, 32).
in(170, 34).
in(170, 35).
in(170, 36).
in(170, 38).
in(170, 39).
in(170, 40).
in(170, 41).
in(170, 42).
in(170, 43).
in(170, 44).
in(170, 48).
in(170, 49).
in(170, 50).
in(170, 52).
in(170, 54).
in(170, 55).
in(170, 57).
in(170, 58).
in(170, 59).
in(170, 60).
in(170, 62).
in(170, 63).
in(170, 66).
in(170, 68).
in(170, 69).
in(170, 70).
in(170, 71).
in(170, 75).
in(170, 77).
in(170, 78).
in(170, 79).
in(170, 80).
in(170, 81).
in(170, 82).
in(170, 83).
in(170, 84).
in(170, 86).
in(170, 90).
in(170, 92).
in(170, 93).
in(170, 98).
in(170, 101).
in(170, 102).
in(170, 103).
in(170, 105).
in(170, 106).
in(170, 108).
in(170, 109).
in(170, 113).
in(170, 117).
in(170, 118).
in(170, 120).
in(170, 122).
in(170, 123).
in(170, 124).
in(170, 125).
in(170, 126).
in(170, 127).
in(170, 130).
in(170, 133).
in(170, 134).
in(171, 1).
in(171, 2).
in(171, 4).
in(171, 5).
in(171, 6).
in(171, 9).
in(171, 10).
in(171, 14).
in(171, 15).
in(171, 16).
in(171, 17).
in(171, 20).
in(171, 21).
in(171, 22).
in(171, 24).
in(171, 26).
in(171, 28).
in(171, 29).
in(171, 31).
in(171, 32).
in(171, 33).
in(171, 35).
in(171, 37).
in(171, 38).
in(171, 43).
in(171, 44).
in(171, 45).
in(171, 48).
in(171, 49).
in(171, 52).
in(171, 53).
in(171, 54).
in(171, 56).
in(171, 58).
in(171, 59).
in(171, 60).
in(171, 62).
in(171, 65).
in(171, 67).
in(171, 70).
in(171, 71).
in(171, 72).
in(171, 73).
in(171, 74).
in(171, 75).
in(171, 77).
in(171, 78).
in(171, 80).
in(171, 82).
in(171, 83).
in(171, 84).
in(171, 86).
in(171, 88).
in(171, 89).
in(171, 91).
in(171, 92).
in(171, 94).
in(171, 95).
in(171, 96).
in(171, 99).
in(171, 100).
in(171, 102).
in(171, 103).
in(171, 104).
in(171, 105).
in(171, 106).
in(171, 107).
in(171, 109).
in(171, 112).
in(171, 114).
in(171, 116).
in(171, 118).
in(171, 119).
in(171, 121).
in(171, 124).
in(171, 125).
in(171, 129).
in(171, 130).
in(171, 131).
in(171, 132).
in(171, 135).
in(172, 128).
in(172, 129).
in(172, 2).
in(172, 131).
in(172, 4).
in(172, 132).
in(172, 133).
in(172, 7).
in(172, 134).
in(172, 9).
in(172, 10).
in(172, 11).
in(172, 12).
in(172, 14).
in(172, 16).
in(172, 19).
in(172, 21).
in(172, 22).
in(172, 23).
in(172, 25).
in(172, 27).
in(172, 28).
in(172, 34).
in(172, 35).
in(172, 40).
in(172, 41).
in(172, 42).
in(172, 44).
in(172, 46).
in(172, 47).
in(172, 48).
in(172, 54).
in(172, 55).
in(172, 58).
in(172, 59).
in(172, 61).
in(172, 69).
in(172, 71).
in(172, 73).
in(172, 74).
in(172, 79).
in(172, 80).
in(172, 81).
in(172, 82).
in(172, 85).
in(172, 86).
in(172, 87).
in(172, 88).
in(172, 89).
in(172, 90).
in(172, 91).
in(172, 95).
in(172, 97).
in(172, 98).
in(172, 102).
in(172, 103).
in(172, 104).
in(172, 105).
in(172, 106).
in(172, 108).
in(172, 109).
in(172, 110).
in(172, 112).
in(172, 114).
in(172, 116).
in(172, 118).
in(172, 120).
in(172, 122).
in(172, 123).
in(172, 125).
in(172, 126).
in(172, 127).
in(173, 128).
in(173, 1).
in(173, 2).
in(173, 130).
in(173, 4).
in(173, 5).
in(173, 132).
in(173, 134).
in(173, 8).
in(173, 135).
in(173, 16).
in(173, 17).
in(173, 18).
in(173, 19).
in(173, 21).
in(173, 24).
in(173, 25).
in(173, 26).
in(173, 28).
in(173, 30).
in(173, 31).
in(173, 33).
in(173, 36).
in(173, 37).
in(173, 38).
in(173, 41).
in(173, 42).
in(173, 46).
in(173, 51).
in(173, 52).
in(173, 53).
in(173, 54).
in(173, 55).
in(173, 60).
in(173, 61).
in(173, 62).
in(173, 63).
in(173, 64).
in(173, 65).
in(173, 68).
in(173, 72).
in(173, 73).
in(173, 74).
in(173, 76).
in(173, 77).
in(173, 78).
in(173, 80).
in(173, 84).
in(173, 86).
in(173, 88).
in(173, 92).
in(173, 93).
in(173, 96).
in(173, 97).
in(173, 98).
in(173, 99).
in(173, 100).
in(173, 102).
in(173, 103).
in(173, 104).
in(173, 106).
in(173, 108).
in(173, 109).
in(173, 110).
in(173, 113).
in(173, 115).
in(173, 116).
in(173, 118).
in(173, 120).
in(173, 127).
in(174, 1).
in(174, 4).
in(174, 5).
in(174, 6).
in(174, 7).
in(174, 9).
in(174, 10).
in(174, 12).
in(174, 13).
in(174, 14).
in(174, 15).
in(174, 17).
in(174, 20).
in(174, 21).
in(174, 22).
in(174, 24).
in(174, 30).
in(174, 33).
in(174, 35).
in(174, 36).
in(174, 37).
in(174, 38).
in(174, 39).
in(174, 41).
in(174, 42).
in(174, 43).
in(174, 44).
in(174, 45).
in(174, 46).
in(174, 47).
in(174, 48).
in(174, 51).
in(174, 52).
in(174, 55).
in(174, 56).
in(174, 57).
in(174, 58).
in(174, 60).
in(174, 61).
in(174, 65).
in(174, 66).
in(174, 68).
in(174, 69).
in(174, 70).
in(174, 71).
in(174, 72).
in(174, 73).
in(174, 74).
in(174, 76).
in(174, 78).
in(174, 79).
in(174, 81).
in(174, 82).
in(174, 83).
in(174, 85).
in(174, 88).
in(174, 92).
in(174, 93).
in(174, 94).
in(174, 97).
in(174, 98).
in(174, 99).
in(174, 101).
in(174, 102).
in(174, 103).
in(174, 104).
in(174, 106).
in(174, 107).
in(174, 108).
in(174, 110).
in(174, 113).
in(174, 116).
in(174, 119).
in(174, 123).
in(174, 125).
in(174, 126).
in(174, 127).
in(174, 128).
in(174, 132).
in(174, 133).
in(174, 134).
in(174, 135).
in(175, 128).
in(175, 2).
in(175, 5).
in(175, 6).
in(175, 7).
in(175, 134).
in(175, 9).
in(175, 12).
in(175, 13).
in(175, 15).
in(175, 17).
in(175, 19).
in(175, 23).
in(175, 24).
in(175, 25).
in(175, 26).
in(175, 27).
in(175, 30).
in(175, 31).
in(175, 32).
in(175, 33).
in(175, 34).
in(175, 35).
in(175, 36).
in(175, 37).
in(175, 38).
in(175, 40).
in(175, 41).
in(175, 43).
in(175, 44).
in(175, 45).
in(175, 48).
in(175, 49).
in(175, 54).
in(175, 55).
in(175, 56).
in(175, 62).
in(175, 64).
in(175, 70).
in(175, 74).
in(175, 75).
in(175, 77).
in(175, 78).
in(175, 79).
in(175, 82).
in(175, 84).
in(175, 86).
in(175, 90).
in(175, 91).
in(175, 92).
in(175, 93).
in(175, 94).
in(175, 95).
in(175, 96).
in(175, 101).
in(175, 103).
in(175, 107).
in(175, 108).
in(175, 109).
in(175, 110).
in(175, 111).
in(175, 112).
in(175, 113).
in(175, 114).
in(175, 115).
in(175, 116).
in(175, 118).
in(175, 121).
in(175, 122).
in(175, 123).
in(175, 125).
in(176, 2).
in(176, 4).
in(176, 5).
in(176, 6).
in(176, 8).
in(176, 9).
in(176, 13).
in(176, 16).
in(176, 22).
in(176, 23).
in(176, 24).
in(176, 25).
in(176, 26).
in(176, 27).
in(176, 28).
in(176, 30).
in(176, 32).
in(176, 33).
in(176, 34).
in(176, 35).
in(176, 37).
in(176, 38).
in(176, 39).
in(176, 40).
in(176, 43).
in(176, 45).
in(176, 47).
in(176, 48).
in(176, 49).
in(176, 50).
in(176, 51).
in(176, 55).
in(176, 57).
in(176, 58).
in(176, 61).
in(176, 63).
in(176, 64).
in(176, 65).
in(176, 66).
in(176, 71).
in(176, 73).
in(176, 75).
in(176, 76).
in(176, 77).
in(176, 78).
in(176, 79).
in(176, 80).
in(176, 81).
in(176, 82).
in(176, 86).
in(176, 88).
in(176, 91).
in(176, 94).
in(176, 95).
in(176, 96).
in(176, 97).
in(176, 99).
in(176, 101).
in(176, 102).
in(176, 103).
in(176, 104).
in(176, 106).
in(176, 110).
in(176, 112).
in(176, 115).
in(176, 116).
in(176, 117).
in(176, 119).
in(176, 120).
in(176, 122).
in(176, 124).
in(176, 127).
in(176, 129).
in(176, 130).
in(176, 131).
in(176, 132).
in(176, 133).
in(177, 129).
in(177, 2).
in(177, 130).
in(177, 4).
in(177, 5).
in(177, 6).
in(177, 7).
in(177, 131).
in(177, 132).
in(177, 10).
in(177, 11).
in(177, 13).
in(177, 14).
in(177, 15).
in(177, 17).
in(177, 18).
in(177, 21).
in(177, 23).
in(177, 24).
in(177, 25).
in(177, 26).
in(177, 28).
in(177, 30).
in(177, 34).
in(177, 35).
in(177, 38).
in(177, 39).
in(177, 40).
in(177, 41).
in(177, 43).
in(177, 44).
in(177, 45).
in(177, 46).
in(177, 48).
in(177, 49).
in(177, 50).
in(177, 52).
in(177, 53).
in(177, 54).
in(177, 56).
in(177, 58).
in(177, 60).
in(177, 61).
in(177, 62).
in(177, 63).
in(177, 69).
in(177, 70).
in(177, 71).
in(177, 73).
in(177, 74).
in(177, 82).
in(177, 83).
in(177, 84).
in(177, 85).
in(177, 86).
in(177, 87).
in(177, 95).
in(177, 96).
in(177, 99).
in(177, 104).
in(177, 107).
in(177, 108).
in(177, 109).
in(177, 111).
in(177, 112).
in(177, 117).
in(177, 124).
in(177, 126).
in(177, 127).
in(178, 1).
in(178, 129).
in(178, 3).
in(178, 4).
in(178, 130).
in(178, 6).
in(178, 7).
in(178, 8).
in(178, 131).
in(178, 133).
in(178, 11).
in(178, 134).
in(178, 13).
in(178, 14).
in(178, 15).
in(178, 17).
in(178, 18).
in(178, 19).
in(178, 20).
in(178, 21).
in(178, 23).
in(178, 26).
in(178, 27).
in(178, 28).
in(178, 29).
in(178, 30).
in(178, 34).
in(178, 36).
in(178, 37).
in(178, 38).
in(178, 39).
in(178, 41).
in(178, 43).
in(178, 44).
in(178, 50).
in(178, 56).
in(178, 57).
in(178, 61).
in(178, 62).
in(178, 63).
in(178, 64).
in(178, 65).
in(178, 66).
in(178, 68).
in(178, 69).
in(178, 71).
in(178, 75).
in(178, 77).
in(178, 78).
in(178, 79).
in(178, 83).
in(178, 86).
in(178, 89).
in(178, 90).
in(178, 91).
in(178, 92).
in(178, 93).
in(178, 94).
in(178, 96).
in(178, 97).
in(178, 98).
in(178, 101).
in(178, 104).
in(178, 107).
in(178, 109).
in(178, 111).
in(178, 116).
in(178, 117).
in(178, 120).
in(178, 123).
in(179, 4).
in(179, 132).
in(179, 6).
in(179, 133).
in(179, 134).
in(179, 135).
in(179, 11).
in(179, 12).
in(179, 16).
in(179, 19).
in(179, 22).
in(179, 23).
in(179, 26).
in(179, 27).
in(179, 29).
in(179, 30).
in(179, 32).
in(179, 33).
in(179, 35).
in(179, 39).
in(179, 40).
in(179, 41).
in(179, 42).
in(179, 43).
in(179, 44).
in(179, 45).
in(179, 48).
in(179, 51).
in(179, 52).
in(179, 56).
in(179, 58).
in(179, 59).
in(179, 61).
in(179, 62).
in(179, 63).
in(179, 64).
in(179, 65).
in(179, 70).
in(179, 71).
in(179, 72).
in(179, 73).
in(179, 77).
in(179, 79).
in(179, 80).
in(179, 83).
in(179, 84).
in(179, 88).
in(179, 94).
in(179, 95).
in(179, 96).
in(179, 97).
in(179, 98).
in(179, 99).
in(179, 100).
in(179, 101).
in(179, 105).
in(179, 106).
in(179, 107).
in(179, 108).
in(179, 113).
in(179, 114).
in(179, 118).
in(179, 122).
in(179, 123).
in(179, 127).
in(180, 3).
in(180, 7).
in(180, 8).
in(180, 9).
in(180, 11).
in(180, 13).
in(180, 14).
in(180, 16).
in(180, 17).
in(180, 19).
in(180, 21).
in(180, 22).
in(180, 23).
in(180, 24).
in(180, 27).
in(180, 28).
in(180, 31).
in(180, 32).
in(180, 33).
in(180, 34).
in(180, 37).
in(180, 38).
in(180, 39).
in(180, 41).
in(180, 42).
in(180, 44).
in(180, 47).
in(180, 49).
in(180, 50).
in(180, 51).
in(180, 54).
in(180, 56).
in(180, 60).
in(180, 62).
in(180, 64).
in(180, 65).
in(180, 66).
in(180, 67).
in(180, 68).
in(180, 71).
in(180, 72).
in(180, 74).
in(180, 75).
in(180, 77).
in(180, 78).
in(180, 80).
in(180, 81).
in(180, 82).
in(180, 83).
in(180, 85).
in(180, 88).
in(180, 90).
in(180, 93).
in(180, 94).
in(180, 96).
in(180, 97).
in(180, 98).
in(180, 99).
in(180, 100).
in(180, 102).
in(180, 103).
in(180, 104).
in(180, 107).
in(180, 108).
in(180, 109).
in(180, 112).
in(180, 114).
in(180, 116).
in(180, 117).
in(180, 118).
in(180, 123).
in(180, 124).
in(180, 126).
in(180, 127).
in(180, 131).
in(180, 132).
in(180, 133).
in(181, 128).
in(181, 129).
in(181, 2).
in(181, 3).
in(181, 130).
in(181, 5).
in(181, 6).
in(181, 133).
in(181, 135).
in(181, 10).
in(181, 12).
in(181, 14).
in(181, 15).
in(181, 18).
in(181, 19).
in(181, 22).
in(181, 23).
in(181, 27).
in(181, 28).
in(181, 30).
in(181, 33).
in(181, 35).
in(181, 36).
in(181, 37).
in(181, 38).
in(181, 40).
in(181, 41).
in(181, 42).
in(181, 43).
in(181, 45).
in(181, 46).
in(181, 47).
in(181, 50).
in(181, 53).
in(181, 57).
in(181, 60).
in(181, 64).
in(181, 66).
in(181, 67).
in(181, 68).
in(181, 70).
in(181, 71).
in(181, 72).
in(181, 73).
in(181, 74).
in(181, 79).
in(181, 81).
in(181, 82).
in(181, 84).
in(181, 86).
in(181, 87).
in(181, 88).
in(181, 90).
in(181, 92).
in(181, 95).
in(181, 96).
in(181, 97).
in(181, 100).
in(181, 104).
in(181, 107).
in(181, 110).
in(181, 111).
in(181, 112).
in(181, 113).
in(181, 116).
in(181, 117).
in(181, 118).
in(181, 119).
in(181, 122).
in(181, 124).
in(181, 125).
in(181, 126).
in(182, 1).
in(182, 2).
in(182, 3).
in(182, 4).
in(182, 5).
in(182, 6).
in(182, 7).
in(182, 10).
in(182, 11).
in(182, 13).
in(182, 14).
in(182, 16).
in(182, 17).
in(182, 18).
in(182, 19).
in(182, 22).
in(182, 23).
in(182, 24).
in(182, 25).
in(182, 27).
in(182, 28).
in(182, 29).
in(182, 30).
in(182, 32).
in(182, 33).
in(182, 36).
in(182, 38).
in(182, 40).
in(182, 44).
in(182, 45).
in(182, 46).
in(182, 48).
in(182, 49).
in(182, 50).
in(182, 53).
in(182, 54).
in(182, 55).
in(182, 57).
in(182, 58).
in(182, 61).
in(182, 65).
in(182, 66).
in(182, 68).
in(182, 69).
in(182, 70).
in(182, 71).
in(182, 72).
in(182, 73).
in(182, 75).
in(182, 76).
in(182, 78).
in(182, 83).
in(182, 85).
in(182, 87).
in(182, 89).
in(182, 92).
in(182, 93).
in(182, 95).
in(182, 98).
in(182, 100).
in(182, 101).
in(182, 103).
in(182, 105).
in(182, 107).
in(182, 108).
in(182, 109).
in(182, 113).
in(182, 114).
in(182, 115).
in(182, 118).
in(182, 119).
in(182, 121).
in(182, 122).
in(182, 124).
in(182, 129).
in(182, 134).
in(182, 135).
in(183, 1).
in(183, 3).
in(183, 4).
in(183, 6).
in(183, 7).
in(183, 8).
in(183, 9).
in(183, 10).
in(183, 11).
in(183, 12).
in(183, 14).
in(183, 15).
in(183, 16).
in(183, 18).
in(183, 19).
in(183, 20).
in(183, 21).
in(183, 22).
in(183, 23).
in(183, 26).
in(183, 27).
in(183, 29).
in(183, 32).
in(183, 33).
in(183, 34).
in(183, 35).
in(183, 36).
in(183, 37).
in(183, 38).
in(183, 39).
in(183, 40).
in(183, 42).
in(183, 43).
in(183, 44).
in(183, 47).
in(183, 48).
in(183, 51).
in(183, 52).
in(183, 53).
in(183, 55).
in(183, 59).
in(183, 60).
in(183, 61).
in(183, 63).
in(183, 64).
in(183, 65).
in(183, 66).
in(183, 69).
in(183, 70).
in(183, 71).
in(183, 72).
in(183, 74).
in(183, 75).
in(183, 78).
in(183, 79).
in(183, 80).
in(183, 81).
in(183, 82).
in(183, 86).
in(183, 90).
in(183, 91).
in(183, 92).
in(183, 93).
in(183, 94).
in(183, 95).
in(183, 97).
in(183, 99).
in(183, 102).
in(183, 103).
in(183, 104).
in(183, 105).
in(183, 108).
in(183, 109).
in(183, 112).
in(183, 114).
in(183, 117).
in(183, 118).
in(183, 119).
in(183, 120).
in(183, 121).
in(183, 123).
in(183, 124).
in(183, 125).
in(183, 126).
in(183, 130).
in(183, 131).
in(183, 132).
in(183, 133).
in(183, 134).
in(183, 135).
in(184, 129).
in(184, 2).
in(184, 130).
in(184, 131).
in(184, 5).
in(184, 6).
in(184, 7).
in(184, 133).
in(184, 14).
in(184, 15).
in(184, 16).
in(184, 18).
in(184, 22).
in(184, 23).
in(184, 30).
in(184, 31).
in(184, 32).
in(184, 33).
in(184, 34).
in(184, 35).
in(184, 36).
in(184, 37).
in(184, 40).
in(184, 42).
in(184, 43).
in(184, 45).
in(184, 48).
in(184, 49).
in(184, 50).
in(184, 54).
in(184, 55).
in(184, 56).
in(184, 57).
in(184, 59).
in(184, 62).
in(184, 64).
in(184, 65).
in(184, 66).
in(184, 67).
in(184, 68).
in(184, 70).
in(184, 71).
in(184, 72).
in(184, 73).
in(184, 74).
in(184, 77).
in(184, 80).
in(184, 81).
in(184, 82).
in(184, 83).
in(184, 87).
in(184, 89).
in(184, 90).
in(184, 92).
in(184, 95).
in(184, 96).
in(184, 100).
in(184, 101).
in(184, 104).
in(184, 106).
in(184, 107).
in(184, 108).
in(184, 109).
in(184, 110).
in(184, 112).
in(184, 113).
in(184, 116).
in(184, 118).
in(184, 119).
in(184, 120).
in(184, 121).
in(184, 123).
in(184, 124).
in(185, 1).
in(185, 3).
in(185, 4).
in(185, 5).
in(185, 6).
in(185, 7).
in(185, 8).
in(185, 9).
in(185, 10).
in(185, 11).
in(185, 12).
in(185, 13).
in(185, 15).
in(185, 16).
in(185, 17).
in(185, 18).
in(185, 20).
in(185, 21).
in(185, 22).
in(185, 23).
in(185, 27).
in(185, 28).
in(185, 29).
in(185, 32).
in(185, 34).
in(185, 36).
in(185, 38).
in(185, 42).
in(185, 44).
in(185, 46).
in(185, 48).
in(185, 50).
in(185, 51).
in(185, 56).
in(185, 59).
in(185, 60).
in(185, 62).
in(185, 63).
in(185, 66).
in(185, 68).
in(185, 71).
in(185, 72).
in(185, 75).
in(185, 76).
in(185, 77).
in(185, 80).
in(185, 82).
in(185, 83).
in(185, 84).
in(185, 85).
in(185, 86).
in(185, 88).
in(185, 90).
in(185, 91).
in(185, 92).
in(185, 93).
in(185, 94).
in(185, 96).
in(185, 97).
in(185, 98).
in(185, 101).
in(185, 102).
in(185, 104).
in(185, 105).
in(185, 110).
in(185, 114).
in(185, 115).
in(185, 117).
in(185, 119).
in(185, 120).
in(185, 121).
in(185, 124).
in(185, 125).
in(185, 126).
in(185, 127).
in(185, 128).
in(185, 129).
in(185, 130).
in(185, 133).
in(185, 134).
in(185, 135).
in(186, 128).
in(186, 1).
in(186, 130).
in(186, 3).
in(186, 4).
in(186, 131).
in(186, 6).
in(186, 7).
in(186, 8).
in(186, 9).
in(186, 10).
in(186, 11).
in(186, 133).
in(186, 13).
in(186, 15).
in(186, 16).
in(186, 17).
in(186, 18).
in(186, 20).
in(186, 21).
in(186, 24).
in(186, 26).
in(186, 27).
in(186, 29).
in(186, 31).
in(186, 33).
in(186, 34).
in(186, 35).
in(186, 36).
in(186, 37).
in(186, 40).
in(186, 41).
in(186, 44).
in(186, 45).
in(186, 46).
in(186, 48).
in(186, 53).
in(186, 56).
in(186, 57).
in(186, 58).
in(186, 59).
in(186, 61).
in(186, 62).
in(186, 66).
in(186, 70).
in(186, 75).
in(186, 77).
in(186, 78).
in(186, 84).
in(186, 85).
in(186, 86).
in(186, 87).
in(186, 88).
in(186, 90).
in(186, 91).
in(186, 94).
in(186, 95).
in(186, 96).
in(186, 97).
in(186, 98).
in(186, 100).
in(186, 104).
in(186, 106).
in(186, 107).
in(186, 110).
in(186, 112).
in(186, 113).
in(186, 117).
in(186, 118).
in(186, 119).
in(186, 120).
in(186, 121).
in(186, 124).
in(186, 126).
in(186, 127).
in(187, 1).
in(187, 2).
in(187, 3).
in(187, 4).
in(187, 5).
in(187, 7).
in(187, 11).
in(187, 12).
in(187, 13).
in(187, 15).
in(187, 16).
in(187, 21).
in(187, 24).
in(187, 25).
in(187, 26).
in(187, 27).
in(187, 29).
in(187, 30).
in(187, 31).
in(187, 32).
in(187, 33).
in(187, 34).
in(187, 36).
in(187, 37).
in(187, 39).
in(187, 41).
in(187, 42).
in(187, 43).
in(187, 44).
in(187, 47).
in(187, 48).
in(187, 49).
in(187, 50).
in(187, 51).
in(187, 52).
in(187, 54).
in(187, 55).
in(187, 56).
in(187, 57).
in(187, 59).
in(187, 61).
in(187, 64).
in(187, 66).
in(187, 67).
in(187, 68).
in(187, 69).
in(187, 70).
in(187, 73).
in(187, 74).
in(187, 75).
in(187, 76).
in(187, 77).
in(187, 78).
in(187, 80).
in(187, 81).
in(187, 85).
in(187, 86).
in(187, 87).
in(187, 90).
in(187, 91).
in(187, 92).
in(187, 95).
in(187, 97).
in(187, 98).
in(187, 99).
in(187, 102).
in(187, 103).
in(187, 105).
in(187, 106).
in(187, 107).
in(187, 108).
in(187, 109).
in(187, 110).
in(187, 111).
in(187, 113).
in(187, 116).
in(187, 119).
in(187, 120).
in(187, 121).
in(187, 126).
in(187, 127).
in(187, 130).
in(187, 131).
in(187, 132).
in(187, 133).
in(187, 134).
in(187, 135).
in(188, 1).
in(188, 2).
in(188, 9).
in(188, 12).
in(188, 13).
in(188, 14).
in(188, 16).
in(188, 19).
in(188, 20).
in(188, 23).
in(188, 24).
in(188, 25).
in(188, 26).
in(188, 30).
in(188, 31).
in(188, 32).
in(188, 33).
in(188, 36).
in(188, 37).
in(188, 42).
in(188, 43).
in(188, 44).
in(188, 46).
in(188, 47).
in(188, 49).
in(188, 51).
in(188, 54).
in(188, 59).
in(188, 62).
in(188, 63).
in(188, 64).
in(188, 67).
in(188, 68).
in(188, 69).
in(188, 70).
in(188, 72).
in(188, 73).
in(188, 74).
in(188, 75).
in(188, 76).
in(188, 77).
in(188, 78).
in(188, 79).
in(188, 80).
in(188, 83).
in(188, 84).
in(188, 85).
in(188, 87).
in(188, 89).
in(188, 90).
in(188, 93).
in(188, 94).
in(188, 95).
in(188, 96).
in(188, 97).
in(188, 100).
in(188, 103).
in(188, 107).
in(188, 109).
in(188, 110).
in(188, 111).
in(188, 112).
in(188, 113).
in(188, 115).
in(188, 116).
in(188, 117).
in(188, 118).
in(188, 119).
in(188, 122).
in(188, 123).
in(188, 124).
in(188, 126).
in(188, 127).
in(188, 129).
in(188, 130).
in(188, 131).
in(188, 133).
in(188, 134).
in(189, 1).
in(189, 3).
in(189, 4).
in(189, 7).
in(189, 8).
in(189, 9).
in(189, 10).
in(189, 11).
in(189, 12).
in(189, 14).
in(189, 17).
in(189, 19).
in(189, 21).
in(189, 22).
in(189, 23).
in(189, 25).
in(189, 27).
in(189, 31).
in(189, 32).
in(189, 35).
in(189, 37).
in(189, 41).
in(189, 43).
in(189, 44).
in(189, 47).
in(189, 51).
in(189, 52).
in(189, 53).
in(189, 54).
in(189, 55).
in(189, 57).
in(189, 58).
in(189, 59).
in(189, 61).
in(189, 62).
in(189, 63).
in(189, 64).
in(189, 66).
in(189, 67).
in(189, 68).
in(189, 69).
in(189, 71).
in(189, 72).
in(189, 73).
in(189, 74).
in(189, 75).
in(189, 76).
in(189, 77).
in(189, 83).
in(189, 84).
in(189, 87).
in(189, 89).
in(189, 90).
in(189, 91).
in(189, 94).
in(189, 95).
in(189, 97).
in(189, 98).
in(189, 99).
in(189, 100).
in(189, 101).
in(189, 104).
in(189, 105).
in(189, 107).
in(189, 108).
in(189, 110).
in(189, 111).
in(189, 112).
in(189, 113).
in(189, 114).
in(189, 118).
in(189, 120).
in(189, 122).
in(189, 123).
in(189, 124).
in(189, 125).
in(189, 126).
in(189, 128).
in(189, 129).
in(189, 130).
in(189, 131).
in(189, 133).
in(189, 135).
in(190, 1).
in(190, 129).
in(190, 3).
in(190, 130).
in(190, 5).
in(190, 132).
in(190, 133).
in(190, 135).
in(190, 9).
in(190, 12).
in(190, 13).
in(190, 18).
in(190, 20).
in(190, 21).
in(190, 22).
in(190, 25).
in(190, 27).
in(190, 28).
in(190, 30).
in(190, 31).
in(190, 36).
in(190, 44).
in(190, 45).
in(190, 46).
in(190, 50).
in(190, 53).
in(190, 54).
in(190, 55).
in(190, 57).
in(190, 58).
in(190, 60).
in(190, 61).
in(190, 64).
in(190, 65).
in(190, 66).
in(190, 73).
in(190, 75).
in(190, 76).
in(190, 77).
in(190, 78).
in(190, 79).
in(190, 81).
in(190, 82).
in(190, 83).
in(190, 87).
in(190, 88).
in(190, 90).
in(190, 91).
in(190, 95).
in(190, 97).
in(190, 99).
in(190, 101).
in(190, 103).
in(190, 107).
in(190, 108).
in(190, 109).
in(190, 113).
in(190, 115).
in(190, 117).
in(190, 118).
in(190, 122).
in(190, 124).
in(190, 125).
in(190, 126).
in(190, 127).
in(191, 128).
in(191, 1).
in(191, 129).
in(191, 3).
in(191, 4).
in(191, 131).
in(191, 132).
in(191, 7).
in(191, 133).
in(191, 134).
in(191, 10).
in(191, 12).
in(191, 14).
in(191, 19).
in(191, 21).
in(191, 25).
in(191, 26).
in(191, 28).
in(191, 29).
in(191, 33).
in(191, 35).
in(191, 36).
in(191, 38).
in(191, 39).
in(191, 40).
in(191, 41).
in(191, 43).
in(191, 44).
in(191, 47).
in(191, 48).
in(191, 49).
in(191, 50).
in(191, 55).
in(191, 56).
in(191, 57).
in(191, 59).
in(191, 61).
in(191, 62).
in(191, 65).
in(191, 66).
in(191, 73).
in(191, 76).
in(191, 78).
in(191, 81).
in(191, 82).
in(191, 83).
in(191, 84).
in(191, 86).
in(191, 90).
in(191, 92).
in(191, 96).
in(191, 97).
in(191, 98).
in(191, 101).
in(191, 102).
in(191, 103).
in(191, 105).
in(191, 107).
in(191, 110).
in(191, 112).
in(191, 114).
in(191, 116).
in(191, 118).
in(191, 119).
in(191, 123).
in(191, 125).
in(191, 126).
in(192, 128).
in(192, 1).
in(192, 2).
in(192, 3).
in(192, 131).
in(192, 5).
in(192, 132).
in(192, 7).
in(192, 8).
in(192, 9).
in(192, 10).
in(192, 11).
in(192, 134).
in(192, 13).
in(192, 135).
in(192, 17).
in(192, 18).
in(192, 22).
in(192, 23).
in(192, 25).
in(192, 26).
in(192, 27).
in(192, 28).
in(192, 29).
in(192, 30).
in(192, 31).
in(192, 33).
in(192, 35).
in(192, 38).
in(192, 40).
in(192, 41).
in(192, 43).
in(192, 44).
in(192, 45).
in(192, 51).
in(192, 53).
in(192, 54).
in(192, 55).
in(192, 57).
in(192, 58).
in(192, 63).
in(192, 65).
in(192, 67).
in(192, 68).
in(192, 70).
in(192, 71).
in(192, 72).
in(192, 75).
in(192, 78).
in(192, 79).
in(192, 80).
in(192, 86).
in(192, 87).
in(192, 88).
in(192, 89).
in(192, 90).
in(192, 93).
in(192, 99).
in(192, 100).
in(192, 101).
in(192, 104).
in(192, 108).
in(192, 113).
in(192, 114).
in(192, 116).
in(192, 117).
in(192, 119).
in(192, 121).
in(192, 122).
in(192, 126).
in(193, 128).
in(193, 1).
in(193, 2).
in(193, 130).
in(193, 4).
in(193, 5).
in(193, 132).
in(193, 7).
in(193, 8).
in(193, 134).
in(193, 13).
in(193, 16).
in(193, 20).
in(193, 21).
in(193, 28).
in(193, 31).
in(193, 32).
in(193, 34).
in(193, 36).
in(193, 37).
in(193, 39).
in(193, 40).
in(193, 43).
in(193, 44).
in(193, 45).
in(193, 47).
in(193, 49).
in(193, 54).
in(193, 55).
in(193, 57).
in(193, 58).
in(193, 59).
in(193, 60).
in(193, 61).
in(193, 62).
in(193, 64).
in(193, 68).
in(193, 69).
in(193, 70).
in(193, 71).
in(193, 73).
in(193, 74).
in(193, 75).
in(193, 77).
in(193, 78).
in(193, 79).
in(193, 80).
in(193, 82).
in(193, 84).
in(193, 85).
in(193, 87).
in(193, 89).
in(193, 90).
in(193, 91).
in(193, 93).
in(193, 94).
in(193, 96).
in(193, 97).
in(193, 98).
in(193, 100).
in(193, 101).
in(193, 103).
in(193, 110).
in(193, 115).
in(193, 116).
in(193, 117).
in(193, 119).
in(193, 121).
in(193, 122).
in(193, 125).
in(193, 126).
in(193, 127).
in(194, 128).
in(194, 1).
in(194, 129).
in(194, 3).
in(194, 4).
in(194, 5).
in(194, 7).
in(194, 8).
in(194, 9).
in(194, 10).
in(194, 11).
in(194, 15).
in(194, 17).
in(194, 19).
in(194, 20).
in(194, 23).
in(194, 26).
in(194, 27).
in(194, 29).
in(194, 30).
in(194, 32).
in(194, 35).
in(194, 37).
in(194, 42).
in(194, 43).
in(194, 45).
in(194, 46).
in(194, 48).
in(194, 50).
in(194, 53).
in(194, 54).
in(194, 56).
in(194, 62).
in(194, 64).
in(194, 68).
in(194, 69).
in(194, 72).
in(194, 73).
in(194, 74).
in(194, 75).
in(194, 76).
in(194, 78).
in(194, 79).
in(194, 84).
in(194, 88).
in(194, 89).
in(194, 92).
in(194, 94).
in(194, 96).
in(194, 99).
in(194, 100).
in(194, 101).
in(194, 103).
in(194, 104).
in(194, 105).
in(194, 106).
in(194, 107).
in(194, 108).
in(194, 112).
in(194, 113).
in(194, 114).
in(194, 115).
in(194, 116).
in(194, 118).
in(194, 119).
in(194, 122).
in(194, 125).
in(194, 126).
in(195, 2).
in(195, 3).
in(195, 4).
in(195, 5).
in(195, 6).
in(195, 7).
in(195, 8).
in(195, 10).
in(195, 11).
in(195, 12).
in(195, 14).
in(195, 15).
in(195, 16).
in(195, 18).
in(195, 20).
in(195, 21).
in(195, 22).
in(195, 23).
in(195, 25).
in(195, 26).
in(195, 27).
in(195, 32).
in(195, 35).
in(195, 36).
in(195, 38).
in(195, 39).
in(195, 41).
in(195, 43).
in(195, 44).
in(195, 46).
in(195, 48).
in(195, 49).
in(195, 50).
in(195, 51).
in(195, 52).
in(195, 55).
in(195, 56).
in(195, 57).
in(195, 58).
in(195, 61).
in(195, 63).
in(195, 66).
in(195, 67).
in(195, 68).
in(195, 72).
in(195, 73).
in(195, 74).
in(195, 75).
in(195, 76).
in(195, 78).
in(195, 84).
in(195, 85).
in(195, 86).
in(195, 87).
in(195, 89).
in(195, 90).
in(195, 91).
in(195, 92).
in(195, 93).
in(195, 94).
in(195, 95).
in(195, 96).
in(195, 97).
in(195, 98).
in(195, 101).
in(195, 103).
in(195, 104).
in(195, 106).
in(195, 107).
in(195, 109).
in(195, 114).
in(195, 117).
in(195, 119).
in(195, 121).
in(195, 122).
in(195, 125).
in(195, 126).
in(195, 129).
in(195, 133).
in(195, 134).
in(195, 135).
in(196, 1).
in(196, 2).
in(196, 3).
in(196, 5).
in(196, 8).
in(196, 9).
in(196, 10).
in(196, 11).
in(196, 12).
in(196, 14).
in(196, 18).
in(196, 19).
in(196, 21).
in(196, 23).
in(196, 25).
in(196, 26).
in(196, 27).
in(196, 28).
in(196, 30).
in(196, 32).
in(196, 33).
in(196, 35).
in(196, 36).
in(196, 38).
in(196, 39).
in(196, 40).
in(196, 41).
in(196, 43).
in(196, 44).
in(196, 45).
in(196, 47).
in(196, 48).
in(196, 49).
in(196, 50).
in(196, 52).
in(196, 53).
in(196, 54).
in(196, 57).
in(196, 58).
in(196, 59).
in(196, 62).
in(196, 63).
in(196, 64).
in(196, 65).
in(196, 66).
in(196, 68).
in(196, 70).
in(196, 71).
in(196, 72).
in(196, 74).
in(196, 81).
in(196, 82).
in(196, 84).
in(196, 88).
in(196, 89).
in(196, 90).
in(196, 93).
in(196, 95).
in(196, 96).
in(196, 99).
in(196, 101).
in(196, 104).
in(196, 107).
in(196, 110).
in(196, 112).
in(196, 113).
in(196, 115).
in(196, 116).
in(196, 117).
in(196, 119).
in(196, 120).
in(196, 121).
in(196, 123).
in(196, 124).
in(196, 127).
in(196, 133).
in(196, 134).
in(196, 135).
in(197, 128).
in(197, 2).
in(197, 3).
in(197, 131).
in(197, 6).
in(197, 135).
in(197, 8).
in(197, 11).
in(197, 12).
in(197, 13).
in(197, 16).
in(197, 17).
in(197, 22).
in(197, 23).
in(197, 25).
in(197, 27).
in(197, 28).
in(197, 29).
in(197, 35).
in(197, 36).
in(197, 39).
in(197, 40).
in(197, 45).
in(197, 46).
in(197, 48).
in(197, 49).
in(197, 50).
in(197, 51).
in(197, 53).
in(197, 57).
in(197, 58).
in(197, 63).
in(197, 64).
in(197, 65).
in(197, 66).
in(197, 70).
in(197, 71).
in(197, 74).
in(197, 77).
in(197, 79).
in(197, 80).
in(197, 81).
in(197, 82).
in(197, 84).
in(197, 85).
in(197, 88).
in(197, 89).
in(197, 90).
in(197, 94).
in(197, 96).
in(197, 97).
in(197, 98).
in(197, 99).
in(197, 101).
in(197, 102).
in(197, 104).
in(197, 109).
in(197, 110).
in(197, 115).
in(197, 117).
in(197, 119).
in(197, 120).
in(197, 121).
in(197, 122).
in(197, 124).
in(197, 125).
in(197, 127).
in(198, 128).
in(198, 129).
in(198, 130).
in(198, 3).
in(198, 4).
in(198, 5).
in(198, 131).
in(198, 132).
in(198, 133).
in(198, 9).
in(198, 134).
in(198, 135).
in(198, 12).
in(198, 14).
in(198, 15).
in(198, 19).
in(198, 20).
in(198, 21).
in(198, 22).
in(198, 23).
in(198, 24).
in(198, 25).
in(198, 26).
in(198, 27).
in(198, 31).
in(198, 33).
in(198, 34).
in(198, 35).
in(198, 36).
in(198, 38).
in(198, 39).
in(198, 40).
in(198, 44).
in(198, 47).
in(198, 48).
in(198, 49).
in(198, 50).
in(198, 51).
in(198, 52).
in(198, 53).
in(198, 55).
in(198, 56).
in(198, 59).
in(198, 60).
in(198, 61).
in(198, 62).
in(198, 63).
in(198, 65).
in(198, 66).
in(198, 70).
in(198, 71).
in(198, 72).
in(198, 75).
in(198, 76).
in(198, 77).
in(198, 78).
in(198, 84).
in(198, 85).
in(198, 88).
in(198, 89).
in(198, 90).
in(198, 91).
in(198, 92).
in(198, 94).
in(198, 97).
in(198, 98).
in(198, 102).
in(198, 105).
in(198, 108).
in(198, 110).
in(198, 112).
in(198, 115).
in(198, 116).
in(198, 118).
in(198, 123).
in(199, 1).
in(199, 3).
in(199, 131).
in(199, 5).
in(199, 134).
in(199, 7).
in(199, 9).
in(199, 10).
in(199, 11).
in(199, 14).
in(199, 15).
in(199, 16).
in(199, 17).
in(199, 19).
in(199, 22).
in(199, 23).
in(199, 24).
in(199, 25).
in(199, 27).
in(199, 28).
in(199, 30).
in(199, 33).
in(199, 36).
in(199, 37).
in(199, 39).
in(199, 40).
in(199, 42).
in(199, 45).
in(199, 46).
in(199, 48).
in(199, 51).
in(199, 52).
in(199, 53).
in(199, 54).
in(199, 55).
in(199, 56).
in(199, 58).
in(199, 60).
in(199, 61).
in(199, 63).
in(199, 67).
in(199, 69).
in(199, 72).
in(199, 74).
in(199, 77).
in(199, 78).
in(199, 80).
in(199, 81).
in(199, 84).
in(199, 85).
in(199, 86).
in(199, 87).
in(199, 88).
in(199, 89).
in(199, 90).
in(199, 91).
in(199, 92).
in(199, 95).
in(199, 96).
in(199, 98).
in(199, 99).
in(199, 100).
in(199, 101).
in(199, 104).
in(199, 106).
in(199, 107).
in(199, 109).
in(199, 113).
in(199, 116).
in(199, 119).
in(199, 121).
in(199, 122).
in(199, 125).
in(199, 127).
in(200, 1).
in(200, 3).
in(200, 4).
in(200, 5).
in(200, 7).
in(200, 10).
in(200, 14).
in(200, 16).
in(200, 19).
in(200, 23).
in(200, 25).
in(200, 26).
in(200, 28).
in(200, 29).
in(200, 30).
in(200, 31).
in(200, 34).
in(200, 35).
in(200, 37).
in(200, 38).
in(200, 39).
in(200, 41).
in(200, 42).
in(200, 44).
in(200, 45).
in(200, 47).
in(200, 48).
in(200, 50).
in(200, 51).
in(200, 54).
in(200, 55).
in(200, 56).
in(200, 61).
in(200, 63).
in(200, 65).
in(200, 66).
in(200, 67).
in(200, 69).
in(200, 72).
in(200, 74).
in(200, 76).
in(200, 77).
in(200, 78).
in(200, 79).
in(200, 81).
in(200, 85).
in(200, 86).
in(200, 88).
in(200, 90).
in(200, 91).
in(200, 93).
in(200, 95).
in(200, 97).
in(200, 100).
in(200, 104).
in(200, 105).
in(200, 106).
in(200, 108).
in(200, 109).
in(200, 110).
in(200, 111).
in(200, 112).
in(200, 113).
in(200, 115).
in(200, 116).
in(200, 118).
in(200, 121).
in(200, 122).
in(200, 123).
in(200, 125).
in(200, 126).
in(200, 127).
in(200, 128).
in(200, 129).
in(200, 130).
in(200, 131).
in(200, 132).
in(200, 134).
in(201, 128).
in(201, 1).
in(201, 2).
in(201, 130).
in(201, 4).
in(201, 133).
in(201, 6).
in(201, 7).
in(201, 134).
in(201, 9).
in(201, 135).
in(201, 11).
in(201, 12).
in(201, 13).
in(201, 16).
in(201, 20).
in(201, 23).
in(201, 24).
in(201, 25).
in(201, 26).
in(201, 27).
in(201, 28).
in(201, 30).
in(201, 31).
in(201, 34).
in(201, 35).
in(201, 37).
in(201, 39).
in(201, 47).
in(201, 50).
in(201, 51).
in(201, 52).
in(201, 53).
in(201, 54).
in(201, 55).
in(201, 56).
in(201, 59).
in(201, 60).
in(201, 62).
in(201, 63).
in(201, 66).
in(201, 67).
in(201, 69).
in(201, 70).
in(201, 71).
in(201, 72).
in(201, 74).
in(201, 75).
in(201, 77).
in(201, 80).
in(201, 81).
in(201, 86).
in(201, 89).
in(201, 90).
in(201, 95).
in(201, 99).
in(201, 101).
in(201, 102).
in(201, 104).
in(201, 105).
in(201, 106).
in(201, 107).
in(201, 108).
in(201, 110).
in(201, 111).
in(201, 112).
in(201, 115).
in(201, 116).
in(201, 117).
in(201, 118).
in(201, 119).
in(201, 120).
in(201, 121).
in(201, 123).
in(202, 2).
in(202, 3).
in(202, 6).
in(202, 10).
in(202, 11).
in(202, 14).
in(202, 16).
in(202, 17).
in(202, 20).
in(202, 21).
in(202, 22).
in(202, 24).
in(202, 25).
in(202, 27).
in(202, 28).
in(202, 29).
in(202, 33).
in(202, 34).
in(202, 35).
in(202, 36).
in(202, 37).
in(202, 38).
in(202, 40).
in(202, 41).
in(202, 42).
in(202, 43).
in(202, 45).
in(202, 47).
in(202, 50).
in(202, 51).
in(202, 53).
in(202, 54).
in(202, 55).
in(202, 57).
in(202, 58).
in(202, 59).
in(202, 60).
in(202, 61).
in(202, 62).
in(202, 64).
in(202, 66).
in(202, 67).
in(202, 68).
in(202, 69).
in(202, 73).
in(202, 74).
in(202, 75).
in(202, 76).
in(202, 79).
in(202, 81).
in(202, 82).
in(202, 87).
in(202, 92).
in(202, 93).
in(202, 95).
in(202, 96).
in(202, 97).
in(202, 98).
in(202, 99).
in(202, 101).
in(202, 102).
in(202, 104).
in(202, 105).
in(202, 106).
in(202, 108).
in(202, 110).
in(202, 112).
in(202, 116).
in(202, 117).
in(202, 118).
in(202, 121).
in(202, 123).
in(202, 124).
in(202, 125).
in(202, 128).
in(202, 129).
in(202, 134).
in(202, 135).
in(203, 2).
in(203, 4).
in(203, 6).
in(203, 9).
in(203, 10).
in(203, 13).
in(203, 18).
in(203, 20).
in(203, 21).
in(203, 22).
in(203, 23).
in(203, 24).
in(203, 25).
in(203, 26).
in(203, 30).
in(203, 32).
in(203, 34).
in(203, 35).
in(203, 37).
in(203, 38).
in(203, 40).
in(203, 41).
in(203, 42).
in(203, 43).
in(203, 46).
in(203, 50).
in(203, 52).
in(203, 53).
in(203, 54).
in(203, 55).
in(203, 57).
in(203, 59).
in(203, 60).
in(203, 61).
in(203, 62).
in(203, 64).
in(203, 65).
in(203, 69).
in(203, 70).
in(203, 71).
in(203, 73).
in(203, 74).
in(203, 75).
in(203, 76).
in(203, 77).
in(203, 78).
in(203, 79).
in(203, 80).
in(203, 81).
in(203, 82).
in(203, 83).
in(203, 84).
in(203, 86).
in(203, 89).
in(203, 91).
in(203, 92).
in(203, 93).
in(203, 94).
in(203, 95).
in(203, 96).
in(203, 97).
in(203, 99).
in(203, 100).
in(203, 101).
in(203, 103).
in(203, 104).
in(203, 107).
in(203, 110).
in(203, 111).
in(203, 112).
in(203, 113).
in(203, 114).
in(203, 118).
in(203, 119).
in(203, 120).
in(203, 122).
in(203, 125).
in(203, 128).
in(203, 129).
in(203, 130).
in(203, 132).
in(203, 133).
in(204, 129).
in(204, 130).
in(204, 3).
in(204, 131).
in(204, 6).
in(204, 135).
in(204, 8).
in(204, 12).
in(204, 16).
in(204, 19).
in(204, 20).
in(204, 22).
in(204, 23).
in(204, 24).
in(204, 27).
in(204, 28).
in(204, 30).
in(204, 31).
in(204, 32).
in(204, 34).
in(204, 36).
in(204, 37).
in(204, 38).
in(204, 40).
in(204, 42).
in(204, 43).
in(204, 45).
in(204, 48).
in(204, 49).
in(204, 51).
in(204, 52).
in(204, 53).
in(204, 54).
in(204, 55).
in(204, 56).
in(204, 59).
in(204, 62).
in(204, 63).
in(204, 65).
in(204, 70).
in(204, 71).
in(204, 74).
in(204, 77).
in(204, 79).
in(204, 80).
in(204, 81).
in(204, 84).
in(204, 85).
in(204, 87).
in(204, 88).
in(204, 90).
in(204, 92).
in(204, 94).
in(204, 96).
in(204, 97).
in(204, 98).
in(204, 100).
in(204, 101).
in(204, 102).
in(204, 103).
in(204, 106).
in(204, 111).
in(204, 112).
in(204, 114).
in(204, 116).
in(204, 117).
in(204, 121).
in(204, 122).
in(204, 124).
in(204, 126).
in(204, 127).
in(205, 128).
in(205, 1).
in(205, 130).
in(205, 131).
in(205, 5).
in(205, 6).
in(205, 7).
in(205, 8).
in(205, 9).
in(205, 10).
in(205, 133).
in(205, 12).
in(205, 134).
in(205, 135).
in(205, 16).
in(205, 17).
in(205, 18).
in(205, 19).
in(205, 21).
in(205, 24).
in(205, 27).
in(205, 28).
in(205, 29).
in(205, 34).
in(205, 35).
in(205, 37).
in(205, 39).
in(205, 42).
in(205, 47).
in(205, 49).
in(205, 51).
in(205, 54).
in(205, 56).
in(205, 58).
in(205, 60).
in(205, 61).
in(205, 62).
in(205, 63).
in(205, 64).
in(205, 66).
in(205, 68).
in(205, 69).
in(205, 70).
in(205, 71).
in(205, 74).
in(205, 75).
in(205, 80).
in(205, 81).
in(205, 82).
in(205, 83).
in(205, 90).
in(205, 91).
in(205, 93).
in(205, 94).
in(205, 95).
in(205, 98).
in(205, 99).
in(205, 100).
in(205, 102).
in(205, 103).
in(205, 104).
in(205, 105).
in(205, 108).
in(205, 110).
in(205, 112).
in(205, 113).
in(205, 114).
in(205, 116).
in(205, 117).
in(205, 118).
in(205, 119).
in(205, 120).
in(205, 121).
in(205, 124).
in(205, 126).
in(206, 1).
in(206, 4).
in(206, 5).
in(206, 6).
in(206, 132).
in(206, 8).
in(206, 9).
in(206, 133).
in(206, 134).
in(206, 135).
in(206, 13).
in(206, 14).
in(206, 15).
in(206, 16).
in(206, 17).
in(206, 18).
in(206, 20).
in(206, 21).
in(206, 23).
in(206, 24).
in(206, 26).
in(206, 28).
in(206, 29).
in(206, 32).
in(206, 33).
in(206, 34).
in(206, 39).
in(206, 40).
in(206, 41).
in(206, 43).
in(206, 44).
in(206, 45).
in(206, 46).
in(206, 48).
in(206, 51).
in(206, 52).
in(206, 55).
in(206, 57).
in(206, 59).
in(206, 60).
in(206, 71).
in(206, 73).
in(206, 74).
in(206, 75).
in(206, 76).
in(206, 78).
in(206, 79).
in(206, 80).
in(206, 81).
in(206, 83).
in(206, 84).
in(206, 86).
in(206, 87).
in(206, 89).
in(206, 95).
in(206, 96).
in(206, 99).
in(206, 100).
in(206, 102).
in(206, 106).
in(206, 108).
in(206, 109).
in(206, 110).
in(206, 112).
in(206, 114).
in(206, 116).
in(206, 117).
in(206, 119).
in(206, 122).
in(206, 126).
in(206, 127).
in(207, 128).
in(207, 2).
in(207, 3).
in(207, 4).
in(207, 132).
in(207, 133).
in(207, 7).
in(207, 134).
in(207, 135).
in(207, 10).
in(207, 14).
in(207, 15).
in(207, 17).
in(207, 21).
in(207, 22).
in(207, 24).
in(207, 25).
in(207, 26).
in(207, 28).
in(207, 29).
in(207, 32).
in(207, 35).
in(207, 37).
in(207, 40).
in(207, 43).
in(207, 44).
in(207, 45).
in(207, 46).
in(207, 50).
in(207, 51).
in(207, 53).
in(207, 54).
in(207, 55).
in(207, 57).
in(207, 59).
in(207, 63).
in(207, 64).
in(207, 67).
in(207, 69).
in(207, 71).
in(207, 74).
in(207, 75).
in(207, 77).
in(207, 78).
in(207, 81).
in(207, 83).
in(207, 85).
in(207, 86).
in(207, 88).
in(207, 89).
in(207, 91).
in(207, 94).
in(207, 95).
in(207, 98).
in(207, 99).
in(207, 101).
in(207, 103).
in(207, 107).
in(207, 108).
in(207, 112).
in(207, 113).
in(207, 114).
in(207, 116).
in(207, 117).
in(207, 120).
in(207, 121).
in(207, 122).
in(207, 123).
in(207, 127).
in(208, 128).
in(208, 1).
in(208, 2).
in(208, 3).
in(208, 4).
in(208, 5).
in(208, 130).
in(208, 131).
in(208, 132).
in(208, 134).
in(208, 10).
in(208, 11).
in(208, 12).
in(208, 135).
in(208, 20).
in(208, 23).
in(208, 24).
in(208, 25).
in(208, 29).
in(208, 31).
in(208, 32).
in(208, 39).
in(208, 41).
in(208, 42).
in(208, 43).
in(208, 44).
in(208, 45).
in(208, 46).
in(208, 47).
in(208, 48).
in(208, 49).
in(208, 50).
in(208, 51).
in(208, 52).
in(208, 53).
in(208, 55).
in(208, 57).
in(208, 58).
in(208, 59).
in(208, 60).
in(208, 62).
in(208, 64).
in(208, 66).
in(208, 67).
in(208, 68).
in(208, 70).
in(208, 74).
in(208, 75).
in(208, 80).
in(208, 82).
in(208, 83).
in(208, 84).
in(208, 86).
in(208, 87).
in(208, 92).
in(208, 93).
in(208, 94).
in(208, 95).
in(208, 96).
in(208, 98).
in(208, 101).
in(208, 105).
in(208, 106).
in(208, 107).
in(208, 108).
in(208, 109).
in(208, 111).
in(208, 112).
in(208, 116).
in(208, 117).
in(208, 119).
in(208, 120).
in(208, 121).
in(208, 123).
in(208, 125).
in(208, 127).
in(209, 128).
in(209, 1).
in(209, 2).
in(209, 3).
in(209, 4).
in(209, 5).
in(209, 6).
in(209, 129).
in(209, 8).
in(209, 9).
in(209, 10).
in(209, 133).
in(209, 12).
in(209, 13).
in(209, 14).
in(209, 15).
in(209, 16).
in(209, 17).
in(209, 20).
in(209, 24).
in(209, 27).
in(209, 30).
in(209, 31).
in(209, 32).
in(209, 34).
in(209, 35).
in(209, 36).
in(209, 134).
in(209, 38).
in(209, 39).
in(209, 47).
in(209, 50).
in(209, 51).
in(209, 52).
in(209, 53).
in(209, 57).
in(209, 58).
in(209, 60).
in(209, 61).
in(209, 62).
in(209, 63).
in(209, 64).
in(209, 65).
in(209, 67).
in(209, 73).
in(209, 74).
in(209, 81).
in(209, 84).
in(209, 86).
in(209, 87).
in(209, 88).
in(209, 91).
in(209, 92).
in(209, 98).
in(209, 99).
in(209, 100).
in(209, 104).
in(209, 106).
in(209, 107).
in(209, 108).
in(209, 109).
in(209, 110).
in(209, 111).
in(209, 112).
in(209, 114).
in(209, 115).
in(209, 119).
in(209, 121).
in(209, 122).
in(209, 123).
in(209, 125).
in(209, 126).
in(209, 127).
in(210, 128).
in(210, 1).
in(210, 3).
in(210, 4).
in(210, 5).
in(210, 6).
in(210, 131).
in(210, 132).
in(210, 10).
in(210, 11).
in(210, 12).
in(210, 15).
in(210, 16).
in(210, 17).
in(210, 18).
in(210, 20).
in(210, 21).
in(210, 22).
in(210, 23).
in(210, 25).
in(210, 26).
in(210, 28).
in(210, 29).
in(210, 30).
in(210, 31).
in(210, 32).
in(210, 34).
in(210, 36).
in(210, 37).
in(210, 38).
in(210, 40).
in(210, 41).
in(210, 43).
in(210, 44).
in(210, 45).
in(210, 47).
in(210, 48).
in(210, 51).
in(210, 52).
in(210, 57).
in(210, 59).
in(210, 60).
in(210, 61).
in(210, 62).
in(210, 65).
in(210, 68).
in(210, 71).
in(210, 73).
in(210, 74).
in(210, 78).
in(210, 82).
in(210, 84).
in(210, 85).
in(210, 86).
in(210, 87).
in(210, 92).
in(210, 94).
in(210, 95).
in(210, 96).
in(210, 99).
in(210, 100).
in(210, 103).
in(210, 104).
in(210, 106).
in(210, 107).
in(210, 109).
in(210, 111).
in(210, 113).
in(210, 114).
in(210, 116).
in(210, 120).
in(210, 121).
in(210, 122).
in(210, 126).
in(210, 127).
in(211, 128).
in(211, 1).
in(211, 130).
in(211, 4).
in(211, 6).
in(211, 134).
in(211, 8).
in(211, 135).
in(211, 10).
in(211, 13).
in(211, 14).
in(211, 19).
in(211, 20).
in(211, 21).
in(211, 22).
in(211, 23).
in(211, 24).
in(211, 25).
in(211, 26).
in(211, 28).
in(211, 30).
in(211, 31).
in(211, 33).
in(211, 35).
in(211, 37).
in(211, 39).
in(211, 41).
in(211, 45).
in(211, 46).
in(211, 48).
in(211, 49).
in(211, 50).
in(211, 51).
in(211, 52).
in(211, 54).
in(211, 56).
in(211, 59).
in(211, 60).
in(211, 61).
in(211, 65).
in(211, 66).
in(211, 67).
in(211, 69).
in(211, 70).
in(211, 71).
in(211, 72).
in(211, 75).
in(211, 77).
in(211, 81).
in(211, 85).
in(211, 86).
in(211, 89).
in(211, 90).
in(211, 91).
in(211, 92).
in(211, 95).
in(211, 97).
in(211, 98).
in(211, 102).
in(211, 103).
in(211, 109).
in(211, 110).
in(211, 111).
in(211, 112).
in(211, 114).
in(211, 116).
in(211, 117).
in(211, 118).
in(211, 120).
in(211, 121).
in(211, 122).
in(211, 123).
in(211, 124).
in(211, 127).
in(212, 1).
in(212, 2).
in(212, 3).
in(212, 4).
in(212, 129).
in(212, 6).
in(212, 7).
in(212, 8).
in(212, 9).
in(212, 130).
in(212, 132).
in(212, 133).
in(212, 13).
in(212, 14).
in(212, 135).
in(212, 18).
in(212, 22).
in(212, 27).
in(212, 28).
in(212, 29).
in(212, 32).
in(212, 33).
in(212, 35).
in(212, 39).
in(212, 40).
in(212, 42).
in(212, 44).
in(212, 46).
in(212, 47).
in(212, 49).
in(212, 52).
in(212, 54).
in(212, 57).
in(212, 58).
in(212, 61).
in(212, 67).
in(212, 68).
in(212, 69).
in(212, 75).
in(212, 76).
in(212, 78).
in(212, 81).
in(212, 82).
in(212, 83).
in(212, 84).
in(212, 86).
in(212, 87).
in(212, 89).
in(212, 90).
in(212, 92).
in(212, 94).
in(212, 96).
in(212, 99).
in(212, 100).
in(212, 102).
in(212, 105).
in(212, 108).
in(212, 109).
in(212, 111).
in(212, 113).
in(212, 116).
in(212, 118).
in(212, 124).
in(212, 126).
in(212, 127).
in(213, 128).
in(213, 129).
in(213, 3).
in(213, 4).
in(213, 131).
in(213, 6).
in(213, 7).
in(213, 8).
in(213, 9).
in(213, 10).
in(213, 132).
in(213, 12).
in(213, 13).
in(213, 133).
in(213, 15).
in(213, 135).
in(213, 17).
in(213, 18).
in(213, 20).
in(213, 21).
in(213, 24).
in(213, 25).
in(213, 27).
in(213, 28).
in(213, 29).
in(213, 30).
in(213, 34).
in(213, 35).
in(213, 36).
in(213, 37).
in(213, 134).
in(213, 41).
in(213, 45).
in(213, 47).
in(213, 49).
in(213, 51).
in(213, 53).
in(213, 55).
in(213, 56).
in(213, 58).
in(213, 59).
in(213, 60).
in(213, 61).
in(213, 62).
in(213, 63).
in(213, 65).
in(213, 66).
in(213, 69).
in(213, 71).
in(213, 77).
in(213, 79).
in(213, 81).
in(213, 83).
in(213, 84).
in(213, 86).
in(213, 87).
in(213, 89).
in(213, 90).
in(213, 92).
in(213, 95).
in(213, 96).
in(213, 97).
in(213, 98).
in(213, 101).
in(213, 103).
in(213, 104).
in(213, 105).
in(213, 106).
in(213, 107).
in(213, 112).
in(213, 113).
in(213, 114).
in(213, 116).
in(213, 117).
in(213, 120).
weight(1, 10).
weight(2, 4).
weight(3, 9).
weight(4, 7).
weight(5, 3).
weight(6, 8).
weight(7, 5).
weight(8, 5).
weight(9, 7).
weight(10, 8).
weight(11, 6).
weight(12, 10).
weight(13, 11).
weight(14, 6).
weight(15, 7).
weight(16, 9).
weight(17, 3).
weight(18, 9).
weight(19, 7).
weight(20, 2).
weight(21, 11).
weight(22, 2).
weight(23, 4).
weight(24, 7).
weight(25, 8).
weight(26, 7).
weight(27, 9).
weight(28, 8).
weight(29, 1).
weight(30, 1).
weight(31, 4).
weight(32, 1).
weight(33, 11).
weight(34, 9).
weight(35, 4).
weight(36, 4).
weight(37, 7).
weight(38, 4).
weight(39, 3).
weight(40, 10).
weight(41, 10).
weight(42, 10).
weight(43, 9).
weight(44, 3).
weight(45, 5).
weight(46, 3).
weight(47, 7).
weight(48, 3).
weight(49, 10).
weight(50, 11).
weight(51, 2).
weight(52, 5).
weight(53, 8).
weight(54, 7).
weight(55, 6).
weight(56, 8).
weight(57, 5).
weight(58, 8).
weight(59, 7).
weight(60, 2).
weight(61, 9).
weight(62, 4).
weight(63, 10).
weight(64, 11).
weight(65, 6).
weight(66, 6).
weight(67, 5).
weight(68, 11).
weight(69, 6).
weight(70, 3).
weight(71, 2).
weight(72, 6).
weight(73, 11).
weight(74, 4).
weight(75, 6).
weight(76, 4).
weight(77, 4).
weight(78, 3).
weight(79, 1).
weight(80, 10).
weight(81, 9).
weight(82, 3).
weight(83, 4).
weight(84, 8).
weight(85, 6).
weight(86, 9).
weight(87, 3).
weight(88, 10).
weight(89, 6).
weight(90, 5).
weight(91, 8).
weight(92, 4).
weight(93, 9).
weight(94, 11).
weight(95, 9).
weight(96, 3).
weight(97, 11).
weight(98, 11).
weight(99, 2).
weight(100, 8).
weight(101, 5).
weight(102, 7).
weight(103, 10).
weight(104, 2).
weight(105, 5).
weight(106, 8).
weight(107, 9).
weight(108, 7).
weight(109, 10).
weight(110, 4).
weight(111, 11).
weight(112, 8).
weight(113, 10).
weight(114, 1).
weight(115, 2).
weight(116, 3).
weight(117, 5).
weight(118, 5).
weight(119, 2).
weight(120, 2).
weight(121, 4).
weight(122, 2).
weight(123, 5).
weight(124, 10).
weight(125, 9).
weight(126, 3).
weight(127, 5).
weight(128, 7).
weight(129, 10).
weight(130, 8).
weight(131, 2).
weight(132, 3).
weight(133, 11).
weight(134, 8).
weight(135, 2).
weight(136, 8).
weight(137, 5).
weight(138, 5).
weight(139, 7).
weight(140, 1).
weight(141, 5).
weight(142, 1).
weight(143, 1).
weight(144, 6).
weight(145, 1).
weight(146, 9).
weight(147, 8).
weight(148, 6).
weight(149, 3).
weight(150, 8).
weight(151, 1).
weight(152, 1).
weight(153, 3).
weight(154, 4).
weight(155, 7).
weight(156, 10).
weight(157, 6).
weight(158, 5).
weight(159, 11).
weight(160, 3).
weight(161, 11).
weight(162, 7).
weight(163, 8).
weight(164, 2).
weight(165, 6).
weight(166, 2).
weight(167, 5).
weight(168, 11).
weight(169, 2).
weight(170, 2).
weight(171, 2).
weight(172, 6).
weight(173, 11).
weight(174, 5).
weight(175, 6).
weight(176, 2).
weight(177, 8).
weight(178, 11).
weight(179, 5).
weight(180, 7).
weight(181, 5).
weight(182, 2).
weight(183, 9).
weight(184, 4).
weight(185, 5).
weight(186, 9).
weight(187, 11).
weight(188, 9).
weight(189, 5).
weight(190, 8).
weight(191, 7).
weight(192, 8).
weight(193, 6).
weight(194, 6).
weight(195, 9).
weight(196, 7).
weight(197, 6).
weight(198, 9).
weight(199, 1).
weight(200, 5).
weight(201, 10).
weight(202, 4).
weight(203, 6).
weight(204, 9).
weight(205, 10).
weight(206, 3).
weight(207, 5).
weight(208, 5).
weight(209, 11).
weight(210, 3).
weight(211, 8).
weight(212, 6).
weight(213, 9).

{ choose(S) } :- set(S).
:- choose(S1), choose(S2), S1 < S2, in(S1,E), in(S2,E).
:~ not choose(S), weight(S,W). [W@1,S]
