elem(1..134).
set(1..211).
in(1, 1).
in(1, 2).
in(1, 3).
in(1, 130).
in(1, 5).
in(1, 6).
in(1, 131).
in(1, 8).
in(1, 9).
in(1, 10).
in(1, 133).
in(1, 12).
in(1, 15).
in(1, 24).
in(1, 25).
in(1, 27).
in(1, 36).
in(1, 40).
in(1, 44).
in(1, 45).
in(1, 48).
in(1, 49).
in(1, 50).
in(1, 54).
in(1, 56).
in(1, 60).
in(1, 61).
in(1, 66).
in(1, 68).
in(1, 70).
in(1, 71).
in(1, 72).
in(1, 74).
in(1, 75).
in(1, 77).
in(1, 78).
in(1, 79).
in(1, 82).
in(1, 83).
in(1, 84).
in(1, 85).
in(1, 89).
in(1, 93).
in(1, 95).
in(1, 96).
in(1, 97).
in(1, 99).
in(1, 100).
in(1, 104).
in(1, 105).
in(1, 108).
in(1, 109).
in(1, 110).
in(1, 112).
in(1, 115).
in(1, 122).
in(1, 124).
in(1, 127).
in(2, 1).
in(2, 129).
in(2, 3).
in(2, 4).
in(2, 131).
in(2, 6).
in(2, 7).
in(2, 8).
in(2, 9).
in(2, 14).
in(2, 15).
in(2, 20).
in(2, 22).
in(2, 25).
in(2, 32).
in(2, 34).
in(2, 35).
in(2, 38).
in(2, 42).
in(2, 47).
in(2, 49).
in(2, 50).
in(2, 53).
in(2, 55).
in(2, 58).
in(2, 59).
in(2, 61).
in(2, 64).
in(2, 65).
in(2, 68).
in(2, 69).
in(2, 70).
in(2, 74).
in(2, 75).
in(2, 79).
in(2, 80).
in(2, 81).
in(2, 84).
in(2, 86).
in(2, 87).
in(2, 88).
in(2, 94).
in(2, 96).
in(2, 97).
in(2, 98).
in(2, 102).
in(2, 104).
in(2, 105).
in(2, 106).
in(2, 110).
in(2, 111).
in(2, 114).
in(2, 115).
in(2, 118).
in(2, 119).
in(2, 123).
in(2, 125).
in(3, 128).
in(3, 130).
in(3, 131).
in(3, 6).
in(3, 134).
in(3, 9).
in(3, 11).
in(3, 13).
in(3, 14).
in(3, 16).
in(3, 19).
in(3, 21).
in(3, 25).
in(3, 28).
in(3, 31).
in(3, 33).
in(3, 35).
in(3, 39).
in(3, 41).
in(3, 47).
in(3, 54).
in(3, 58).
in(3, 59).
in(3, 62).
in(3, 64).
in(3, 65).
in(3, 68).
in(3, 70).
in(3, 73).
in(3, 74).
in(3, 84).
in(3, 85).
in(3, 91).
in(3, 92).
in(3, 95).
in(3, 96).
in(3, 98).
in(3, 100).
in(3, 104).
in(3, 109).
in(3, 110).
in(3, 113).
in(3, 115).
in(3, 121).
in(3, 122).
in(3, 123).
in(3, 124).
in(3, 127).
in(4, 128).
in(4, 1).
in(4, 2).
in(4, 129).
in(4, 4).
in(4, 7).
in(4, 9).
in(4, 14).
in(4, 15).
in(4, 16).
in(4, 17).
in(4, 19).
in(4, 22).
in(4, 23).
in(4, 24).
in(4, 25).
in(4, 28).
in(4, 29).
in(4, 30).
in(4, 31).
in(4, 34).
in(4, 35).
in(4, 38).
in(4, 39).
in(4, 40).
in(4, 41).
in(4, 46).
in(4, 48).
in(4, 50).
in(4, 51).
in(4, 54).
in(4, 57).
in(4, 60).
in(4, 63).
in(4, 65).
in(4, 67).
in(4, 70).
in(4, 71).
in(4, 72).
in(4, 74).
in(4, 76).
in(4, 77).
in(4, 78).
in(4, 85).
in(4, 90).
in(4, 92).
in(4, 100).
in(4, 103).
in(4, 108).
in(4, 109).
in(4, 112).
in(4, 115).
in(4, 118).
in(4, 119).
in(4, 125).
in(5, 3).
in(5, 131).
in(5, 5).
in(5, 6).
in(5, 132).
in(5, 8).
in(5, 133).
in(5, 134).
in(5, 12).
in(5, 15).
in(5, 17).
in(5, 24).
in(5, 25).
in(5, 28).
in(5, 34).
in(5, 35).
in(5, 36).
in(5, 37).
in(5, 38).
in(5, 41).
in(5, 42).
in(5, 43).
in(5, 44).
in(5, 46).
in(5, 49).
in(5, 51).
in(5, 52).
in(5, 54).
in(5, 60).
in(5, 64).
in(5, 65).
in(5, 67).
in(5, 69).
in(5, 71).
in(5, 72).
in(5, 73).
in(5, 75).
in(5, 76).
in(5, 78).
in(5, 79).
in(5, 80).
in(5, 82).
in(5, 88).
in(5, 89).
in(5, 90).
in(5, 93).
in(5, 94).
in(5, 97).
in(5, 98).
in(5, 104).
in(5, 110).
in(5, 113).
in(5, 115).
in(5, 118).
in(5, 119).
in(5, 121).
in(5, 122).
in(5, 124).
in(6, 128).
in(6, 1).
in(6, 129).
in(6, 4).
in(6, 132).
in(6, 134).
in(6, 8).
in(6, 11).
in(6, 12).
in(6, 13).
in(6, 19).
in(6, 20).
in(6, 26).
in(6, 33).
in(6, 35).
in(6, 37).
in(6, 41).
in(6, 45).
in(6, 53).
in(6, 58).
in(6, 63).
in(6, 65).
in(6, 66).
in(6, 67).
in(6, 70).
in(6, 74).
in(6, 76).
in(6, 80).
in(6, 84).
in(6, 86).
in(6, 92).
in(6, 93).
in(6, 97).
in(6, 99).
in(6, 103).
in(6, 105).
in(6, 107).
in(6, 112).
in(6, 115).
in(6, 116).
in(7, 128).
in(7, 1).
in(7, 129).
in(7, 3).
in(7, 134).
in(7, 7).
in(7, 12).
in(7, 14).
in(7, 15).
in(7, 16).
in(7, 19).
in(7, 20).
in(7, 21).
in(7, 22).
in(7, 24).
in(7, 25).
in(7, 26).
in(7, 29).
in(7, 32).
in(7, 34).
in(7, 35).
in(7, 36).
in(7, 38).
in(7, 46).
in(7, 48).
in(7, 49).
in(7, 53).
in(7, 54).
in(7, 55).
in(7, 57).
in(7, 58).
in(7, 59).
in(7, 62).
in(7, 63).
in(7, 64).
in(7, 66).
in(7, 69).
in(7, 72).
in(7, 73).
in(7, 76).
in(7, 78).
in(7, 79).
in(7, 80).
in(7, 82).
in(7, 84).
in(7, 86).
in(7, 87).
in(7, 89).
in(7, 92).
in(7, 99).
in(7, 100).
in(7, 106).
in(7, 108).
in(7, 111).
in(7, 114).
in(7, 115).
in(7, 119).
in(7, 122).
in(7, 123).
in(7, 124).
in(8, 2).
in(8, 131).
in(8, 4).
in(8, 134).
in(8, 7).
in(8, 8).
in(8, 9).
in(8, 10).
in(8, 13).
in(8, 15).
in(8, 17).
in(8, 18).
in(8, 19).
in(8, 27).
in(8, 28).
in(8, 30).
in(8, 31).
in(8, 41).
in(8, 43).
in(8, 46).
in(8, 47).
in(8, 50).
in(8, 51).
in(8, 55).
in(8, 58).
in(8, 59).
in(8, 61).
in(8, 63).
in(8, 65).
in(8, 68).
in(8, 72).
in(8, 74).
in(8, 78).
in(8, 89).
in(8, 92).
in(8, 95).
in(8, 98).
in(8, 99).
in(8, 100).
in(8, 101).
in(8, 102).
in(8, 103).
in(8, 106).
in(8, 108).
in(8, 112).
in(8, 117).
in(8, 118).
in(8, 120).
in(8, 124).
in(8, 125).
in(8, 127).
in(9, 129).
in(9, 131).
in(9, 133).
in(9, 9).
in(9, 10).
in(9, 17).
in(9, 18).
in(9, 20).
in(9, 22).
in(9, 23).
in(9, 24).
in(9, 25).
in(9, 27).
in(9, 33).
in(9, 34).
in(9, 37).
in(9, 38).
in(9, 39).
in(9, 41).
in(9, 42).
in(9, 49).
in(9, 50).
in(9, 51).
in(9, 53).
in(9, 55).
in(9, 58).
in(9, 62).
in(9, 63).
in(9, 65).
in(9, 66).
in(9, 68).
in(9, 70).
in(9, 71).
in(9, 73).
in(9, 75).
in(9, 79).
in(9, 80).
in(9, 86).
in(9, 87).
in(9, 91).
in(9, 94).
in(9, 97).
in(9, 100).
in(9, 102).
in(9, 105).
in(9, 107).
in(9, 108).
in(9, 109).
in(9, 110).
in(9, 113).
in(9, 115).
in(9, 120).
in(9, 121).
in(9, 124).
in(10, 128).
in(10, 1).
in(10, 3).
in(10, 4).
in(10, 133).
in(10, 8).
in(10, 9).
in(10, 10).
in(10, 13).
in(10, 14).
in(10, 18).
in(10, 19).
in(10, 20).
in(10, 23).
in(10, 26).
in(10, 29).
in(10, 30).
in(10, 33).
in(10, 34).
in(10, 35).
in(10, 36).
in(10, 42).
in(10, 43).
in(10, 47).
in(10, 53).
in(10, 54).
in(10, 57).
in(10, 60).
in(10, 61).
in(10, 62).
in(10, 63).
in(10, 65).
in(10, 68).
in(10, 73).
in(10, 75).
in(10, 77).
in(10, 80).
in(10, 85).
in(10, 87).
in(10, 101).
in(10, 106).
in(10, 108).
in(10, 110).
in(10, 111).
in(10, 113).
in(10, 115).
in(10, 121).
in(10, 123).
in(10, 125).
in(11, 128).
in(11, 130).
in(11, 131).
in(11, 4).
in(11, 132).
in(11, 134).
in(11, 7).
in(11, 9).
in(11, 11).
in(11, 12).
in(11, 13).
in(11, 15).
in(11, 17).
in(11, 20).
in(11, 22).
in(11, 23).
in(11, 24).
in(11, 29).
in(11, 33).
in(11, 36).
in(11, 38).
in(11, 39).
in(11, 41).
in(11, 48).
in(11, 54).
in(11, 55).
in(11, 57).
in(11, 60).
in(11, 65).
in(11, 67).
in(11, 70).
in(11, 71).
in(11, 73).
in(11, 74).
in(11, 75).
in(11, 77).
in(11, 80).
in(11, 81).
in(11, 84).
in(11, 87).
in(11, 91).
in(11, 96).
in(11, 97).
in(11, 98).
in(11, 99).
in(11, 101).
in(11, 108).
in(11, 111).
in(11, 113).
in(11, 114).
in(11, 120).
in(11, 122).
in(11, 125).
in(11, 127).
in(12, 1).
in(12, 129).
in(12, 3).
in(12, 4).
in(12, 130).
in(12, 9).
in(12, 12).
in(12, 13).
in(12, 14).
in(12, 15).
in(12, 18).
in(12, 19).
in(12, 20).
in(12, 21).
in(12, 22).
in(12, 24).
in(12, 25).
in(12, 26).
in(12, 27).
in(12, 28).
in(12, 31).
in(12, 32).
in(12, 34).
in(12, 35).
in(12, 36).
in(12, 39).
in(12, 40).
in(12, 42).
in(12, 50).
in(12, 52).
in(12, 54).
in(12, 56).
in(12, 57).
in(12, 60).
in(12, 61).
in(12, 64).
in(12, 66).
in(12, 68).
in(12, 71).
in(12, 72).
in(12, 73).
in(12, 74).
in(12, 75).
in(12, 76).
in(12, 78).
in(12, 80).
in(12, 82).
in(12, 83).
in(12, 84).
in(12, 87).
in(12, 89).
in(12, 90).
in(12, 92).
in(12, 93).
in(12, 94).
in(12, 96).
in(12, 100).
in(12, 101).
in(12, 103).
in(12, 104).
in(12, 105).
in(12, 106).
in(12, 107).
in(12, 110).
in(12, 112).
in(12, 113).
in(12, 117).
in(12, 120).
in(12, 123).
in(13, 1).
in(13, 2).
in(13, 3).
in(13, 131).
in(13, 5).
in(13, 132).
in(13, 133).
in(13, 9).
in(13, 12).
in(13, 13).
in(13, 14).
in(13, 20).
in(13, 23).
in(13, 24).
in(13, 27).
in(13, 29).
in(13, 30).
in(13, 31).
in(13, 33).
in(13, 36).
in(13, 37).
in(13, 39).
in(13, 43).
in(13, 49).
in(13, 52).
in(13, 55).
in(13, 58).
in(13, 60).
in(13, 61).
in(13, 68).
in(13, 69).
in(13, 70).
in(13, 71).
in(13, 74).
in(13, 75).
in(13, 80).
in(13, 82).
in(13, 85).
in(13, 86).
in(13, 87).
in(13, 88).
in(13, 90).
in(13, 92).
in(13, 96).
in(13, 98).
in(13, 103).
in(13, 104).
in(13, 106).
in(13, 108).
in(13, 109).
in(13, 114).
in(13, 115).
in(13, 120).
in(13, 127).
in(14, 130).
in(14, 4).
in(14, 5).
in(14, 133).
in(14, 134).
in(14, 9).
in(14, 11).
in(14, 13).
in(14, 15).
in(14, 18).
in(14, 19).
in(14, 25).
in(14, 28).
in(14, 30).
in(14, 32).
in(14, 36).
in(14, 40).
in(14, 41).
in(14, 43).
in(14, 47).
in(14, 48).
in(14, 53).
in(14, 54).
in(14, 56).
in(14, 63).
in(14, 64).
in(14, 65).
in(14, 69).
in(14, 70).
in(14, 73).
in(14, 74).
in(14, 75).
in(14, 78).
in(14, 85).
in(14, 90).
in(14, 91).
in(14, 92).
in(14, 93).
in(14, 94).
in(14, 96).
in(14, 99).
in(14, 102).
in(14, 105).
in(14, 106).
in(14, 108).
in(14, 109).
in(14, 110).
in(14, 113).
in(14, 118).
in(14, 119).
in(14, 123).
in(14, 125).
in(14, 127).
in(15, 128).
in(15, 2).
in(15, 131).
in(15, 132).
in(15, 133).
in(15, 134).
in(15, 12).
in(15, 14).
in(15, 15).
in(15, 17).
in(15, 18).
in(15, 32).
in(15, 33).
in(15, 37).
in(15, 38).
in(15, 39).
in(15, 40).
in(15, 46).
in(15, 48).
in(15, 49).
in(15, 53).
in(15, 54).
in(15, 58).
in(15, 60).
in(15, 62).
in(15, 63).
in(15, 65).
in(15, 66).
in(15, 68).
in(15, 69).
in(15, 70).
in(15, 71).
in(15, 74).
in(15, 77).
in(15, 78).
in(15, 79).
in(15, 80).
in(15, 81).
in(15, 88).
in(15, 90).
in(15, 92).
in(15, 94).
in(15, 95).
in(15, 97).
in(15, 99).
in(15, 100).
in(15, 104).
in(15, 106).
in(15, 107).
in(15, 108).
in(15, 110).
in(15, 111).
in(15, 114).
in(15, 116).
in(15, 117).
in(15, 119).
in(15, 123).
in(15, 126).
in(15, 127).
in(16, 3).
in(16, 13).
in(16, 17).
in(16, 18).
in(16, 20).
in(16, 21).
in(16, 22).
in(16, 23).
in(16, 24).
in(16, 26).
in(16, 27).
in(16, 29).
in(16, 30).
in(16, 32).
in(16, 34).
in(16, 35).
in(16, 39).
in(16, 40).
in(16, 41).
in(16, 42).
in(16, 43).
in(16, 44).
in(16, 46).
in(16, 49).
in(16, 53).
in(16, 56).
in(16, 57).
in(16, 59).
in(16, 60).
in(16, 64).
in(16, 67).
in(16, 68).
in(16, 69).
in(16, 73).
in(16, 78).
in(16, 79).
in(16, 80).
in(16, 81).
in(16, 84).
in(16, 85).
in(16, 91).
in(16, 96).
in(16, 100).
in(16, 101).
in(16, 108).
in(16, 109).
in(16, 110).
in(16, 118).
in(16, 119).
in(16, 120).
in(16, 122).
in(16, 126).
in(17, 128).
in(17, 132).
in(17, 5).
in(17, 133).
in(17, 7).
in(17, 8).
in(17, 10).
in(17, 13).
in(17, 16).
in(17, 17).
in(17, 18).
in(17, 19).
in(17, 20).
in(17, 22).
in(17, 25).
in(17, 26).
in(17, 27).
in(17, 29).
in(17, 33).
in(17, 34).
in(17, 35).
in(17, 39).
in(17, 40).
in(17, 44).
in(17, 48).
in(17, 56).
in(17, 57).
in(17, 62).
in(17, 63).
in(17, 65).
in(17, 68).
in(17, 69).
in(17, 72).
in(17, 76).
in(17, 78).
in(17, 80).
in(17, 81).
in(17, 86).
in(17, 89).
in(17, 90).
in(17, 91).
in(17, 94).
in(17, 96).
in(17, 99).
in(17, 100).
in(17, 101).
in(17, 109).
in(17, 119).
in(17, 120).
in(17, 123).
in(17, 124).
in(17, 125).
in(18, 128).
in(18, 1).
in(18, 2).
in(18, 129).
in(18, 130).
in(18, 5).
in(18, 131).
in(18, 132).
in(18, 8).
in(18, 133).
in(18, 134).
in(18, 11).
in(18, 15).
in(18, 16).
in(18, 19).
in(18, 23).
in(18, 25).
in(18, 26).
in(18, 29).
in(18, 34).
in(18, 36).
in(18, 37).
in(18, 38).
in(18, 42).
in(18, 43).
in(18, 45).
in(18, 48).
in(18, 49).
in(18, 50).
in(18, 51).
in(18, 52).
in(18, 54).
in(18, 55).
in(18, 56).
in(18, 57).
in(18, 59).
in(18, 60).
in(18, 61).
in(18, 63).
in(18, 64).
in(18, 70).
in(18, 71).
in(18, 72).
in(18, 74).
in(18, 76).
in(18, 79).
in(18, 85).
in(18, 86).
in(18, 88).
in(18, 89).
in(18, 90).
in(18, 102).
in(18, 109).
in(18, 110).
in(18, 111).
in(18, 113).
in(18, 122).
in(18, 124).
in(18, 125).
in(18, 126).
in(19, 128).
in(19, 2).
in(19, 14).
in(19, 16).
in(19, 20).
in(19, 23).
in(19, 24).
in(19, 28).
in(19, 29).
in(19, 32).
in(19, 35).
in(19, 36).
in(19, 39).
in(19, 41).
in(19, 43).
in(19, 44).
in(19, 50).
in(19, 59).
in(19, 60).
in(19, 62).
in(19, 63).
in(19, 64).
in(19, 73).
in(19, 74).
in(19, 76).
in(19, 77).
in(19, 79).
in(19, 83).
in(19, 84).
in(19, 86).
in(19, 87).
in(19, 88).
in(19, 90).
in(19, 92).
in(19, 93).
in(19, 99).
in(19, 101).
in(19, 104).
in(19, 105).
in(19, 108).
in(19, 109).
in(19, 114).
in(19, 116).
in(19, 121).
in(19, 122).
in(19, 125).
in(19, 127).
in(20, 128).
in(20, 1).
in(20, 2).
in(20, 3).
in(20, 129).
in(20, 130).
in(20, 6).
in(20, 133).
in(20, 9).
in(20, 13).
in(20, 17).
in(20, 18).
in(20, 21).
in(20, 24).
in(20, 25).
in(20, 26).
in(20, 30).
in(20, 32).
in(20, 33).
in(20, 34).
in(20, 38).
in(20, 40).
in(20, 42).
in(20, 46).
in(20, 47).
in(20, 48).
in(20, 52).
in(20, 55).
in(20, 56).
in(20, 58).
in(20, 63).
in(20, 64).
in(20, 65).
in(20, 68).
in(20, 69).
in(20, 73).
in(20, 74).
in(20, 75).
in(20, 76).
in(20, 77).
in(20, 78).
in(20, 80).
in(20, 82).
in(20, 83).
in(20, 87).
in(20, 91).
in(20, 92).
in(20, 94).
in(20, 96).
in(20, 98).
in(20, 100).
in(20, 102).
in(20, 103).
in(20, 104).
in(20, 109).
in(20, 111).
in(20, 115).
in(20, 116).
in(20, 117).
in(20, 118).
in(20, 122).
in(20, 126).
in(20, 127).
in(21, 1).
in(21, 130).
in(21, 3).
in(21, 4).
in(21, 5).
in(21, 133).
in(21, 10).
in(21, 11).
in(21, 13).
in(21, 16).
in(21, 17).
in(21, 18).
in(21, 25).
in(21, 29).
in(21, 31).
in(21, 33).
in(21, 35).
in(21, 36).
in(21, 39).
in(21, 46).
in(21, 48).
in(21, 52).
in(21, 53).
in(21, 55).
in(21, 56).
in(21, 59).
in(21, 61).
in(21, 62).
in(21, 65).
in(21, 79).
in(21, 82).
in(21, 83).
in(21, 85).
in(21, 93).
in(21, 95).
in(21, 96).
in(21, 98).
in(21, 101).
in(21, 102).
in(21, 103).
in(21, 104).
in(21, 105).
in(21, 106).
in(21, 107).
in(21, 111).
in(21, 112).
in(21, 113).
in(21, 115).
in(21, 120).
in(21, 125).
in(21, 127).
in(22, 128).
in(22, 2).
in(22, 132).
in(22, 5).
in(22, 133).
in(22, 7).
in(22, 10).
in(22, 12).
in(22, 13).
in(22, 15).
in(22, 19).
in(22, 22).
in(22, 25).
in(22, 26).
in(22, 31).
in(22, 32).
in(22, 36).
in(22, 37).
in(22, 38).
in(22, 40).
in(22, 43).
in(22, 44).
in(22, 51).
in(22, 54).
in(22, 55).
in(22, 58).
in(22, 61).
in(22, 63).
in(22, 68).
in(22, 70).
in(22, 71).
in(22, 73).
in(22, 78).
in(22, 81).
in(22, 82).
in(22, 83).
in(22, 86).
in(22, 89).
in(22, 93).
in(22, 96).
in(22, 97).
in(22, 102).
in(22, 106).
in(22, 107).
in(22, 112).
in(22, 115).
in(22, 116).
in(22, 119).
in(22, 121).
in(22, 122).
in(22, 126).
in(23, 131).
in(23, 5).
in(23, 7).
in(23, 8).
in(23, 9).
in(23, 10).
in(23, 12).
in(23, 13).
in(23, 15).
in(23, 16).
in(23, 17).
in(23, 19).
in(23, 21).
in(23, 22).
in(23, 25).
in(23, 26).
in(23, 27).
in(23, 30).
in(23, 34).
in(23, 38).
in(23, 43).
in(23, 44).
in(23, 45).
in(23, 48).
in(23, 50).
in(23, 51).
in(23, 52).
in(23, 53).
in(23, 55).
in(23, 56).
in(23, 58).
in(23, 59).
in(23, 60).
in(23, 62).
in(23, 63).
in(23, 65).
in(23, 66).
in(23, 71).
in(23, 74).
in(23, 75).
in(23, 77).
in(23, 78).
in(23, 80).
in(23, 83).
in(23, 85).
in(23, 90).
in(23, 95).
in(23, 99).
in(23, 103).
in(23, 104).
in(23, 105).
in(23, 107).
in(23, 109).
in(23, 110).
in(23, 111).
in(23, 113).
in(23, 117).
in(23, 121).
in(23, 124).
in(24, 1).
in(24, 2).
in(24, 3).
in(24, 4).
in(24, 129).
in(24, 6).
in(24, 133).
in(24, 8).
in(24, 9).
in(24, 13).
in(24, 16).
in(24, 17).
in(24, 18).
in(24, 23).
in(24, 27).
in(24, 30).
in(24, 32).
in(24, 33).
in(24, 35).
in(24, 36).
in(24, 42).
in(24, 44).
in(24, 45).
in(24, 48).
in(24, 50).
in(24, 51).
in(24, 53).
in(24, 54).
in(24, 56).
in(24, 59).
in(24, 65).
in(24, 68).
in(24, 69).
in(24, 70).
in(24, 72).
in(24, 76).
in(24, 77).
in(24, 78).
in(24, 81).
in(24, 82).
in(24, 83).
in(24, 87).
in(24, 89).
in(24, 90).
in(24, 94).
in(24, 95).
in(24, 97).
in(24, 99).
in(24, 102).
in(24, 103).
in(24, 105).
in(24, 106).
in(24, 108).
in(24, 109).
in(24, 114).
in(24, 115).
in(24, 116).
in(24, 117).
in(24, 118).
in(24, 120).
in(24, 121).
in(24, 123).
in(24, 124).
in(24, 125).
in(24, 127).
in(25, 128).
in(25, 132).
in(25, 5).
in(25, 7).
in(25, 10).
in(25, 18).
in(25, 19).
in(25, 20).
in(25, 24).
in(25, 28).
in(25, 29).
in(25, 30).
in(25, 33).
in(25, 36).
in(25, 39).
in(25, 40).
in(25, 41).
in(25, 44).
in(25, 46).
in(25, 48).
in(25, 49).
in(25, 50).
in(25, 51).
in(25, 52).
in(25, 53).
in(25, 55).
in(25, 57).
in(25, 58).
in(25, 59).
in(25, 65).
in(25, 66).
in(25, 67).
in(25, 68).
in(25, 71).
in(25, 75).
in(25, 76).
in(25, 78).
in(25, 82).
in(25, 83).
in(25, 85).
in(25, 87).
in(25, 94).
in(25, 96).
in(25, 97).
in(25, 99).
in(25, 104).
in(25, 105).
in(25, 107).
in(25, 111).
in(25, 112).
in(25, 114).
in(25, 115).
in(25, 119).
in(25, 120).
in(25, 122).
in(25, 124).
in(25, 125).
in(25, 126).
in(26, 1).
in(26, 129).
in(26, 131).
in(26, 4).
in(26, 5).
in(26, 6).
in(26, 134).
in(26, 8).
in(26, 11).
in(26, 13).
in(26, 14).
in(26, 18).
in(26, 20).
in(26, 23).
in(26, 24).
in(26, 25).
in(26, 27).
in(26, 28).
in(26, 41).
in(26, 42).
in(26, 44).
in(26, 46).
in(26, 48).
in(26, 50).
in(26, 52).
in(26, 56).
in(26, 60).
in(26, 64).
in(26, 68).
in(26, 70).
in(26, 73).
in(26, 74).
in(26, 76).
in(26, 78).
in(26, 80).
in(26, 81).
in(26, 82).
in(26, 85).
in(26, 89).
in(26, 92).
in(26, 93).
in(26, 100).
in(26, 106).
in(26, 107).
in(26, 108).
in(26, 109).
in(26, 111).
in(26, 113).
in(26, 114).
in(26, 116).
in(26, 119).
in(26, 123).
in(27, 128).
in(27, 3).
in(27, 5).
in(27, 133).
in(27, 134).
in(27, 15).
in(27, 16).
in(27, 18).
in(27, 19).
in(27, 21).
in(27, 26).
in(27, 27).
in(27, 30).
in(27, 31).
in(27, 32).
in(27, 33).
in(27, 36).
in(27, 38).
in(27, 39).
in(27, 44).
in(27, 45).
in(27, 47).
in(27, 49).
in(27, 51).
in(27, 53).
in(27, 58).
in(27, 60).
in(27, 63).
in(27, 64).
in(27, 65).
in(27, 69).
in(27, 72).
in(27, 74).
in(27, 75).
in(27, 80).
in(27, 87).
in(27, 94).
in(27, 95).
in(27, 97).
in(27, 99).
in(27, 101).
in(27, 102).
in(27, 103).
in(27, 106).
in(27, 107).
in(27, 110).
in(27, 112).
in(27, 114).
in(27, 115).
in(27, 116).
in(27, 119).
in(27, 121).
in(27, 122).
in(27, 123).
in(27, 124).
in(27, 126).
in(28, 1).
in(28, 3).
in(28, 6).
in(28, 134).
in(28, 13).
in(28, 14).
in(28, 15).
in(28, 17).
in(28, 18).
in(28, 20).
in(28, 22).
in(28, 23).
in(28, 29).
in(28, 35).
in(28, 38).
in(28, 39).
in(28, 42).
in(28, 44).
in(28, 47).
in(28, 48).
in(28, 53).
in(28, 54).
in(28, 55).
in(28, 57).
in(28, 60).
in(28, 61).
in(28, 63).
in(28, 67).
in(28, 68).
in(28, 74).
in(28, 77).
in(28, 78).
in(28, 80).
in(28, 84).
in(28, 85).
in(28, 86).
in(28, 90).
in(28, 92).
in(28, 95).
in(28, 96).
in(28, 97).
in(28, 101).
in(28, 104).
in(28, 105).
in(28, 106).
in(28, 109).
in(28, 113).
in(28, 115).
in(28, 116).
in(28, 117).
in(28, 119).
in(28, 120).
in(28, 121).
in(28, 123).
in(28, 127).
in(29, 130).
in(29, 3).
in(29, 4).
in(29, 5).
in(29, 6).
in(29, 131).
in(29, 132).
in(29, 9).
in(29, 133).
in(29, 11).
in(29, 134).
in(29, 13).
in(29, 18).
in(29, 20).
in(29, 23).
in(29, 27).
in(29, 28).
in(29, 29).
in(29, 30).
in(29, 31).
in(29, 32).
in(29, 34).
in(29, 35).
in(29, 40).
in(29, 42).
in(29, 43).
in(29, 47).
in(29, 48).
in(29, 55).
in(29, 56).
in(29, 58).
in(29, 59).
in(29, 64).
in(29, 65).
in(29, 67).
in(29, 68).
in(29, 70).
in(29, 71).
in(29, 72).
in(29, 73).
in(29, 75).
in(29, 79).
in(29, 86).
in(29, 87).
in(29, 91).
in(29, 93).
in(29, 94).
in(29, 96).
in(29, 97).
in(29, 98).
in(29, 99).
in(29, 104).
in(29, 105).
in(29, 109).
in(29, 113).
in(29, 114).
in(29, 115).
in(29, 117).
in(29, 118).
in(29, 119).
in(29, 122).
in(29, 125).
in(30, 131).
in(30, 133).
in(30, 6).
in(30, 10).
in(30, 11).
in(30, 12).
in(30, 13).
in(30, 15).
in(30, 22).
in(30, 24).
in(30, 30).
in(30, 32).
in(30, 34).
in(30, 35).
in(30, 37).
in(30, 39).
in(30, 40).
in(30, 41).
in(30, 47).
in(30, 48).
in(30, 55).
in(30, 56).
in(30, 57).
in(30, 58).
in(30, 60).
in(30, 61).
in(30, 62).
in(30, 65).
in(30, 68).
in(30, 76).
in(30, 78).
in(30, 80).
in(30, 81).
in(30, 87).
in(30, 88).
in(30, 90).
in(30, 91).
in(30, 92).
in(30, 93).
in(30, 94).
in(30, 95).
in(30, 99).
in(30, 100).
in(30, 102).
in(30, 107).
in(30, 108).
in(30, 110).
in(30, 111).
in(30, 112).
in(30, 118).
in(30, 119).
in(30, 120).
in(30, 121).
in(30, 125).
in(30, 126).
in(30, 127).
in(31, 129).
in(31, 5).
in(31, 133).
in(31, 134).
in(31, 8).
in(31, 13).
in(31, 20).
in(31, 21).
in(31, 24).
in(31, 31).
in(31, 34).
in(31, 36).
in(31, 37).
in(31, 38).
in(31, 39).
in(31, 40).
in(31, 42).
in(31, 43).
in(31, 47).
in(31, 48).
in(31, 50).
in(31, 52).
in(31, 57).
in(31, 58).
in(31, 59).
in(31, 60).
in(31, 61).
in(31, 71).
in(31, 72).
in(31, 73).
in(31, 75).
in(31, 76).
in(31, 79).
in(31, 81).
in(31, 85).
in(31, 87).
in(31, 90).
in(31, 92).
in(31, 94).
in(31, 96).
in(31, 100).
in(31, 101).
in(31, 102).
in(31, 103).
in(31, 104).
in(31, 105).
in(31, 107).
in(31, 111).
in(31, 113).
in(31, 117).
in(31, 120).
in(31, 123).
in(31, 126).
in(31, 127).
in(32, 128).
in(32, 1).
in(32, 2).
in(32, 129).
in(32, 130).
in(32, 5).
in(32, 131).
in(32, 133).
in(32, 134).
in(32, 9).
in(32, 15).
in(32, 19).
in(32, 21).
in(32, 25).
in(32, 26).
in(32, 30).
in(32, 32).
in(32, 35).
in(32, 39).
in(32, 40).
in(32, 45).
in(32, 46).
in(32, 47).
in(32, 51).
in(32, 52).
in(32, 53).
in(32, 55).
in(32, 60).
in(32, 64).
in(32, 69).
in(32, 71).
in(32, 74).
in(32, 77).
in(32, 78).
in(32, 79).
in(32, 83).
in(32, 86).
in(32, 89).
in(32, 90).
in(32, 94).
in(32, 97).
in(32, 98).
in(32, 99).
in(32, 100).
in(32, 101).
in(32, 102).
in(32, 103).
in(32, 104).
in(32, 105).
in(32, 110).
in(32, 111).
in(32, 113).
in(32, 122).
in(33, 1).
in(33, 3).
in(33, 131).
in(33, 6).
in(33, 134).
in(33, 8).
in(33, 12).
in(33, 13).
in(33, 15).
in(33, 16).
in(33, 19).
in(33, 20).
in(33, 21).
in(33, 29).
in(33, 32).
in(33, 33).
in(33, 35).
in(33, 36).
in(33, 37).
in(33, 38).
in(33, 40).
in(33, 44).
in(33, 46).
in(33, 49).
in(33, 52).
in(33, 54).
in(33, 57).
in(33, 59).
in(33, 62).
in(33, 63).
in(33, 64).
in(33, 67).
in(33, 68).
in(33, 69).
in(33, 70).
in(33, 73).
in(33, 74).
in(33, 75).
in(33, 76).
in(33, 77).
in(33, 78).
in(33, 79).
in(33, 84).
in(33, 85).
in(33, 89).
in(33, 90).
in(33, 91).
in(33, 93).
in(33, 94).
in(33, 97).
in(33, 98).
in(33, 100).
in(33, 101).
in(33, 102).
in(33, 103).
in(33, 106).
in(33, 108).
in(33, 109).
in(33, 111).
in(33, 113).
in(33, 117).
in(33, 119).
in(33, 120).
in(33, 126).
in(34, 128).
in(34, 1).
in(34, 2).
in(34, 130).
in(34, 131).
in(34, 5).
in(34, 134).
in(34, 9).
in(34, 10).
in(34, 12).
in(34, 14).
in(34, 15).
in(34, 18).
in(34, 19).
in(34, 23).
in(34, 28).
in(34, 31).
in(34, 32).
in(34, 34).
in(34, 35).
in(34, 36).
in(34, 38).
in(34, 44).
in(34, 48).
in(34, 49).
in(34, 50).
in(34, 52).
in(34, 53).
in(34, 56).
in(34, 59).
in(34, 60).
in(34, 64).
in(34, 70).
in(34, 72).
in(34, 78).
in(34, 81).
in(34, 82).
in(34, 85).
in(34, 88).
in(34, 90).
in(34, 91).
in(34, 96).
in(34, 97).
in(34, 101).
in(34, 103).
in(34, 104).
in(34, 105).
in(34, 109).
in(34, 112).
in(34, 114).
in(34, 118).
in(34, 119).
in(34, 120).
in(34, 121).
in(34, 122).
in(34, 126).
in(35, 128).
in(35, 1).
in(35, 129).
in(35, 130).
in(35, 10).
in(35, 11).
in(35, 12).
in(35, 13).
in(35, 15).
in(35, 17).
in(35, 18).
in(35, 21).
in(35, 23).
in(35, 28).
in(35, 30).
in(35, 32).
in(35, 34).
in(35, 35).
in(35, 37).
in(35, 38).
in(35, 40).
in(35, 41).
in(35, 44).
in(35, 47).
in(35, 48).
in(35, 50).
in(35, 52).
in(35, 55).
in(35, 56).
in(35, 60).
in(35, 61).
in(35, 62).
in(35, 63).
in(35, 66).
in(35, 68).
in(35, 71).
in(35, 75).
in(35, 76).
in(35, 77).
in(35, 78).
in(35, 79).
in(35, 80).
in(35, 81).
in(35, 82).
in(35, 85).
in(35, 87).
in(35, 89).
in(35, 96).
in(35, 104).
in(35, 106).
in(35, 107).
in(35, 108).
in(35, 109).
in(35, 111).
in(35, 114).
in(35, 118).
in(35, 122).
in(35, 127).
in(36, 1).
in(36, 5).
in(36, 133).
in(36, 7).
in(36, 8).
in(36, 9).
in(36, 134).
in(36, 11).
in(36, 12).
in(36, 17).
in(36, 18).
in(36, 22).
in(36, 23).
in(36, 24).
in(36, 28).
in(36, 30).
in(36, 33).
in(36, 37).
in(36, 38).
in(36, 40).
in(36, 41).
in(36, 42).
in(36, 47).
in(36, 49).
in(36, 51).
in(36, 52).
in(36, 56).
in(36, 58).
in(36, 59).
in(36, 64).
in(36, 65).
in(36, 73).
in(36, 81).
in(36, 82).
in(36, 85).
in(36, 90).
in(36, 95).
in(36, 96).
in(36, 98).
in(36, 100).
in(36, 103).
in(36, 105).
in(36, 112).
in(36, 113).
in(36, 114).
in(36, 115).
in(36, 119).
in(36, 121).
in(36, 122).
in(37, 1).
in(37, 129).
in(37, 130).
in(37, 132).
in(37, 5).
in(37, 134).
in(37, 7).
in(37, 8).
in(37, 9).
in(37, 12).
in(37, 13).
in(37, 15).
in(37, 17).
in(37, 18).
in(37, 23).
in(37, 27).
in(37, 29).
in(37, 30).
in(37, 33).
in(37, 35).
in(37, 38).
in(37, 39).
in(37, 41).
in(37, 48).
in(37, 50).
in(37, 51).
in(37, 52).
in(37, 56).
in(37, 57).
in(37, 58).
in(37, 64).
in(37, 65).
in(37, 66).
in(37, 67).
in(37, 70).
in(37, 71).
in(37, 73).
in(37, 75).
in(37, 76).
in(37, 78).
in(37, 79).
in(37, 80).
in(37, 82).
in(37, 85).
in(37, 89).
in(37, 90).
in(37, 96).
in(37, 97).
in(37, 101).
in(37, 103).
in(37, 105).
in(37, 109).
in(37, 112).
in(37, 114).
in(37, 115).
in(37, 117).
in(37, 121).
in(37, 122).
in(37, 123).
in(38, 1).
in(38, 2).
in(38, 129).
in(38, 130).
in(38, 5).
in(38, 6).
in(38, 131).
in(38, 10).
in(38, 14).
in(38, 15).
in(38, 22).
in(38, 34).
in(38, 35).
in(38, 40).
in(38, 43).
in(38, 44).
in(38, 45).
in(38, 48).
in(38, 49).
in(38, 51).
in(38, 52).
in(38, 54).
in(38, 56).
in(38, 58).
in(38, 59).
in(38, 60).
in(38, 61).
in(38, 64).
in(38, 65).
in(38, 66).
in(38, 67).
in(38, 68).
in(38, 69).
in(38, 72).
in(38, 76).
in(38, 78).
in(38, 79).
in(38, 80).
in(38, 83).
in(38, 87).
in(38, 89).
in(38, 92).
in(38, 94).
in(38, 96).
in(38, 97).
in(38, 98).
in(38, 99).
in(38, 100).
in(38, 102).
in(38, 103).
in(38, 104).
in(38, 106).
in(38, 108).
in(38, 109).
in(38, 110).
in(38, 111).
in(38, 114).
in(38, 115).
in(38, 116).
in(38, 119).
in(38, 120).
in(38, 121).
in(38, 122).
in(38, 123).
in(38, 125).
in(38, 126).
in(39, 129).
in(39, 130).
in(39, 131).
in(39, 132).
in(39, 5).
in(39, 6).
in(39, 7).
in(39, 8).
in(39, 133).
in(39, 12).
in(39, 13).
in(39, 20).
in(39, 21).
in(39, 24).
in(39, 29).
in(39, 33).
in(39, 34).
in(39, 36).
in(39, 42).
in(39, 44).
in(39, 45).
in(39, 47).
in(39, 48).
in(39, 55).
in(39, 56).
in(39, 57).
in(39, 58).
in(39, 66).
in(39, 70).
in(39, 71).
in(39, 74).
in(39, 75).
in(39, 77).
in(39, 78).
in(39, 79).
in(39, 81).
in(39, 84).
in(39, 87).
in(39, 92).
in(39, 94).
in(39, 99).
in(39, 100).
in(39, 101).
in(39, 107).
in(39, 108).
in(39, 109).
in(39, 112).
in(39, 114).
in(39, 115).
in(39, 119).
in(39, 120).
in(39, 123).
in(40, 1).
in(40, 2).
in(40, 129).
in(40, 4).
in(40, 131).
in(40, 6).
in(40, 132).
in(40, 8).
in(40, 11).
in(40, 12).
in(40, 14).
in(40, 15).
in(40, 16).
in(40, 20).
in(40, 21).
in(40, 25).
in(40, 26).
in(40, 29).
in(40, 31).
in(40, 34).
in(40, 36).
in(40, 42).
in(40, 45).
in(40, 50).
in(40, 54).
in(40, 55).
in(40, 60).
in(40, 67).
in(40, 69).
in(40, 70).
in(40, 75).
in(40, 78).
in(40, 80).
in(40, 84).
in(40, 86).
in(40, 87).
in(40, 93).
in(40, 99).
in(40, 101).
in(40, 102).
in(40, 109).
in(40, 111).
in(40, 113).
in(40, 114).
in(40, 117).
in(40, 119).
in(40, 123).
in(40, 125).
in(40, 126).
in(41, 128).
in(41, 131).
in(41, 5).
in(41, 6).
in(41, 7).
in(41, 8).
in(41, 133).
in(41, 10).
in(41, 11).
in(41, 12).
in(41, 19).
in(41, 24).
in(41, 28).
in(41, 32).
in(41, 34).
in(41, 37).
in(41, 40).
in(41, 42).
in(41, 46).
in(41, 50).
in(41, 51).
in(41, 55).
in(41, 56).
in(41, 59).
in(41, 61).
in(41, 62).
in(41, 71).
in(41, 74).
in(41, 77).
in(41, 78).
in(41, 79).
in(41, 80).
in(41, 81).
in(41, 83).
in(41, 84).
in(41, 90).
in(41, 95).
in(41, 96).
in(41, 98).
in(41, 101).
in(41, 105).
in(41, 108).
in(41, 109).
in(41, 112).
in(41, 113).
in(41, 119).
in(42, 128).
in(42, 1).
in(42, 2).
in(42, 129).
in(42, 4).
in(42, 132).
in(42, 6).
in(42, 133).
in(42, 8).
in(42, 11).
in(42, 15).
in(42, 16).
in(42, 19).
in(42, 26).
in(42, 28).
in(42, 29).
in(42, 31).
in(42, 32).
in(42, 39).
in(42, 42).
in(42, 48).
in(42, 49).
in(42, 50).
in(42, 51).
in(42, 52).
in(42, 53).
in(42, 57).
in(42, 62).
in(42, 65).
in(42, 66).
in(42, 67).
in(42, 68).
in(42, 74).
in(42, 77).
in(42, 78).
in(42, 80).
in(42, 84).
in(42, 87).
in(42, 88).
in(42, 89).
in(42, 90).
in(42, 93).
in(42, 94).
in(42, 96).
in(42, 97).
in(42, 98).
in(42, 99).
in(42, 101).
in(42, 104).
in(42, 105).
in(42, 106).
in(42, 107).
in(42, 108).
in(42, 109).
in(42, 112).
in(42, 119).
in(42, 120).
in(42, 122).
in(42, 123).
in(42, 124).
in(42, 127).
in(43, 128).
in(43, 129).
in(43, 130).
in(43, 4).
in(43, 133).
in(43, 134).
in(43, 11).
in(43, 12).
in(43, 14).
in(43, 17).
in(43, 18).
in(43, 21).
in(43, 22).
in(43, 30).
in(43, 31).
in(43, 32).
in(43, 39).
in(43, 43).
in(43, 44).
in(43, 45).
in(43, 49).
in(43, 51).
in(43, 52).
in(43, 53).
in(43, 56).
in(43, 58).
in(43, 59).
in(43, 60).
in(43, 62).
in(43, 64).
in(43, 67).
in(43, 73).
in(43, 74).
in(43, 76).
in(43, 80).
in(43, 82).
in(43, 89).
in(43, 92).
in(43, 94).
in(43, 98).
in(43, 99).
in(43, 101).
in(43, 103).
in(43, 106).
in(43, 110).
in(43, 112).
in(43, 113).
in(43, 120).
in(43, 121).
in(43, 123).
in(43, 125).
in(44, 128).
in(44, 2).
in(44, 132).
in(44, 5).
in(44, 134).
in(44, 8).
in(44, 13).
in(44, 14).
in(44, 16).
in(44, 18).
in(44, 20).
in(44, 21).
in(44, 22).
in(44, 25).
in(44, 29).
in(44, 30).
in(44, 31).
in(44, 32).
in(44, 33).
in(44, 36).
in(44, 38).
in(44, 39).
in(44, 42).
in(44, 46).
in(44, 47).
in(44, 56).
in(44, 61).
in(44, 64).
in(44, 71).
in(44, 72).
in(44, 75).
in(44, 77).
in(44, 78).
in(44, 84).
in(44, 86).
in(44, 89).
in(44, 93).
in(44, 98).
in(44, 99).
in(44, 100).
in(44, 101).
in(44, 106).
in(44, 107).
in(44, 108).
in(44, 109).
in(44, 118).
in(44, 119).
in(44, 122).
in(44, 126).
in(45, 1).
in(45, 129).
in(45, 130).
in(45, 4).
in(45, 5).
in(45, 6).
in(45, 131).
in(45, 132).
in(45, 134).
in(45, 10).
in(45, 11).
in(45, 16).
in(45, 17).
in(45, 18).
in(45, 20).
in(45, 23).
in(45, 24).
in(45, 25).
in(45, 27).
in(45, 28).
in(45, 29).
in(45, 30).
in(45, 34).
in(45, 36).
in(45, 37).
in(45, 38).
in(45, 39).
in(45, 43).
in(45, 44).
in(45, 46).
in(45, 50).
in(45, 51).
in(45, 52).
in(45, 53).
in(45, 54).
in(45, 57).
in(45, 58).
in(45, 64).
in(45, 66).
in(45, 74).
in(45, 77).
in(45, 79).
in(45, 90).
in(45, 92).
in(45, 97).
in(45, 99).
in(45, 101).
in(45, 103).
in(45, 104).
in(45, 106).
in(45, 108).
in(45, 111).
in(45, 112).
in(45, 114).
in(45, 117).
in(45, 118).
in(45, 126).
in(46, 128).
in(46, 2).
in(46, 130).
in(46, 133).
in(46, 6).
in(46, 7).
in(46, 9).
in(46, 10).
in(46, 12).
in(46, 14).
in(46, 16).
in(46, 18).
in(46, 20).
in(46, 21).
in(46, 24).
in(46, 26).
in(46, 28).
in(46, 31).
in(46, 34).
in(46, 35).
in(46, 36).
in(46, 37).
in(46, 42).
in(46, 44).
in(46, 46).
in(46, 51).
in(46, 52).
in(46, 54).
in(46, 55).
in(46, 58).
in(46, 59).
in(46, 62).
in(46, 63).
in(46, 67).
in(46, 73).
in(46, 78).
in(46, 79).
in(46, 81).
in(46, 84).
in(46, 85).
in(46, 88).
in(46, 91).
in(46, 92).
in(46, 94).
in(46, 95).
in(46, 98).
in(46, 102).
in(46, 103).
in(46, 104).
in(46, 108).
in(46, 109).
in(46, 110).
in(46, 111).
in(46, 114).
in(46, 116).
in(46, 117).
in(46, 120).
in(46, 121).
in(46, 122).
in(46, 127).
in(47, 1).
in(47, 2).
in(47, 3).
in(47, 130).
in(47, 131).
in(47, 6).
in(47, 132).
in(47, 133).
in(47, 10).
in(47, 11).
in(47, 12).
in(47, 15).
in(47, 18).
in(47, 22).
in(47, 23).
in(47, 24).
in(47, 25).
in(47, 28).
in(47, 29).
in(47, 33).
in(47, 35).
in(47, 39).
in(47, 41).
in(47, 42).
in(47, 43).
in(47, 45).
in(47, 53).
in(47, 54).
in(47, 57).
in(47, 58).
in(47, 61).
in(47, 63).
in(47, 64).
in(47, 66).
in(47, 68).
in(47, 70).
in(47, 74).
in(47, 78).
in(47, 82).
in(47, 84).
in(47, 87).
in(47, 90).
in(47, 91).
in(47, 93).
in(47, 98).
in(47, 101).
in(47, 104).
in(47, 110).
in(47, 117).
in(47, 118).
in(47, 119).
in(47, 121).
in(47, 122).
in(47, 123).
in(47, 124).
in(47, 126).
in(48, 128).
in(48, 2).
in(48, 3).
in(48, 4).
in(48, 130).
in(48, 11).
in(48, 13).
in(48, 15).
in(48, 21).
in(48, 22).
in(48, 23).
in(48, 26).
in(48, 27).
in(48, 29).
in(48, 32).
in(48, 37).
in(48, 38).
in(48, 40).
in(48, 41).
in(48, 43).
in(48, 48).
in(48, 54).
in(48, 56).
in(48, 58).
in(48, 59).
in(48, 60).
in(48, 64).
in(48, 65).
in(48, 68).
in(48, 69).
in(48, 70).
in(48, 71).
in(48, 72).
in(48, 73).
in(48, 74).
in(48, 78).
in(48, 84).
in(48, 85).
in(48, 90).
in(48, 91).
in(48, 97).
in(48, 98).
in(48, 100).
in(48, 104).
in(48, 106).
in(48, 107).
in(48, 108).
in(48, 109).
in(48, 110).
in(48, 115).
in(48, 120).
in(48, 121).
in(48, 126).
in(49, 130).
in(49, 4).
in(49, 6).
in(49, 7).
in(49, 8).
in(49, 9).
in(49, 10).
in(49, 11).
in(49, 16).
in(49, 17).
in(49, 18).
in(49, 21).
in(49, 22).
in(49, 24).
in(49, 27).
in(49, 29).
in(49, 31).
in(49, 37).
in(49, 40).
in(49, 43).
in(49, 44).
in(49, 45).
in(49, 48).
in(49, 57).
in(49, 58).
in(49, 60).
in(49, 61).
in(49, 62).
in(49, 64).
in(49, 66).
in(49, 67).
in(49, 78).
in(49, 85).
in(49, 88).
in(49, 91).
in(49, 95).
in(49, 96).
in(49, 97).
in(49, 98).
in(49, 100).
in(49, 101).
in(49, 110).
in(49, 115).
in(49, 116).
in(49, 117).
in(49, 127).
in(50, 130).
in(50, 132).
in(50, 5).
in(50, 6).
in(50, 134).
in(50, 8).
in(50, 9).
in(50, 11).
in(50, 14).
in(50, 16).
in(50, 18).
in(50, 19).
in(50, 20).
in(50, 22).
in(50, 24).
in(50, 26).
in(50, 29).
in(50, 30).
in(50, 32).
in(50, 33).
in(50, 43).
in(50, 47).
in(50, 52).
in(50, 55).
in(50, 58).
in(50, 59).
in(50, 70).
in(50, 73).
in(50, 74).
in(50, 79).
in(50, 80).
in(50, 85).
in(50, 86).
in(50, 91).
in(50, 92).
in(50, 98).
in(50, 103).
in(50, 104).
in(50, 113).
in(50, 114).
in(50, 115).
in(50, 116).
in(50, 117).
in(50, 122).
in(50, 123).
in(50, 125).
in(50, 127).
in(51, 128).
in(51, 1).
in(51, 3).
in(51, 131).
in(51, 132).
in(51, 6).
in(51, 7).
in(51, 133).
in(51, 9).
in(51, 10).
in(51, 134).
in(51, 19).
in(51, 22).
in(51, 24).
in(51, 26).
in(51, 30).
in(51, 31).
in(51, 35).
in(51, 39).
in(51, 40).
in(51, 41).
in(51, 42).
in(51, 44).
in(51, 46).
in(51, 49).
in(51, 54).
in(51, 55).
in(51, 56).
in(51, 57).
in(51, 59).
in(51, 67).
in(51, 68).
in(51, 70).
in(51, 71).
in(51, 72).
in(51, 73).
in(51, 75).
in(51, 83).
in(51, 89).
in(51, 90).
in(51, 96).
in(51, 98).
in(51, 99).
in(51, 102).
in(51, 107).
in(51, 111).
in(51, 112).
in(51, 114).
in(51, 119).
in(51, 121).
in(51, 123).
in(51, 127).
in(52, 128).
in(52, 2).
in(52, 3).
in(52, 130).
in(52, 5).
in(52, 6).
in(52, 131).
in(52, 132).
in(52, 9).
in(52, 133).
in(52, 134).
in(52, 13).
in(52, 14).
in(52, 15).
in(52, 16).
in(52, 18).
in(52, 22).
in(52, 25).
in(52, 29).
in(52, 33).
in(52, 35).
in(52, 36).
in(52, 40).
in(52, 43).
in(52, 47).
in(52, 49).
in(52, 50).
in(52, 51).
in(52, 53).
in(52, 54).
in(52, 56).
in(52, 57).
in(52, 58).
in(52, 60).
in(52, 61).
in(52, 63).
in(52, 64).
in(52, 68).
in(52, 69).
in(52, 71).
in(52, 74).
in(52, 80).
in(52, 84).
in(52, 85).
in(52, 87).
in(52, 91).
in(52, 92).
in(52, 93).
in(52, 94).
in(52, 98).
in(52, 100).
in(52, 105).
in(52, 106).
in(52, 109).
in(52, 112).
in(52, 113).
in(52, 116).
in(52, 123).
in(52, 124).
in(53, 1).
in(53, 130).
in(53, 3).
in(53, 4).
in(53, 5).
in(53, 7).
in(53, 8).
in(53, 10).
in(53, 15).
in(53, 18).
in(53, 21).
in(53, 22).
in(53, 24).
in(53, 25).
in(53, 27).
in(53, 28).
in(53, 29).
in(53, 30).
in(53, 37).
in(53, 43).
in(53, 44).
in(53, 46).
in(53, 48).
in(53, 49).
in(53, 51).
in(53, 56).
in(53, 59).
in(53, 61).
in(53, 63).
in(53, 65).
in(53, 69).
in(53, 74).
in(53, 79).
in(53, 82).
in(53, 87).
in(53, 90).
in(53, 91).
in(53, 92).
in(53, 94).
in(53, 95).
in(53, 96).
in(53, 97).
in(53, 100).
in(53, 107).
in(53, 108).
in(53, 110).
in(53, 112).
in(53, 114).
in(53, 116).
in(53, 119).
in(53, 123).
in(53, 124).
in(53, 127).
in(54, 128).
in(54, 2).
in(54, 3).
in(54, 4).
in(54, 130).
in(54, 6).
in(54, 131).
in(54, 9).
in(54, 10).
in(54, 12).
in(54, 14).
in(54, 15).
in(54, 16).
in(54, 20).
in(54, 22).
in(54, 23).
in(54, 25).
in(54, 27).
in(54, 30).
in(54, 31).
in(54, 32).
in(54, 33).
in(54, 35).
in(54, 38).
in(54, 39).
in(54, 40).
in(54, 42).
in(54, 44).
in(54, 48).
in(54, 49).
in(54, 51).
in(54, 54).
in(54, 56).
in(54, 63).
in(54, 64).
in(54, 71).
in(54, 75).
in(54, 77).
in(54, 78).
in(54, 79).
in(54, 80).
in(54, 83).
in(54, 84).
in(54, 86).
in(54, 88).
in(54, 90).
in(54, 94).
in(54, 96).
in(54, 97).
in(54, 98).
in(54, 105).
in(54, 111).
in(54, 112).
in(54, 113).
in(54, 114).
in(54, 117).
in(54, 118).
in(54, 122).
in(54, 123).
in(55, 128).
in(55, 129).
in(55, 4).
in(55, 134).
in(55, 8).
in(55, 9).
in(55, 10).
in(55, 12).
in(55, 14).
in(55, 16).
in(55, 17).
in(55, 24).
in(55, 27).
in(55, 30).
in(55, 32).
in(55, 33).
in(55, 35).
in(55, 36).
in(55, 37).
in(55, 38).
in(55, 42).
in(55, 43).
in(55, 45).
in(55, 47).
in(55, 48).
in(55, 49).
in(55, 51).
in(55, 53).
in(55, 55).
in(55, 63).
in(55, 68).
in(55, 69).
in(55, 70).
in(55, 72).
in(55, 77).
in(55, 79).
in(55, 80).
in(55, 82).
in(55, 86).
in(55, 101).
in(55, 104).
in(55, 105).
in(55, 106).
in(55, 107).
in(55, 110).
in(55, 114).
in(55, 116).
in(55, 117).
in(55, 122).
in(55, 124).
in(55, 125).
in(55, 127).
in(56, 3).
in(56, 132).
in(56, 5).
in(56, 6).
in(56, 8).
in(56, 9).
in(56, 10).
in(56, 12).
in(56, 15).
in(56, 17).
in(56, 18).
in(56, 19).
in(56, 24).
in(56, 27).
in(56, 28).
in(56, 33).
in(56, 36).
in(56, 44).
in(56, 45).
in(56, 48).
in(56, 54).
in(56, 55).
in(56, 56).
in(56, 57).
in(56, 61).
in(56, 65).
in(56, 67).
in(56, 70).
in(56, 74).
in(56, 77).
in(56, 79).
in(56, 80).
in(56, 82).
in(56, 83).
in(56, 84).
in(56, 85).
in(56, 89).
in(56, 92).
in(56, 93).
in(56, 94).
in(56, 95).
in(56, 96).
in(56, 98).
in(56, 99).
in(56, 104).
in(56, 105).
in(56, 109).
in(56, 113).
in(56, 115).
in(56, 118).
in(56, 121).
in(56, 124).
in(57, 1).
in(57, 2).
in(57, 3).
in(57, 4).
in(57, 131).
in(57, 132).
in(57, 7).
in(57, 8).
in(57, 9).
in(57, 15).
in(57, 19).
in(57, 22).
in(57, 23).
in(57, 25).
in(57, 27).
in(57, 28).
in(57, 29).
in(57, 32).
in(57, 36).
in(57, 37).
in(57, 42).
in(57, 45).
in(57, 51).
in(57, 52).
in(57, 53).
in(57, 54).
in(57, 57).
in(57, 60).
in(57, 64).
in(57, 66).
in(57, 73).
in(57, 74).
in(57, 75).
in(57, 78).
in(57, 79).
in(57, 82).
in(57, 84).
in(57, 85).
in(57, 86).
in(57, 88).
in(57, 92).
in(57, 93).
in(57, 95).
in(57, 97).
in(57, 98).
in(57, 99).
in(57, 104).
in(57, 107).
in(57, 108).
in(57, 110).
in(57, 112).
in(57, 113).
in(57, 115).
in(57, 116).
in(57, 117).
in(57, 119).
in(57, 120).
in(57, 126).
in(57, 127).
in(58, 128).
in(58, 1).
in(58, 130).
in(58, 132).
in(58, 133).
in(58, 6).
in(58, 10).
in(58, 12).
in(58, 14).
in(58, 20).
in(58, 30).
in(58, 34).
in(58, 38).
in(58, 40).
in(58, 43).
in(58, 52).
in(58, 61).
in(58, 67).
in(58, 69).
in(58, 70).
in(58, 71).
in(58, 72).
in(58, 74).
in(58, 76).
in(58, 78).
in(58, 79).
in(58, 81).
in(58, 87).
in(58, 89).
in(58, 90).
in(58, 91).
in(58, 95).
in(58, 96).
in(58, 97).
in(58, 102).
in(58, 107).
in(58, 108).
in(58, 111).
in(58, 113).
in(58, 117).
in(58, 119).
in(58, 122).
in(58, 123).
in(58, 124).
in(58, 125).
in(58, 126).
in(59, 1).
in(59, 2).
in(59, 130).
in(59, 4).
in(59, 132).
in(59, 6).
in(59, 7).
in(59, 8).
in(59, 9).
in(59, 11).
in(59, 16).
in(59, 17).
in(59, 19).
in(59, 20).
in(59, 21).
in(59, 22).
in(59, 23).
in(59, 26).
in(59, 27).
in(59, 33).
in(59, 34).
in(59, 38).
in(59, 40).
in(59, 42).
in(59, 44).
in(59, 45).
in(59, 47).
in(59, 48).
in(59, 55).
in(59, 59).
in(59, 65).
in(59, 67).
in(59, 72).
in(59, 75).
in(59, 76).
in(59, 77).
in(59, 79).
in(59, 87).
in(59, 89).
in(59, 90).
in(59, 92).
in(59, 94).
in(59, 99).
in(59, 100).
in(59, 102).
in(59, 107).
in(59, 115).
in(59, 119).
in(59, 122).
in(59, 124).
in(60, 4).
in(60, 6).
in(60, 10).
in(60, 11).
in(60, 12).
in(60, 13).
in(60, 15).
in(60, 17).
in(60, 18).
in(60, 22).
in(60, 27).
in(60, 28).
in(60, 30).
in(60, 31).
in(60, 32).
in(60, 34).
in(60, 35).
in(60, 36).
in(60, 37).
in(60, 39).
in(60, 40).
in(60, 43).
in(60, 48).
in(60, 49).
in(60, 50).
in(60, 51).
in(60, 57).
in(60, 60).
in(60, 64).
in(60, 65).
in(60, 66).
in(60, 67).
in(60, 68).
in(60, 71).
in(60, 72).
in(60, 75).
in(60, 82).
in(60, 83).
in(60, 86).
in(60, 92).
in(60, 94).
in(60, 95).
in(60, 98).
in(60, 101).
in(60, 102).
in(60, 103).
in(60, 106).
in(60, 107).
in(60, 108).
in(60, 110).
in(60, 114).
in(60, 116).
in(60, 117).
in(60, 119).
in(60, 121).
in(60, 122).
in(60, 123).
in(60, 125).
in(60, 126).
in(60, 127).
in(61, 1).
in(61, 2).
in(61, 129).
in(61, 132).
in(61, 134).
in(61, 7).
in(61, 12).
in(61, 13).
in(61, 17).
in(61, 18).
in(61, 21).
in(61, 25).
in(61, 26).
in(61, 32).
in(61, 33).
in(61, 34).
in(61, 40).
in(61, 47).
in(61, 48).
in(61, 51).
in(61, 52).
in(61, 53).
in(61, 55).
in(61, 56).
in(61, 64).
in(61, 65).
in(61, 66).
in(61, 68).
in(61, 69).
in(61, 70).
in(61, 73).
in(61, 75).
in(61, 76).
in(61, 81).
in(61, 82).
in(61, 87).
in(61, 88).
in(61, 90).
in(61, 94).
in(61, 97).
in(61, 98).
in(61, 101).
in(61, 103).
in(61, 104).
in(61, 106).
in(61, 107).
in(61, 113).
in(61, 115).
in(61, 118).
in(61, 119).
in(61, 120).
in(61, 121).
in(61, 126).
in(62, 129).
in(62, 7).
in(62, 9).
in(62, 14).
in(62, 15).
in(62, 16).
in(62, 18).
in(62, 20).
in(62, 21).
in(62, 30).
in(62, 31).
in(62, 40).
in(62, 41).
in(62, 47).
in(62, 50).
in(62, 53).
in(62, 56).
in(62, 57).
in(62, 60).
in(62, 65).
in(62, 66).
in(62, 67).
in(62, 69).
in(62, 71).
in(62, 74).
in(62, 84).
in(62, 86).
in(62, 90).
in(62, 93).
in(62, 97).
in(62, 98).
in(62, 99).
in(62, 101).
in(62, 102).
in(62, 103).
in(62, 104).
in(62, 105).
in(62, 106).
in(62, 108).
in(62, 114).
in(62, 115).
in(62, 117).
in(62, 118).
in(62, 119).
in(62, 120).
in(62, 121).
in(62, 126).
in(62, 127).
in(63, 129).
in(63, 130).
in(63, 3).
in(63, 4).
in(63, 8).
in(63, 9).
in(63, 11).
in(63, 14).
in(63, 16).
in(63, 23).
in(63, 24).
in(63, 25).
in(63, 34).
in(63, 37).
in(63, 41).
in(63, 42).
in(63, 44).
in(63, 48).
in(63, 50).
in(63, 53).
in(63, 54).
in(63, 60).
in(63, 62).
in(63, 63).
in(63, 64).
in(63, 66).
in(63, 67).
in(63, 71).
in(63, 73).
in(63, 76).
in(63, 77).
in(63, 78).
in(63, 79).
in(63, 82).
in(63, 92).
in(63, 93).
in(63, 94).
in(63, 95).
in(63, 97).
in(63, 100).
in(63, 101).
in(63, 102).
in(63, 104).
in(63, 108).
in(63, 110).
in(63, 114).
in(63, 119).
in(63, 121).
in(63, 124).
in(63, 126).
in(63, 127).
in(64, 1).
in(64, 2).
in(64, 130).
in(64, 4).
in(64, 5).
in(64, 131).
in(64, 134).
in(64, 9).
in(64, 11).
in(64, 17).
in(64, 19).
in(64, 20).
in(64, 23).
in(64, 24).
in(64, 27).
in(64, 29).
in(64, 32).
in(64, 34).
in(64, 37).
in(64, 38).
in(64, 39).
in(64, 40).
in(64, 43).
in(64, 44).
in(64, 45).
in(64, 47).
in(64, 49).
in(64, 50).
in(64, 53).
in(64, 54).
in(64, 56).
in(64, 57).
in(64, 59).
in(64, 60).
in(64, 63).
in(64, 64).
in(64, 65).
in(64, 70).
in(64, 73).
in(64, 76).
in(64, 78).
in(64, 81).
in(64, 82).
in(64, 83).
in(64, 85).
in(64, 86).
in(64, 88).
in(64, 93).
in(64, 95).
in(64, 96).
in(64, 98).
in(64, 101).
in(64, 104).
in(64, 106).
in(64, 107).
in(64, 109).
in(64, 113).
in(64, 114).
in(64, 116).
in(64, 118).
in(64, 120).
in(64, 121).
in(64, 123).
in(64, 125).
in(65, 1).
in(65, 2).
in(65, 129).
in(65, 131).
in(65, 5).
in(65, 6).
in(65, 132).
in(65, 8).
in(65, 133).
in(65, 134).
in(65, 15).
in(65, 17).
in(65, 20).
in(65, 22).
in(65, 26).
in(65, 31).
in(65, 32).
in(65, 33).
in(65, 38).
in(65, 42).
in(65, 43).
in(65, 48).
in(65, 49).
in(65, 51).
in(65, 52).
in(65, 61).
in(65, 62).
in(65, 65).
in(65, 66).
in(65, 69).
in(65, 71).
in(65, 75).
in(65, 76).
in(65, 78).
in(65, 83).
in(65, 86).
in(65, 88).
in(65, 90).
in(65, 94).
in(65, 96).
in(65, 102).
in(65, 105).
in(65, 108).
in(65, 112).
in(65, 116).
in(65, 118).
in(65, 124).
in(65, 125).
in(65, 126).
in(66, 128).
in(66, 1).
in(66, 129).
in(66, 131).
in(66, 133).
in(66, 7).
in(66, 8).
in(66, 19).
in(66, 21).
in(66, 23).
in(66, 25).
in(66, 27).
in(66, 29).
in(66, 31).
in(66, 32).
in(66, 33).
in(66, 35).
in(66, 38).
in(66, 39).
in(66, 40).
in(66, 42).
in(66, 45).
in(66, 46).
in(66, 47).
in(66, 51).
in(66, 55).
in(66, 59).
in(66, 61).
in(66, 62).
in(66, 64).
in(66, 66).
in(66, 68).
in(66, 71).
in(66, 73).
in(66, 76).
in(66, 82).
in(66, 83).
in(66, 85).
in(66, 86).
in(66, 88).
in(66, 89).
in(66, 90).
in(66, 91).
in(66, 92).
in(66, 93).
in(66, 95).
in(66, 96).
in(66, 102).
in(66, 103).
in(66, 104).
in(66, 106).
in(66, 107).
in(66, 111).
in(66, 115).
in(66, 116).
in(66, 119).
in(66, 120).
in(66, 122).
in(66, 124).
in(67, 128).
in(67, 2).
in(67, 5).
in(67, 6).
in(67, 133).
in(67, 134).
in(67, 11).
in(67, 14).
in(67, 20).
in(67, 21).
in(67, 24).
in(67, 25).
in(67, 26).
in(67, 30).
in(67, 32).
in(67, 33).
in(67, 34).
in(67, 35).
in(67, 41).
in(67, 43).
in(67, 44).
in(67, 45).
in(67, 47).
in(67, 56).
in(67, 57).
in(67, 59).
in(67, 61).
in(67, 64).
in(67, 66).
in(67, 70).
in(67, 72).
in(67, 76).
in(67, 78).
in(67, 81).
in(67, 84).
in(67, 89).
in(67, 90).
in(67, 91).
in(67, 94).
in(67, 95).
in(67, 98).
in(67, 100).
in(67, 103).
in(67, 104).
in(67, 108).
in(67, 109).
in(67, 110).
in(67, 111).
in(67, 112).
in(67, 114).
in(67, 118).
in(67, 120).
in(67, 123).
in(67, 124).
in(68, 1).
in(68, 131).
in(68, 4).
in(68, 7).
in(68, 8).
in(68, 9).
in(68, 16).
in(68, 20).
in(68, 23).
in(68, 24).
in(68, 26).
in(68, 27).
in(68, 29).
in(68, 30).
in(68, 31).
in(68, 35).
in(68, 36).
in(68, 40).
in(68, 42).
in(68, 43).
in(68, 44).
in(68, 51).
in(68, 52).
in(68, 53).
in(68, 54).
in(68, 56).
in(68, 57).
in(68, 58).
in(68, 60).
in(68, 62).
in(68, 63).
in(68, 65).
in(68, 67).
in(68, 69).
in(68, 70).
in(68, 72).
in(68, 74).
in(68, 76).
in(68, 77).
in(68, 78).
in(68, 81).
in(68, 85).
in(68, 87).
in(68, 89).
in(68, 91).
in(68, 92).
in(68, 93).
in(68, 94).
in(68, 95).
in(68, 96).
in(68, 97).
in(68, 98).
in(68, 100).
in(68, 111).
in(68, 113).
in(68, 114).
in(68, 115).
in(68, 119).
in(68, 123).
in(68, 126).
in(69, 130).
in(69, 3).
in(69, 4).
in(69, 5).
in(69, 131).
in(69, 132).
in(69, 8).
in(69, 133).
in(69, 10).
in(69, 11).
in(69, 12).
in(69, 13).
in(69, 14).
in(69, 16).
in(69, 19).
in(69, 22).
in(69, 23).
in(69, 24).
in(69, 25).
in(69, 29).
in(69, 32).
in(69, 34).
in(69, 37).
in(69, 39).
in(69, 41).
in(69, 42).
in(69, 48).
in(69, 52).
in(69, 56).
in(69, 58).
in(69, 59).
in(69, 63).
in(69, 65).
in(69, 69).
in(69, 75).
in(69, 76).
in(69, 77).
in(69, 80).
in(69, 82).
in(69, 85).
in(69, 86).
in(69, 87).
in(69, 89).
in(69, 96).
in(69, 100).
in(69, 103).
in(69, 108).
in(69, 109).
in(69, 110).
in(69, 112).
in(69, 114).
in(69, 120).
in(69, 124).
in(69, 126).
in(70, 2).
in(70, 3).
in(70, 8).
in(70, 9).
in(70, 11).
in(70, 12).
in(70, 13).
in(70, 14).
in(70, 15).
in(70, 16).
in(70, 17).
in(70, 19).
in(70, 21).
in(70, 24).
in(70, 28).
in(70, 30).
in(70, 33).
in(70, 39).
in(70, 41).
in(70, 42).
in(70, 43).
in(70, 45).
in(70, 58).
in(70, 63).
in(70, 66).
in(70, 67).
in(70, 71).
in(70, 73).
in(70, 76).
in(70, 82).
in(70, 83).
in(70, 84).
in(70, 85).
in(70, 87).
in(70, 89).
in(70, 90).
in(70, 92).
in(70, 93).
in(70, 96).
in(70, 97).
in(70, 100).
in(70, 101).
in(70, 102).
in(70, 103).
in(70, 104).
in(70, 105).
in(70, 107).
in(70, 110).
in(70, 111).
in(70, 112).
in(70, 113).
in(70, 115).
in(70, 118).
in(70, 119).
in(70, 120).
in(70, 124).
in(70, 126).
in(70, 127).
in(71, 1).
in(71, 2).
in(71, 3).
in(71, 7).
in(71, 10).
in(71, 12).
in(71, 13).
in(71, 23).
in(71, 24).
in(71, 31).
in(71, 33).
in(71, 35).
in(71, 36).
in(71, 37).
in(71, 39).
in(71, 40).
in(71, 43).
in(71, 54).
in(71, 55).
in(71, 57).
in(71, 59).
in(71, 62).
in(71, 63).
in(71, 66).
in(71, 67).
in(71, 69).
in(71, 72).
in(71, 73).
in(71, 75).
in(71, 76).
in(71, 77).
in(71, 78).
in(71, 80).
in(71, 86).
in(71, 88).
in(71, 90).
in(71, 91).
in(71, 93).
in(71, 97).
in(71, 99).
in(71, 107).
in(71, 108).
in(71, 109).
in(71, 112).
in(71, 113).
in(71, 116).
in(71, 117).
in(71, 118).
in(71, 120).
in(71, 121).
in(71, 122).
in(71, 123).
in(71, 126).
in(71, 127).
in(72, 128).
in(72, 1).
in(72, 134).
in(72, 9).
in(72, 11).
in(72, 17).
in(72, 18).
in(72, 20).
in(72, 23).
in(72, 25).
in(72, 26).
in(72, 27).
in(72, 28).
in(72, 29).
in(72, 30).
in(72, 31).
in(72, 33).
in(72, 36).
in(72, 37).
in(72, 39).
in(72, 42).
in(72, 43).
in(72, 46).
in(72, 47).
in(72, 50).
in(72, 51).
in(72, 52).
in(72, 53).
in(72, 56).
in(72, 60).
in(72, 62).
in(72, 63).
in(72, 69).
in(72, 70).
in(72, 73).
in(72, 74).
in(72, 81).
in(72, 82).
in(72, 84).
in(72, 85).
in(72, 86).
in(72, 87).
in(72, 89).
in(72, 90).
in(72, 91).
in(72, 92).
in(72, 96).
in(72, 98).
in(72, 100).
in(72, 103).
in(72, 104).
in(72, 105).
in(72, 108).
in(72, 109).
in(72, 110).
in(72, 111).
in(72, 113).
in(72, 114).
in(72, 115).
in(72, 119).
in(72, 120).
in(72, 125).
in(73, 1).
in(73, 2).
in(73, 129).
in(73, 130).
in(73, 5).
in(73, 132).
in(73, 7).
in(73, 133).
in(73, 134).
in(73, 10).
in(73, 18).
in(73, 19).
in(73, 21).
in(73, 23).
in(73, 26).
in(73, 28).
in(73, 30).
in(73, 32).
in(73, 37).
in(73, 38).
in(73, 39).
in(73, 40).
in(73, 45).
in(73, 53).
in(73, 55).
in(73, 56).
in(73, 57).
in(73, 59).
in(73, 61).
in(73, 63).
in(73, 66).
in(73, 68).
in(73, 69).
in(73, 72).
in(73, 74).
in(73, 75).
in(73, 79).
in(73, 81).
in(73, 82).
in(73, 84).
in(73, 89).
in(73, 92).
in(73, 94).
in(73, 96).
in(73, 97).
in(73, 98).
in(73, 99).
in(73, 100).
in(73, 101).
in(73, 102).
in(73, 103).
in(73, 106).
in(73, 107).
in(73, 108).
in(73, 109).
in(73, 111).
in(73, 114).
in(73, 116).
in(73, 121).
in(73, 125).
in(73, 126).
in(73, 127).
in(74, 129).
in(74, 2).
in(74, 4).
in(74, 6).
in(74, 7).
in(74, 9).
in(74, 16).
in(74, 17).
in(74, 18).
in(74, 20).
in(74, 21).
in(74, 24).
in(74, 29).
in(74, 30).
in(74, 43).
in(74, 44).
in(74, 48).
in(74, 53).
in(74, 63).
in(74, 67).
in(74, 68).
in(74, 69).
in(74, 72).
in(74, 75).
in(74, 76).
in(74, 80).
in(74, 81).
in(74, 82).
in(74, 84).
in(74, 85).
in(74, 88).
in(74, 89).
in(74, 90).
in(74, 91).
in(74, 92).
in(74, 94).
in(74, 96).
in(74, 100).
in(74, 102).
in(74, 104).
in(74, 109).
in(74, 110).
in(74, 111).
in(74, 115).
in(74, 116).
in(74, 118).
in(74, 120).
in(75, 128).
in(75, 131).
in(75, 132).
in(75, 6).
in(75, 7).
in(75, 134).
in(75, 10).
in(75, 11).
in(75, 16).
in(75, 17).
in(75, 19).
in(75, 20).
in(75, 22).
in(75, 24).
in(75, 25).
in(75, 26).
in(75, 28).
in(75, 29).
in(75, 30).
in(75, 32).
in(75, 33).
in(75, 41).
in(75, 42).
in(75, 47).
in(75, 48).
in(75, 53).
in(75, 56).
in(75, 61).
in(75, 62).
in(75, 66).
in(75, 67).
in(75, 68).
in(75, 69).
in(75, 70).
in(75, 72).
in(75, 73).
in(75, 77).
in(75, 88).
in(75, 91).
in(75, 92).
in(75, 97).
in(75, 107).
in(75, 112).
in(75, 114).
in(75, 119).
in(75, 125).
in(75, 126).
in(75, 127).
in(76, 128).
in(76, 1).
in(76, 3).
in(76, 5).
in(76, 6).
in(76, 133).
in(76, 11).
in(76, 12).
in(76, 16).
in(76, 17).
in(76, 19).
in(76, 21).
in(76, 22).
in(76, 24).
in(76, 25).
in(76, 26).
in(76, 30).
in(76, 31).
in(76, 32).
in(76, 34).
in(76, 35).
in(76, 36).
in(76, 37).
in(76, 44).
in(76, 48).
in(76, 57).
in(76, 63).
in(76, 65).
in(76, 67).
in(76, 68).
in(76, 74).
in(76, 75).
in(76, 79).
in(76, 81).
in(76, 82).
in(76, 83).
in(76, 84).
in(76, 85).
in(76, 86).
in(76, 87).
in(76, 89).
in(76, 91).
in(76, 92).
in(76, 94).
in(76, 97).
in(76, 98).
in(76, 100).
in(76, 102).
in(76, 103).
in(76, 106).
in(76, 107).
in(76, 111).
in(76, 112).
in(76, 115).
in(76, 116).
in(76, 118).
in(76, 119).
in(77, 1).
in(77, 2).
in(77, 129).
in(77, 4).
in(77, 133).
in(77, 6).
in(77, 9).
in(77, 10).
in(77, 11).
in(77, 12).
in(77, 13).
in(77, 14).
in(77, 15).
in(77, 16).
in(77, 18).
in(77, 20).
in(77, 22).
in(77, 25).
in(77, 27).
in(77, 29).
in(77, 31).
in(77, 38).
in(77, 39).
in(77, 41).
in(77, 42).
in(77, 43).
in(77, 45).
in(77, 47).
in(77, 48).
in(77, 49).
in(77, 54).
in(77, 55).
in(77, 56).
in(77, 59).
in(77, 63).
in(77, 65).
in(77, 66).
in(77, 69).
in(77, 70).
in(77, 71).
in(77, 80).
in(77, 81).
in(77, 86).
in(77, 89).
in(77, 93).
in(77, 101).
in(77, 103).
in(77, 104).
in(77, 105).
in(77, 107).
in(77, 109).
in(77, 111).
in(77, 112).
in(77, 115).
in(77, 119).
in(77, 121).
in(77, 123).
in(77, 124).
in(77, 126).
in(78, 129).
in(78, 2).
in(78, 131).
in(78, 134).
in(78, 8).
in(78, 9).
in(78, 10).
in(78, 11).
in(78, 19).
in(78, 20).
in(78, 21).
in(78, 23).
in(78, 25).
in(78, 28).
in(78, 39).
in(78, 42).
in(78, 44).
in(78, 49).
in(78, 50).
in(78, 51).
in(78, 56).
in(78, 60).
in(78, 65).
in(78, 66).
in(78, 68).
in(78, 73).
in(78, 75).
in(78, 78).
in(78, 86).
in(78, 87).
in(78, 88).
in(78, 89).
in(78, 92).
in(78, 93).
in(78, 96).
in(78, 97).
in(78, 103).
in(78, 107).
in(78, 108).
in(78, 112).
in(78, 114).
in(78, 115).
in(78, 116).
in(78, 117).
in(78, 118).
in(78, 119).
in(78, 120).
in(78, 123).
in(78, 127).
in(79, 129).
in(79, 130).
in(79, 3).
in(79, 4).
in(79, 131).
in(79, 133).
in(79, 7).
in(79, 8).
in(79, 134).
in(79, 11).
in(79, 13).
in(79, 14).
in(79, 16).
in(79, 18).
in(79, 19).
in(79, 20).
in(79, 21).
in(79, 22).
in(79, 25).
in(79, 29).
in(79, 31).
in(79, 32).
in(79, 33).
in(79, 34).
in(79, 35).
in(79, 37).
in(79, 39).
in(79, 42).
in(79, 48).
in(79, 49).
in(79, 52).
in(79, 54).
in(79, 56).
in(79, 57).
in(79, 60).
in(79, 61).
in(79, 66).
in(79, 68).
in(79, 69).
in(79, 73).
in(79, 77).
in(79, 78).
in(79, 80).
in(79, 82).
in(79, 83).
in(79, 84).
in(79, 85).
in(79, 87).
in(79, 89).
in(79, 95).
in(79, 96).
in(79, 100).
in(79, 101).
in(79, 105).
in(79, 107).
in(79, 109).
in(79, 110).
in(79, 112).
in(79, 114).
in(79, 115).
in(79, 116).
in(79, 117).
in(79, 122).
in(79, 125).
in(79, 126).
in(79, 127).
in(80, 128).
in(80, 130).
in(80, 3).
in(80, 4).
in(80, 131).
in(80, 133).
in(80, 7).
in(80, 10).
in(80, 11).
in(80, 13).
in(80, 15).
in(80, 17).
in(80, 21).
in(80, 24).
in(80, 26).
in(80, 28).
in(80, 33).
in(80, 35).
in(80, 37).
in(80, 43).
in(80, 48).
in(80, 50).
in(80, 51).
in(80, 54).
in(80, 55).
in(80, 56).
in(80, 58).
in(80, 59).
in(80, 66).
in(80, 69).
in(80, 71).
in(80, 72).
in(80, 73).
in(80, 74).
in(80, 75).
in(80, 76).
in(80, 78).
in(80, 82).
in(80, 85).
in(80, 86).
in(80, 89).
in(80, 90).
in(80, 93).
in(80, 95).
in(80, 96).
in(80, 97).
in(80, 98).
in(80, 99).
in(80, 108).
in(80, 109).
in(80, 112).
in(80, 113).
in(80, 114).
in(80, 115).
in(80, 116).
in(80, 117).
in(80, 119).
in(80, 120).
in(80, 121).
in(80, 126).
in(80, 127).
in(81, 128).
in(81, 130).
in(81, 131).
in(81, 133).
in(81, 9).
in(81, 10).
in(81, 11).
in(81, 12).
in(81, 14).
in(81, 21).
in(81, 22).
in(81, 24).
in(81, 27).
in(81, 32).
in(81, 33).
in(81, 35).
in(81, 36).
in(81, 37).
in(81, 38).
in(81, 41).
in(81, 45).
in(81, 46).
in(81, 47).
in(81, 50).
in(81, 52).
in(81, 54).
in(81, 55).
in(81, 56).
in(81, 57).
in(81, 58).
in(81, 62).
in(81, 63).
in(81, 64).
in(81, 65).
in(81, 66).
in(81, 68).
in(81, 69).
in(81, 70).
in(81, 71).
in(81, 72).
in(81, 73).
in(81, 77).
in(81, 81).
in(81, 88).
in(81, 89).
in(81, 90).
in(81, 91).
in(81, 98).
in(81, 102).
in(81, 104).
in(81, 105).
in(81, 107).
in(81, 110).
in(81, 118).
in(81, 119).
in(81, 121).
in(81, 123).
in(81, 125).
in(82, 128).
in(82, 2).
in(82, 4).
in(82, 5).
in(82, 132).
in(82, 7).
in(82, 134).
in(82, 11).
in(82, 13).
in(82, 18).
in(82, 19).
in(82, 20).
in(82, 21).
in(82, 22).
in(82, 24).
in(82, 28).
in(82, 29).
in(82, 30).
in(82, 32).
in(82, 36).
in(82, 40).
in(82, 41).
in(82, 42).
in(82, 43).
in(82, 46).
in(82, 50).
in(82, 51).
in(82, 54).
in(82, 56).
in(82, 61).
in(82, 68).
in(82, 73).
in(82, 74).
in(82, 76).
in(82, 80).
in(82, 81).
in(82, 86).
in(82, 87).
in(82, 89).
in(82, 90).
in(82, 92).
in(82, 95).
in(82, 96).
in(82, 98).
in(82, 101).
in(82, 102).
in(82, 106).
in(82, 108).
in(82, 113).
in(82, 114).
in(82, 117).
in(82, 120).
in(82, 122).
in(82, 127).
in(83, 128).
in(83, 129).
in(83, 2).
in(83, 6).
in(83, 8).
in(83, 10).
in(83, 12).
in(83, 13).
in(83, 14).
in(83, 15).
in(83, 16).
in(83, 23).
in(83, 24).
in(83, 25).
in(83, 27).
in(83, 30).
in(83, 31).
in(83, 37).
in(83, 38).
in(83, 41).
in(83, 45).
in(83, 46).
in(83, 49).
in(83, 51).
in(83, 59).
in(83, 60).
in(83, 62).
in(83, 64).
in(83, 65).
in(83, 67).
in(83, 70).
in(83, 71).
in(83, 73).
in(83, 77).
in(83, 79).
in(83, 83).
in(83, 84).
in(83, 85).
in(83, 86).
in(83, 87).
in(83, 90).
in(83, 93).
in(83, 96).
in(83, 100).
in(83, 102).
in(83, 103).
in(83, 104).
in(83, 110).
in(83, 117).
in(83, 118).
in(83, 120).
in(84, 128).
in(84, 130).
in(84, 132).
in(84, 133).
in(84, 16).
in(84, 18).
in(84, 19).
in(84, 21).
in(84, 22).
in(84, 28).
in(84, 29).
in(84, 31).
in(84, 32).
in(84, 34).
in(84, 35).
in(84, 37).
in(84, 38).
in(84, 43).
in(84, 44).
in(84, 46).
in(84, 48).
in(84, 51).
in(84, 52).
in(84, 54).
in(84, 55).
in(84, 56).
in(84, 62).
in(84, 64).
in(84, 67).
in(84, 71).
in(84, 75).
in(84, 78).
in(84, 82).
in(84, 83).
in(84, 86).
in(84, 87).
in(84, 88).
in(84, 89).
in(84, 90).
in(84, 91).
in(84, 93).
in(84, 99).
in(84, 107).
in(84, 108).
in(84, 109).
in(84, 110).
in(84, 114).
in(84, 119).
in(84, 123).
in(84, 126).
in(84, 127).
in(85, 1).
in(85, 129).
in(85, 132).
in(85, 134).
in(85, 12).
in(85, 14).
in(85, 15).
in(85, 17).
in(85, 19).
in(85, 21).
in(85, 23).
in(85, 24).
in(85, 28).
in(85, 32).
in(85, 35).
in(85, 36).
in(85, 37).
in(85, 39).
in(85, 41).
in(85, 42).
in(85, 43).
in(85, 45).
in(85, 46).
in(85, 48).
in(85, 49).
in(85, 50).
in(85, 54).
in(85, 55).
in(85, 58).
in(85, 61).
in(85, 62).
in(85, 64).
in(85, 65).
in(85, 66).
in(85, 67).
in(85, 68).
in(85, 70).
in(85, 71).
in(85, 74).
in(85, 76).
in(85, 79).
in(85, 80).
in(85, 81).
in(85, 82).
in(85, 83).
in(85, 84).
in(85, 87).
in(85, 90).
in(85, 91).
in(85, 92).
in(85, 93).
in(85, 94).
in(85, 97).
in(85, 100).
in(85, 101).
in(85, 103).
in(85, 105).
in(85, 110).
in(85, 112).
in(85, 113).
in(85, 115).
in(85, 116).
in(85, 121).
in(85, 123).
in(85, 124).
in(85, 126).
in(85, 127).
in(86, 129).
in(86, 2).
in(86, 4).
in(86, 132).
in(86, 6).
in(86, 133).
in(86, 134).
in(86, 18).
in(86, 19).
in(86, 20).
in(86, 22).
in(86, 29).
in(86, 30).
in(86, 31).
in(86, 33).
in(86, 38).
in(86, 41).
in(86, 42).
in(86, 44).
in(86, 45).
in(86, 48).
in(86, 51).
in(86, 54).
in(86, 57).
in(86, 59).
in(86, 61).
in(86, 62).
in(86, 63).
in(86, 64).
in(86, 65).
in(86, 66).
in(86, 70).
in(86, 72).
in(86, 73).
in(86, 77).
in(86, 82).
in(86, 85).
in(86, 88).
in(86, 90).
in(86, 95).
in(86, 96).
in(86, 97).
in(86, 100).
in(86, 102).
in(86, 103).
in(86, 106).
in(86, 107).
in(86, 114).
in(86, 115).
in(86, 118).
in(86, 119).
in(86, 120).
in(86, 124).
in(86, 125).
in(87, 1).
in(87, 2).
in(87, 3).
in(87, 4).
in(87, 5).
in(87, 130).
in(87, 133).
in(87, 134).
in(87, 9).
in(87, 12).
in(87, 13).
in(87, 16).
in(87, 17).
in(87, 20).
in(87, 21).
in(87, 22).
in(87, 24).
in(87, 32).
in(87, 33).
in(87, 38).
in(87, 40).
in(87, 42).
in(87, 45).
in(87, 49).
in(87, 51).
in(87, 55).
in(87, 56).
in(87, 59).
in(87, 61).
in(87, 62).
in(87, 63).
in(87, 66).
in(87, 69).
in(87, 70).
in(87, 76).
in(87, 77).
in(87, 78).
in(87, 85).
in(87, 86).
in(87, 87).
in(87, 88).
in(87, 90).
in(87, 92).
in(87, 93).
in(87, 95).
in(87, 97).
in(87, 99).
in(87, 100).
in(87, 101).
in(87, 103).
in(87, 106).
in(87, 107).
in(87, 109).
in(87, 110).
in(87, 115).
in(87, 116).
in(87, 121).
in(87, 122).
in(87, 126).
in(88, 129).
in(88, 2).
in(88, 3).
in(88, 4).
in(88, 5).
in(88, 130).
in(88, 7).
in(88, 131).
in(88, 132).
in(88, 12).
in(88, 13).
in(88, 14).
in(88, 15).
in(88, 18).
in(88, 19).
in(88, 21).
in(88, 26).
in(88, 36).
in(88, 39).
in(88, 40).
in(88, 54).
in(88, 56).
in(88, 64).
in(88, 69).
in(88, 71).
in(88, 72).
in(88, 78).
in(88, 83).
in(88, 86).
in(88, 89).
in(88, 90).
in(88, 91).
in(88, 92).
in(88, 94).
in(88, 96).
in(88, 97).
in(88, 98).
in(88, 100).
in(88, 102).
in(88, 103).
in(88, 104).
in(88, 107).
in(88, 108).
in(88, 109).
in(88, 113).
in(88, 116).
in(88, 119).
in(88, 123).
in(88, 126).
in(88, 127).
in(89, 128).
in(89, 1).
in(89, 130).
in(89, 3).
in(89, 131).
in(89, 5).
in(89, 132).
in(89, 7).
in(89, 9).
in(89, 11).
in(89, 12).
in(89, 13).
in(89, 25).
in(89, 26).
in(89, 28).
in(89, 31).
in(89, 33).
in(89, 34).
in(89, 37).
in(89, 39).
in(89, 45).
in(89, 49).
in(89, 51).
in(89, 52).
in(89, 54).
in(89, 57).
in(89, 58).
in(89, 59).
in(89, 60).
in(89, 62).
in(89, 63).
in(89, 67).
in(89, 69).
in(89, 72).
in(89, 73).
in(89, 75).
in(89, 77).
in(89, 78).
in(89, 80).
in(89, 82).
in(89, 84).
in(89, 87).
in(89, 88).
in(89, 94).
in(89, 95).
in(89, 97).
in(89, 98).
in(89, 99).
in(89, 101).
in(89, 103).
in(89, 104).
in(89, 106).
in(89, 107).
in(89, 112).
in(89, 115).
in(89, 116).
in(89, 117).
in(89, 118).
in(89, 119).
in(89, 120).
in(89, 121).
in(89, 126).
in(90, 128).
in(90, 1).
in(90, 129).
in(90, 131).
in(90, 133).
in(90, 10).
in(90, 12).
in(90, 13).
in(90, 16).
in(90, 19).
in(90, 20).
in(90, 21).
in(90, 23).
in(90, 24).
in(90, 29).
in(90, 30).
in(90, 31).
in(90, 37).
in(90, 39).
in(90, 42).
in(90, 45).
in(90, 48).
in(90, 49).
in(90, 50).
in(90, 52).
in(90, 53).
in(90, 55).
in(90, 57).
in(90, 58).
in(90, 62).
in(90, 64).
in(90, 65).
in(90, 66).
in(90, 69).
in(90, 73).
in(90, 74).
in(90, 78).
in(90, 83).
in(90, 85).
in(90, 86).
in(90, 87).
in(90, 91).
in(90, 92).
in(90, 94).
in(90, 96).
in(90, 100).
in(90, 101).
in(90, 102).
in(90, 104).
in(90, 105).
in(90, 106).
in(90, 111).
in(90, 112).
in(90, 118).
in(90, 119).
in(90, 120).
in(90, 121).
in(90, 124).
in(90, 125).
in(91, 129).
in(91, 2).
in(91, 130).
in(91, 5).
in(91, 134).
in(91, 7).
in(91, 13).
in(91, 14).
in(91, 21).
in(91, 23).
in(91, 24).
in(91, 27).
in(91, 30).
in(91, 33).
in(91, 36).
in(91, 38).
in(91, 40).
in(91, 45).
in(91, 51).
in(91, 52).
in(91, 53).
in(91, 54).
in(91, 57).
in(91, 61).
in(91, 64).
in(91, 67).
in(91, 68).
in(91, 71).
in(91, 74).
in(91, 75).
in(91, 76).
in(91, 78).
in(91, 82).
in(91, 85).
in(91, 87).
in(91, 92).
in(91, 93).
in(91, 94).
in(91, 97).
in(91, 99).
in(91, 101).
in(91, 103).
in(91, 109).
in(91, 111).
in(91, 115).
in(91, 117).
in(91, 119).
in(91, 126).
in(91, 127).
in(92, 1).
in(92, 129).
in(92, 3).
in(92, 130).
in(92, 5).
in(92, 132).
in(92, 7).
in(92, 134).
in(92, 11).
in(92, 12).
in(92, 14).
in(92, 17).
in(92, 18).
in(92, 24).
in(92, 30).
in(92, 31).
in(92, 32).
in(92, 33).
in(92, 38).
in(92, 42).
in(92, 43).
in(92, 44).
in(92, 45).
in(92, 48).
in(92, 49).
in(92, 52).
in(92, 55).
in(92, 63).
in(92, 64).
in(92, 66).
in(92, 68).
in(92, 73).
in(92, 74).
in(92, 76).
in(92, 77).
in(92, 79).
in(92, 81).
in(92, 82).
in(92, 83).
in(92, 87).
in(92, 88).
in(92, 89).
in(92, 91).
in(92, 97).
in(92, 100).
in(92, 101).
in(92, 103).
in(92, 104).
in(92, 105).
in(92, 108).
in(92, 111).
in(92, 112).
in(92, 115).
in(92, 117).
in(92, 118).
in(92, 119).
in(92, 123).
in(92, 126).
in(92, 127).
in(93, 128).
in(93, 129).
in(93, 132).
in(93, 5).
in(93, 133).
in(93, 9).
in(93, 12).
in(93, 22).
in(93, 30).
in(93, 33).
in(93, 34).
in(93, 37).
in(93, 39).
in(93, 40).
in(93, 42).
in(93, 45).
in(93, 46).
in(93, 51).
in(93, 53).
in(93, 54).
in(93, 55).
in(93, 58).
in(93, 61).
in(93, 62).
in(93, 64).
in(93, 67).
in(93, 68).
in(93, 69).
in(93, 70).
in(93, 76).
in(93, 77).
in(93, 78).
in(93, 79).
in(93, 82).
in(93, 83).
in(93, 84).
in(93, 87).
in(93, 88).
in(93, 90).
in(93, 92).
in(93, 95).
in(93, 98).
in(93, 100).
in(93, 104).
in(93, 109).
in(93, 118).
in(94, 1).
in(94, 2).
in(94, 3).
in(94, 130).
in(94, 132).
in(94, 134).
in(94, 7).
in(94, 10).
in(94, 13).
in(94, 14).
in(94, 15).
in(94, 19).
in(94, 20).
in(94, 25).
in(94, 30).
in(94, 32).
in(94, 33).
in(94, 35).
in(94, 37).
in(94, 38).
in(94, 39).
in(94, 40).
in(94, 42).
in(94, 44).
in(94, 48).
in(94, 51).
in(94, 54).
in(94, 55).
in(94, 56).
in(94, 57).
in(94, 59).
in(94, 60).
in(94, 61).
in(94, 69).
in(94, 70).
in(94, 73).
in(94, 75).
in(94, 80).
in(94, 81).
in(94, 85).
in(94, 87).
in(94, 89).
in(94, 90).
in(94, 92).
in(94, 94).
in(94, 97).
in(94, 99).
in(94, 100).
in(94, 101).
in(94, 104).
in(94, 107).
in(94, 108).
in(94, 112).
in(94, 114).
in(94, 117).
in(94, 118).
in(94, 119).
in(94, 120).
in(94, 122).
in(94, 125).
in(94, 126).
in(95, 128).
in(95, 1).
in(95, 3).
in(95, 4).
in(95, 132).
in(95, 134).
in(95, 7).
in(95, 9).
in(95, 11).
in(95, 15).
in(95, 16).
in(95, 17).
in(95, 19).
in(95, 23).
in(95, 26).
in(95, 29).
in(95, 32).
in(95, 37).
in(95, 39).
in(95, 40).
in(95, 44).
in(95, 45).
in(95, 46).
in(95, 47).
in(95, 49).
in(95, 51).
in(95, 56).
in(95, 58).
in(95, 61).
in(95, 65).
in(95, 66).
in(95, 67).
in(95, 71).
in(95, 73).
in(95, 75).
in(95, 76).
in(95, 77).
in(95, 80).
in(95, 82).
in(95, 84).
in(95, 86).
in(95, 87).
in(95, 91).
in(95, 94).
in(95, 96).
in(95, 101).
in(95, 104).
in(95, 106).
in(95, 109).
in(95, 111).
in(95, 112).
in(95, 114).
in(95, 115).
in(95, 118).
in(95, 119).
in(95, 121).
in(95, 123).
in(95, 126).
in(96, 128).
in(96, 1).
in(96, 130).
in(96, 131).
in(96, 5).
in(96, 133).
in(96, 7).
in(96, 8).
in(96, 11).
in(96, 12).
in(96, 15).
in(96, 16).
in(96, 19).
in(96, 20).
in(96, 21).
in(96, 23).
in(96, 24).
in(96, 27).
in(96, 32).
in(96, 33).
in(96, 36).
in(96, 39).
in(96, 43).
in(96, 44).
in(96, 46).
in(96, 49).
in(96, 54).
in(96, 63).
in(96, 64).
in(96, 66).
in(96, 68).
in(96, 69).
in(96, 70).
in(96, 71).
in(96, 72).
in(96, 73).
in(96, 74).
in(96, 75).
in(96, 76).
in(96, 80).
in(96, 81).
in(96, 83).
in(96, 89).
in(96, 100).
in(96, 105).
in(96, 108).
in(96, 110).
in(96, 114).
in(96, 115).
in(96, 120).
in(96, 122).
in(96, 123).
in(96, 124).
in(96, 125).
in(97, 128).
in(97, 1).
in(97, 2).
in(97, 3).
in(97, 4).
in(97, 130).
in(97, 6).
in(97, 132).
in(97, 8).
in(97, 10).
in(97, 17).
in(97, 18).
in(97, 19).
in(97, 20).
in(97, 23).
in(97, 26).
in(97, 29).
in(97, 30).
in(97, 32).
in(97, 35).
in(97, 36).
in(97, 37).
in(97, 40).
in(97, 42).
in(97, 44).
in(97, 45).
in(97, 48).
in(97, 49).
in(97, 51).
in(97, 52).
in(97, 57).
in(97, 66).
in(97, 71).
in(97, 74).
in(97, 75).
in(97, 78).
in(97, 83).
in(97, 86).
in(97, 88).
in(97, 97).
in(97, 98).
in(97, 103).
in(97, 104).
in(97, 105).
in(97, 107).
in(97, 108).
in(97, 110).
in(97, 111).
in(97, 113).
in(97, 116).
in(97, 121).
in(97, 122).
in(97, 124).
in(97, 125).
in(98, 128).
in(98, 1).
in(98, 129).
in(98, 3).
in(98, 130).
in(98, 134).
in(98, 8).
in(98, 11).
in(98, 12).
in(98, 13).
in(98, 15).
in(98, 19).
in(98, 20).
in(98, 21).
in(98, 29).
in(98, 30).
in(98, 34).
in(98, 38).
in(98, 42).
in(98, 44).
in(98, 45).
in(98, 47).
in(98, 50).
in(98, 51).
in(98, 60).
in(98, 61).
in(98, 70).
in(98, 71).
in(98, 73).
in(98, 78).
in(98, 85).
in(98, 87).
in(98, 90).
in(98, 91).
in(98, 93).
in(98, 94).
in(98, 95).
in(98, 104).
in(98, 109).
in(98, 111).
in(98, 114).
in(98, 115).
in(98, 116).
in(98, 120).
in(98, 122).
in(98, 123).
in(98, 124).
in(99, 3).
in(99, 132).
in(99, 5).
in(99, 6).
in(99, 7).
in(99, 133).
in(99, 9).
in(99, 10).
in(99, 11).
in(99, 16).
in(99, 17).
in(99, 18).
in(99, 21).
in(99, 22).
in(99, 28).
in(99, 37).
in(99, 38).
in(99, 39).
in(99, 42).
in(99, 47).
in(99, 50).
in(99, 58).
in(99, 59).
in(99, 61).
in(99, 64).
in(99, 66).
in(99, 73).
in(99, 74).
in(99, 76).
in(99, 78).
in(99, 81).
in(99, 82).
in(99, 83).
in(99, 86).
in(99, 88).
in(99, 90).
in(99, 92).
in(99, 98).
in(99, 99).
in(99, 100).
in(99, 101).
in(99, 102).
in(99, 103).
in(99, 104).
in(99, 106).
in(99, 107).
in(99, 108).
in(99, 110).
in(99, 116).
in(99, 117).
in(99, 118).
in(99, 122).
in(99, 125).
in(100, 128).
in(100, 1).
in(100, 134).
in(100, 9).
in(100, 11).
in(100, 12).
in(100, 13).
in(100, 14).
in(100, 19).
in(100, 27).
in(100, 31).
in(100, 33).
in(100, 35).
in(100, 36).
in(100, 39).
in(100, 44).
in(100, 45).
in(100, 48).
in(100, 59).
in(100, 67).
in(100, 72).
in(100, 75).
in(100, 76).
in(100, 79).
in(100, 80).
in(100, 83).
in(100, 84).
in(100, 85).
in(100, 86).
in(100, 91).
in(100, 98).
in(100, 100).
in(100, 101).
in(100, 103).
in(100, 104).
in(100, 106).
in(100, 107).
in(100, 108).
in(100, 110).
in(100, 111).
in(100, 112).
in(100, 114).
in(100, 120).
in(100, 122).
in(100, 125).
in(100, 127).
in(101, 128).
in(101, 1).
in(101, 2).
in(101, 4).
in(101, 134).
in(101, 7).
in(101, 10).
in(101, 13).
in(101, 14).
in(101, 17).
in(101, 21).
in(101, 22).
in(101, 28).
in(101, 30).
in(101, 33).
in(101, 34).
in(101, 35).
in(101, 36).
in(101, 40).
in(101, 42).
in(101, 43).
in(101, 44).
in(101, 45).
in(101, 46).
in(101, 48).
in(101, 49).
in(101, 56).
in(101, 59).
in(101, 65).
in(101, 66).
in(101, 69).
in(101, 76).
in(101, 77).
in(101, 84).
in(101, 85).
in(101, 87).
in(101, 88).
in(101, 92).
in(101, 93).
in(101, 96).
in(101, 97).
in(101, 98).
in(101, 101).
in(101, 103).
in(101, 105).
in(101, 113).
in(101, 114).
in(101, 115).
in(101, 116).
in(101, 122).
in(101, 125).
in(101, 126).
in(101, 127).
in(102, 128).
in(102, 129).
in(102, 2).
in(102, 130).
in(102, 4).
in(102, 8).
in(102, 11).
in(102, 12).
in(102, 15).
in(102, 21).
in(102, 24).
in(102, 30).
in(102, 32).
in(102, 33).
in(102, 34).
in(102, 37).
in(102, 38).
in(102, 40).
in(102, 41).
in(102, 42).
in(102, 45).
in(102, 47).
in(102, 50).
in(102, 51).
in(102, 53).
in(102, 55).
in(102, 56).
in(102, 60).
in(102, 61).
in(102, 63).
in(102, 64).
in(102, 65).
in(102, 67).
in(102, 70).
in(102, 71).
in(102, 72).
in(102, 75).
in(102, 80).
in(102, 83).
in(102, 88).
in(102, 89).
in(102, 91).
in(102, 92).
in(102, 95).
in(102, 97).
in(102, 99).
in(102, 101).
in(102, 104).
in(102, 106).
in(102, 108).
in(102, 113).
in(102, 114).
in(102, 115).
in(102, 118).
in(102, 119).
in(102, 121).
in(102, 122).
in(102, 123).
in(102, 124).
in(102, 126).
in(103, 1).
in(103, 2).
in(103, 3).
in(103, 129).
in(103, 131).
in(103, 133).
in(103, 134).
in(103, 8).
in(103, 10).
in(103, 11).
in(103, 13).
in(103, 17).
in(103, 20).
in(103, 22).
in(103, 24).
in(103, 25).
in(103, 27).
in(103, 34).
in(103, 35).
in(103, 36).
in(103, 37).
in(103, 38).
in(103, 40).
in(103, 43).
in(103, 47).
in(103, 49).
in(103, 50).
in(103, 55).
in(103, 57).
in(103, 59).
in(103, 60).
in(103, 63).
in(103, 64).
in(103, 65).
in(103, 72).
in(103, 77).
in(103, 78).
in(103, 82).
in(103, 83).
in(103, 84).
in(103, 91).
in(103, 93).
in(103, 95).
in(103, 100).
in(103, 101).
in(103, 102).
in(103, 103).
in(103, 104).
in(103, 105).
in(103, 108).
in(103, 109).
in(103, 111).
in(103, 114).
in(103, 116).
in(103, 117).
in(103, 119).
in(103, 123).
in(103, 126).
in(103, 127).
in(104, 128).
in(104, 129).
in(104, 2).
in(104, 130).
in(104, 131).
in(104, 5).
in(104, 6).
in(104, 8).
in(104, 10).
in(104, 11).
in(104, 18).
in(104, 20).
in(104, 23).
in(104, 25).
in(104, 29).
in(104, 32).
in(104, 35).
in(104, 41).
in(104, 43).
in(104, 46).
in(104, 47).
in(104, 52).
in(104, 53).
in(104, 55).
in(104, 56).
in(104, 57).
in(104, 60).
in(104, 62).
in(104, 63).
in(104, 65).
in(104, 68).
in(104, 73).
in(104, 74).
in(104, 75).
in(104, 79).
in(104, 81).
in(104, 87).
in(104, 90).
in(104, 93).
in(104, 97).
in(104, 98).
in(104, 101).
in(104, 104).
in(104, 109).
in(104, 110).
in(104, 111).
in(104, 113).
in(104, 114).
in(104, 115).
in(104, 118).
in(104, 119).
in(104, 121).
in(104, 123).
in(104, 124).
in(105, 128).
in(105, 1).
in(105, 2).
in(105, 3).
in(105, 129).
in(105, 5).
in(105, 130).
in(105, 7).
in(105, 9).
in(105, 10).
in(105, 16).
in(105, 17).
in(105, 18).
in(105, 19).
in(105, 20).
in(105, 22).
in(105, 23).
in(105, 24).
in(105, 25).
in(105, 28).
in(105, 33).
in(105, 38).
in(105, 41).
in(105, 42).
in(105, 43).
in(105, 44).
in(105, 47).
in(105, 52).
in(105, 54).
in(105, 55).
in(105, 56).
in(105, 57).
in(105, 62).
in(105, 68).
in(105, 70).
in(105, 71).
in(105, 74).
in(105, 76).
in(105, 78).
in(105, 81).
in(105, 82).
in(105, 84).
in(105, 86).
in(105, 87).
in(105, 88).
in(105, 89).
in(105, 91).
in(105, 92).
in(105, 95).
in(105, 98).
in(105, 103).
in(105, 106).
in(105, 108).
in(105, 110).
in(105, 111).
in(105, 114).
in(105, 115).
in(105, 117).
in(105, 118).
in(105, 119).
in(105, 125).
in(105, 127).
in(106, 2).
in(106, 3).
in(106, 131).
in(106, 132).
in(106, 8).
in(106, 11).
in(106, 13).
in(106, 15).
in(106, 24).
in(106, 27).
in(106, 28).
in(106, 30).
in(106, 32).
in(106, 34).
in(106, 36).
in(106, 39).
in(106, 42).
in(106, 47).
in(106, 50).
in(106, 52).
in(106, 54).
in(106, 55).
in(106, 56).
in(106, 57).
in(106, 58).
in(106, 59).
in(106, 61).
in(106, 63).
in(106, 64).
in(106, 65).
in(106, 67).
in(106, 69).
in(106, 70).
in(106, 73).
in(106, 75).
in(106, 78).
in(106, 79).
in(106, 81).
in(106, 82).
in(106, 84).
in(106, 88).
in(106, 94).
in(106, 96).
in(106, 98).
in(106, 99).
in(106, 101).
in(106, 103).
in(106, 107).
in(106, 111).
in(106, 116).
in(106, 118).
in(106, 119).
in(106, 123).
in(106, 124).
in(106, 125).
in(106, 127).
in(107, 131).
in(107, 132).
in(107, 133).
in(107, 134).
in(107, 7).
in(107, 11).
in(107, 16).
in(107, 17).
in(107, 19).
in(107, 21).
in(107, 29).
in(107, 31).
in(107, 38).
in(107, 40).
in(107, 42).
in(107, 44).
in(107, 45).
in(107, 46).
in(107, 47).
in(107, 49).
in(107, 50).
in(107, 51).
in(107, 54).
in(107, 55).
in(107, 56).
in(107, 57).
in(107, 59).
in(107, 62).
in(107, 65).
in(107, 66).
in(107, 67).
in(107, 69).
in(107, 73).
in(107, 74).
in(107, 76).
in(107, 81).
in(107, 82).
in(107, 85).
in(107, 89).
in(107, 90).
in(107, 92).
in(107, 96).
in(107, 100).
in(107, 101).
in(107, 104).
in(107, 108).
in(107, 109).
in(107, 110).
in(107, 117).
in(107, 118).
in(107, 119).
in(107, 122).
in(108, 130).
in(108, 3).
in(108, 131).
in(108, 5).
in(108, 132).
in(108, 13).
in(108, 14).
in(108, 17).
in(108, 18).
in(108, 21).
in(108, 22).
in(108, 23).
in(108, 30).
in(108, 33).
in(108, 38).
in(108, 40).
in(108, 46).
in(108, 50).
in(108, 52).
in(108, 55).
in(108, 57).
in(108, 59).
in(108, 60).
in(108, 69).
in(108, 70).
in(108, 71).
in(108, 72).
in(108, 75).
in(108, 76).
in(108, 78).
in(108, 80).
in(108, 82).
in(108, 83).
in(108, 84).
in(108, 85).
in(108, 90).
in(108, 94).
in(108, 95).
in(108, 96).
in(108, 98).
in(108, 101).
in(108, 104).
in(108, 105).
in(108, 106).
in(108, 110).
in(108, 111).
in(108, 113).
in(108, 115).
in(108, 116).
in(108, 118).
in(108, 120).
in(108, 125).
in(109, 129).
in(109, 130).
in(109, 4).
in(109, 132).
in(109, 134).
in(109, 7).
in(109, 8).
in(109, 10).
in(109, 13).
in(109, 21).
in(109, 24).
in(109, 26).
in(109, 27).
in(109, 30).
in(109, 31).
in(109, 32).
in(109, 34).
in(109, 36).
in(109, 41).
in(109, 43).
in(109, 44).
in(109, 51).
in(109, 55).
in(109, 56).
in(109, 58).
in(109, 60).
in(109, 61).
in(109, 64).
in(109, 69).
in(109, 71).
in(109, 72).
in(109, 73).
in(109, 76).
in(109, 88).
in(109, 91).
in(109, 92).
in(109, 94).
in(109, 95).
in(109, 96).
in(109, 98).
in(109, 100).
in(109, 103).
in(109, 105).
in(109, 106).
in(109, 107).
in(109, 108).
in(109, 109).
in(109, 110).
in(109, 114).
in(109, 116).
in(109, 117).
in(109, 118).
in(109, 121).
in(109, 123).
in(109, 126).
in(109, 127).
in(110, 1).
in(110, 3).
in(110, 4).
in(110, 7).
in(110, 8).
in(110, 10).
in(110, 11).
in(110, 13).
in(110, 14).
in(110, 18).
in(110, 22).
in(110, 23).
in(110, 24).
in(110, 26).
in(110, 27).
in(110, 32).
in(110, 34).
in(110, 36).
in(110, 41).
in(110, 48).
in(110, 52).
in(110, 53).
in(110, 58).
in(110, 61).
in(110, 62).
in(110, 70).
in(110, 71).
in(110, 72).
in(110, 74).
in(110, 76).
in(110, 83).
in(110, 86).
in(110, 87).
in(110, 90).
in(110, 91).
in(110, 92).
in(110, 95).
in(110, 98).
in(110, 99).
in(110, 102).
in(110, 103).
in(110, 105).
in(110, 107).
in(110, 113).
in(110, 116).
in(110, 117).
in(110, 120).
in(111, 131).
in(111, 4).
in(111, 5).
in(111, 132).
in(111, 7).
in(111, 9).
in(111, 11).
in(111, 15).
in(111, 19).
in(111, 20).
in(111, 26).
in(111, 27).
in(111, 29).
in(111, 40).
in(111, 41).
in(111, 43).
in(111, 44).
in(111, 46).
in(111, 48).
in(111, 49).
in(111, 50).
in(111, 54).
in(111, 56).
in(111, 59).
in(111, 60).
in(111, 61).
in(111, 67).
in(111, 70).
in(111, 71).
in(111, 73).
in(111, 77).
in(111, 79).
in(111, 80).
in(111, 81).
in(111, 82).
in(111, 83).
in(111, 84).
in(111, 87).
in(111, 88).
in(111, 89).
in(111, 90).
in(111, 91).
in(111, 95).
in(111, 98).
in(111, 101).
in(111, 103).
in(111, 105).
in(111, 107).
in(111, 108).
in(111, 112).
in(111, 115).
in(111, 117).
in(111, 120).
in(111, 122).
in(111, 123).
in(111, 127).
in(112, 128).
in(112, 129).
in(112, 2).
in(112, 3).
in(112, 4).
in(112, 131).
in(112, 132).
in(112, 134).
in(112, 8).
in(112, 12).
in(112, 14).
in(112, 15).
in(112, 17).
in(112, 18).
in(112, 23).
in(112, 24).
in(112, 26).
in(112, 28).
in(112, 30).
in(112, 33).
in(112, 35).
in(112, 45).
in(112, 47).
in(112, 49).
in(112, 53).
in(112, 54).
in(112, 55).
in(112, 60).
in(112, 64).
in(112, 66).
in(112, 67).
in(112, 68).
in(112, 70).
in(112, 74).
in(112, 75).
in(112, 76).
in(112, 79).
in(112, 80).
in(112, 81).
in(112, 82).
in(112, 83).
in(112, 85).
in(112, 86).
in(112, 88).
in(112, 89).
in(112, 90).
in(112, 93).
in(112, 94).
in(112, 95).
in(112, 96).
in(112, 104).
in(112, 105).
in(112, 107).
in(112, 109).
in(112, 110).
in(112, 112).
in(112, 114).
in(112, 115).
in(112, 116).
in(112, 117).
in(112, 118).
in(112, 120).
in(112, 123).
in(112, 126).
in(113, 129).
in(113, 2).
in(113, 3).
in(113, 4).
in(113, 131).
in(113, 6).
in(113, 133).
in(113, 8).
in(113, 17).
in(113, 20).
in(113, 24).
in(113, 26).
in(113, 27).
in(113, 28).
in(113, 31).
in(113, 34).
in(113, 36).
in(113, 38).
in(113, 39).
in(113, 44).
in(113, 45).
in(113, 47).
in(113, 51).
in(113, 52).
in(113, 54).
in(113, 55).
in(113, 57).
in(113, 58).
in(113, 59).
in(113, 60).
in(113, 63).
in(113, 65).
in(113, 66).
in(113, 67).
in(113, 69).
in(113, 72).
in(113, 76).
in(113, 80).
in(113, 81).
in(113, 82).
in(113, 84).
in(113, 87).
in(113, 88).
in(113, 89).
in(113, 90).
in(113, 92).
in(113, 94).
in(113, 95).
in(113, 97).
in(113, 100).
in(113, 101).
in(113, 110).
in(113, 111).
in(113, 113).
in(113, 116).
in(113, 118).
in(113, 120).
in(113, 121).
in(113, 122).
in(113, 124).
in(113, 126).
in(113, 127).
in(114, 129).
in(114, 3).
in(114, 4).
in(114, 131).
in(114, 132).
in(114, 134).
in(114, 8).
in(114, 14).
in(114, 17).
in(114, 19).
in(114, 20).
in(114, 22).
in(114, 23).
in(114, 25).
in(114, 26).
in(114, 32).
in(114, 33).
in(114, 34).
in(114, 36).
in(114, 37).
in(114, 38).
in(114, 42).
in(114, 44).
in(114, 46).
in(114, 48).
in(114, 49).
in(114, 50).
in(114, 54).
in(114, 55).
in(114, 60).
in(114, 68).
in(114, 70).
in(114, 71).
in(114, 72).
in(114, 73).
in(114, 74).
in(114, 76).
in(114, 80).
in(114, 83).
in(114, 84).
in(114, 85).
in(114, 86).
in(114, 87).
in(114, 89).
in(114, 94).
in(114, 96).
in(114, 99).
in(114, 100).
in(114, 101).
in(114, 103).
in(114, 104).
in(114, 105).
in(114, 108).
in(114, 110).
in(114, 114).
in(114, 120).
in(114, 122).
in(114, 124).
in(115, 129).
in(115, 130).
in(115, 131).
in(115, 9).
in(115, 12).
in(115, 13).
in(115, 20).
in(115, 22).
in(115, 26).
in(115, 29).
in(115, 32).
in(115, 33).
in(115, 37).
in(115, 41).
in(115, 46).
in(115, 48).
in(115, 49).
in(115, 51).
in(115, 57).
in(115, 58).
in(115, 59).
in(115, 60).
in(115, 61).
in(115, 64).
in(115, 65).
in(115, 69).
in(115, 71).
in(115, 77).
in(115, 80).
in(115, 81).
in(115, 82).
in(115, 84).
in(115, 85).
in(115, 88).
in(115, 90).
in(115, 93).
in(115, 100).
in(115, 103).
in(115, 105).
in(115, 107).
in(115, 109).
in(115, 110).
in(115, 113).
in(115, 114).
in(115, 118).
in(115, 122).
in(115, 125).
in(115, 127).
in(116, 2).
in(116, 133).
in(116, 7).
in(116, 9).
in(116, 11).
in(116, 18).
in(116, 21).
in(116, 23).
in(116, 27).
in(116, 29).
in(116, 32).
in(116, 34).
in(116, 37).
in(116, 38).
in(116, 41).
in(116, 43).
in(116, 44).
in(116, 45).
in(116, 46).
in(116, 47).
in(116, 56).
in(116, 57).
in(116, 61).
in(116, 63).
in(116, 64).
in(116, 65).
in(116, 66).
in(116, 67).
in(116, 69).
in(116, 72).
in(116, 75).
in(116, 81).
in(116, 83).
in(116, 84).
in(116, 87).
in(116, 95).
in(116, 97).
in(116, 99).
in(116, 106).
in(116, 107).
in(116, 109).
in(116, 116).
in(116, 117).
in(116, 122).
in(116, 123).
in(116, 126).
in(116, 127).
in(117, 1).
in(117, 2).
in(117, 3).
in(117, 4).
in(117, 5).
in(117, 6).
in(117, 7).
in(117, 130).
in(117, 9).
in(117, 10).
in(117, 11).
in(117, 132).
in(117, 13).
in(117, 15).
in(117, 18).
in(117, 19).
in(117, 22).
in(117, 23).
in(117, 24).
in(117, 25).
in(117, 26).
in(117, 28).
in(117, 31).
in(117, 33).
in(117, 36).
in(117, 37).
in(117, 41).
in(117, 43).
in(117, 44).
in(117, 46).
in(117, 48).
in(117, 49).
in(117, 53).
in(117, 56).
in(117, 58).
in(117, 62).
in(117, 67).
in(117, 74).
in(117, 75).
in(117, 78).
in(117, 80).
in(117, 84).
in(117, 86).
in(117, 87).
in(117, 89).
in(117, 93).
in(117, 94).
in(117, 97).
in(117, 99).
in(117, 100).
in(117, 103).
in(117, 105).
in(117, 106).
in(117, 108).
in(117, 111).
in(117, 116).
in(117, 117).
in(117, 118).
in(117, 123).
in(117, 127).
in(118, 3).
in(118, 133).
in(118, 134).
in(118, 9).
in(118, 13).
in(118, 14).
in(118, 22).
in(118, 23).
in(118, 24).
in(118, 25).
in(118, 26).
in(118, 28).
in(118, 32).
in(118, 33).
in(118, 41).
in(118, 42).
in(118, 43).
in(118, 44).
in(118, 45).
in(118, 46).
in(118, 47).
in(118, 50).
in(118, 52).
in(118, 54).
in(118, 56).
in(118, 57).
in(118, 59).
in(118, 60).
in(118, 61).
in(118, 63).
in(118, 64).
in(118, 67).
in(118, 70).
in(118, 73).
in(118, 77).
in(118, 79).
in(118, 81).
in(118, 82).
in(118, 84).
in(118, 86).
in(118, 89).
in(118, 95).
in(118, 96).
in(118, 98).
in(118, 100).
in(118, 102).
in(118, 107).
in(118, 111).
in(118, 115).
in(118, 116).
in(118, 118).
in(118, 119).
in(118, 122).
in(118, 123).
in(118, 125).
in(118, 126).
in(119, 2).
in(119, 3).
in(119, 130).
in(119, 6).
in(119, 14).
in(119, 15).
in(119, 23).
in(119, 24).
in(119, 25).
in(119, 31).
in(119, 36).
in(119, 39).
in(119, 41).
in(119, 46).
in(119, 49).
in(119, 50).
in(119, 53).
in(119, 58).
in(119, 59).
in(119, 62).
in(119, 64).
in(119, 65).
in(119, 77).
in(119, 79).
in(119, 80).
in(119, 81).
in(119, 82).
in(119, 87).
in(119, 88).
in(119, 90).
in(119, 94).
in(119, 96).
in(119, 97).
in(119, 102).
in(119, 104).
in(119, 107).
in(119, 108).
in(119, 110).
in(119, 112).
in(119, 115).
in(119, 116).
in(119, 117).
in(119, 118).
in(119, 119).
in(119, 121).
in(119, 122).
in(119, 126).
in(119, 127).
in(120, 128).
in(120, 2).
in(120, 3).
in(120, 4).
in(120, 130).
in(120, 131).
in(120, 134).
in(120, 8).
in(120, 10).
in(120, 11).
in(120, 12).
in(120, 13).
in(120, 14).
in(120, 20).
in(120, 21).
in(120, 23).
in(120, 28).
in(120, 29).
in(120, 30).
in(120, 31).
in(120, 32).
in(120, 34).
in(120, 38).
in(120, 39).
in(120, 41).
in(120, 43).
in(120, 46).
in(120, 48).
in(120, 58).
in(120, 60).
in(120, 61).
in(120, 62).
in(120, 65).
in(120, 66).
in(120, 67).
in(120, 70).
in(120, 77).
in(120, 78).
in(120, 81).
in(120, 84).
in(120, 85).
in(120, 90).
in(120, 91).
in(120, 93).
in(120, 96).
in(120, 97).
in(120, 98).
in(120, 100).
in(120, 101).
in(120, 104).
in(120, 107).
in(120, 108).
in(120, 109).
in(120, 114).
in(120, 116).
in(120, 118).
in(120, 119).
in(120, 120).
in(120, 121).
in(120, 126).
in(121, 128).
in(121, 130).
in(121, 131).
in(121, 6).
in(121, 9).
in(121, 12).
in(121, 16).
in(121, 20).
in(121, 26).
in(121, 27).
in(121, 34).
in(121, 38).
in(121, 39).
in(121, 40).
in(121, 41).
in(121, 42).
in(121, 43).
in(121, 44).
in(121, 46).
in(121, 47).
in(121, 48).
in(121, 52).
in(121, 53).
in(121, 54).
in(121, 56).
in(121, 57).
in(121, 61).
in(121, 64).
in(121, 69).
in(121, 70).
in(121, 71).
in(121, 74).
in(121, 76).
in(121, 77).
in(121, 81).
in(121, 83).
in(121, 84).
in(121, 85).
in(121, 86).
in(121, 92).
in(121, 96).
in(121, 107).
in(121, 111).
in(121, 113).
in(121, 114).
in(121, 116).
in(121, 117).
in(121, 122).
in(121, 125).
in(121, 127).
in(122, 4).
in(122, 132).
in(122, 6).
in(122, 7).
in(122, 8).
in(122, 9).
in(122, 134).
in(122, 12).
in(122, 20).
in(122, 27).
in(122, 28).
in(122, 29).
in(122, 33).
in(122, 35).
in(122, 36).
in(122, 39).
in(122, 41).
in(122, 44).
in(122, 47).
in(122, 53).
in(122, 54).
in(122, 55).
in(122, 57).
in(122, 58).
in(122, 60).
in(122, 62).
in(122, 64).
in(122, 69).
in(122, 73).
in(122, 74).
in(122, 75).
in(122, 76).
in(122, 78).
in(122, 79).
in(122, 81).
in(122, 83).
in(122, 85).
in(122, 86).
in(122, 88).
in(122, 90).
in(122, 97).
in(122, 98).
in(122, 100).
in(122, 105).
in(122, 110).
in(122, 111).
in(122, 112).
in(122, 115).
in(122, 117).
in(122, 121).
in(122, 122).
in(122, 127).
in(123, 129).
in(123, 3).
in(123, 4).
in(123, 5).
in(123, 133).
in(123, 9).
in(123, 13).
in(123, 15).
in(123, 18).
in(123, 19).
in(123, 20).
in(123, 22).
in(123, 25).
in(123, 26).
in(123, 28).
in(123, 31).
in(123, 32).
in(123, 33).
in(123, 34).
in(123, 37).
in(123, 38).
in(123, 40).
in(123, 43).
in(123, 51).
in(123, 52).
in(123, 56).
in(123, 57).
in(123, 67).
in(123, 69).
in(123, 71).
in(123, 73).
in(123, 75).
in(123, 76).
in(123, 77).
in(123, 78).
in(123, 79).
in(123, 80).
in(123, 81).
in(123, 83).
in(123, 84).
in(123, 85).
in(123, 87).
in(123, 89).
in(123, 90).
in(123, 91).
in(123, 93).
in(123, 95).
in(123, 98).
in(123, 99).
in(123, 108).
in(123, 109).
in(123, 110).
in(123, 112).
in(123, 113).
in(123, 117).
in(123, 118).
in(123, 119).
in(123, 120).
in(123, 123).
in(124, 129).
in(124, 2).
in(124, 4).
in(124, 132).
in(124, 12).
in(124, 18).
in(124, 19).
in(124, 20).
in(124, 23).
in(124, 27).
in(124, 30).
in(124, 31).
in(124, 32).
in(124, 33).
in(124, 37).
in(124, 45).
in(124, 46).
in(124, 47).
in(124, 49).
in(124, 50).
in(124, 51).
in(124, 52).
in(124, 54).
in(124, 56).
in(124, 58).
in(124, 63).
in(124, 64).
in(124, 66).
in(124, 67).
in(124, 68).
in(124, 77).
in(124, 81).
in(124, 82).
in(124, 87).
in(124, 88).
in(124, 89).
in(124, 92).
in(124, 93).
in(124, 96).
in(124, 98).
in(124, 99).
in(124, 101).
in(124, 102).
in(124, 104).
in(124, 107).
in(124, 110).
in(124, 112).
in(124, 113).
in(124, 116).
in(124, 117).
in(124, 118).
in(124, 122).
in(125, 128).
in(125, 2).
in(125, 131).
in(125, 4).
in(125, 5).
in(125, 6).
in(125, 132).
in(125, 8).
in(125, 134).
in(125, 10).
in(125, 11).
in(125, 12).
in(125, 13).
in(125, 14).
in(125, 17).
in(125, 18).
in(125, 19).
in(125, 20).
in(125, 31).
in(125, 32).
in(125, 34).
in(125, 35).
in(125, 38).
in(125, 39).
in(125, 40).
in(125, 42).
in(125, 43).
in(125, 45).
in(125, 47).
in(125, 49).
in(125, 53).
in(125, 56).
in(125, 58).
in(125, 60).
in(125, 75).
in(125, 76).
in(125, 78).
in(125, 82).
in(125, 83).
in(125, 89).
in(125, 93).
in(125, 95).
in(125, 96).
in(125, 99).
in(125, 101).
in(125, 102).
in(125, 103).
in(125, 105).
in(125, 107).
in(125, 108).
in(125, 109).
in(125, 110).
in(125, 116).
in(125, 117).
in(125, 120).
in(125, 121).
in(125, 127).
in(126, 10).
in(126, 12).
in(126, 15).
in(126, 17).
in(126, 23).
in(126, 25).
in(126, 28).
in(126, 29).
in(126, 30).
in(126, 31).
in(126, 32).
in(126, 37).
in(126, 40).
in(126, 42).
in(126, 43).
in(126, 44).
in(126, 45).
in(126, 46).
in(126, 47).
in(126, 49).
in(126, 52).
in(126, 57).
in(126, 60).
in(126, 63).
in(126, 65).
in(126, 66).
in(126, 74).
in(126, 76).
in(126, 82).
in(126, 85).
in(126, 88).
in(126, 89).
in(126, 94).
in(126, 98).
in(126, 100).
in(126, 102).
in(126, 103).
in(126, 104).
in(126, 113).
in(126, 115).
in(126, 119).
in(126, 124).
in(126, 125).
in(127, 1).
in(127, 2).
in(127, 3).
in(127, 129).
in(127, 5).
in(127, 130).
in(127, 7).
in(127, 8).
in(127, 133).
in(127, 134).
in(127, 11).
in(127, 12).
in(127, 21).
in(127, 22).
in(127, 24).
in(127, 25).
in(127, 26).
in(127, 28).
in(127, 29).
in(127, 33).
in(127, 37).
in(127, 48).
in(127, 49).
in(127, 50).
in(127, 51).
in(127, 52).
in(127, 55).
in(127, 57).
in(127, 58).
in(127, 60).
in(127, 61).
in(127, 67).
in(127, 68).
in(127, 71).
in(127, 72).
in(127, 73).
in(127, 78).
in(127, 82).
in(127, 84).
in(127, 85).
in(127, 86).
in(127, 87).
in(127, 93).
in(127, 108).
in(127, 109).
in(127, 112).
in(127, 116).
in(127, 117).
in(127, 121).
in(127, 122).
in(127, 123).
in(127, 124).
in(128, 1).
in(128, 129).
in(128, 3).
in(128, 132).
in(128, 5).
in(128, 133).
in(128, 7).
in(128, 8).
in(128, 10).
in(128, 12).
in(128, 14).
in(128, 17).
in(128, 22).
in(128, 23).
in(128, 24).
in(128, 28).
in(128, 34).
in(128, 36).
in(128, 38).
in(128, 40).
in(128, 46).
in(128, 50).
in(128, 59).
in(128, 61).
in(128, 62).
in(128, 65).
in(128, 69).
in(128, 72).
in(128, 79).
in(128, 80).
in(128, 83).
in(128, 85).
in(128, 86).
in(128, 88).
in(128, 92).
in(128, 97).
in(128, 99).
in(128, 100).
in(128, 101).
in(128, 102).
in(128, 106).
in(128, 111).
in(128, 112).
in(128, 113).
in(128, 114).
in(128, 115).
in(128, 119).
in(128, 121).
in(128, 126).
in(128, 127).
in(129, 2).
in(129, 131).
in(129, 133).
in(129, 12).
in(129, 13).
in(129, 15).
in(129, 16).
in(129, 21).
in(129, 22).
in(129, 24).
in(129, 25).
in(129, 27).
in(129, 32).
in(129, 36).
in(129, 38).
in(129, 41).
in(129, 47).
in(129, 48).
in(129, 51).
in(129, 53).
in(129, 57).
in(129, 59).
in(129, 61).
in(129, 69).
in(129, 71).
in(129, 75).
in(129, 76).
in(129, 77).
in(129, 78).
in(129, 80).
in(129, 82).
in(129, 84).
in(129, 87).
in(129, 89).
in(129, 91).
in(129, 97).
in(129, 98).
in(129, 101).
in(129, 103).
in(129, 106).
in(129, 109).
in(129, 111).
in(129, 112).
in(129, 114).
in(129, 115).
in(129, 116).
in(129, 119).
in(129, 123).
in(129, 124).
in(129, 125).
in(129, 126).
in(129, 127).
in(130, 2).
in(130, 3).
in(130, 4).
in(130, 131).
in(130, 11).
in(130, 15).
in(130, 25).
in(130, 28).
in(130, 33).
in(130, 38).
in(130, 40).
in(130, 43).
in(130, 44).
in(130, 45).
in(130, 49).
in(130, 53).
in(130, 54).
in(130, 55).
in(130, 57).
in(130, 58).
in(130, 63).
in(130, 68).
in(130, 72).
in(130, 75).
in(130, 77).
in(130, 78).
in(130, 84).
in(130, 86).
in(130, 88).
in(130, 90).
in(130, 93).
in(130, 97).
in(130, 100).
in(130, 102).
in(130, 103).
in(130, 110).
in(130, 113).
in(130, 116).
in(130, 118).
in(130, 120).
in(130, 121).
in(130, 127).
in(131, 1).
in(131, 129).
in(131, 130).
in(131, 134).
in(131, 11).
in(131, 14).
in(131, 16).
in(131, 19).
in(131, 21).
in(131, 22).
in(131, 24).
in(131, 27).
in(131, 28).
in(131, 30).
in(131, 32).
in(131, 39).
in(131, 44).
in(131, 45).
in(131, 51).
in(131, 52).
in(131, 53).
in(131, 56).
in(131, 58).
in(131, 59).
in(131, 63).
in(131, 65).
in(131, 67).
in(131, 73).
in(131, 78).
in(131, 80).
in(131, 81).
in(131, 82).
in(131, 83).
in(131, 84).
in(131, 85).
in(131, 90).
in(131, 98).
in(131, 102).
in(131, 107).
in(131, 108).
in(131, 109).
in(131, 110).
in(131, 112).
in(131, 113).
in(131, 116).
in(131, 119).
in(131, 120).
in(131, 122).
in(131, 124).
in(131, 125).
in(131, 127).
in(132, 128).
in(132, 2).
in(132, 131).
in(132, 5).
in(132, 6).
in(132, 8).
in(132, 9).
in(132, 11).
in(132, 15).
in(132, 16).
in(132, 17).
in(132, 19).
in(132, 28).
in(132, 29).
in(132, 33).
in(132, 36).
in(132, 38).
in(132, 41).
in(132, 45).
in(132, 46).
in(132, 47).
in(132, 51).
in(132, 53).
in(132, 55).
in(132, 58).
in(132, 60).
in(132, 65).
in(132, 66).
in(132, 67).
in(132, 68).
in(132, 71).
in(132, 74).
in(132, 77).
in(132, 81).
in(132, 82).
in(132, 86).
in(132, 91).
in(132, 92).
in(132, 93).
in(132, 94).
in(132, 99).
in(132, 100).
in(132, 102).
in(132, 106).
in(132, 107).
in(132, 109).
in(132, 112).
in(132, 117).
in(132, 120).
in(132, 121).
in(132, 122).
in(132, 123).
in(132, 124).
in(133, 130).
in(133, 5).
in(133, 6).
in(133, 7).
in(133, 8).
in(133, 9).
in(133, 12).
in(133, 16).
in(133, 19).
in(133, 29).
in(133, 31).
in(133, 35).
in(133, 36).
in(133, 38).
in(133, 39).
in(133, 43).
in(133, 44).
in(133, 48).
in(133, 50).
in(133, 51).
in(133, 52).
in(133, 57).
in(133, 64).
in(133, 65).
in(133, 67).
in(133, 70).
in(133, 71).
in(133, 73).
in(133, 74).
in(133, 77).
in(133, 78).
in(133, 79).
in(133, 81).
in(133, 83).
in(133, 84).
in(133, 85).
in(133, 89).
in(133, 91).
in(133, 92).
in(133, 96).
in(133, 97).
in(133, 105).
in(133, 106).
in(133, 108).
in(133, 110).
in(133, 112).
in(133, 113).
in(133, 117).
in(133, 118).
in(133, 121).
in(133, 122).
in(133, 125).
in(133, 126).
in(134, 128).
in(134, 1).
in(134, 2).
in(134, 6).
in(134, 7).
in(134, 134).
in(134, 14).
in(134, 18).
in(134, 19).
in(134, 20).
in(134, 24).
in(134, 26).
in(134, 27).
in(134, 28).
in(134, 29).
in(134, 31).
in(134, 33).
in(134, 35).
in(134, 37).
in(134, 38).
in(134, 41).
in(134, 42).
in(134, 43).
in(134, 45).
in(134, 47).
in(134, 49).
in(134, 53).
in(134, 54).
in(134, 55).
in(134, 57).
in(134, 59).
in(134, 62).
in(134, 64).
in(134, 65).
in(134, 66).
in(134, 67).
in(134, 72).
in(134, 75).
in(134, 80).
in(134, 81).
in(134, 83).
in(134, 85).
in(134, 86).
in(134, 87).
in(134, 88).
in(134, 89).
in(134, 94).
in(134, 97).
in(134, 101).
in(134, 102).
in(134, 103).
in(134, 105).
in(134, 110).
in(134, 114).
in(134, 115).
in(134, 116).
in(134, 118).
in(134, 119).
in(134, 121).
in(134, 122).
in(134, 123).
in(134, 125).
in(134, 126).
in(134, 127).
in(135, 130).
in(135, 3).
in(135, 131).
in(135, 5).
in(135, 6).
in(135, 134).
in(135, 12).
in(135, 13).
in(135, 14).
in(135, 15).
in(135, 16).
in(135, 20).
in(135, 22).
in(135, 23).
in(135, 25).
in(135, 27).
in(135, 28).
in(135, 29).
in(135, 31).
in(135, 32).
in(135, 35).
in(135, 36).
in(135, 37).
in(135, 38).
in(135, 41).
in(135, 42).
in(135, 46).
in(135, 47).
in(135, 53).
in(135, 58).
in(135, 59).
in(135, 63).
in(135, 64).
in(135, 67).
in(135, 68).
in(135, 74).
in(135, 83).
in(135, 86).
in(135, 88).
in(135, 90).
in(135, 94).
in(135, 96).
in(135, 99).
in(135, 100).
in(135, 102).
in(135, 103).
in(135, 104).
in(135, 105).
in(135, 106).
in(135, 107).
in(135, 111).
in(135, 113).
in(135, 114).
in(135, 115).
in(135, 116).
in(135, 118).
in(135, 120).
in(135, 122).
in(135, 124).
in(136, 1).
in(136, 2).
in(136, 129).
in(136, 4).
in(136, 7).
in(136, 8).
in(136, 9).
in(136, 12).
in(136, 16).
in(136, 20).
in(136, 24).
in(136, 27).
in(136, 30).
in(136, 31).
in(136, 36).
in(136, 38).
in(136, 40).
in(136, 42).
in(136, 44).
in(136, 46).
in(136, 50).
in(136, 56).
in(136, 57).
in(136, 62).
in(136, 64).
in(136, 66).
in(136, 67).
in(136, 69).
in(136, 70).
in(136, 72).
in(136, 74).
in(136, 75).
in(136, 77).
in(136, 79).
in(136, 83).
in(136, 85).
in(136, 87).
in(136, 89).
in(136, 90).
in(136, 91).
in(136, 92).
in(136, 95).
in(136, 101).
in(136, 102).
in(136, 103).
in(136, 104).
in(136, 107).
in(136, 108).
in(136, 109).
in(136, 110).
in(136, 112).
in(136, 114).
in(136, 116).
in(136, 118).
in(136, 119).
in(136, 120).
in(136, 121).
in(136, 125).
in(136, 126).
in(136, 127).
in(137, 128).
in(137, 1).
in(137, 131).
in(137, 4).
in(137, 5).
in(137, 133).
in(137, 134).
in(137, 10).
in(137, 11).
in(137, 19).
in(137, 24).
in(137, 27).
in(137, 29).
in(137, 32).
in(137, 36).
in(137, 39).
in(137, 40).
in(137, 41).
in(137, 45).
in(137, 47).
in(137, 58).
in(137, 59).
in(137, 63).
in(137, 65).
in(137, 72).
in(137, 73).
in(137, 74).
in(137, 77).
in(137, 78).
in(137, 79).
in(137, 83).
in(137, 85).
in(137, 86).
in(137, 88).
in(137, 90).
in(137, 94).
in(137, 95).
in(137, 96).
in(137, 97).
in(137, 103).
in(137, 106).
in(137, 107).
in(137, 112).
in(137, 117).
in(137, 118).
in(137, 120).
in(137, 121).
in(137, 124).
in(137, 126).
in(138, 1).
in(138, 131).
in(138, 4).
in(138, 5).
in(138, 6).
in(138, 7).
in(138, 134).
in(138, 9).
in(138, 13).
in(138, 18).
in(138, 19).
in(138, 21).
in(138, 22).
in(138, 23).
in(138, 29).
in(138, 31).
in(138, 33).
in(138, 35).
in(138, 38).
in(138, 40).
in(138, 41).
in(138, 42).
in(138, 44).
in(138, 45).
in(138, 48).
in(138, 49).
in(138, 51).
in(138, 55).
in(138, 57).
in(138, 63).
in(138, 64).
in(138, 70).
in(138, 73).
in(138, 75).
in(138, 76).
in(138, 77).
in(138, 78).
in(138, 81).
in(138, 82).
in(138, 89).
in(138, 90).
in(138, 91).
in(138, 93).
in(138, 95).
in(138, 97).
in(138, 100).
in(138, 104).
in(138, 106).
in(138, 107).
in(138, 109).
in(138, 112).
in(138, 114).
in(138, 117).
in(138, 121).
in(138, 122).
in(138, 126).
in(138, 127).
in(139, 1).
in(139, 131).
in(139, 134).
in(139, 10).
in(139, 15).
in(139, 16).
in(139, 19).
in(139, 20).
in(139, 24).
in(139, 25).
in(139, 31).
in(139, 32).
in(139, 33).
in(139, 38).
in(139, 42).
in(139, 44).
in(139, 45).
in(139, 46).
in(139, 47).
in(139, 48).
in(139, 52).
in(139, 56).
in(139, 58).
in(139, 61).
in(139, 62).
in(139, 64).
in(139, 65).
in(139, 67).
in(139, 68).
in(139, 70).
in(139, 73).
in(139, 74).
in(139, 75).
in(139, 77).
in(139, 88).
in(139, 89).
in(139, 92).
in(139, 94).
in(139, 98).
in(139, 101).
in(139, 102).
in(139, 103).
in(139, 104).
in(139, 106).
in(139, 108).
in(139, 114).
in(139, 118).
in(139, 120).
in(139, 125).
in(139, 126).
in(140, 2).
in(140, 3).
in(140, 130).
in(140, 5).
in(140, 132).
in(140, 134).
in(140, 14).
in(140, 15).
in(140, 19).
in(140, 21).
in(140, 25).
in(140, 28).
in(140, 30).
in(140, 32).
in(140, 33).
in(140, 34).
in(140, 41).
in(140, 42).
in(140, 43).
in(140, 46).
in(140, 47).
in(140, 48).
in(140, 49).
in(140, 50).
in(140, 53).
in(140, 55).
in(140, 58).
in(140, 60).
in(140, 61).
in(140, 62).
in(140, 66).
in(140, 67).
in(140, 68).
in(140, 70).
in(140, 71).
in(140, 73).
in(140, 76).
in(140, 79).
in(140, 80).
in(140, 81).
in(140, 83).
in(140, 84).
in(140, 87).
in(140, 92).
in(140, 99).
in(140, 101).
in(140, 102).
in(140, 107).
in(140, 108).
in(140, 112).
in(140, 117).
in(140, 120).
in(140, 122).
in(140, 125).
in(140, 126).
in(141, 1).
in(141, 129).
in(141, 3).
in(141, 130).
in(141, 5).
in(141, 134).
in(141, 11).
in(141, 12).
in(141, 13).
in(141, 15).
in(141, 16).
in(141, 21).
in(141, 22).
in(141, 25).
in(141, 28).
in(141, 30).
in(141, 32).
in(141, 33).
in(141, 38).
in(141, 39).
in(141, 40).
in(141, 41).
in(141, 44).
in(141, 46).
in(141, 50).
in(141, 53).
in(141, 54).
in(141, 56).
in(141, 60).
in(141, 62).
in(141, 66).
in(141, 67).
in(141, 68).
in(141, 75).
in(141, 76).
in(141, 78).
in(141, 79).
in(141, 82).
in(141, 83).
in(141, 88).
in(141, 89).
in(141, 91).
in(141, 93).
in(141, 94).
in(141, 98).
in(141, 101).
in(141, 111).
in(141, 112).
in(141, 114).
in(141, 116).
in(141, 117).
in(141, 119).
in(141, 121).
in(141, 122).
in(141, 123).
in(141, 124).
in(141, 126).
in(142, 128).
in(142, 130).
in(142, 131).
in(142, 134).
in(142, 8).
in(142, 9).
in(142, 10).
in(142, 11).
in(142, 13).
in(142, 14).
in(142, 16).
in(142, 21).
in(142, 22).
in(142, 27).
in(142, 30).
in(142, 31).
in(142, 34).
in(142, 38).
in(142, 46).
in(142, 49).
in(142, 51).
in(142, 53).
in(142, 57).
in(142, 60).
in(142, 65).
in(142, 67).
in(142, 69).
in(142, 72).
in(142, 74).
in(142, 75).
in(142, 77).
in(142, 80).
in(142, 81).
in(142, 82).
in(142, 85).
in(142, 88).
in(142, 92).
in(142, 94).
in(142, 97).
in(142, 99).
in(142, 103).
in(142, 104).
in(142, 105).
in(142, 107).
in(142, 110).
in(142, 111).
in(142, 114).
in(142, 115).
in(142, 118).
in(142, 123).
in(142, 125).
in(142, 126).
in(143, 1).
in(143, 2).
in(143, 129).
in(143, 4).
in(143, 5).
in(143, 12).
in(143, 18).
in(143, 23).
in(143, 25).
in(143, 26).
in(143, 27).
in(143, 30).
in(143, 32).
in(143, 34).
in(143, 39).
in(143, 40).
in(143, 44).
in(143, 45).
in(143, 50).
in(143, 52).
in(143, 57).
in(143, 59).
in(143, 60).
in(143, 62).
in(143, 63).
in(143, 66).
in(143, 69).
in(143, 70).
in(143, 72).
in(143, 74).
in(143, 76).
in(143, 79).
in(143, 81).
in(143, 84).
in(143, 86).
in(143, 95).
in(143, 96).
in(143, 97).
in(143, 100).
in(143, 105).
in(143, 107).
in(143, 111).
in(143, 113).
in(143, 114).
in(143, 115).
in(143, 116).
in(143, 118).
in(143, 124).
in(143, 126).
in(144, 128).
in(144, 3).
in(144, 131).
in(144, 5).
in(144, 6).
in(144, 7).
in(144, 8).
in(144, 133).
in(144, 10).
in(144, 12).
in(144, 13).
in(144, 15).
in(144, 19).
in(144, 25).
in(144, 26).
in(144, 27).
in(144, 29).
in(144, 32).
in(144, 35).
in(144, 37).
in(144, 38).
in(144, 39).
in(144, 40).
in(144, 41).
in(144, 44).
in(144, 48).
in(144, 49).
in(144, 53).
in(144, 54).
in(144, 55).
in(144, 56).
in(144, 58).
in(144, 59).
in(144, 61).
in(144, 62).
in(144, 63).
in(144, 65).
in(144, 67).
in(144, 69).
in(144, 70).
in(144, 72).
in(144, 73).
in(144, 75).
in(144, 76).
in(144, 77).
in(144, 79).
in(144, 88).
in(144, 89).
in(144, 93).
in(144, 95).
in(144, 99).
in(144, 100).
in(144, 103).
in(144, 105).
in(144, 108).
in(144, 114).
in(144, 115).
in(144, 116).
in(144, 120).
in(144, 122).
in(145, 1).
in(145, 131).
in(145, 4).
in(145, 132).
in(145, 6).
in(145, 133).
in(145, 9).
in(145, 10).
in(145, 12).
in(145, 15).
in(145, 16).
in(145, 19).
in(145, 20).
in(145, 21).
in(145, 22).
in(145, 24).
in(145, 26).
in(145, 28).
in(145, 29).
in(145, 36).
in(145, 37).
in(145, 39).
in(145, 42).
in(145, 45).
in(145, 46).
in(145, 50).
in(145, 56).
in(145, 59).
in(145, 63).
in(145, 65).
in(145, 66).
in(145, 68).
in(145, 72).
in(145, 75).
in(145, 78).
in(145, 80).
in(145, 84).
in(145, 85).
in(145, 86).
in(145, 88).
in(145, 89).
in(145, 91).
in(145, 93).
in(145, 94).
in(145, 96).
in(145, 97).
in(145, 98).
in(145, 100).
in(145, 103).
in(145, 104).
in(145, 106).
in(145, 107).
in(145, 116).
in(145, 117).
in(145, 118).
in(145, 120).
in(145, 125).
in(145, 127).
in(146, 129).
in(146, 3).
in(146, 132).
in(146, 5).
in(146, 134).
in(146, 12).
in(146, 14).
in(146, 15).
in(146, 18).
in(146, 21).
in(146, 22).
in(146, 26).
in(146, 28).
in(146, 29).
in(146, 30).
in(146, 31).
in(146, 37).
in(146, 41).
in(146, 42).
in(146, 43).
in(146, 46).
in(146, 48).
in(146, 52).
in(146, 54).
in(146, 55).
in(146, 56).
in(146, 57).
in(146, 58).
in(146, 60).
in(146, 61).
in(146, 68).
in(146, 69).
in(146, 72).
in(146, 77).
in(146, 78).
in(146, 80).
in(146, 83).
in(146, 93).
in(146, 96).
in(146, 99).
in(146, 102).
in(146, 104).
in(146, 105).
in(146, 108).
in(146, 113).
in(146, 116).
in(146, 117).
in(146, 127).
in(147, 1).
in(147, 2).
in(147, 129).
in(147, 130).
in(147, 6).
in(147, 7).
in(147, 134).
in(147, 9).
in(147, 10).
in(147, 13).
in(147, 15).
in(147, 16).
in(147, 20).
in(147, 21).
in(147, 24).
in(147, 26).
in(147, 29).
in(147, 30).
in(147, 31).
in(147, 33).
in(147, 34).
in(147, 35).
in(147, 38).
in(147, 40).
in(147, 42).
in(147, 43).
in(147, 46).
in(147, 48).
in(147, 49).
in(147, 50).
in(147, 51).
in(147, 52).
in(147, 53).
in(147, 57).
in(147, 59).
in(147, 63).
in(147, 66).
in(147, 71).
in(147, 76).
in(147, 77).
in(147, 78).
in(147, 79).
in(147, 80).
in(147, 83).
in(147, 86).
in(147, 89).
in(147, 90).
in(147, 91).
in(147, 92).
in(147, 98).
in(147, 100).
in(147, 101).
in(147, 105).
in(147, 106).
in(147, 107).
in(147, 111).
in(147, 112).
in(147, 116).
in(147, 124).
in(147, 125).
in(147, 127).
in(148, 130).
in(148, 3).
in(148, 132).
in(148, 6).
in(148, 7).
in(148, 134).
in(148, 10).
in(148, 12).
in(148, 16).
in(148, 20).
in(148, 21).
in(148, 23).
in(148, 26).
in(148, 32).
in(148, 41).
in(148, 43).
in(148, 45).
in(148, 55).
in(148, 58).
in(148, 60).
in(148, 63).
in(148, 65).
in(148, 66).
in(148, 68).
in(148, 71).
in(148, 73).
in(148, 75).
in(148, 76).
in(148, 80).
in(148, 82).
in(148, 83).
in(148, 84).
in(148, 87).
in(148, 89).
in(148, 91).
in(148, 99).
in(148, 100).
in(148, 103).
in(148, 104).
in(148, 105).
in(148, 108).
in(148, 109).
in(148, 111).
in(148, 113).
in(148, 116).
in(148, 124).
in(148, 125).
in(149, 129).
in(149, 2).
in(149, 130).
in(149, 4).
in(149, 5).
in(149, 6).
in(149, 132).
in(149, 8).
in(149, 9).
in(149, 11).
in(149, 12).
in(149, 14).
in(149, 15).
in(149, 20).
in(149, 22).
in(149, 23).
in(149, 26).
in(149, 31).
in(149, 33).
in(149, 36).
in(149, 37).
in(149, 39).
in(149, 40).
in(149, 41).
in(149, 43).
in(149, 45).
in(149, 46).
in(149, 47).
in(149, 56).
in(149, 57).
in(149, 59).
in(149, 65).
in(149, 67).
in(149, 69).
in(149, 70).
in(149, 79).
in(149, 80).
in(149, 86).
in(149, 91).
in(149, 92).
in(149, 94).
in(149, 96).
in(149, 101).
in(149, 103).
in(149, 109).
in(149, 112).
in(149, 113).
in(149, 116).
in(149, 119).
in(149, 123).
in(149, 125).
in(149, 126).
in(150, 128).
in(150, 3).
in(150, 132).
in(150, 6).
in(150, 7).
in(150, 9).
in(150, 10).
in(150, 11).
in(150, 16).
in(150, 20).
in(150, 25).
in(150, 26).
in(150, 31).
in(150, 32).
in(150, 34).
in(150, 36).
in(150, 37).
in(150, 38).
in(150, 39).
in(150, 40).
in(150, 42).
in(150, 44).
in(150, 45).
in(150, 47).
in(150, 49).
in(150, 50).
in(150, 51).
in(150, 52).
in(150, 54).
in(150, 63).
in(150, 65).
in(150, 66).
in(150, 67).
in(150, 68).
in(150, 69).
in(150, 70).
in(150, 76).
in(150, 81).
in(150, 82).
in(150, 83).
in(150, 86).
in(150, 87).
in(150, 88).
in(150, 91).
in(150, 94).
in(150, 99).
in(150, 102).
in(150, 112).
in(150, 115).
in(150, 120).
in(150, 121).
in(150, 122).
in(150, 123).
in(150, 124).
in(150, 126).
in(151, 129).
in(151, 2).
in(151, 3).
in(151, 4).
in(151, 134).
in(151, 18).
in(151, 19).
in(151, 20).
in(151, 21).
in(151, 25).
in(151, 26).
in(151, 27).
in(151, 30).
in(151, 32).
in(151, 33).
in(151, 35).
in(151, 36).
in(151, 37).
in(151, 39).
in(151, 40).
in(151, 43).
in(151, 45).
in(151, 47).
in(151, 53).
in(151, 54).
in(151, 58).
in(151, 59).
in(151, 60).
in(151, 61).
in(151, 63).
in(151, 66).
in(151, 68).
in(151, 69).
in(151, 71).
in(151, 75).
in(151, 76).
in(151, 77).
in(151, 78).
in(151, 79).
in(151, 81).
in(151, 85).
in(151, 86).
in(151, 101).
in(151, 104).
in(151, 105).
in(151, 106).
in(151, 108).
in(151, 109).
in(151, 111).
in(151, 113).
in(151, 115).
in(151, 116).
in(151, 123).
in(151, 126).
in(151, 127).
in(152, 128).
in(152, 2).
in(152, 130).
in(152, 131).
in(152, 5).
in(152, 6).
in(152, 133).
in(152, 12).
in(152, 13).
in(152, 14).
in(152, 15).
in(152, 16).
in(152, 18).
in(152, 20).
in(152, 21).
in(152, 23).
in(152, 26).
in(152, 27).
in(152, 28).
in(152, 32).
in(152, 33).
in(152, 36).
in(152, 39).
in(152, 40).
in(152, 44).
in(152, 48).
in(152, 61).
in(152, 63).
in(152, 65).
in(152, 66).
in(152, 67).
in(152, 69).
in(152, 70).
in(152, 73).
in(152, 77).
in(152, 78).
in(152, 79).
in(152, 80).
in(152, 85).
in(152, 86).
in(152, 87).
in(152, 92).
in(152, 94).
in(152, 95).
in(152, 99).
in(152, 100).
in(152, 102).
in(152, 104).
in(152, 105).
in(152, 107).
in(152, 108).
in(152, 109).
in(152, 111).
in(152, 112).
in(152, 113).
in(152, 114).
in(152, 115).
in(152, 118).
in(152, 121).
in(152, 122).
in(152, 124).
in(153, 128).
in(153, 1).
in(153, 130).
in(153, 3).
in(153, 4).
in(153, 5).
in(153, 6).
in(153, 7).
in(153, 133).
in(153, 134).
in(153, 10).
in(153, 11).
in(153, 13).
in(153, 14).
in(153, 16).
in(153, 17).
in(153, 18).
in(153, 19).
in(153, 22).
in(153, 23).
in(153, 24).
in(153, 26).
in(153, 27).
in(153, 29).
in(153, 30).
in(153, 32).
in(153, 35).
in(153, 36).
in(153, 37).
in(153, 38).
in(153, 40).
in(153, 41).
in(153, 44).
in(153, 48).
in(153, 49).
in(153, 51).
in(153, 52).
in(153, 54).
in(153, 58).
in(153, 60).
in(153, 62).
in(153, 64).
in(153, 65).
in(153, 66).
in(153, 67).
in(153, 72).
in(153, 73).
in(153, 78).
in(153, 80).
in(153, 82).
in(153, 83).
in(153, 90).
in(153, 91).
in(153, 93).
in(153, 95).
in(153, 96).
in(153, 98).
in(153, 99).
in(153, 105).
in(153, 108).
in(153, 111).
in(153, 115).
in(153, 116).
in(153, 118).
in(153, 119).
in(153, 124).
in(153, 127).
in(154, 129).
in(154, 2).
in(154, 3).
in(154, 4).
in(154, 132).
in(154, 133).
in(154, 8).
in(154, 9).
in(154, 10).
in(154, 13).
in(154, 17).
in(154, 19).
in(154, 20).
in(154, 21).
in(154, 23).
in(154, 24).
in(154, 28).
in(154, 29).
in(154, 32).
in(154, 35).
in(154, 37).
in(154, 40).
in(154, 41).
in(154, 42).
in(154, 43).
in(154, 46).
in(154, 50).
in(154, 52).
in(154, 53).
in(154, 54).
in(154, 57).
in(154, 59).
in(154, 64).
in(154, 65).
in(154, 66).
in(154, 71).
in(154, 73).
in(154, 74).
in(154, 75).
in(154, 77).
in(154, 79).
in(154, 80).
in(154, 81).
in(154, 83).
in(154, 84).
in(154, 86).
in(154, 87).
in(154, 89).
in(154, 90).
in(154, 91).
in(154, 95).
in(154, 96).
in(154, 98).
in(154, 99).
in(154, 105).
in(154, 106).
in(154, 109).
in(154, 110).
in(154, 111).
in(154, 112).
in(154, 115).
in(154, 118).
in(154, 119).
in(154, 122).
in(154, 123).
in(154, 124).
in(154, 125).
in(154, 127).
in(155, 128).
in(155, 130).
in(155, 4).
in(155, 134).
in(155, 8).
in(155, 9).
in(155, 14).
in(155, 15).
in(155, 17).
in(155, 18).
in(155, 26).
in(155, 29).
in(155, 33).
in(155, 35).
in(155, 36).
in(155, 40).
in(155, 41).
in(155, 45).
in(155, 50).
in(155, 53).
in(155, 55).
in(155, 58).
in(155, 64).
in(155, 65).
in(155, 67).
in(155, 69).
in(155, 71).
in(155, 74).
in(155, 77).
in(155, 79).
in(155, 80).
in(155, 84).
in(155, 86).
in(155, 87).
in(155, 88).
in(155, 90).
in(155, 91).
in(155, 92).
in(155, 93).
in(155, 94).
in(155, 97).
in(155, 98).
in(155, 103).
in(155, 108).
in(155, 112).
in(155, 114).
in(155, 116).
in(155, 125).
in(155, 127).
in(156, 130).
in(156, 132).
in(156, 5).
in(156, 7).
in(156, 8).
in(156, 10).
in(156, 13).
in(156, 14).
in(156, 15).
in(156, 16).
in(156, 18).
in(156, 19).
in(156, 21).
in(156, 23).
in(156, 24).
in(156, 25).
in(156, 28).
in(156, 29).
in(156, 32).
in(156, 37).
in(156, 41).
in(156, 42).
in(156, 45).
in(156, 47).
in(156, 49).
in(156, 50).
in(156, 53).
in(156, 58).
in(156, 59).
in(156, 60).
in(156, 61).
in(156, 66).
in(156, 67).
in(156, 68).
in(156, 69).
in(156, 71).
in(156, 73).
in(156, 77).
in(156, 78).
in(156, 79).
in(156, 80).
in(156, 81).
in(156, 82).
in(156, 83).
in(156, 85).
in(156, 86).
in(156, 89).
in(156, 90).
in(156, 91).
in(156, 98).
in(156, 100).
in(156, 101).
in(156, 103).
in(156, 104).
in(156, 105).
in(156, 108).
in(156, 109).
in(156, 124).
in(156, 127).
in(157, 1).
in(157, 2).
in(157, 129).
in(157, 132).
in(157, 5).
in(157, 6).
in(157, 134).
in(157, 11).
in(157, 14).
in(157, 18).
in(157, 24).
in(157, 26).
in(157, 34).
in(157, 36).
in(157, 37).
in(157, 38).
in(157, 40).
in(157, 41).
in(157, 42).
in(157, 44).
in(157, 45).
in(157, 49).
in(157, 50).
in(157, 52).
in(157, 54).
in(157, 55).
in(157, 57).
in(157, 63).
in(157, 64).
in(157, 67).
in(157, 71).
in(157, 74).
in(157, 80).
in(157, 83).
in(157, 85).
in(157, 91).
in(157, 94).
in(157, 97).
in(157, 100).
in(157, 101).
in(157, 104).
in(157, 107).
in(157, 108).
in(157, 111).
in(157, 112).
in(157, 115).
in(157, 116).
in(157, 118).
in(157, 119).
in(157, 123).
in(157, 125).
in(157, 126).
in(157, 127).
in(158, 1).
in(158, 129).
in(158, 3).
in(158, 4).
in(158, 130).
in(158, 6).
in(158, 131).
in(158, 9).
in(158, 10).
in(158, 13).
in(158, 14).
in(158, 15).
in(158, 16).
in(158, 17).
in(158, 19).
in(158, 22).
in(158, 26).
in(158, 28).
in(158, 31).
in(158, 32).
in(158, 34).
in(158, 36).
in(158, 39).
in(158, 40).
in(158, 41).
in(158, 47).
in(158, 51).
in(158, 52).
in(158, 57).
in(158, 60).
in(158, 64).
in(158, 65).
in(158, 69).
in(158, 71).
in(158, 72).
in(158, 75).
in(158, 76).
in(158, 78).
in(158, 79).
in(158, 80).
in(158, 81).
in(158, 82).
in(158, 85).
in(158, 89).
in(158, 90).
in(158, 91).
in(158, 93).
in(158, 94).
in(158, 95).
in(158, 97).
in(158, 100).
in(158, 103).
in(158, 105).
in(158, 106).
in(158, 110).
in(158, 112).
in(158, 118).
in(158, 119).
in(158, 121).
in(158, 122).
in(158, 124).
in(158, 125).
in(158, 126).
in(159, 128).
in(159, 1).
in(159, 2).
in(159, 3).
in(159, 131).
in(159, 5).
in(159, 132).
in(159, 133).
in(159, 8).
in(159, 18).
in(159, 24).
in(159, 27).
in(159, 29).
in(159, 32).
in(159, 35).
in(159, 37).
in(159, 42).
in(159, 43).
in(159, 44).
in(159, 50).
in(159, 51).
in(159, 52).
in(159, 55).
in(159, 57).
in(159, 58).
in(159, 59).
in(159, 60).
in(159, 61).
in(159, 62).
in(159, 64).
in(159, 65).
in(159, 66).
in(159, 68).
in(159, 74).
in(159, 75).
in(159, 78).
in(159, 80).
in(159, 84).
in(159, 85).
in(159, 90).
in(159, 91).
in(159, 93).
in(159, 98).
in(159, 99).
in(159, 100).
in(159, 102).
in(159, 104).
in(159, 113).
in(159, 119).
in(159, 120).
in(159, 125).
in(159, 127).
in(160, 1).
in(160, 2).
in(160, 3).
in(160, 4).
in(160, 133).
in(160, 6).
in(160, 9).
in(160, 10).
in(160, 11).
in(160, 13).
in(160, 16).
in(160, 17).
in(160, 18).
in(160, 19).
in(160, 29).
in(160, 31).
in(160, 34).
in(160, 37).
in(160, 38).
in(160, 40).
in(160, 41).
in(160, 42).
in(160, 43).
in(160, 45).
in(160, 47).
in(160, 49).
in(160, 51).
in(160, 53).
in(160, 56).
in(160, 59).
in(160, 61).
in(160, 62).
in(160, 63).
in(160, 65).
in(160, 66).
in(160, 70).
in(160, 75).
in(160, 77).
in(160, 78).
in(160, 81).
in(160, 82).
in(160, 84).
in(160, 86).
in(160, 87).
in(160, 88).
in(160, 90).
in(160, 94).
in(160, 96).
in(160, 97).
in(160, 99).
in(160, 101).
in(160, 102).
in(160, 105).
in(160, 106).
in(160, 107).
in(160, 108).
in(160, 111).
in(160, 113).
in(160, 114).
in(160, 115).
in(160, 116).
in(160, 117).
in(160, 119).
in(160, 125).
in(161, 128).
in(161, 129).
in(161, 4).
in(161, 132).
in(161, 6).
in(161, 7).
in(161, 10).
in(161, 13).
in(161, 14).
in(161, 16).
in(161, 17).
in(161, 27).
in(161, 28).
in(161, 29).
in(161, 34).
in(161, 35).
in(161, 36).
in(161, 39).
in(161, 41).
in(161, 44).
in(161, 47).
in(161, 50).
in(161, 54).
in(161, 56).
in(161, 61).
in(161, 62).
in(161, 68).
in(161, 70).
in(161, 72).
in(161, 74).
in(161, 78).
in(161, 79).
in(161, 81).
in(161, 82).
in(161, 86).
in(161, 90).
in(161, 91).
in(161, 92).
in(161, 93).
in(161, 101).
in(161, 106).
in(161, 107).
in(161, 108).
in(161, 115).
in(161, 116).
in(161, 125).
in(162, 128).
in(162, 129).
in(162, 2).
in(162, 3).
in(162, 4).
in(162, 131).
in(162, 6).
in(162, 12).
in(162, 13).
in(162, 14).
in(162, 15).
in(162, 17).
in(162, 19).
in(162, 23).
in(162, 24).
in(162, 26).
in(162, 28).
in(162, 34).
in(162, 36).
in(162, 40).
in(162, 43).
in(162, 45).
in(162, 47).
in(162, 49).
in(162, 50).
in(162, 52).
in(162, 55).
in(162, 56).
in(162, 58).
in(162, 68).
in(162, 69).
in(162, 70).
in(162, 71).
in(162, 73).
in(162, 74).
in(162, 77).
in(162, 80).
in(162, 83).
in(162, 84).
in(162, 85).
in(162, 88).
in(162, 89).
in(162, 93).
in(162, 94).
in(162, 95).
in(162, 99).
in(162, 100).
in(162, 102).
in(162, 104).
in(162, 106).
in(162, 107).
in(162, 114).
in(162, 115).
in(162, 119).
in(162, 120).
in(162, 121).
in(162, 123).
in(162, 124).
in(162, 125).
in(163, 129).
in(163, 4).
in(163, 6).
in(163, 7).
in(163, 9).
in(163, 11).
in(163, 12).
in(163, 15).
in(163, 16).
in(163, 22).
in(163, 23).
in(163, 24).
in(163, 25).
in(163, 27).
in(163, 28).
in(163, 29).
in(163, 32).
in(163, 33).
in(163, 34).
in(163, 36).
in(163, 37).
in(163, 38).
in(163, 39).
in(163, 42).
in(163, 43).
in(163, 44).
in(163, 47).
in(163, 48).
in(163, 49).
in(163, 50).
in(163, 51).
in(163, 52).
in(163, 55).
in(163, 61).
in(163, 62).
in(163, 63).
in(163, 71).
in(163, 73).
in(163, 76).
in(163, 78).
in(163, 79).
in(163, 80).
in(163, 81).
in(163, 83).
in(163, 86).
in(163, 87).
in(163, 89).
in(163, 90).
in(163, 91).
in(163, 94).
in(163, 95).
in(163, 96).
in(163, 98).
in(163, 99).
in(163, 100).
in(163, 101).
in(163, 104).
in(163, 105).
in(163, 106).
in(163, 108).
in(163, 110).
in(163, 112).
in(163, 114).
in(163, 115).
in(163, 118).
in(163, 121).
in(163, 123).
in(163, 125).
in(163, 126).
in(163, 127).
in(164, 128).
in(164, 129).
in(164, 130).
in(164, 132).
in(164, 133).
in(164, 134).
in(164, 7).
in(164, 9).
in(164, 10).
in(164, 16).
in(164, 18).
in(164, 19).
in(164, 22).
in(164, 24).
in(164, 26).
in(164, 27).
in(164, 30).
in(164, 31).
in(164, 34).
in(164, 35).
in(164, 36).
in(164, 37).
in(164, 38).
in(164, 40).
in(164, 41).
in(164, 42).
in(164, 52).
in(164, 53).
in(164, 55).
in(164, 56).
in(164, 57).
in(164, 59).
in(164, 60).
in(164, 62).
in(164, 65).
in(164, 66).
in(164, 70).
in(164, 71).
in(164, 74).
in(164, 75).
in(164, 80).
in(164, 81).
in(164, 85).
in(164, 86).
in(164, 87).
in(164, 88).
in(164, 89).
in(164, 94).
in(164, 95).
in(164, 98).
in(164, 99).
in(164, 102).
in(164, 104).
in(164, 107).
in(164, 108).
in(164, 111).
in(164, 115).
in(164, 117).
in(164, 119).
in(164, 120).
in(164, 121).
in(164, 123).
in(164, 124).
in(164, 125).
in(165, 128).
in(165, 130).
in(165, 3).
in(165, 4).
in(165, 131).
in(165, 134).
in(165, 7).
in(165, 9).
in(165, 10).
in(165, 12).
in(165, 14).
in(165, 19).
in(165, 23).
in(165, 26).
in(165, 27).
in(165, 30).
in(165, 32).
in(165, 33).
in(165, 38).
in(165, 44).
in(165, 45).
in(165, 46).
in(165, 48).
in(165, 51).
in(165, 52).
in(165, 56).
in(165, 57).
in(165, 63).
in(165, 65).
in(165, 66).
in(165, 68).
in(165, 69).
in(165, 70).
in(165, 71).
in(165, 77).
in(165, 82).
in(165, 83).
in(165, 85).
in(165, 88).
in(165, 89).
in(165, 91).
in(165, 94).
in(165, 95).
in(165, 100).
in(165, 105).
in(165, 109).
in(165, 111).
in(165, 112).
in(165, 113).
in(165, 119).
in(165, 121).
in(165, 125).
in(165, 126).
in(165, 127).
in(166, 128).
in(166, 1).
in(166, 2).
in(166, 131).
in(166, 4).
in(166, 133).
in(166, 6).
in(166, 7).
in(166, 8).
in(166, 134).
in(166, 10).
in(166, 11).
in(166, 13).
in(166, 17).
in(166, 28).
in(166, 30).
in(166, 31).
in(166, 35).
in(166, 36).
in(166, 40).
in(166, 42).
in(166, 44).
in(166, 46).
in(166, 47).
in(166, 48).
in(166, 49).
in(166, 55).
in(166, 57).
in(166, 58).
in(166, 59).
in(166, 60).
in(166, 61).
in(166, 65).
in(166, 67).
in(166, 69).
in(166, 73).
in(166, 74).
in(166, 75).
in(166, 76).
in(166, 78).
in(166, 84).
in(166, 85).
in(166, 86).
in(166, 88).
in(166, 89).
in(166, 91).
in(166, 94).
in(166, 95).
in(166, 96).
in(166, 98).
in(166, 99).
in(166, 101).
in(166, 102).
in(166, 104).
in(166, 106).
in(166, 112).
in(166, 117).
in(166, 119).
in(166, 121).
in(166, 124).
in(166, 126).
in(166, 127).
in(167, 1).
in(167, 2).
in(167, 131).
in(167, 4).
in(167, 133).
in(167, 6).
in(167, 134).
in(167, 8).
in(167, 10).
in(167, 12).
in(167, 13).
in(167, 18).
in(167, 19).
in(167, 20).
in(167, 24).
in(167, 29).
in(167, 30).
in(167, 31).
in(167, 38).
in(167, 39).
in(167, 41).
in(167, 45).
in(167, 47).
in(167, 49).
in(167, 50).
in(167, 52).
in(167, 60).
in(167, 61).
in(167, 62).
in(167, 64).
in(167, 66).
in(167, 68).
in(167, 70).
in(167, 72).
in(167, 77).
in(167, 79).
in(167, 80).
in(167, 84).
in(167, 86).
in(167, 87).
in(167, 91).
in(167, 99).
in(167, 107).
in(167, 108).
in(167, 109).
in(167, 116).
in(167, 117).
in(167, 122).
in(167, 125).
in(167, 126).
in(167, 127).
in(168, 1).
in(168, 129).
in(168, 131).
in(168, 4).
in(168, 5).
in(168, 6).
in(168, 133).
in(168, 8).
in(168, 11).
in(168, 12).
in(168, 13).
in(168, 16).
in(168, 18).
in(168, 19).
in(168, 20).
in(168, 22).
in(168, 23).
in(168, 24).
in(168, 25).
in(168, 26).
in(168, 30).
in(168, 31).
in(168, 38).
in(168, 42).
in(168, 46).
in(168, 48).
in(168, 51).
in(168, 57).
in(168, 59).
in(168, 62).
in(168, 63).
in(168, 66).
in(168, 72).
in(168, 73).
in(168, 74).
in(168, 75).
in(168, 84).
in(168, 87).
in(168, 88).
in(168, 90).
in(168, 91).
in(168, 97).
in(168, 98).
in(168, 101).
in(168, 102).
in(168, 110).
in(168, 111).
in(168, 112).
in(168, 115).
in(168, 120).
in(168, 121).
in(168, 122).
in(168, 126).
in(169, 128).
in(169, 129).
in(169, 131).
in(169, 5).
in(169, 134).
in(169, 10).
in(169, 13).
in(169, 15).
in(169, 16).
in(169, 20).
in(169, 23).
in(169, 25).
in(169, 27).
in(169, 28).
in(169, 29).
in(169, 31).
in(169, 38).
in(169, 40).
in(169, 42).
in(169, 43).
in(169, 47).
in(169, 49).
in(169, 52).
in(169, 62).
in(169, 68).
in(169, 69).
in(169, 71).
in(169, 72).
in(169, 75).
in(169, 78).
in(169, 82).
in(169, 85).
in(169, 89).
in(169, 92).
in(169, 93).
in(169, 94).
in(169, 95).
in(169, 96).
in(169, 100).
in(169, 102).
in(169, 103).
in(169, 106).
in(169, 107).
in(169, 109).
in(169, 111).
in(169, 112).
in(169, 114).
in(169, 115).
in(169, 116).
in(169, 121).
in(169, 122).
in(169, 125).
in(169, 127).
in(170, 128).
in(170, 1).
in(170, 4).
in(170, 5).
in(170, 6).
in(170, 132).
in(170, 8).
in(170, 9).
in(170, 10).
in(170, 12).
in(170, 13).
in(170, 16).
in(170, 17).
in(170, 18).
in(170, 19).
in(170, 20).
in(170, 23).
in(170, 24).
in(170, 25).
in(170, 27).
in(170, 28).
in(170, 30).
in(170, 31).
in(170, 32).
in(170, 35).
in(170, 40).
in(170, 41).
in(170, 45).
in(170, 48).
in(170, 49).
in(170, 51).
in(170, 52).
in(170, 53).
in(170, 55).
in(170, 58).
in(170, 60).
in(170, 61).
in(170, 62).
in(170, 66).
in(170, 68).
in(170, 69).
in(170, 74).
in(170, 77).
in(170, 78).
in(170, 80).
in(170, 82).
in(170, 85).
in(170, 88).
in(170, 89).
in(170, 90).
in(170, 92).
in(170, 102).
in(170, 107).
in(170, 110).
in(170, 113).
in(170, 114).
in(170, 119).
in(170, 120).
in(170, 121).
in(170, 124).
in(170, 125).
in(170, 127).
in(171, 1).
in(171, 129).
in(171, 131).
in(171, 132).
in(171, 6).
in(171, 9).
in(171, 12).
in(171, 13).
in(171, 16).
in(171, 17).
in(171, 18).
in(171, 21).
in(171, 22).
in(171, 23).
in(171, 24).
in(171, 30).
in(171, 33).
in(171, 34).
in(171, 36).
in(171, 37).
in(171, 39).
in(171, 42).
in(171, 44).
in(171, 45).
in(171, 52).
in(171, 54).
in(171, 56).
in(171, 57).
in(171, 58).
in(171, 59).
in(171, 61).
in(171, 64).
in(171, 65).
in(171, 67).
in(171, 69).
in(171, 70).
in(171, 73).
in(171, 74).
in(171, 76).
in(171, 77).
in(171, 80).
in(171, 84).
in(171, 85).
in(171, 87).
in(171, 88).
in(171, 89).
in(171, 90).
in(171, 93).
in(171, 95).
in(171, 96).
in(171, 98).
in(171, 100).
in(171, 102).
in(171, 103).
in(171, 106).
in(171, 107).
in(171, 110).
in(171, 111).
in(171, 114).
in(171, 116).
in(171, 117).
in(171, 119).
in(171, 122).
in(171, 126).
in(172, 129).
in(172, 2).
in(172, 3).
in(172, 4).
in(172, 133).
in(172, 134).
in(172, 7).
in(172, 10).
in(172, 12).
in(172, 17).
in(172, 18).
in(172, 20).
in(172, 22).
in(172, 23).
in(172, 24).
in(172, 25).
in(172, 27).
in(172, 34).
in(172, 35).
in(172, 38).
in(172, 48).
in(172, 50).
in(172, 65).
in(172, 66).
in(172, 68).
in(172, 69).
in(172, 74).
in(172, 76).
in(172, 83).
in(172, 84).
in(172, 85).
in(172, 87).
in(172, 89).
in(172, 90).
in(172, 95).
in(172, 101).
in(172, 102).
in(172, 103).
in(172, 107).
in(172, 108).
in(172, 110).
in(172, 114).
in(172, 117).
in(172, 123).
in(172, 124).
in(172, 127).
in(173, 3).
in(173, 131).
in(173, 5).
in(173, 7).
in(173, 8).
in(173, 12).
in(173, 25).
in(173, 27).
in(173, 35).
in(173, 37).
in(173, 38).
in(173, 40).
in(173, 41).
in(173, 42).
in(173, 45).
in(173, 46).
in(173, 47).
in(173, 50).
in(173, 53).
in(173, 55).
in(173, 59).
in(173, 60).
in(173, 61).
in(173, 62).
in(173, 63).
in(173, 64).
in(173, 65).
in(173, 69).
in(173, 73).
in(173, 74).
in(173, 76).
in(173, 77).
in(173, 78).
in(173, 80).
in(173, 84).
in(173, 86).
in(173, 87).
in(173, 91).
in(173, 93).
in(173, 95).
in(173, 102).
in(173, 103).
in(173, 104).
in(173, 105).
in(173, 113).
in(173, 118).
in(173, 122).
in(173, 124).
in(173, 127).
in(174, 129).
in(174, 2).
in(174, 130).
in(174, 4).
in(174, 131).
in(174, 10).
in(174, 17).
in(174, 18).
in(174, 22).
in(174, 23).
in(174, 27).
in(174, 30).
in(174, 32).
in(174, 36).
in(174, 41).
in(174, 42).
in(174, 43).
in(174, 47).
in(174, 48).
in(174, 50).
in(174, 51).
in(174, 52).
in(174, 57).
in(174, 61).
in(174, 62).
in(174, 67).
in(174, 68).
in(174, 76).
in(174, 80).
in(174, 82).
in(174, 87).
in(174, 92).
in(174, 93).
in(174, 95).
in(174, 98).
in(174, 100).
in(174, 104).
in(174, 105).
in(174, 106).
in(174, 108).
in(174, 109).
in(174, 116).
in(174, 118).
in(174, 119).
in(174, 121).
in(174, 122).
in(174, 124).
in(174, 125).
in(174, 126).
in(175, 128).
in(175, 2).
in(175, 3).
in(175, 131).
in(175, 6).
in(175, 7).
in(175, 134).
in(175, 9).
in(175, 14).
in(175, 16).
in(175, 17).
in(175, 18).
in(175, 21).
in(175, 26).
in(175, 27).
in(175, 29).
in(175, 30).
in(175, 32).
in(175, 33).
in(175, 35).
in(175, 40).
in(175, 43).
in(175, 44).
in(175, 48).
in(175, 50).
in(175, 62).
in(175, 63).
in(175, 64).
in(175, 65).
in(175, 67).
in(175, 68).
in(175, 69).
in(175, 71).
in(175, 72).
in(175, 73).
in(175, 76).
in(175, 79).
in(175, 87).
in(175, 89).
in(175, 92).
in(175, 94).
in(175, 96).
in(175, 98).
in(175, 100).
in(175, 101).
in(175, 102).
in(175, 103).
in(175, 111).
in(175, 115).
in(175, 116).
in(175, 124).
in(175, 125).
in(175, 127).
in(176, 128).
in(176, 4).
in(176, 5).
in(176, 133).
in(176, 9).
in(176, 12).
in(176, 15).
in(176, 16).
in(176, 17).
in(176, 20).
in(176, 21).
in(176, 22).
in(176, 26).
in(176, 28).
in(176, 29).
in(176, 30).
in(176, 32).
in(176, 33).
in(176, 34).
in(176, 42).
in(176, 45).
in(176, 47).
in(176, 50).
in(176, 52).
in(176, 53).
in(176, 54).
in(176, 56).
in(176, 63).
in(176, 68).
in(176, 70).
in(176, 71).
in(176, 72).
in(176, 74).
in(176, 76).
in(176, 77).
in(176, 78).
in(176, 79).
in(176, 82).
in(176, 90).
in(176, 98).
in(176, 99).
in(176, 100).
in(176, 101).
in(176, 102).
in(176, 105).
in(176, 106).
in(176, 107).
in(176, 111).
in(176, 115).
in(176, 120).
in(176, 122).
in(176, 126).
in(176, 127).
in(177, 2).
in(177, 131).
in(177, 4).
in(177, 133).
in(177, 134).
in(177, 7).
in(177, 10).
in(177, 11).
in(177, 13).
in(177, 18).
in(177, 20).
in(177, 21).
in(177, 24).
in(177, 26).
in(177, 27).
in(177, 28).
in(177, 29).
in(177, 34).
in(177, 35).
in(177, 36).
in(177, 37).
in(177, 40).
in(177, 43).
in(177, 44).
in(177, 45).
in(177, 50).
in(177, 53).
in(177, 55).
in(177, 58).
in(177, 59).
in(177, 62).
in(177, 64).
in(177, 65).
in(177, 66).
in(177, 68).
in(177, 70).
in(177, 71).
in(177, 72).
in(177, 76).
in(177, 79).
in(177, 81).
in(177, 84).
in(177, 85).
in(177, 90).
in(177, 93).
in(177, 99).
in(177, 100).
in(177, 103).
in(177, 104).
in(177, 105).
in(177, 112).
in(177, 113).
in(177, 114).
in(177, 118).
in(177, 119).
in(177, 120).
in(177, 122).
in(177, 123).
in(177, 126).
in(178, 2).
in(178, 3).
in(178, 4).
in(178, 5).
in(178, 6).
in(178, 130).
in(178, 132).
in(178, 133).
in(178, 11).
in(178, 21).
in(178, 25).
in(178, 27).
in(178, 28).
in(178, 29).
in(178, 30).
in(178, 32).
in(178, 33).
in(178, 34).
in(178, 35).
in(178, 36).
in(178, 40).
in(178, 41).
in(178, 43).
in(178, 44).
in(178, 48).
in(178, 49).
in(178, 50).
in(178, 52).
in(178, 53).
in(178, 57).
in(178, 59).
in(178, 60).
in(178, 67).
in(178, 69).
in(178, 70).
in(178, 72).
in(178, 78).
in(178, 80).
in(178, 81).
in(178, 82).
in(178, 84).
in(178, 87).
in(178, 89).
in(178, 90).
in(178, 93).
in(178, 96).
in(178, 97).
in(178, 100).
in(178, 101).
in(178, 105).
in(178, 106).
in(178, 107).
in(178, 109).
in(178, 111).
in(178, 114).
in(178, 116).
in(178, 125).
in(178, 126).
in(179, 1).
in(179, 2).
in(179, 5).
in(179, 6).
in(179, 7).
in(179, 8).
in(179, 9).
in(179, 133).
in(179, 11).
in(179, 13).
in(179, 14).
in(179, 19).
in(179, 25).
in(179, 26).
in(179, 29).
in(179, 31).
in(179, 39).
in(179, 41).
in(179, 42).
in(179, 47).
in(179, 49).
in(179, 53).
in(179, 54).
in(179, 55).
in(179, 58).
in(179, 61).
in(179, 67).
in(179, 68).
in(179, 69).
in(179, 79).
in(179, 82).
in(179, 83).
in(179, 85).
in(179, 88).
in(179, 89).
in(179, 94).
in(179, 100).
in(179, 102).
in(179, 104).
in(179, 105).
in(179, 107).
in(179, 108).
in(179, 111).
in(179, 112).
in(179, 113).
in(179, 114).
in(179, 117).
in(179, 119).
in(179, 123).
in(179, 124).
in(180, 2).
in(180, 3).
in(180, 4).
in(180, 8).
in(180, 14).
in(180, 16).
in(180, 19).
in(180, 23).
in(180, 28).
in(180, 31).
in(180, 34).
in(180, 36).
in(180, 42).
in(180, 43).
in(180, 45).
in(180, 46).
in(180, 49).
in(180, 51).
in(180, 53).
in(180, 56).
in(180, 59).
in(180, 61).
in(180, 63).
in(180, 70).
in(180, 71).
in(180, 73).
in(180, 76).
in(180, 78).
in(180, 79).
in(180, 81).
in(180, 82).
in(180, 87).
in(180, 88).
in(180, 92).
in(180, 97).
in(180, 98).
in(180, 101).
in(180, 102).
in(180, 103).
in(180, 105).
in(180, 115).
in(180, 116).
in(180, 117).
in(180, 118).
in(180, 122).
in(180, 124).
in(181, 128).
in(181, 2).
in(181, 3).
in(181, 4).
in(181, 5).
in(181, 130).
in(181, 7).
in(181, 8).
in(181, 132).
in(181, 18).
in(181, 19).
in(181, 22).
in(181, 23).
in(181, 29).
in(181, 30).
in(181, 32).
in(181, 33).
in(181, 37).
in(181, 39).
in(181, 41).
in(181, 44).
in(181, 45).
in(181, 48).
in(181, 49).
in(181, 50).
in(181, 52).
in(181, 59).
in(181, 64).
in(181, 67).
in(181, 68).
in(181, 69).
in(181, 74).
in(181, 75).
in(181, 77).
in(181, 78).
in(181, 84).
in(181, 85).
in(181, 89).
in(181, 91).
in(181, 94).
in(181, 95).
in(181, 96).
in(181, 97).
in(181, 99).
in(181, 100).
in(181, 101).
in(181, 108).
in(181, 114).
in(181, 119).
in(181, 121).
in(181, 126).
in(182, 131).
in(182, 5).
in(182, 134).
in(182, 7).
in(182, 12).
in(182, 13).
in(182, 14).
in(182, 26).
in(182, 27).
in(182, 30).
in(182, 31).
in(182, 36).
in(182, 40).
in(182, 41).
in(182, 42).
in(182, 47).
in(182, 49).
in(182, 51).
in(182, 53).
in(182, 55).
in(182, 56).
in(182, 57).
in(182, 58).
in(182, 60).
in(182, 61).
in(182, 63).
in(182, 66).
in(182, 68).
in(182, 70).
in(182, 71).
in(182, 73).
in(182, 75).
in(182, 77).
in(182, 78).
in(182, 79).
in(182, 80).
in(182, 81).
in(182, 82).
in(182, 83).
in(182, 87).
in(182, 92).
in(182, 94).
in(182, 95).
in(182, 97).
in(182, 98).
in(182, 105).
in(182, 113).
in(182, 114).
in(182, 118).
in(182, 119).
in(182, 121).
in(182, 125).
in(183, 128).
in(183, 1).
in(183, 2).
in(183, 130).
in(183, 4).
in(183, 133).
in(183, 6).
in(183, 134).
in(183, 9).
in(183, 13).
in(183, 16).
in(183, 21).
in(183, 23).
in(183, 31).
in(183, 34).
in(183, 35).
in(183, 36).
in(183, 37).
in(183, 39).
in(183, 40).
in(183, 42).
in(183, 47).
in(183, 48).
in(183, 49).
in(183, 51).
in(183, 52).
in(183, 54).
in(183, 56).
in(183, 57).
in(183, 59).
in(183, 60).
in(183, 65).
in(183, 74).
in(183, 75).
in(183, 77).
in(183, 78).
in(183, 84).
in(183, 86).
in(183, 87).
in(183, 89).
in(183, 91).
in(183, 95).
in(183, 100).
in(183, 102).
in(183, 103).
in(183, 105).
in(183, 107).
in(183, 113).
in(183, 116).
in(183, 122).
in(183, 124).
in(183, 127).
in(184, 129).
in(184, 130).
in(184, 133).
in(184, 134).
in(184, 7).
in(184, 10).
in(184, 13).
in(184, 15).
in(184, 16).
in(184, 18).
in(184, 21).
in(184, 22).
in(184, 24).
in(184, 25).
in(184, 29).
in(184, 30).
in(184, 32).
in(184, 38).
in(184, 39).
in(184, 40).
in(184, 41).
in(184, 42).
in(184, 45).
in(184, 50).
in(184, 56).
in(184, 58).
in(184, 59).
in(184, 62).
in(184, 64).
in(184, 66).
in(184, 67).
in(184, 73).
in(184, 74).
in(184, 75).
in(184, 77).
in(184, 79).
in(184, 80).
in(184, 81).
in(184, 83).
in(184, 84).
in(184, 86).
in(184, 89).
in(184, 90).
in(184, 93).
in(184, 102).
in(184, 103).
in(184, 110).
in(184, 111).
in(184, 113).
in(184, 119).
in(184, 120).
in(184, 121).
in(184, 122).
in(184, 123).
in(184, 124).
in(184, 125).
in(185, 128).
in(185, 1).
in(185, 132).
in(185, 134).
in(185, 7).
in(185, 9).
in(185, 10).
in(185, 16).
in(185, 18).
in(185, 19).
in(185, 21).
in(185, 23).
in(185, 26).
in(185, 28).
in(185, 30).
in(185, 31).
in(185, 33).
in(185, 36).
in(185, 37).
in(185, 42).
in(185, 45).
in(185, 46).
in(185, 51).
in(185, 52).
in(185, 57).
in(185, 61).
in(185, 64).
in(185, 65).
in(185, 66).
in(185, 67).
in(185, 70).
in(185, 71).
in(185, 72).
in(185, 78).
in(185, 80).
in(185, 82).
in(185, 85).
in(185, 88).
in(185, 89).
in(185, 90).
in(185, 91).
in(185, 92).
in(185, 93).
in(185, 96).
in(185, 100).
in(185, 101).
in(185, 102).
in(185, 103).
in(185, 104).
in(185, 105).
in(185, 109).
in(185, 110).
in(185, 111).
in(185, 112).
in(185, 113).
in(185, 115).
in(185, 118).
in(185, 119).
in(185, 122).
in(185, 124).
in(185, 126).
in(186, 2).
in(186, 3).
in(186, 132).
in(186, 5).
in(186, 6).
in(186, 8).
in(186, 11).
in(186, 19).
in(186, 23).
in(186, 26).
in(186, 27).
in(186, 29).
in(186, 31).
in(186, 32).
in(186, 40).
in(186, 42).
in(186, 45).
in(186, 46).
in(186, 48).
in(186, 49).
in(186, 50).
in(186, 52).
in(186, 53).
in(186, 60).
in(186, 61).
in(186, 65).
in(186, 67).
in(186, 68).
in(186, 69).
in(186, 71).
in(186, 72).
in(186, 77).
in(186, 78).
in(186, 82).
in(186, 83).
in(186, 84).
in(186, 87).
in(186, 88).
in(186, 90).
in(186, 96).
in(186, 100).
in(186, 101).
in(186, 106).
in(186, 107).
in(186, 108).
in(186, 113).
in(186, 115).
in(186, 116).
in(186, 120).
in(186, 121).
in(186, 122).
in(186, 125).
in(187, 1).
in(187, 129).
in(187, 131).
in(187, 4).
in(187, 5).
in(187, 6).
in(187, 133).
in(187, 8).
in(187, 9).
in(187, 10).
in(187, 11).
in(187, 134).
in(187, 15).
in(187, 17).
in(187, 20).
in(187, 21).
in(187, 22).
in(187, 24).
in(187, 25).
in(187, 26).
in(187, 29).
in(187, 39).
in(187, 42).
in(187, 46).
in(187, 48).
in(187, 50).
in(187, 52).
in(187, 53).
in(187, 55).
in(187, 56).
in(187, 57).
in(187, 61).
in(187, 62).
in(187, 65).
in(187, 67).
in(187, 68).
in(187, 73).
in(187, 74).
in(187, 75).
in(187, 76).
in(187, 78).
in(187, 79).
in(187, 82).
in(187, 85).
in(187, 86).
in(187, 87).
in(187, 88).
in(187, 90).
in(187, 94).
in(187, 98).
in(187, 100).
in(187, 101).
in(187, 110).
in(187, 111).
in(187, 113).
in(187, 117).
in(187, 122).
in(187, 123).
in(187, 125).
in(187, 126).
in(188, 2).
in(188, 133).
in(188, 134).
in(188, 8).
in(188, 11).
in(188, 18).
in(188, 19).
in(188, 20).
in(188, 22).
in(188, 24).
in(188, 25).
in(188, 30).
in(188, 31).
in(188, 35).
in(188, 36).
in(188, 39).
in(188, 42).
in(188, 45).
in(188, 48).
in(188, 49).
in(188, 50).
in(188, 57).
in(188, 60).
in(188, 63).
in(188, 72).
in(188, 73).
in(188, 75).
in(188, 76).
in(188, 77).
in(188, 78).
in(188, 79).
in(188, 80).
in(188, 83).
in(188, 88).
in(188, 93).
in(188, 96).
in(188, 98).
in(188, 104).
in(188, 108).
in(188, 115).
in(188, 117).
in(188, 119).
in(188, 121).
in(188, 123).
in(188, 124).
in(188, 126).
in(188, 127).
in(189, 1).
in(189, 130).
in(189, 131).
in(189, 4).
in(189, 132).
in(189, 8).
in(189, 11).
in(189, 15).
in(189, 16).
in(189, 18).
in(189, 19).
in(189, 20).
in(189, 21).
in(189, 22).
in(189, 24).
in(189, 27).
in(189, 29).
in(189, 30).
in(189, 31).
in(189, 32).
in(189, 33).
in(189, 44).
in(189, 47).
in(189, 48).
in(189, 50).
in(189, 51).
in(189, 52).
in(189, 54).
in(189, 55).
in(189, 58).
in(189, 61).
in(189, 69).
in(189, 71).
in(189, 76).
in(189, 77).
in(189, 78).
in(189, 79).
in(189, 81).
in(189, 82).
in(189, 88).
in(189, 94).
in(189, 95).
in(189, 97).
in(189, 104).
in(189, 106).
in(189, 107).
in(189, 108).
in(189, 110).
in(189, 111).
in(189, 114).
in(189, 117).
in(189, 118).
in(190, 134).
in(190, 7).
in(190, 8).
in(190, 9).
in(190, 12).
in(190, 16).
in(190, 20).
in(190, 21).
in(190, 24).
in(190, 27).
in(190, 30).
in(190, 36).
in(190, 38).
in(190, 42).
in(190, 52).
in(190, 53).
in(190, 54).
in(190, 56).
in(190, 59).
in(190, 62).
in(190, 64).
in(190, 69).
in(190, 72).
in(190, 73).
in(190, 74).
in(190, 77).
in(190, 80).
in(190, 82).
in(190, 83).
in(190, 85).
in(190, 88).
in(190, 91).
in(190, 92).
in(190, 94).
in(190, 99).
in(190, 100).
in(190, 106).
in(190, 107).
in(190, 108).
in(190, 109).
in(190, 110).
in(190, 113).
in(190, 114).
in(190, 115).
in(190, 119).
in(190, 120).
in(190, 121).
in(190, 122).
in(190, 123).
in(190, 124).
in(190, 127).
in(191, 128).
in(191, 3).
in(191, 4).
in(191, 132).
in(191, 6).
in(191, 134).
in(191, 12).
in(191, 20).
in(191, 27).
in(191, 28).
in(191, 29).
in(191, 30).
in(191, 31).
in(191, 33).
in(191, 37).
in(191, 41).
in(191, 43).
in(191, 44).
in(191, 46).
in(191, 47).
in(191, 48).
in(191, 51).
in(191, 55).
in(191, 56).
in(191, 68).
in(191, 74).
in(191, 78).
in(191, 83).
in(191, 85).
in(191, 88).
in(191, 92).
in(191, 93).
in(191, 102).
in(191, 107).
in(191, 110).
in(191, 115).
in(191, 116).
in(191, 118).
in(191, 120).
in(191, 121).
in(191, 122).
in(191, 125).
in(192, 128).
in(192, 130).
in(192, 5).
in(192, 133).
in(192, 134).
in(192, 8).
in(192, 10).
in(192, 18).
in(192, 21).
in(192, 22).
in(192, 23).
in(192, 24).
in(192, 25).
in(192, 28).
in(192, 29).
in(192, 33).
in(192, 35).
in(192, 37).
in(192, 39).
in(192, 40).
in(192, 44).
in(192, 45).
in(192, 48).
in(192, 52).
in(192, 54).
in(192, 55).
in(192, 57).
in(192, 59).
in(192, 60).
in(192, 61).
in(192, 62).
in(192, 63).
in(192, 65).
in(192, 68).
in(192, 70).
in(192, 72).
in(192, 76).
in(192, 79).
in(192, 81).
in(192, 82).
in(192, 85).
in(192, 89).
in(192, 90).
in(192, 94).
in(192, 97).
in(192, 99).
in(192, 100).
in(192, 102).
in(192, 103).
in(192, 106).
in(192, 108).
in(192, 114).
in(192, 116).
in(192, 117).
in(192, 121).
in(192, 122).
in(192, 125).
in(192, 126).
in(193, 128).
in(193, 1).
in(193, 129).
in(193, 3).
in(193, 130).
in(193, 5).
in(193, 134).
in(193, 8).
in(193, 11).
in(193, 16).
in(193, 17).
in(193, 20).
in(193, 24).
in(193, 29).
in(193, 30).
in(193, 31).
in(193, 34).
in(193, 35).
in(193, 37).
in(193, 38).
in(193, 39).
in(193, 42).
in(193, 44).
in(193, 51).
in(193, 52).
in(193, 53).
in(193, 55).
in(193, 56).
in(193, 62).
in(193, 64).
in(193, 66).
in(193, 67).
in(193, 68).
in(193, 72).
in(193, 74).
in(193, 75).
in(193, 77).
in(193, 85).
in(193, 91).
in(193, 93).
in(193, 95).
in(193, 98).
in(193, 102).
in(193, 103).
in(193, 108).
in(193, 110).
in(193, 113).
in(193, 115).
in(193, 117).
in(193, 118).
in(193, 120).
in(193, 124).
in(193, 127).
in(194, 1).
in(194, 129).
in(194, 3).
in(194, 130).
in(194, 131).
in(194, 6).
in(194, 7).
in(194, 9).
in(194, 10).
in(194, 11).
in(194, 13).
in(194, 17).
in(194, 18).
in(194, 22).
in(194, 25).
in(194, 27).
in(194, 28).
in(194, 30).
in(194, 32).
in(194, 34).
in(194, 36).
in(194, 42).
in(194, 43).
in(194, 45).
in(194, 46).
in(194, 47).
in(194, 48).
in(194, 49).
in(194, 51).
in(194, 53).
in(194, 54).
in(194, 56).
in(194, 58).
in(194, 59).
in(194, 60).
in(194, 61).
in(194, 62).
in(194, 63).
in(194, 64).
in(194, 65).
in(194, 66).
in(194, 67).
in(194, 70).
in(194, 71).
in(194, 72).
in(194, 73).
in(194, 74).
in(194, 75).
in(194, 76).
in(194, 77).
in(194, 78).
in(194, 79).
in(194, 80).
in(194, 81).
in(194, 84).
in(194, 86).
in(194, 88).
in(194, 89).
in(194, 90).
in(194, 94).
in(194, 99).
in(194, 101).
in(194, 103).
in(194, 106).
in(194, 107).
in(194, 112).
in(194, 113).
in(194, 116).
in(194, 117).
in(194, 123).
in(194, 124).
in(194, 126).
in(195, 128).
in(195, 3).
in(195, 133).
in(195, 7).
in(195, 10).
in(195, 12).
in(195, 14).
in(195, 15).
in(195, 21).
in(195, 23).
in(195, 27).
in(195, 29).
in(195, 30).
in(195, 31).
in(195, 32).
in(195, 33).
in(195, 34).
in(195, 35).
in(195, 37).
in(195, 39).
in(195, 40).
in(195, 41).
in(195, 44).
in(195, 49).
in(195, 51).
in(195, 52).
in(195, 53).
in(195, 54).
in(195, 59).
in(195, 61).
in(195, 62).
in(195, 63).
in(195, 67).
in(195, 76).
in(195, 79).
in(195, 81).
in(195, 82).
in(195, 85).
in(195, 89).
in(195, 90).
in(195, 91).
in(195, 92).
in(195, 93).
in(195, 95).
in(195, 102).
in(195, 103).
in(195, 104).
in(195, 105).
in(195, 106).
in(195, 108).
in(195, 114).
in(195, 115).
in(195, 117).
in(195, 119).
in(195, 120).
in(195, 122).
in(195, 124).
in(195, 125).
in(195, 126).
in(196, 128).
in(196, 2).
in(196, 3).
in(196, 4).
in(196, 5).
in(196, 130).
in(196, 132).
in(196, 11).
in(196, 12).
in(196, 13).
in(196, 15).
in(196, 16).
in(196, 17).
in(196, 22).
in(196, 26).
in(196, 30).
in(196, 36).
in(196, 40).
in(196, 45).
in(196, 46).
in(196, 47).
in(196, 48).
in(196, 53).
in(196, 56).
in(196, 58).
in(196, 60).
in(196, 63).
in(196, 64).
in(196, 66).
in(196, 68).
in(196, 71).
in(196, 73).
in(196, 75).
in(196, 77).
in(196, 82).
in(196, 84).
in(196, 86).
in(196, 89).
in(196, 94).
in(196, 96).
in(196, 98).
in(196, 99).
in(196, 104).
in(196, 105).
in(196, 106).
in(196, 107).
in(196, 108).
in(196, 109).
in(196, 111).
in(196, 117).
in(196, 119).
in(196, 120).
in(196, 122).
in(196, 123).
in(196, 124).
in(196, 125).
in(196, 126).
in(197, 130).
in(197, 131).
in(197, 132).
in(197, 7).
in(197, 14).
in(197, 15).
in(197, 17).
in(197, 18).
in(197, 19).
in(197, 21).
in(197, 30).
in(197, 33).
in(197, 35).
in(197, 37).
in(197, 44).
in(197, 47).
in(197, 51).
in(197, 59).
in(197, 60).
in(197, 62).
in(197, 65).
in(197, 66).
in(197, 68).
in(197, 69).
in(197, 75).
in(197, 79).
in(197, 80).
in(197, 84).
in(197, 89).
in(197, 93).
in(197, 96).
in(197, 97).
in(197, 102).
in(197, 104).
in(197, 105).
in(197, 107).
in(197, 109).
in(197, 110).
in(197, 111).
in(197, 116).
in(197, 117).
in(197, 119).
in(197, 120).
in(197, 121).
in(197, 122).
in(197, 124).
in(198, 128).
in(198, 129).
in(198, 2).
in(198, 3).
in(198, 4).
in(198, 130).
in(198, 131).
in(198, 7).
in(198, 132).
in(198, 9).
in(198, 133).
in(198, 11).
in(198, 12).
in(198, 14).
in(198, 16).
in(198, 18).
in(198, 22).
in(198, 24).
in(198, 27).
in(198, 29).
in(198, 30).
in(198, 32).
in(198, 34).
in(198, 37).
in(198, 38).
in(198, 39).
in(198, 41).
in(198, 42).
in(198, 45).
in(198, 46).
in(198, 47).
in(198, 48).
in(198, 52).
in(198, 54).
in(198, 56).
in(198, 57).
in(198, 58).
in(198, 62).
in(198, 63).
in(198, 65).
in(198, 66).
in(198, 67).
in(198, 68).
in(198, 71).
in(198, 73).
in(198, 74).
in(198, 78).
in(198, 79).
in(198, 80).
in(198, 81).
in(198, 83).
in(198, 85).
in(198, 89).
in(198, 93).
in(198, 102).
in(198, 107).
in(198, 108).
in(198, 109).
in(198, 110).
in(198, 112).
in(198, 114).
in(198, 116).
in(198, 119).
in(198, 124).
in(198, 125).
in(198, 126).
in(198, 127).
in(199, 1).
in(199, 129).
in(199, 130).
in(199, 134).
in(199, 7).
in(199, 10).
in(199, 12).
in(199, 14).
in(199, 15).
in(199, 16).
in(199, 19).
in(199, 21).
in(199, 23).
in(199, 27).
in(199, 31).
in(199, 35).
in(199, 36).
in(199, 41).
in(199, 43).
in(199, 46).
in(199, 50).
in(199, 51).
in(199, 53).
in(199, 55).
in(199, 60).
in(199, 65).
in(199, 66).
in(199, 72).
in(199, 73).
in(199, 76).
in(199, 78).
in(199, 79).
in(199, 81).
in(199, 82).
in(199, 86).
in(199, 89).
in(199, 92).
in(199, 93).
in(199, 99).
in(199, 108).
in(199, 109).
in(199, 110).
in(199, 112).
in(199, 113).
in(199, 114).
in(199, 115).
in(199, 116).
in(199, 119).
in(199, 120).
in(199, 122).
in(199, 123).
in(200, 128).
in(200, 129).
in(200, 3).
in(200, 131).
in(200, 132).
in(200, 134).
in(200, 9).
in(200, 13).
in(200, 16).
in(200, 18).
in(200, 21).
in(200, 22).
in(200, 23).
in(200, 27).
in(200, 28).
in(200, 30).
in(200, 35).
in(200, 37).
in(200, 38).
in(200, 43).
in(200, 44).
in(200, 47).
in(200, 50).
in(200, 53).
in(200, 54).
in(200, 62).
in(200, 66).
in(200, 69).
in(200, 71).
in(200, 72).
in(200, 74).
in(200, 75).
in(200, 76).
in(200, 77).
in(200, 78).
in(200, 79).
in(200, 80).
in(200, 89).
in(200, 93).
in(200, 96).
in(200, 99).
in(200, 100).
in(200, 101).
in(200, 103).
in(200, 104).
in(200, 105).
in(200, 109).
in(200, 111).
in(200, 113).
in(200, 114).
in(200, 118).
in(200, 119).
in(200, 120).
in(200, 123).
in(200, 124).
in(200, 125).
in(200, 126).
in(200, 127).
in(201, 2).
in(201, 3).
in(201, 131).
in(201, 6).
in(201, 9).
in(201, 15).
in(201, 18).
in(201, 19).
in(201, 20).
in(201, 22).
in(201, 24).
in(201, 25).
in(201, 26).
in(201, 27).
in(201, 29).
in(201, 34).
in(201, 38).
in(201, 39).
in(201, 45).
in(201, 46).
in(201, 50).
in(201, 51).
in(201, 52).
in(201, 56).
in(201, 60).
in(201, 61).
in(201, 62).
in(201, 63).
in(201, 69).
in(201, 73).
in(201, 74).
in(201, 76).
in(201, 77).
in(201, 80).
in(201, 84).
in(201, 88).
in(201, 92).
in(201, 93).
in(201, 94).
in(201, 96).
in(201, 100).
in(201, 102).
in(201, 103).
in(201, 105).
in(201, 106).
in(201, 107).
in(201, 108).
in(201, 110).
in(201, 112).
in(201, 114).
in(201, 116).
in(201, 118).
in(201, 121).
in(201, 122).
in(202, 128).
in(202, 129).
in(202, 2).
in(202, 3).
in(202, 131).
in(202, 132).
in(202, 6).
in(202, 7).
in(202, 133).
in(202, 9).
in(202, 11).
in(202, 14).
in(202, 15).
in(202, 18).
in(202, 20).
in(202, 26).
in(202, 27).
in(202, 30).
in(202, 33).
in(202, 36).
in(202, 45).
in(202, 47).
in(202, 48).
in(202, 49).
in(202, 50).
in(202, 52).
in(202, 54).
in(202, 56).
in(202, 57).
in(202, 63).
in(202, 64).
in(202, 65).
in(202, 69).
in(202, 70).
in(202, 72).
in(202, 73).
in(202, 75).
in(202, 76).
in(202, 77).
in(202, 80).
in(202, 81).
in(202, 82).
in(202, 87).
in(202, 92).
in(202, 94).
in(202, 95).
in(202, 100).
in(202, 101).
in(202, 102).
in(202, 103).
in(202, 104).
in(202, 105).
in(202, 108).
in(202, 113).
in(202, 115).
in(202, 116).
in(202, 117).
in(202, 118).
in(202, 119).
in(202, 120).
in(202, 124).
in(202, 125).
in(202, 126).
in(202, 127).
in(203, 128).
in(203, 1).
in(203, 2).
in(203, 129).
in(203, 4).
in(203, 132).
in(203, 6).
in(203, 8).
in(203, 11).
in(203, 12).
in(203, 16).
in(203, 18).
in(203, 22).
in(203, 24).
in(203, 28).
in(203, 32).
in(203, 34).
in(203, 35).
in(203, 36).
in(203, 39).
in(203, 40).
in(203, 41).
in(203, 43).
in(203, 44).
in(203, 45).
in(203, 48).
in(203, 49).
in(203, 52).
in(203, 54).
in(203, 57).
in(203, 59).
in(203, 62).
in(203, 63).
in(203, 66).
in(203, 67).
in(203, 68).
in(203, 70).
in(203, 73).
in(203, 75).
in(203, 77).
in(203, 79).
in(203, 80).
in(203, 83).
in(203, 84).
in(203, 86).
in(203, 88).
in(203, 89).
in(203, 90).
in(203, 93).
in(203, 96).
in(203, 97).
in(203, 99).
in(203, 102).
in(203, 103).
in(203, 105).
in(203, 107).
in(203, 110).
in(203, 113).
in(203, 114).
in(203, 117).
in(203, 120).
in(203, 121).
in(203, 123).
in(204, 128).
in(204, 129).
in(204, 2).
in(204, 132).
in(204, 5).
in(204, 9).
in(204, 14).
in(204, 17).
in(204, 20).
in(204, 21).
in(204, 25).
in(204, 27).
in(204, 30).
in(204, 33).
in(204, 34).
in(204, 39).
in(204, 43).
in(204, 47).
in(204, 56).
in(204, 61).
in(204, 62).
in(204, 66).
in(204, 70).
in(204, 72).
in(204, 73).
in(204, 76).
in(204, 77).
in(204, 78).
in(204, 79).
in(204, 80).
in(204, 81).
in(204, 82).
in(204, 84).
in(204, 88).
in(204, 91).
in(204, 93).
in(204, 94).
in(204, 95).
in(204, 100).
in(204, 104).
in(204, 106).
in(204, 107).
in(204, 108).
in(204, 112).
in(204, 113).
in(204, 115).
in(204, 116).
in(204, 117).
in(204, 120).
in(204, 121).
in(204, 124).
in(204, 125).
in(205, 128).
in(205, 129).
in(205, 2).
in(205, 131).
in(205, 4).
in(205, 133).
in(205, 9).
in(205, 10).
in(205, 15).
in(205, 16).
in(205, 19).
in(205, 22).
in(205, 23).
in(205, 25).
in(205, 27).
in(205, 28).
in(205, 30).
in(205, 31).
in(205, 35).
in(205, 39).
in(205, 40).
in(205, 41).
in(205, 42).
in(205, 44).
in(205, 45).
in(205, 46).
in(205, 47).
in(205, 50).
in(205, 55).
in(205, 56).
in(205, 59).
in(205, 60).
in(205, 61).
in(205, 65).
in(205, 72).
in(205, 75).
in(205, 77).
in(205, 80).
in(205, 82).
in(205, 83).
in(205, 84).
in(205, 90).
in(205, 91).
in(205, 94).
in(205, 99).
in(205, 101).
in(205, 103).
in(205, 105).
in(205, 106).
in(205, 110).
in(205, 114).
in(205, 117).
in(205, 119).
in(205, 121).
in(205, 122).
in(205, 123).
in(206, 129).
in(206, 2).
in(206, 3).
in(206, 131).
in(206, 5).
in(206, 6).
in(206, 7).
in(206, 8).
in(206, 9).
in(206, 10).
in(206, 132).
in(206, 12).
in(206, 133).
in(206, 134).
in(206, 16).
in(206, 17).
in(206, 18).
in(206, 23).
in(206, 24).
in(206, 25).
in(206, 26).
in(206, 29).
in(206, 30).
in(206, 31).
in(206, 32).
in(206, 33).
in(206, 34).
in(206, 38).
in(206, 41).
in(206, 43).
in(206, 44).
in(206, 45).
in(206, 47).
in(206, 53).
in(206, 63).
in(206, 67).
in(206, 68).
in(206, 69).
in(206, 71).
in(206, 73).
in(206, 74).
in(206, 76).
in(206, 77).
in(206, 78).
in(206, 81).
in(206, 82).
in(206, 83).
in(206, 85).
in(206, 87).
in(206, 92).
in(206, 93).
in(206, 94).
in(206, 101).
in(206, 102).
in(206, 104).
in(206, 109).
in(206, 110).
in(206, 111).
in(206, 115).
in(206, 117).
in(206, 119).
in(206, 122).
in(206, 125).
in(206, 126).
in(207, 1).
in(207, 129).
in(207, 3).
in(207, 4).
in(207, 130).
in(207, 131).
in(207, 132).
in(207, 10).
in(207, 11).
in(207, 12).
in(207, 13).
in(207, 14).
in(207, 20).
in(207, 22).
in(207, 28).
in(207, 29).
in(207, 30).
in(207, 35).
in(207, 37).
in(207, 40).
in(207, 43).
in(207, 45).
in(207, 48).
in(207, 51).
in(207, 52).
in(207, 54).
in(207, 56).
in(207, 57).
in(207, 58).
in(207, 59).
in(207, 60).
in(207, 61).
in(207, 64).
in(207, 67).
in(207, 71).
in(207, 77).
in(207, 78).
in(207, 80).
in(207, 81).
in(207, 85).
in(207, 90).
in(207, 91).
in(207, 93).
in(207, 98).
in(207, 101).
in(207, 105).
in(207, 108).
in(207, 109).
in(207, 110).
in(207, 113).
in(207, 114).
in(207, 117).
in(207, 118).
in(207, 119).
in(207, 121).
in(207, 122).
in(207, 125).
in(207, 126).
in(208, 128).
in(208, 129).
in(208, 2).
in(208, 133).
in(208, 6).
in(208, 7).
in(208, 134).
in(208, 10).
in(208, 17).
in(208, 20).
in(208, 22).
in(208, 26).
in(208, 27).
in(208, 28).
in(208, 30).
in(208, 32).
in(208, 37).
in(208, 42).
in(208, 43).
in(208, 44).
in(208, 45).
in(208, 46).
in(208, 48).
in(208, 51).
in(208, 52).
in(208, 53).
in(208, 57).
in(208, 58).
in(208, 59).
in(208, 60).
in(208, 61).
in(208, 64).
in(208, 65).
in(208, 68).
in(208, 70).
in(208, 74).
in(208, 76).
in(208, 82).
in(208, 83).
in(208, 84).
in(208, 89).
in(208, 90).
in(208, 91).
in(208, 92).
in(208, 93).
in(208, 98).
in(208, 104).
in(208, 108).
in(208, 109).
in(208, 110).
in(208, 112).
in(208, 113).
in(208, 114).
in(209, 128).
in(209, 2).
in(209, 131).
in(209, 4).
in(209, 5).
in(209, 133).
in(209, 7).
in(209, 134).
in(209, 9).
in(209, 10).
in(209, 12).
in(209, 13).
in(209, 14).
in(209, 17).
in(209, 18).
in(209, 21).
in(209, 27).
in(209, 36).
in(209, 38).
in(209, 40).
in(209, 42).
in(209, 44).
in(209, 45).
in(209, 46).
in(209, 47).
in(209, 49).
in(209, 50).
in(209, 54).
in(209, 56).
in(209, 61).
in(209, 62).
in(209, 64).
in(209, 65).
in(209, 67).
in(209, 70).
in(209, 72).
in(209, 74).
in(209, 75).
in(209, 77).
in(209, 79).
in(209, 80).
in(209, 81).
in(209, 83).
in(209, 85).
in(209, 87).
in(209, 89).
in(209, 90).
in(209, 93).
in(209, 94).
in(209, 95).
in(209, 97).
in(209, 98).
in(209, 100).
in(209, 104).
in(209, 110).
in(209, 113).
in(209, 114).
in(209, 116).
in(209, 117).
in(209, 118).
in(209, 121).
in(209, 122).
in(209, 123).
in(209, 124).
in(210, 128).
in(210, 1).
in(210, 3).
in(210, 8).
in(210, 12).
in(210, 13).
in(210, 14).
in(210, 16).
in(210, 19).
in(210, 21).
in(210, 22).
in(210, 28).
in(210, 30).
in(210, 31).
in(210, 37).
in(210, 39).
in(210, 40).
in(210, 42).
in(210, 47).
in(210, 49).
in(210, 50).
in(210, 53).
in(210, 54).
in(210, 60).
in(210, 63).
in(210, 64).
in(210, 67).
in(210, 71).
in(210, 72).
in(210, 73).
in(210, 78).
in(210, 81).
in(210, 82).
in(210, 85).
in(210, 92).
in(210, 94).
in(210, 100).
in(210, 101).
in(210, 102).
in(210, 105).
in(210, 106).
in(210, 107).
in(210, 110).
in(210, 111).
in(210, 113).
in(210, 117).
in(210, 118).
in(210, 120).
in(210, 121).
in(210, 125).
in(210, 126).
in(210, 127).
in(211, 1).
in(211, 130).
in(211, 3).
in(211, 4).
in(211, 131).
in(211, 132).
in(211, 133).
in(211, 8).
in(211, 134).
in(211, 13).
in(211, 18).
in(211, 22).
in(211, 24).
in(211, 26).
in(211, 31).
in(211, 34).
in(211, 37).
in(211, 39).
in(211, 40).
in(211, 42).
in(211, 43).
in(211, 44).
in(211, 46).
in(211, 48).
in(211, 52).
in(211, 54).
in(211, 55).
in(211, 59).
in(211, 62).
in(211, 65).
in(211, 68).
in(211, 69).
in(211, 70).
in(211, 73).
in(211, 74).
in(211, 76).
in(211, 77).
in(211, 78).
in(211, 80).
in(211, 85).
in(211, 88).
in(211, 89).
in(211, 90).
in(211, 93).
in(211, 94).
in(211, 97).
in(211, 98).
in(211, 99).
in(211, 101).
in(211, 102).
in(211, 107).
in(211, 113).
in(211, 116).
in(211, 117).
in(211, 118).
in(211, 120).
in(211, 121).
in(211, 124).
weight(1, 8).
weight(2, 3).
weight(3, 7).
weight(4, 7).
weight(5, 11).
weight(6, 5).
weight(7, 10).
weight(8, 8).
weight(9, 5).
weight(10, 9).
weight(11, 8).
weight(12, 6).
weight(13, 1).
weight(14, 2).
weight(15, 6).
weight(16, 4).
weight(17, 1).
weight(18, 3).
weight(19, 10).
weight(20, 9).
weight(21, 9).
weight(22, 8).
weight(23, 11).
weight(24, 2).
weight(25, 10).
weight(26, 5).
weight(27, 10).
weight(28, 8).
weight(29, 5).
weight(30, 8).
weight(31, 7).
weight(32, 3).
weight(33, 8).
weight(34, 9).
weight(35, 3).
weight(36, 4).
weight(37, 9).
weight(38, 6).
weight(39, 2).
weight(40, 7).
weight(41, 9).
weight(42, 10).
weight(43, 2).
weight(44, 8).
weight(45, 7).
weight(46, 9).
weight(47, 10).
weight(48, 5).
weight(49, 11).
weight(50, 4).
weight(51, 5).
weight(52, 2).
weight(53, 4).
weight(54, 4).
weight(55, 6).
weight(56, 3).
weight(57, 11).
weight(58, 9).
weight(59, 4).
weight(60, 6).
weight(61, 5).
weight(62, 5).
weight(63, 1).
weight(64, 1).
weight(65, 11).
weight(66, 9).
weight(67, 5).
weight(68, 5).
weight(69, 11).
weight(70, 5).
weight(71, 8).
weight(72, 7).
weight(73, 5).
weight(74, 3).
weight(75, 7).
weight(76, 5).
weight(77, 5).
weight(78, 3).
weight(79, 9).
weight(80, 7).
weight(81, 5).
weight(82, 10).
weight(83, 6).
weight(84, 5).
weight(85, 9).
weight(86, 2).
weight(87, 1).
weight(88, 2).
weight(89, 3).
weight(90, 10).
weight(91, 11).
weight(92, 3).
weight(93, 11).
weight(94, 3).
weight(95, 4).
weight(96, 1).
weight(97, 2).
weight(98, 11).
weight(99, 6).
weight(100, 9).
weight(101, 8).
weight(102, 1).
weight(103, 4).
weight(104, 1).
weight(105, 10).
weight(106, 8).
weight(107, 3).
weight(108, 1).
weight(109, 1).
weight(110, 1).
weight(111, 4).
weight(112, 7).
weight(113, 4).
weight(114, 7).
weight(115, 3).
weight(116, 5).
weight(117, 5).
weight(118, 3).
weight(119, 7).
weight(120, 1).
weight(121, 4).
weight(122, 3).
weight(123, 9).
weight(124, 7).
weight(125, 8).
weight(126, 8).
weight(127, 6).
weight(128, 1).
weight(129, 2).
weight(130, 4).
weight(131, 10).
weight(132, 3).
weight(133, 5).
weight(134, 8).
weight(135, 10).
weight(136, 5).
weight(137, 9).
weight(138, 2).
weight(139, 6).
weight(140, 2).
weight(141, 9).
weight(142, 7).
weight(143, 9).
weight(144, 4).
weight(145, 9).
weight(146, 2).
weight(147, 6).
weight(148, 10).
weight(149, 7).
weight(150, 3).
weight(151, 3).
weight(152, 5).
weight(153, 10).
weight(154, 5).
weight(155, 2).
weight(156, 9).
weight(157, 8).
weight(158, 1).
weight(159, 8).
weight(160, 4).
weight(161, 4).
weight(162, 4).
weight(163, 5).
weight(164, 11).
weight(165, 9).
weight(166, 11).
weight(167, 10).
weight(168, 8).
weight(169, 11).
weight(170, 1).
weight(171, 6).
weight(172, 6).
weight(173, 2).
weight(174, 4).
weight(175, 5).
weight(176, 9).
weight(177, 2).
weight(178, 10).
weight(179, 1).
weight(180, 7).
weight(181, 1).
weight(182, 10).
weight(183, 2).
weight(184, 11).
weight(185, 7).
weight(186, 8).
weight(187, 6).
weight(188, 2).
weight(189, 1).
weight(190, 1).
weight(191, 5).
weight(192, 6).
weight(193, 5).
weight(194, 5).
weight(195, 3).
weight(196, 1).
weight(197, 11).
weight(198, 2).
weight(199, 4).
weight(200, 1).
weight(201, 2).
weight(202, 3).
weight(203, 6).
weight(204, 2).
weight(205, 7).
weight(206, 5).
weight(207, 5).
weight(208, 5).
weight(209, 2).
weight(210, 5).
weight(211, 7).

{ choose(S) } :- set(S).
:- choose(S1), choose(S2), S1 < S2, in(S1,E), in(S2,E).
:~ not choose(S), weight(S,W). [W@1,S]
