elem(1..129).
set(1..203).
in(1, 1).
in(1, 2).
in(1, 129).
in(1, 4).
in(1, 5).
in(1, 6).
in(1, 9).
in(1, 10).
in(1, 11).
in(1, 13).
in(1, 14).
in(1, 15).
in(1, 17).
in(1, 18).
in(1, 24).
in(1, 31).
in(1, 37).
in(1, 38).
in(1, 39).
in(1, 40).
in(1, 43).
in(1, 45).
in(1, 46).
in(1, 47).
in(1, 48).
in(1, 49).
in(1, 52).
in(1, 54).
in(1, 56).
in(1, 57).
in(1, 58).
in(1, 59).
in(1, 60).
in(1, 62).
in(1, 64).
in(1, 65).
in(1, 67).
in(1, 68).
in(1, 69).
in(1, 70).
in(1, 72).
in(1, 75).
in(1, 78).
in(1, 80).
in(1, 82).
in(1, 85).
in(1, 87).
in(1, 88).
in(1, 95).
in(1, 98).
in(1, 99).
in(1, 101).
in(1, 102).
in(1, 105).
in(1, 106).
in(1, 107).
in(1, 108).
in(1, 111).
in(1, 112).
in(1, 113).
in(1, 115).
in(1, 116).
in(1, 117).
in(1, 118).
in(1, 119).
in(1, 122).
in(1, 123).
in(1, 125).
in(1, 126).
in(2, 128).
in(2, 1).
in(2, 3).
in(2, 5).
in(2, 13).
in(2, 14).
in(2, 16).
in(2, 17).
in(2, 18).
in(2, 19).
in(2, 22).
in(2, 23).
in(2, 25).
in(2, 28).
in(2, 29).
in(2, 30).
in(2, 31).
in(2, 37).
in(2, 39).
in(2, 41).
in(2, 47).
in(2, 48).
in(2, 50).
in(2, 52).
in(2, 55).
in(2, 56).
in(2, 59).
in(2, 61).
in(2, 63).
in(2, 65).
in(2, 66).
in(2, 68).
in(2, 70).
in(2, 72).
in(2, 73).
in(2, 78).
in(2, 82).
in(2, 84).
in(2, 86).
in(2, 89).
in(2, 94).
in(2, 95).
in(2, 97).
in(2, 98).
in(2, 100).
in(2, 103).
in(2, 104).
in(2, 105).
in(2, 107).
in(2, 108).
in(2, 109).
in(2, 111).
in(2, 113).
in(2, 116).
in(2, 117).
in(2, 120).
in(2, 123).
in(2, 125).
in(2, 126).
in(2, 127).
in(3, 128).
in(3, 1).
in(3, 2).
in(3, 129).
in(3, 5).
in(3, 6).
in(3, 8).
in(3, 9).
in(3, 12).
in(3, 13).
in(3, 14).
in(3, 15).
in(3, 16).
in(3, 17).
in(3, 18).
in(3, 19).
in(3, 25).
in(3, 29).
in(3, 30).
in(3, 32).
in(3, 33).
in(3, 35).
in(3, 36).
in(3, 37).
in(3, 38).
in(3, 40).
in(3, 41).
in(3, 43).
in(3, 46).
in(3, 48).
in(3, 49).
in(3, 51).
in(3, 52).
in(3, 53).
in(3, 54).
in(3, 55).
in(3, 61).
in(3, 62).
in(3, 63).
in(3, 64).
in(3, 66).
in(3, 67).
in(3, 68).
in(3, 69).
in(3, 74).
in(3, 75).
in(3, 79).
in(3, 80).
in(3, 81).
in(3, 82).
in(3, 83).
in(3, 84).
in(3, 86).
in(3, 87).
in(3, 88).
in(3, 90).
in(3, 91).
in(3, 95).
in(3, 98).
in(3, 100).
in(3, 101).
in(3, 104).
in(3, 105).
in(3, 110).
in(3, 111).
in(3, 113).
in(3, 116).
in(3, 119).
in(3, 120).
in(3, 122).
in(3, 124).
in(3, 125).
in(3, 126).
in(4, 128).
in(4, 129).
in(4, 4).
in(4, 6).
in(4, 7).
in(4, 10).
in(4, 11).
in(4, 14).
in(4, 15).
in(4, 16).
in(4, 20).
in(4, 22).
in(4, 24).
in(4, 25).
in(4, 28).
in(4, 33).
in(4, 36).
in(4, 37).
in(4, 38).
in(4, 41).
in(4, 44).
in(4, 45).
in(4, 46).
in(4, 49).
in(4, 50).
in(4, 52).
in(4, 53).
in(4, 54).
in(4, 56).
in(4, 58).
in(4, 62).
in(4, 64).
in(4, 65).
in(4, 66).
in(4, 67).
in(4, 68).
in(4, 69).
in(4, 71).
in(4, 72).
in(4, 76).
in(4, 77).
in(4, 78).
in(4, 79).
in(4, 84).
in(4, 85).
in(4, 88).
in(4, 90).
in(4, 91).
in(4, 93).
in(4, 94).
in(4, 96).
in(4, 98).
in(4, 99).
in(4, 100).
in(4, 103).
in(4, 107).
in(4, 108).
in(4, 109).
in(4, 111).
in(4, 112).
in(4, 113).
in(4, 114).
in(4, 115).
in(4, 117).
in(4, 119).
in(4, 121).
in(4, 125).
in(4, 126).
in(5, 128).
in(5, 129).
in(5, 2).
in(5, 3).
in(5, 6).
in(5, 8).
in(5, 10).
in(5, 12).
in(5, 13).
in(5, 19).
in(5, 25).
in(5, 27).
in(5, 28).
in(5, 29).
in(5, 30).
in(5, 31).
in(5, 32).
in(5, 33).
in(5, 35).
in(5, 36).
in(5, 38).
in(5, 40).
in(5, 41).
in(5, 42).
in(5, 44).
in(5, 45).
in(5, 47).
in(5, 49).
in(5, 53).
in(5, 58).
in(5, 59).
in(5, 60).
in(5, 64).
in(5, 66).
in(5, 67).
in(5, 71).
in(5, 72).
in(5, 73).
in(5, 75).
in(5, 76).
in(5, 77).
in(5, 80).
in(5, 82).
in(5, 83).
in(5, 84).
in(5, 88).
in(5, 89).
in(5, 90).
in(5, 92).
in(5, 93).
in(5, 98).
in(5, 99).
in(5, 102).
in(5, 104).
in(5, 106).
in(5, 108).
in(5, 109).
in(5, 112).
in(5, 115).
in(5, 116).
in(5, 118).
in(5, 119).
in(5, 122).
in(5, 125).
in(6, 129).
in(6, 2).
in(6, 3).
in(6, 4).
in(6, 5).
in(6, 7).
in(6, 11).
in(6, 14).
in(6, 18).
in(6, 19).
in(6, 20).
in(6, 21).
in(6, 22).
in(6, 25).
in(6, 26).
in(6, 28).
in(6, 29).
in(6, 30).
in(6, 32).
in(6, 36).
in(6, 44).
in(6, 46).
in(6, 47).
in(6, 54).
in(6, 55).
in(6, 56).
in(6, 57).
in(6, 62).
in(6, 64).
in(6, 66).
in(6, 71).
in(6, 73).
in(6, 76).
in(6, 80).
in(6, 83).
in(6, 86).
in(6, 96).
in(6, 98).
in(6, 99).
in(6, 100).
in(6, 104).
in(6, 105).
in(6, 107).
in(6, 108).
in(6, 109).
in(6, 110).
in(6, 112).
in(6, 114).
in(6, 120).
in(6, 122).
in(6, 123).
in(6, 124).
in(6, 125).
in(7, 128).
in(7, 129).
in(7, 2).
in(7, 5).
in(7, 6).
in(7, 10).
in(7, 11).
in(7, 13).
in(7, 14).
in(7, 15).
in(7, 16).
in(7, 18).
in(7, 20).
in(7, 21).
in(7, 23).
in(7, 26).
in(7, 28).
in(7, 29).
in(7, 30).
in(7, 32).
in(7, 34).
in(7, 35).
in(7, 36).
in(7, 38).
in(7, 39).
in(7, 40).
in(7, 41).
in(7, 43).
in(7, 46).
in(7, 50).
in(7, 51).
in(7, 53).
in(7, 60).
in(7, 64).
in(7, 65).
in(7, 66).
in(7, 68).
in(7, 70).
in(7, 74).
in(7, 76).
in(7, 80).
in(7, 82).
in(7, 83).
in(7, 86).
in(7, 88).
in(7, 89).
in(7, 91).
in(7, 93).
in(7, 94).
in(7, 96).
in(7, 97).
in(7, 100).
in(7, 101).
in(7, 102).
in(7, 103).
in(7, 105).
in(7, 106).
in(7, 108).
in(7, 110).
in(7, 111).
in(7, 112).
in(7, 114).
in(7, 116).
in(7, 118).
in(7, 119).
in(7, 120).
in(7, 122).
in(7, 124).
in(7, 125).
in(7, 126).
in(8, 1).
in(8, 4).
in(8, 7).
in(8, 8).
in(8, 9).
in(8, 12).
in(8, 14).
in(8, 15).
in(8, 16).
in(8, 19).
in(8, 20).
in(8, 21).
in(8, 23).
in(8, 24).
in(8, 25).
in(8, 26).
in(8, 29).
in(8, 33).
in(8, 35).
in(8, 37).
in(8, 38).
in(8, 42).
in(8, 45).
in(8, 49).
in(8, 53).
in(8, 55).
in(8, 56).
in(8, 57).
in(8, 58).
in(8, 59).
in(8, 60).
in(8, 62).
in(8, 63).
in(8, 66).
in(8, 67).
in(8, 68).
in(8, 70).
in(8, 75).
in(8, 76).
in(8, 78).
in(8, 79).
in(8, 82).
in(8, 84).
in(8, 89).
in(8, 90).
in(8, 93).
in(8, 96).
in(8, 100).
in(8, 101).
in(8, 102).
in(8, 103).
in(8, 106).
in(8, 109).
in(8, 110).
in(8, 111).
in(8, 116).
in(8, 117).
in(8, 118).
in(8, 119).
in(8, 121).
in(8, 123).
in(8, 125).
in(8, 126).
in(8, 127).
in(9, 1).
in(9, 129).
in(9, 4).
in(9, 5).
in(9, 9).
in(9, 10).
in(9, 11).
in(9, 13).
in(9, 14).
in(9, 15).
in(9, 18).
in(9, 20).
in(9, 26).
in(9, 34).
in(9, 35).
in(9, 41).
in(9, 43).
in(9, 44).
in(9, 45).
in(9, 46).
in(9, 49).
in(9, 50).
in(9, 53).
in(9, 55).
in(9, 56).
in(9, 57).
in(9, 58).
in(9, 60).
in(9, 61).
in(9, 63).
in(9, 64).
in(9, 66).
in(9, 68).
in(9, 69).
in(9, 70).
in(9, 71).
in(9, 72).
in(9, 73).
in(9, 75).
in(9, 77).
in(9, 79).
in(9, 81).
in(9, 82).
in(9, 84).
in(9, 85).
in(9, 88).
in(9, 89).
in(9, 91).
in(9, 96).
in(9, 98).
in(9, 100).
in(9, 102).
in(9, 103).
in(9, 104).
in(9, 105).
in(9, 107).
in(9, 108).
in(9, 109).
in(9, 113).
in(9, 115).
in(9, 116).
in(9, 117).
in(9, 119).
in(9, 120).
in(9, 122).
in(9, 123).
in(9, 127).
in(10, 128).
in(10, 1).
in(10, 129).
in(10, 5).
in(10, 6).
in(10, 8).
in(10, 9).
in(10, 10).
in(10, 12).
in(10, 14).
in(10, 18).
in(10, 19).
in(10, 21).
in(10, 22).
in(10, 23).
in(10, 26).
in(10, 29).
in(10, 31).
in(10, 34).
in(10, 35).
in(10, 36).
in(10, 39).
in(10, 40).
in(10, 42).
in(10, 44).
in(10, 45).
in(10, 48).
in(10, 51).
in(10, 53).
in(10, 55).
in(10, 57).
in(10, 58).
in(10, 59).
in(10, 60).
in(10, 61).
in(10, 64).
in(10, 65).
in(10, 67).
in(10, 70).
in(10, 77).
in(10, 79).
in(10, 81).
in(10, 84).
in(10, 87).
in(10, 88).
in(10, 91).
in(10, 95).
in(10, 97).
in(10, 98).
in(10, 99).
in(10, 100).
in(10, 101).
in(10, 102).
in(10, 105).
in(10, 106).
in(10, 107).
in(10, 119).
in(10, 120).
in(10, 122).
in(10, 123).
in(10, 125).
in(10, 126).
in(10, 127).
in(11, 128).
in(11, 2).
in(11, 4).
in(11, 5).
in(11, 7).
in(11, 10).
in(11, 11).
in(11, 16).
in(11, 17).
in(11, 19).
in(11, 21).
in(11, 22).
in(11, 23).
in(11, 27).
in(11, 28).
in(11, 29).
in(11, 33).
in(11, 34).
in(11, 36).
in(11, 37).
in(11, 38).
in(11, 40).
in(11, 42).
in(11, 43).
in(11, 44).
in(11, 46).
in(11, 51).
in(11, 52).
in(11, 53).
in(11, 54).
in(11, 57).
in(11, 58).
in(11, 60).
in(11, 61).
in(11, 62).
in(11, 63).
in(11, 65).
in(11, 68).
in(11, 70).
in(11, 71).
in(11, 72).
in(11, 74).
in(11, 75).
in(11, 76).
in(11, 78).
in(11, 80).
in(11, 87).
in(11, 88).
in(11, 90).
in(11, 91).
in(11, 92).
in(11, 93).
in(11, 95).
in(11, 97).
in(11, 100).
in(11, 102).
in(11, 103).
in(11, 108).
in(11, 110).
in(11, 111).
in(11, 113).
in(11, 118).
in(11, 121).
in(12, 129).
in(12, 3).
in(12, 4).
in(12, 5).
in(12, 6).
in(12, 9).
in(12, 11).
in(12, 12).
in(12, 14).
in(12, 15).
in(12, 16).
in(12, 17).
in(12, 19).
in(12, 21).
in(12, 22).
in(12, 25).
in(12, 26).
in(12, 27).
in(12, 28).
in(12, 29).
in(12, 30).
in(12, 31).
in(12, 32).
in(12, 36).
in(12, 37).
in(12, 38).
in(12, 40).
in(12, 43).
in(12, 50).
in(12, 52).
in(12, 56).
in(12, 57).
in(12, 58).
in(12, 59).
in(12, 61).
in(12, 62).
in(12, 64).
in(12, 65).
in(12, 66).
in(12, 67).
in(12, 68).
in(12, 70).
in(12, 71).
in(12, 75).
in(12, 78).
in(12, 79).
in(12, 82).
in(12, 83).
in(12, 85).
in(12, 86).
in(12, 87).
in(12, 89).
in(12, 90).
in(12, 97).
in(12, 98).
in(12, 100).
in(12, 103).
in(12, 104).
in(12, 105).
in(12, 106).
in(12, 109).
in(12, 112).
in(12, 115).
in(12, 118).
in(12, 120).
in(12, 121).
in(12, 126).
in(13, 128).
in(13, 1).
in(13, 2).
in(13, 3).
in(13, 129).
in(13, 6).
in(13, 10).
in(13, 12).
in(13, 13).
in(13, 15).
in(13, 16).
in(13, 17).
in(13, 18).
in(13, 20).
in(13, 22).
in(13, 23).
in(13, 24).
in(13, 31).
in(13, 32).
in(13, 34).
in(13, 37).
in(13, 38).
in(13, 39).
in(13, 40).
in(13, 41).
in(13, 43).
in(13, 47).
in(13, 50).
in(13, 51).
in(13, 52).
in(13, 55).
in(13, 57).
in(13, 59).
in(13, 61).
in(13, 65).
in(13, 70).
in(13, 75).
in(13, 76).
in(13, 77).
in(13, 79).
in(13, 82).
in(13, 83).
in(13, 85).
in(13, 86).
in(13, 90).
in(13, 91).
in(13, 92).
in(13, 93).
in(13, 94).
in(13, 95).
in(13, 96).
in(13, 98).
in(13, 99).
in(13, 100).
in(13, 102).
in(13, 103).
in(13, 104).
in(13, 107).
in(13, 108).
in(13, 109).
in(13, 111).
in(13, 112).
in(13, 113).
in(13, 114).
in(13, 115).
in(13, 116).
in(13, 118).
in(13, 121).
in(13, 124).
in(13, 125).
in(13, 126).
in(14, 128).
in(14, 1).
in(14, 2).
in(14, 3).
in(14, 4).
in(14, 5).
in(14, 6).
in(14, 9).
in(14, 12).
in(14, 14).
in(14, 19).
in(14, 20).
in(14, 28).
in(14, 29).
in(14, 30).
in(14, 31).
in(14, 32).
in(14, 35).
in(14, 36).
in(14, 37).
in(14, 38).
in(14, 40).
in(14, 42).
in(14, 46).
in(14, 47).
in(14, 49).
in(14, 50).
in(14, 51).
in(14, 52).
in(14, 54).
in(14, 55).
in(14, 56).
in(14, 57).
in(14, 60).
in(14, 62).
in(14, 63).
in(14, 64).
in(14, 70).
in(14, 71).
in(14, 73).
in(14, 74).
in(14, 76).
in(14, 78).
in(14, 79).
in(14, 80).
in(14, 81).
in(14, 82).
in(14, 83).
in(14, 85).
in(14, 90).
in(14, 91).
in(14, 92).
in(14, 94).
in(14, 95).
in(14, 96).
in(14, 97).
in(14, 98).
in(14, 99).
in(14, 101).
in(14, 104).
in(14, 106).
in(14, 110).
in(14, 111).
in(14, 115).
in(14, 117).
in(14, 118).
in(14, 119).
in(14, 120).
in(14, 121).
in(14, 123).
in(14, 124).
in(14, 125).
in(14, 127).
in(15, 4).
in(15, 6).
in(15, 9).
in(15, 10).
in(15, 12).
in(15, 15).
in(15, 17).
in(15, 18).
in(15, 19).
in(15, 20).
in(15, 21).
in(15, 23).
in(15, 25).
in(15, 26).
in(15, 27).
in(15, 29).
in(15, 32).
in(15, 33).
in(15, 34).
in(15, 35).
in(15, 38).
in(15, 39).
in(15, 40).
in(15, 41).
in(15, 44).
in(15, 45).
in(15, 46).
in(15, 49).
in(15, 50).
in(15, 51).
in(15, 52).
in(15, 53).
in(15, 54).
in(15, 57).
in(15, 58).
in(15, 59).
in(15, 60).
in(15, 61).
in(15, 62).
in(15, 63).
in(15, 64).
in(15, 66).
in(15, 67).
in(15, 68).
in(15, 69).
in(15, 71).
in(15, 72).
in(15, 73).
in(15, 74).
in(15, 75).
in(15, 78).
in(15, 79).
in(15, 80).
in(15, 81).
in(15, 82).
in(15, 83).
in(15, 90).
in(15, 92).
in(15, 93).
in(15, 94).
in(15, 95).
in(15, 96).
in(15, 98).
in(15, 99).
in(15, 101).
in(15, 102).
in(15, 103).
in(15, 106).
in(15, 107).
in(15, 109).
in(15, 110).
in(15, 111).
in(15, 114).
in(15, 118).
in(15, 120).
in(15, 121).
in(15, 122).
in(15, 125).
in(15, 126).
in(15, 127).
in(15, 128).
in(15, 129).
in(16, 129).
in(16, 6).
in(16, 7).
in(16, 9).
in(16, 11).
in(16, 12).
in(16, 13).
in(16, 14).
in(16, 17).
in(16, 19).
in(16, 21).
in(16, 23).
in(16, 27).
in(16, 31).
in(16, 34).
in(16, 35).
in(16, 36).
in(16, 38).
in(16, 40).
in(16, 41).
in(16, 43).
in(16, 44).
in(16, 46).
in(16, 47).
in(16, 48).
in(16, 49).
in(16, 55).
in(16, 58).
in(16, 60).
in(16, 61).
in(16, 65).
in(16, 66).
in(16, 69).
in(16, 71).
in(16, 73).
in(16, 75).
in(16, 76).
in(16, 78).
in(16, 83).
in(16, 84).
in(16, 85).
in(16, 87).
in(16, 88).
in(16, 89).
in(16, 94).
in(16, 95).
in(16, 96).
in(16, 97).
in(16, 99).
in(16, 103).
in(16, 104).
in(16, 106).
in(16, 107).
in(16, 110).
in(16, 111).
in(16, 115).
in(16, 120).
in(16, 125).
in(16, 126).
in(16, 127).
in(17, 128).
in(17, 1).
in(17, 2).
in(17, 5).
in(17, 8).
in(17, 10).
in(17, 13).
in(17, 17).
in(17, 18).
in(17, 20).
in(17, 21).
in(17, 22).
in(17, 23).
in(17, 24).
in(17, 26).
in(17, 27).
in(17, 28).
in(17, 29).
in(17, 30).
in(17, 33).
in(17, 34).
in(17, 36).
in(17, 37).
in(17, 38).
in(17, 40).
in(17, 42).
in(17, 45).
in(17, 46).
in(17, 47).
in(17, 48).
in(17, 49).
in(17, 53).
in(17, 55).
in(17, 58).
in(17, 60).
in(17, 61).
in(17, 63).
in(17, 67).
in(17, 69).
in(17, 71).
in(17, 73).
in(17, 75).
in(17, 82).
in(17, 83).
in(17, 88).
in(17, 91).
in(17, 92).
in(17, 95).
in(17, 98).
in(17, 99).
in(17, 100).
in(17, 101).
in(17, 102).
in(17, 103).
in(17, 104).
in(17, 105).
in(17, 106).
in(17, 107).
in(17, 108).
in(17, 111).
in(17, 114).
in(17, 116).
in(17, 118).
in(17, 119).
in(17, 124).
in(17, 125).
in(17, 127).
in(18, 6).
in(18, 7).
in(18, 11).
in(18, 12).
in(18, 13).
in(18, 14).
in(18, 15).
in(18, 16).
in(18, 17).
in(18, 18).
in(18, 20).
in(18, 22).
in(18, 23).
in(18, 24).
in(18, 26).
in(18, 30).
in(18, 31).
in(18, 33).
in(18, 34).
in(18, 36).
in(18, 37).
in(18, 39).
in(18, 43).
in(18, 46).
in(18, 53).
in(18, 55).
in(18, 57).
in(18, 58).
in(18, 59).
in(18, 62).
in(18, 64).
in(18, 70).
in(18, 71).
in(18, 78).
in(18, 79).
in(18, 81).
in(18, 84).
in(18, 85).
in(18, 86).
in(18, 87).
in(18, 88).
in(18, 89).
in(18, 90).
in(18, 93).
in(18, 94).
in(18, 96).
in(18, 100).
in(18, 103).
in(18, 106).
in(18, 109).
in(18, 111).
in(18, 112).
in(18, 114).
in(18, 116).
in(18, 117).
in(18, 119).
in(18, 121).
in(18, 125).
in(18, 126).
in(18, 127).
in(19, 128).
in(19, 3).
in(19, 4).
in(19, 5).
in(19, 6).
in(19, 7).
in(19, 8).
in(19, 10).
in(19, 12).
in(19, 14).
in(19, 18).
in(19, 19).
in(19, 21).
in(19, 23).
in(19, 30).
in(19, 32).
in(19, 36).
in(19, 42).
in(19, 43).
in(19, 44).
in(19, 46).
in(19, 48).
in(19, 49).
in(19, 50).
in(19, 51).
in(19, 54).
in(19, 55).
in(19, 59).
in(19, 60).
in(19, 63).
in(19, 68).
in(19, 69).
in(19, 72).
in(19, 73).
in(19, 75).
in(19, 76).
in(19, 77).
in(19, 79).
in(19, 80).
in(19, 81).
in(19, 82).
in(19, 85).
in(19, 88).
in(19, 91).
in(19, 92).
in(19, 93).
in(19, 95).
in(19, 97).
in(19, 98).
in(19, 105).
in(19, 107).
in(19, 108).
in(19, 114).
in(19, 119).
in(19, 120).
in(19, 124).
in(19, 125).
in(19, 126).
in(20, 128).
in(20, 2).
in(20, 4).
in(20, 6).
in(20, 7).
in(20, 10).
in(20, 12).
in(20, 13).
in(20, 14).
in(20, 17).
in(20, 22).
in(20, 23).
in(20, 24).
in(20, 28).
in(20, 31).
in(20, 32).
in(20, 37).
in(20, 39).
in(20, 40).
in(20, 41).
in(20, 43).
in(20, 44).
in(20, 45).
in(20, 47).
in(20, 49).
in(20, 50).
in(20, 51).
in(20, 53).
in(20, 54).
in(20, 58).
in(20, 60).
in(20, 61).
in(20, 63).
in(20, 65).
in(20, 69).
in(20, 70).
in(20, 71).
in(20, 73).
in(20, 74).
in(20, 78).
in(20, 79).
in(20, 80).
in(20, 82).
in(20, 84).
in(20, 85).
in(20, 86).
in(20, 87).
in(20, 88).
in(20, 89).
in(20, 95).
in(20, 98).
in(20, 99).
in(20, 100).
in(20, 101).
in(20, 103).
in(20, 106).
in(20, 107).
in(20, 108).
in(20, 113).
in(20, 115).
in(20, 117).
in(20, 119).
in(20, 120).
in(20, 121).
in(20, 126).
in(21, 128).
in(21, 2).
in(21, 3).
in(21, 4).
in(21, 5).
in(21, 6).
in(21, 8).
in(21, 9).
in(21, 10).
in(21, 13).
in(21, 14).
in(21, 16).
in(21, 17).
in(21, 21).
in(21, 23).
in(21, 25).
in(21, 26).
in(21, 27).
in(21, 31).
in(21, 32).
in(21, 35).
in(21, 36).
in(21, 37).
in(21, 38).
in(21, 40).
in(21, 45).
in(21, 47).
in(21, 48).
in(21, 49).
in(21, 50).
in(21, 51).
in(21, 52).
in(21, 53).
in(21, 56).
in(21, 57).
in(21, 58).
in(21, 59).
in(21, 60).
in(21, 61).
in(21, 62).
in(21, 63).
in(21, 64).
in(21, 70).
in(21, 72).
in(21, 79).
in(21, 81).
in(21, 82).
in(21, 83).
in(21, 84).
in(21, 88).
in(21, 89).
in(21, 90).
in(21, 92).
in(21, 94).
in(21, 95).
in(21, 98).
in(21, 99).
in(21, 103).
in(21, 104).
in(21, 109).
in(21, 110).
in(21, 111).
in(21, 112).
in(21, 114).
in(21, 117).
in(21, 120).
in(21, 121).
in(21, 122).
in(21, 123).
in(21, 124).
in(21, 125).
in(21, 126).
in(21, 127).
in(22, 1).
in(22, 2).
in(22, 3).
in(22, 4).
in(22, 5).
in(22, 129).
in(22, 7).
in(22, 9).
in(22, 10).
in(22, 11).
in(22, 12).
in(22, 14).
in(22, 15).
in(22, 16).
in(22, 17).
in(22, 20).
in(22, 21).
in(22, 22).
in(22, 24).
in(22, 25).
in(22, 27).
in(22, 28).
in(22, 29).
in(22, 31).
in(22, 33).
in(22, 34).
in(22, 36).
in(22, 40).
in(22, 41).
in(22, 43).
in(22, 48).
in(22, 49).
in(22, 51).
in(22, 52).
in(22, 53).
in(22, 54).
in(22, 56).
in(22, 58).
in(22, 59).
in(22, 62).
in(22, 66).
in(22, 67).
in(22, 68).
in(22, 69).
in(22, 70).
in(22, 71).
in(22, 73).
in(22, 76).
in(22, 77).
in(22, 78).
in(22, 81).
in(22, 87).
in(22, 88).
in(22, 89).
in(22, 92).
in(22, 93).
in(22, 94).
in(22, 96).
in(22, 101).
in(22, 106).
in(22, 107).
in(22, 109).
in(22, 111).
in(22, 112).
in(22, 113).
in(22, 115).
in(22, 116).
in(22, 117).
in(22, 118).
in(22, 120).
in(22, 121).
in(22, 125).
in(23, 128).
in(23, 1).
in(23, 5).
in(23, 6).
in(23, 8).
in(23, 10).
in(23, 12).
in(23, 13).
in(23, 15).
in(23, 20).
in(23, 21).
in(23, 23).
in(23, 25).
in(23, 26).
in(23, 28).
in(23, 30).
in(23, 32).
in(23, 35).
in(23, 36).
in(23, 39).
in(23, 40).
in(23, 41).
in(23, 44).
in(23, 45).
in(23, 46).
in(23, 50).
in(23, 51).
in(23, 53).
in(23, 54).
in(23, 55).
in(23, 56).
in(23, 57).
in(23, 59).
in(23, 60).
in(23, 61).
in(23, 62).
in(23, 63).
in(23, 67).
in(23, 68).
in(23, 69).
in(23, 70).
in(23, 71).
in(23, 72).
in(23, 73).
in(23, 74).
in(23, 75).
in(23, 76).
in(23, 77).
in(23, 78).
in(23, 79).
in(23, 83).
in(23, 84).
in(23, 85).
in(23, 87).
in(23, 88).
in(23, 89).
in(23, 91).
in(23, 94).
in(23, 99).
in(23, 100).
in(23, 101).
in(23, 105).
in(23, 107).
in(23, 108).
in(23, 112).
in(23, 115).
in(23, 117).
in(23, 119).
in(23, 120).
in(23, 125).
in(23, 126).
in(24, 129).
in(24, 2).
in(24, 3).
in(24, 5).
in(24, 8).
in(24, 11).
in(24, 12).
in(24, 14).
in(24, 19).
in(24, 20).
in(24, 21).
in(24, 23).
in(24, 26).
in(24, 31).
in(24, 32).
in(24, 33).
in(24, 36).
in(24, 37).
in(24, 38).
in(24, 39).
in(24, 41).
in(24, 42).
in(24, 43).
in(24, 44).
in(24, 45).
in(24, 46).
in(24, 49).
in(24, 50).
in(24, 51).
in(24, 52).
in(24, 54).
in(24, 55).
in(24, 56).
in(24, 58).
in(24, 59).
in(24, 60).
in(24, 61).
in(24, 64).
in(24, 67).
in(24, 68).
in(24, 74).
in(24, 75).
in(24, 76).
in(24, 77).
in(24, 79).
in(24, 80).
in(24, 82).
in(24, 84).
in(24, 85).
in(24, 86).
in(24, 88).
in(24, 90).
in(24, 91).
in(24, 94).
in(24, 95).
in(24, 100).
in(24, 103).
in(24, 105).
in(24, 106).
in(24, 110).
in(24, 111).
in(24, 112).
in(24, 114).
in(24, 115).
in(24, 117).
in(24, 118).
in(24, 123).
in(24, 124).
in(24, 125).
in(24, 126).
in(24, 127).
in(25, 128).
in(25, 1).
in(25, 2).
in(25, 3).
in(25, 6).
in(25, 9).
in(25, 11).
in(25, 12).
in(25, 14).
in(25, 15).
in(25, 16).
in(25, 17).
in(25, 19).
in(25, 20).
in(25, 24).
in(25, 25).
in(25, 28).
in(25, 29).
in(25, 31).
in(25, 32).
in(25, 36).
in(25, 39).
in(25, 40).
in(25, 41).
in(25, 42).
in(25, 44).
in(25, 45).
in(25, 47).
in(25, 49).
in(25, 55).
in(25, 56).
in(25, 58).
in(25, 59).
in(25, 62).
in(25, 65).
in(25, 67).
in(25, 69).
in(25, 72).
in(25, 73).
in(25, 75).
in(25, 76).
in(25, 77).
in(25, 78).
in(25, 80).
in(25, 81).
in(25, 82).
in(25, 83).
in(25, 84).
in(25, 86).
in(25, 87).
in(25, 91).
in(25, 92).
in(25, 94).
in(25, 97).
in(25, 98).
in(25, 99).
in(25, 102).
in(25, 105).
in(25, 108).
in(25, 112).
in(25, 115).
in(25, 117).
in(25, 119).
in(25, 120).
in(25, 122).
in(25, 123).
in(25, 125).
in(26, 128).
in(26, 2).
in(26, 3).
in(26, 4).
in(26, 5).
in(26, 7).
in(26, 9).
in(26, 10).
in(26, 13).
in(26, 14).
in(26, 16).
in(26, 18).
in(26, 20).
in(26, 21).
in(26, 22).
in(26, 26).
in(26, 28).
in(26, 29).
in(26, 31).
in(26, 33).
in(26, 34).
in(26, 35).
in(26, 36).
in(26, 37).
in(26, 38).
in(26, 40).
in(26, 41).
in(26, 42).
in(26, 45).
in(26, 46).
in(26, 47).
in(26, 48).
in(26, 49).
in(26, 50).
in(26, 52).
in(26, 55).
in(26, 56).
in(26, 57).
in(26, 58).
in(26, 59).
in(26, 61).
in(26, 63).
in(26, 65).
in(26, 70).
in(26, 73).
in(26, 74).
in(26, 75).
in(26, 76).
in(26, 77).
in(26, 82).
in(26, 85).
in(26, 87).
in(26, 89).
in(26, 90).
in(26, 91).
in(26, 92).
in(26, 95).
in(26, 96).
in(26, 97).
in(26, 98).
in(26, 102).
in(26, 103).
in(26, 105).
in(26, 107).
in(26, 110).
in(26, 111).
in(26, 114).
in(26, 116).
in(26, 118).
in(26, 120).
in(26, 125).
in(26, 126).
in(27, 1).
in(27, 2).
in(27, 3).
in(27, 4).
in(27, 5).
in(27, 6).
in(27, 7).
in(27, 8).
in(27, 9).
in(27, 11).
in(27, 12).
in(27, 13).
in(27, 14).
in(27, 16).
in(27, 17).
in(27, 19).
in(27, 20).
in(27, 21).
in(27, 22).
in(27, 23).
in(27, 26).
in(27, 28).
in(27, 29).
in(27, 32).
in(27, 33).
in(27, 35).
in(27, 36).
in(27, 38).
in(27, 39).
in(27, 40).
in(27, 41).
in(27, 42).
in(27, 43).
in(27, 44).
in(27, 46).
in(27, 47).
in(27, 48).
in(27, 49).
in(27, 51).
in(27, 53).
in(27, 55).
in(27, 56).
in(27, 57).
in(27, 60).
in(27, 62).
in(27, 63).
in(27, 67).
in(27, 68).
in(27, 70).
in(27, 72).
in(27, 74).
in(27, 75).
in(27, 76).
in(27, 77).
in(27, 81).
in(27, 82).
in(27, 83).
in(27, 84).
in(27, 86).
in(27, 87).
in(27, 89).
in(27, 90).
in(27, 91).
in(27, 92).
in(27, 94).
in(27, 95).
in(27, 96).
in(27, 98).
in(27, 100).
in(27, 101).
in(27, 104).
in(27, 106).
in(27, 110).
in(27, 111).
in(27, 112).
in(27, 114).
in(27, 115).
in(27, 117).
in(27, 118).
in(27, 119).
in(27, 121).
in(27, 122).
in(27, 124).
in(27, 125).
in(27, 126).
in(27, 128).
in(28, 1).
in(28, 2).
in(28, 129).
in(28, 4).
in(28, 6).
in(28, 9).
in(28, 15).
in(28, 16).
in(28, 18).
in(28, 19).
in(28, 20).
in(28, 25).
in(28, 26).
in(28, 30).
in(28, 31).
in(28, 35).
in(28, 38).
in(28, 39).
in(28, 43).
in(28, 45).
in(28, 46).
in(28, 47).
in(28, 49).
in(28, 55).
in(28, 60).
in(28, 61).
in(28, 63).
in(28, 64).
in(28, 66).
in(28, 67).
in(28, 68).
in(28, 69).
in(28, 71).
in(28, 73).
in(28, 74).
in(28, 76).
in(28, 78).
in(28, 79).
in(28, 80).
in(28, 82).
in(28, 83).
in(28, 85).
in(28, 87).
in(28, 89).
in(28, 90).
in(28, 92).
in(28, 93).
in(28, 95).
in(28, 96).
in(28, 101).
in(28, 102).
in(28, 105).
in(28, 106).
in(28, 108).
in(28, 109).
in(28, 110).
in(28, 112).
in(28, 113).
in(28, 115).
in(28, 117).
in(28, 118).
in(28, 119).
in(28, 121).
in(28, 122).
in(28, 123).
in(28, 126).
in(28, 127).
in(29, 3).
in(29, 5).
in(29, 9).
in(29, 11).
in(29, 12).
in(29, 13).
in(29, 14).
in(29, 15).
in(29, 18).
in(29, 20).
in(29, 24).
in(29, 25).
in(29, 26).
in(29, 27).
in(29, 28).
in(29, 29).
in(29, 31).
in(29, 33).
in(29, 36).
in(29, 38).
in(29, 40).
in(29, 45).
in(29, 47).
in(29, 49).
in(29, 50).
in(29, 52).
in(29, 54).
in(29, 55).
in(29, 56).
in(29, 57).
in(29, 58).
in(29, 59).
in(29, 61).
in(29, 62).
in(29, 63).
in(29, 67).
in(29, 69).
in(29, 70).
in(29, 72).
in(29, 75).
in(29, 76).
in(29, 77).
in(29, 78).
in(29, 80).
in(29, 81).
in(29, 82).
in(29, 83).
in(29, 85).
in(29, 86).
in(29, 87).
in(29, 90).
in(29, 91).
in(29, 92).
in(29, 93).
in(29, 94).
in(29, 97).
in(29, 98).
in(29, 100).
in(29, 101).
in(29, 105).
in(29, 106).
in(29, 107).
in(29, 108).
in(29, 110).
in(29, 111).
in(29, 112).
in(29, 113).
in(29, 115).
in(29, 117).
in(29, 120).
in(29, 121).
in(29, 123).
in(29, 124).
in(29, 125).
in(29, 127).
in(30, 128).
in(30, 1).
in(30, 2).
in(30, 6).
in(30, 7).
in(30, 11).
in(30, 15).
in(30, 16).
in(30, 18).
in(30, 19).
in(30, 22).
in(30, 29).
in(30, 30).
in(30, 32).
in(30, 34).
in(30, 35).
in(30, 36).
in(30, 42).
in(30, 44).
in(30, 46).
in(30, 47).
in(30, 48).
in(30, 51).
in(30, 52).
in(30, 56).
in(30, 58).
in(30, 60).
in(30, 61).
in(30, 63).
in(30, 66).
in(30, 68).
in(30, 70).
in(30, 71).
in(30, 72).
in(30, 74).
in(30, 75).
in(30, 76).
in(30, 83).
in(30, 87).
in(30, 88).
in(30, 89).
in(30, 90).
in(30, 92).
in(30, 96).
in(30, 97).
in(30, 98).
in(30, 102).
in(30, 104).
in(30, 109).
in(30, 112).
in(30, 113).
in(30, 116).
in(30, 120).
in(30, 125).
in(30, 126).
in(30, 127).
in(31, 4).
in(31, 6).
in(31, 12).
in(31, 13).
in(31, 14).
in(31, 15).
in(31, 19).
in(31, 21).
in(31, 25).
in(31, 26).
in(31, 27).
in(31, 28).
in(31, 32).
in(31, 33).
in(31, 34).
in(31, 35).
in(31, 36).
in(31, 37).
in(31, 39).
in(31, 40).
in(31, 41).
in(31, 45).
in(31, 47).
in(31, 55).
in(31, 56).
in(31, 58).
in(31, 59).
in(31, 63).
in(31, 69).
in(31, 71).
in(31, 73).
in(31, 74).
in(31, 76).
in(31, 81).
in(31, 83).
in(31, 88).
in(31, 89).
in(31, 91).
in(31, 95).
in(31, 97).
in(31, 98).
in(31, 99).
in(31, 102).
in(31, 106).
in(31, 110).
in(31, 111).
in(31, 114).
in(31, 117).
in(31, 119).
in(31, 120).
in(31, 121).
in(31, 122).
in(31, 124).
in(31, 125).
in(32, 129).
in(32, 2).
in(32, 4).
in(32, 5).
in(32, 7).
in(32, 8).
in(32, 9).
in(32, 12).
in(32, 15).
in(32, 16).
in(32, 18).
in(32, 19).
in(32, 21).
in(32, 27).
in(32, 28).
in(32, 29).
in(32, 31).
in(32, 32).
in(32, 35).
in(32, 36).
in(32, 37).
in(32, 38).
in(32, 42).
in(32, 45).
in(32, 47).
in(32, 49).
in(32, 50).
in(32, 51).
in(32, 52).
in(32, 53).
in(32, 54).
in(32, 59).
in(32, 61).
in(32, 62).
in(32, 63).
in(32, 64).
in(32, 65).
in(32, 67).
in(32, 68).
in(32, 69).
in(32, 70).
in(32, 74).
in(32, 75).
in(32, 76).
in(32, 79).
in(32, 80).
in(32, 81).
in(32, 85).
in(32, 86).
in(32, 87).
in(32, 88).
in(32, 90).
in(32, 92).
in(32, 93).
in(32, 94).
in(32, 96).
in(32, 97).
in(32, 104).
in(32, 105).
in(32, 106).
in(32, 110).
in(32, 114).
in(32, 115).
in(32, 117).
in(32, 120).
in(32, 122).
in(32, 124).
in(32, 126).
in(33, 1).
in(33, 2).
in(33, 3).
in(33, 5).
in(33, 6).
in(33, 7).
in(33, 8).
in(33, 9).
in(33, 10).
in(33, 12).
in(33, 13).
in(33, 14).
in(33, 21).
in(33, 25).
in(33, 27).
in(33, 29).
in(33, 32).
in(33, 34).
in(33, 37).
in(33, 42).
in(33, 45).
in(33, 51).
in(33, 52).
in(33, 53).
in(33, 55).
in(33, 56).
in(33, 57).
in(33, 59).
in(33, 60).
in(33, 61).
in(33, 62).
in(33, 63).
in(33, 65).
in(33, 67).
in(33, 68).
in(33, 69).
in(33, 72).
in(33, 74).
in(33, 76).
in(33, 78).
in(33, 79).
in(33, 80).
in(33, 82).
in(33, 83).
in(33, 84).
in(33, 86).
in(33, 89).
in(33, 93).
in(33, 94).
in(33, 98).
in(33, 99).
in(33, 101).
in(33, 104).
in(33, 106).
in(33, 107).
in(33, 110).
in(33, 113).
in(33, 115).
in(33, 117).
in(33, 118).
in(33, 119).
in(33, 120).
in(33, 122).
in(33, 124).
in(33, 125).
in(34, 1).
in(34, 2).
in(34, 4).
in(34, 5).
in(34, 8).
in(34, 9).
in(34, 11).
in(34, 12).
in(34, 13).
in(34, 16).
in(34, 17).
in(34, 18).
in(34, 21).
in(34, 22).
in(34, 25).
in(34, 26).
in(34, 27).
in(34, 29).
in(34, 30).
in(34, 31).
in(34, 32).
in(34, 33).
in(34, 34).
in(34, 36).
in(34, 38).
in(34, 40).
in(34, 41).
in(34, 44).
in(34, 47).
in(34, 48).
in(34, 49).
in(34, 50).
in(34, 52).
in(34, 53).
in(34, 54).
in(34, 55).
in(34, 56).
in(34, 57).
in(34, 59).
in(34, 62).
in(34, 63).
in(34, 64).
in(34, 65).
in(34, 67).
in(34, 69).
in(34, 70).
in(34, 72).
in(34, 73).
in(34, 75).
in(34, 76).
in(34, 79).
in(34, 82).
in(34, 83).
in(34, 84).
in(34, 85).
in(34, 87).
in(34, 89).
in(34, 90).
in(34, 93).
in(34, 94).
in(34, 96).
in(34, 97).
in(34, 98).
in(34, 103).
in(34, 105).
in(34, 107).
in(34, 109).
in(34, 114).
in(34, 116).
in(34, 117).
in(34, 118).
in(34, 120).
in(34, 124).
in(34, 125).
in(34, 127).
in(34, 128).
in(34, 129).
in(35, 129).
in(35, 2).
in(35, 4).
in(35, 5).
in(35, 6).
in(35, 7).
in(35, 8).
in(35, 10).
in(35, 12).
in(35, 13).
in(35, 14).
in(35, 15).
in(35, 17).
in(35, 19).
in(35, 21).
in(35, 23).
in(35, 26).
in(35, 27).
in(35, 29).
in(35, 34).
in(35, 35).
in(35, 37).
in(35, 38).
in(35, 40).
in(35, 41).
in(35, 42).
in(35, 44).
in(35, 45).
in(35, 46).
in(35, 47).
in(35, 48).
in(35, 49).
in(35, 50).
in(35, 52).
in(35, 54).
in(35, 55).
in(35, 57).
in(35, 58).
in(35, 61).
in(35, 63).
in(35, 69).
in(35, 70).
in(35, 71).
in(35, 73).
in(35, 74).
in(35, 76).
in(35, 77).
in(35, 80).
in(35, 83).
in(35, 84).
in(35, 86).
in(35, 87).
in(35, 88).
in(35, 91).
in(35, 95).
in(35, 96).
in(35, 100).
in(35, 102).
in(35, 106).
in(35, 107).
in(35, 108).
in(35, 110).
in(35, 111).
in(35, 113).
in(35, 115).
in(35, 116).
in(35, 117).
in(35, 120).
in(35, 121).
in(35, 124).
in(35, 125).
in(36, 128).
in(36, 1).
in(36, 2).
in(36, 6).
in(36, 7).
in(36, 8).
in(36, 9).
in(36, 12).
in(36, 13).
in(36, 14).
in(36, 15).
in(36, 16).
in(36, 17).
in(36, 18).
in(36, 19).
in(36, 20).
in(36, 22).
in(36, 23).
in(36, 24).
in(36, 29).
in(36, 31).
in(36, 33).
in(36, 34).
in(36, 37).
in(36, 40).
in(36, 42).
in(36, 43).
in(36, 44).
in(36, 47).
in(36, 48).
in(36, 49).
in(36, 50).
in(36, 52).
in(36, 53).
in(36, 55).
in(36, 57).
in(36, 59).
in(36, 60).
in(36, 63).
in(36, 65).
in(36, 67).
in(36, 69).
in(36, 70).
in(36, 71).
in(36, 72).
in(36, 74).
in(36, 82).
in(36, 85).
in(36, 86).
in(36, 88).
in(36, 89).
in(36, 93).
in(36, 95).
in(36, 96).
in(36, 98).
in(36, 101).
in(36, 102).
in(36, 103).
in(36, 105).
in(36, 106).
in(36, 112).
in(36, 113).
in(36, 116).
in(36, 117).
in(36, 119).
in(36, 120).
in(36, 123).
in(36, 124).
in(36, 125).
in(36, 127).
in(37, 1).
in(37, 2).
in(37, 6).
in(37, 7).
in(37, 8).
in(37, 10).
in(37, 12).
in(37, 13).
in(37, 15).
in(37, 16).
in(37, 17).
in(37, 24).
in(37, 25).
in(37, 26).
in(37, 27).
in(37, 29).
in(37, 31).
in(37, 32).
in(37, 34).
in(37, 36).
in(37, 37).
in(37, 39).
in(37, 40).
in(37, 41).
in(37, 43).
in(37, 44).
in(37, 45).
in(37, 46).
in(37, 48).
in(37, 51).
in(37, 52).
in(37, 55).
in(37, 57).
in(37, 58).
in(37, 59).
in(37, 67).
in(37, 69).
in(37, 72).
in(37, 74).
in(37, 77).
in(37, 81).
in(37, 86).
in(37, 88).
in(37, 89).
in(37, 92).
in(37, 94).
in(37, 95).
in(37, 96).
in(37, 100).
in(37, 101).
in(37, 102).
in(37, 103).
in(37, 105).
in(37, 106).
in(37, 108).
in(37, 109).
in(37, 110).
in(37, 111).
in(37, 113).
in(37, 115).
in(37, 116).
in(37, 118).
in(37, 119).
in(37, 120).
in(37, 125).
in(37, 127).
in(38, 128).
in(38, 1).
in(38, 4).
in(38, 5).
in(38, 10).
in(38, 12).
in(38, 13).
in(38, 14).
in(38, 17).
in(38, 19).
in(38, 21).
in(38, 22).
in(38, 24).
in(38, 25).
in(38, 26).
in(38, 31).
in(38, 32).
in(38, 33).
in(38, 34).
in(38, 35).
in(38, 38).
in(38, 39).
in(38, 41).
in(38, 44).
in(38, 47).
in(38, 48).
in(38, 54).
in(38, 57).
in(38, 58).
in(38, 60).
in(38, 61).
in(38, 63).
in(38, 64).
in(38, 65).
in(38, 68).
in(38, 74).
in(38, 76).
in(38, 78).
in(38, 84).
in(38, 86).
in(38, 89).
in(38, 91).
in(38, 94).
in(38, 96).
in(38, 98).
in(38, 101).
in(38, 104).
in(38, 107).
in(38, 109).
in(38, 110).
in(38, 111).
in(38, 112).
in(38, 115).
in(38, 116).
in(38, 117).
in(38, 118).
in(38, 120).
in(38, 121).
in(38, 123).
in(38, 124).
in(38, 125).
in(38, 126).
in(39, 128).
in(39, 1).
in(39, 129).
in(39, 5).
in(39, 6).
in(39, 7).
in(39, 8).
in(39, 9).
in(39, 10).
in(39, 13).
in(39, 16).
in(39, 17).
in(39, 20).
in(39, 22).
in(39, 23).
in(39, 26).
in(39, 27).
in(39, 28).
in(39, 29).
in(39, 30).
in(39, 33).
in(39, 34).
in(39, 35).
in(39, 36).
in(39, 37).
in(39, 41).
in(39, 46).
in(39, 50).
in(39, 51).
in(39, 54).
in(39, 55).
in(39, 56).
in(39, 59).
in(39, 61).
in(39, 63).
in(39, 65).
in(39, 67).
in(39, 70).
in(39, 71).
in(39, 74).
in(39, 75).
in(39, 76).
in(39, 77).
in(39, 78).
in(39, 80).
in(39, 82).
in(39, 83).
in(39, 84).
in(39, 87).
in(39, 88).
in(39, 89).
in(39, 95).
in(39, 96).
in(39, 100).
in(39, 101).
in(39, 105).
in(39, 106).
in(39, 111).
in(39, 112).
in(39, 113).
in(39, 116).
in(39, 117).
in(39, 118).
in(39, 120).
in(39, 122).
in(39, 124).
in(39, 125).
in(39, 126).
in(40, 128).
in(40, 129).
in(40, 2).
in(40, 3).
in(40, 4).
in(40, 5).
in(40, 6).
in(40, 7).
in(40, 11).
in(40, 12).
in(40, 13).
in(40, 17).
in(40, 19).
in(40, 20).
in(40, 21).
in(40, 22).
in(40, 25).
in(40, 32).
in(40, 34).
in(40, 35).
in(40, 36).
in(40, 37).
in(40, 38).
in(40, 42).
in(40, 45).
in(40, 47).
in(40, 49).
in(40, 50).
in(40, 51).
in(40, 52).
in(40, 54).
in(40, 56).
in(40, 57).
in(40, 58).
in(40, 59).
in(40, 61).
in(40, 63).
in(40, 67).
in(40, 69).
in(40, 70).
in(40, 71).
in(40, 72).
in(40, 74).
in(40, 76).
in(40, 78).
in(40, 79).
in(40, 80).
in(40, 82).
in(40, 85).
in(40, 86).
in(40, 87).
in(40, 88).
in(40, 89).
in(40, 90).
in(40, 91).
in(40, 95).
in(40, 96).
in(40, 98).
in(40, 100).
in(40, 102).
in(40, 103).
in(40, 105).
in(40, 106).
in(40, 108).
in(40, 109).
in(40, 110).
in(40, 111).
in(40, 113).
in(40, 116).
in(40, 117).
in(40, 119).
in(40, 121).
in(40, 124).
in(41, 1).
in(41, 2).
in(41, 3).
in(41, 4).
in(41, 129).
in(41, 6).
in(41, 8).
in(41, 9).
in(41, 10).
in(41, 13).
in(41, 15).
in(41, 16).
in(41, 18).
in(41, 19).
in(41, 20).
in(41, 22).
in(41, 23).
in(41, 30).
in(41, 33).
in(41, 34).
in(41, 35).
in(41, 36).
in(41, 42).
in(41, 44).
in(41, 51).
in(41, 52).
in(41, 54).
in(41, 56).
in(41, 57).
in(41, 59).
in(41, 61).
in(41, 63).
in(41, 64).
in(41, 65).
in(41, 67).
in(41, 69).
in(41, 70).
in(41, 76).
in(41, 80).
in(41, 83).
in(41, 84).
in(41, 85).
in(41, 86).
in(41, 89).
in(41, 91).
in(41, 93).
in(41, 94).
in(41, 96).
in(41, 97).
in(41, 99).
in(41, 100).
in(41, 101).
in(41, 102).
in(41, 103).
in(41, 106).
in(41, 107).
in(41, 109).
in(41, 110).
in(41, 111).
in(41, 113).
in(41, 116).
in(41, 121).
in(41, 124).
in(41, 125).
in(41, 126).
in(42, 128).
in(42, 2).
in(42, 3).
in(42, 7).
in(42, 8).
in(42, 9).
in(42, 10).
in(42, 12).
in(42, 14).
in(42, 15).
in(42, 18).
in(42, 19).
in(42, 20).
in(42, 22).
in(42, 23).
in(42, 24).
in(42, 25).
in(42, 26).
in(42, 28).
in(42, 33).
in(42, 34).
in(42, 36).
in(42, 37).
in(42, 38).
in(42, 39).
in(42, 41).
in(42, 42).
in(42, 44).
in(42, 45).
in(42, 46).
in(42, 51).
in(42, 53).
in(42, 55).
in(42, 56).
in(42, 57).
in(42, 60).
in(42, 63).
in(42, 65).
in(42, 66).
in(42, 67).
in(42, 68).
in(42, 70).
in(42, 71).
in(42, 72).
in(42, 73).
in(42, 76).
in(42, 78).
in(42, 79).
in(42, 84).
in(42, 86).
in(42, 88).
in(42, 89).
in(42, 94).
in(42, 97).
in(42, 98).
in(42, 99).
in(42, 101).
in(42, 107).
in(42, 108).
in(42, 110).
in(42, 111).
in(42, 112).
in(42, 117).
in(42, 122).
in(42, 124).
in(42, 127).
in(43, 128).
in(43, 129).
in(43, 2).
in(43, 3).
in(43, 5).
in(43, 6).
in(43, 7).
in(43, 10).
in(43, 11).
in(43, 12).
in(43, 15).
in(43, 17).
in(43, 19).
in(43, 20).
in(43, 22).
in(43, 23).
in(43, 25).
in(43, 26).
in(43, 27).
in(43, 28).
in(43, 29).
in(43, 30).
in(43, 32).
in(43, 34).
in(43, 36).
in(43, 42).
in(43, 52).
in(43, 54).
in(43, 55).
in(43, 57).
in(43, 58).
in(43, 62).
in(43, 63).
in(43, 66).
in(43, 67).
in(43, 69).
in(43, 70).
in(43, 71).
in(43, 72).
in(43, 73).
in(43, 74).
in(43, 79).
in(43, 80).
in(43, 81).
in(43, 82).
in(43, 83).
in(43, 84).
in(43, 86).
in(43, 87).
in(43, 88).
in(43, 89).
in(43, 90).
in(43, 91).
in(43, 95).
in(43, 96).
in(43, 101).
in(43, 102).
in(43, 103).
in(43, 106).
in(43, 110).
in(43, 111).
in(43, 112).
in(43, 114).
in(43, 116).
in(43, 117).
in(43, 119).
in(43, 120).
in(43, 125).
in(44, 1).
in(44, 2).
in(44, 3).
in(44, 129).
in(44, 5).
in(44, 7).
in(44, 8).
in(44, 15).
in(44, 17).
in(44, 18).
in(44, 20).
in(44, 23).
in(44, 24).
in(44, 26).
in(44, 28).
in(44, 29).
in(44, 34).
in(44, 37).
in(44, 41).
in(44, 43).
in(44, 44).
in(44, 46).
in(44, 47).
in(44, 49).
in(44, 52).
in(44, 54).
in(44, 56).
in(44, 58).
in(44, 59).
in(44, 60).
in(44, 63).
in(44, 64).
in(44, 68).
in(44, 70).
in(44, 74).
in(44, 75).
in(44, 77).
in(44, 78).
in(44, 79).
in(44, 81).
in(44, 82).
in(44, 83).
in(44, 84).
in(44, 85).
in(44, 86).
in(44, 89).
in(44, 90).
in(44, 91).
in(44, 93).
in(44, 94).
in(44, 95).
in(44, 96).
in(44, 97).
in(44, 98).
in(44, 99).
in(44, 101).
in(44, 102).
in(44, 103).
in(44, 104).
in(44, 108).
in(44, 109).
in(44, 110).
in(44, 111).
in(44, 112).
in(44, 113).
in(44, 114).
in(44, 116).
in(44, 118).
in(44, 121).
in(44, 123).
in(44, 124).
in(45, 129).
in(45, 4).
in(45, 5).
in(45, 9).
in(45, 11).
in(45, 13).
in(45, 14).
in(45, 15).
in(45, 16).
in(45, 17).
in(45, 20).
in(45, 23).
in(45, 26).
in(45, 28).
in(45, 29).
in(45, 37).
in(45, 38).
in(45, 41).
in(45, 44).
in(45, 45).
in(45, 46).
in(45, 47).
in(45, 48).
in(45, 53).
in(45, 54).
in(45, 58).
in(45, 59).
in(45, 61).
in(45, 62).
in(45, 63).
in(45, 64).
in(45, 69).
in(45, 70).
in(45, 73).
in(45, 74).
in(45, 75).
in(45, 77).
in(45, 79).
in(45, 80).
in(45, 82).
in(45, 83).
in(45, 84).
in(45, 85).
in(45, 86).
in(45, 87).
in(45, 88).
in(45, 89).
in(45, 90).
in(45, 91).
in(45, 95).
in(45, 97).
in(45, 99).
in(45, 102).
in(45, 104).
in(45, 107).
in(45, 111).
in(45, 112).
in(45, 113).
in(45, 114).
in(45, 115).
in(45, 117).
in(45, 119).
in(45, 120).
in(45, 127).
in(46, 1).
in(46, 129).
in(46, 3).
in(46, 5).
in(46, 6).
in(46, 7).
in(46, 8).
in(46, 10).
in(46, 11).
in(46, 12).
in(46, 13).
in(46, 14).
in(46, 15).
in(46, 20).
in(46, 22).
in(46, 23).
in(46, 24).
in(46, 26).
in(46, 28).
in(46, 29).
in(46, 35).
in(46, 36).
in(46, 37).
in(46, 38).
in(46, 39).
in(46, 40).
in(46, 41).
in(46, 44).
in(46, 45).
in(46, 47).
in(46, 50).
in(46, 53).
in(46, 54).
in(46, 55).
in(46, 57).
in(46, 58).
in(46, 59).
in(46, 60).
in(46, 61).
in(46, 65).
in(46, 67).
in(46, 70).
in(46, 71).
in(46, 73).
in(46, 74).
in(46, 75).
in(46, 76).
in(46, 78).
in(46, 81).
in(46, 85).
in(46, 86).
in(46, 87).
in(46, 88).
in(46, 89).
in(46, 90).
in(46, 91).
in(46, 94).
in(46, 96).
in(46, 98).
in(46, 100).
in(46, 104).
in(46, 107).
in(46, 108).
in(46, 110).
in(46, 111).
in(46, 112).
in(46, 115).
in(46, 117).
in(46, 118).
in(46, 119).
in(46, 120).
in(46, 121).
in(46, 126).
in(47, 1).
in(47, 2).
in(47, 129).
in(47, 6).
in(47, 8).
in(47, 11).
in(47, 16).
in(47, 24).
in(47, 26).
in(47, 27).
in(47, 28).
in(47, 30).
in(47, 32).
in(47, 34).
in(47, 37).
in(47, 40).
in(47, 41).
in(47, 42).
in(47, 43).
in(47, 44).
in(47, 45).
in(47, 46).
in(47, 50).
in(47, 51).
in(47, 57).
in(47, 59).
in(47, 61).
in(47, 62).
in(47, 66).
in(47, 72).
in(47, 77).
in(47, 78).
in(47, 80).
in(47, 83).
in(47, 87).
in(47, 88).
in(47, 94).
in(47, 99).
in(47, 100).
in(47, 103).
in(47, 104).
in(47, 105).
in(47, 108).
in(47, 110).
in(47, 111).
in(47, 112).
in(47, 115).
in(47, 116).
in(47, 118).
in(47, 119).
in(47, 122).
in(47, 123).
in(47, 124).
in(47, 125).
in(47, 127).
in(48, 128).
in(48, 1).
in(48, 2).
in(48, 129).
in(48, 7).
in(48, 9).
in(48, 10).
in(48, 15).
in(48, 17).
in(48, 18).
in(48, 21).
in(48, 22).
in(48, 23).
in(48, 24).
in(48, 25).
in(48, 26).
in(48, 28).
in(48, 35).
in(48, 36).
in(48, 37).
in(48, 38).
in(48, 39).
in(48, 43).
in(48, 44).
in(48, 45).
in(48, 46).
in(48, 48).
in(48, 49).
in(48, 51).
in(48, 52).
in(48, 56).
in(48, 57).
in(48, 59).
in(48, 62).
in(48, 64).
in(48, 67).
in(48, 68).
in(48, 70).
in(48, 71).
in(48, 72).
in(48, 73).
in(48, 79).
in(48, 82).
in(48, 83).
in(48, 85).
in(48, 89).
in(48, 91).
in(48, 94).
in(48, 96).
in(48, 97).
in(48, 98).
in(48, 99).
in(48, 100).
in(48, 101).
in(48, 102).
in(48, 103).
in(48, 106).
in(48, 107).
in(48, 108).
in(48, 109).
in(48, 112).
in(48, 113).
in(48, 114).
in(48, 116).
in(48, 117).
in(48, 119).
in(48, 121).
in(48, 122).
in(48, 124).
in(48, 125).
in(48, 126).
in(48, 127).
in(49, 128).
in(49, 3).
in(49, 4).
in(49, 6).
in(49, 7).
in(49, 11).
in(49, 12).
in(49, 13).
in(49, 14).
in(49, 21).
in(49, 22).
in(49, 24).
in(49, 26).
in(49, 27).
in(49, 29).
in(49, 30).
in(49, 31).
in(49, 32).
in(49, 33).
in(49, 36).
in(49, 39).
in(49, 43).
in(49, 45).
in(49, 47).
in(49, 50).
in(49, 51).
in(49, 53).
in(49, 55).
in(49, 58).
in(49, 59).
in(49, 61).
in(49, 65).
in(49, 66).
in(49, 69).
in(49, 72).
in(49, 77).
in(49, 78).
in(49, 79).
in(49, 81).
in(49, 84).
in(49, 86).
in(49, 87).
in(49, 89).
in(49, 90).
in(49, 91).
in(49, 92).
in(49, 93).
in(49, 94).
in(49, 95).
in(49, 96).
in(49, 98).
in(49, 101).
in(49, 103).
in(49, 104).
in(49, 110).
in(49, 111).
in(49, 112).
in(49, 114).
in(49, 117).
in(49, 119).
in(49, 120).
in(49, 122).
in(49, 124).
in(49, 125).
in(49, 127).
in(50, 128).
in(50, 1).
in(50, 129).
in(50, 4).
in(50, 6).
in(50, 8).
in(50, 9).
in(50, 10).
in(50, 11).
in(50, 13).
in(50, 15).
in(50, 17).
in(50, 23).
in(50, 24).
in(50, 25).
in(50, 27).
in(50, 28).
in(50, 30).
in(50, 37).
in(50, 38).
in(50, 39).
in(50, 40).
in(50, 41).
in(50, 42).
in(50, 44).
in(50, 45).
in(50, 48).
in(50, 50).
in(50, 52).
in(50, 53).
in(50, 54).
in(50, 57).
in(50, 58).
in(50, 59).
in(50, 64).
in(50, 67).
in(50, 68).
in(50, 74).
in(50, 80).
in(50, 82).
in(50, 85).
in(50, 86).
in(50, 89).
in(50, 91).
in(50, 92).
in(50, 93).
in(50, 95).
in(50, 96).
in(50, 97).
in(50, 101).
in(50, 111).
in(50, 113).
in(50, 116).
in(50, 117).
in(50, 120).
in(50, 126).
in(50, 127).
in(51, 128).
in(51, 129).
in(51, 3).
in(51, 8).
in(51, 10).
in(51, 12).
in(51, 13).
in(51, 14).
in(51, 15).
in(51, 16).
in(51, 21).
in(51, 22).
in(51, 23).
in(51, 25).
in(51, 26).
in(51, 27).
in(51, 30).
in(51, 34).
in(51, 35).
in(51, 36).
in(51, 39).
in(51, 40).
in(51, 43).
in(51, 46).
in(51, 48).
in(51, 53).
in(51, 54).
in(51, 55).
in(51, 57).
in(51, 59).
in(51, 60).
in(51, 61).
in(51, 64).
in(51, 65).
in(51, 67).
in(51, 71).
in(51, 73).
in(51, 74).
in(51, 75).
in(51, 76).
in(51, 80).
in(51, 81).
in(51, 85).
in(51, 91).
in(51, 92).
in(51, 93).
in(51, 95).
in(51, 96).
in(51, 97).
in(51, 98).
in(51, 101).
in(51, 111).
in(51, 112).
in(51, 115).
in(51, 117).
in(51, 118).
in(51, 120).
in(51, 121).
in(51, 122).
in(51, 125).
in(51, 127).
in(52, 3).
in(52, 5).
in(52, 6).
in(52, 7).
in(52, 8).
in(52, 9).
in(52, 11).
in(52, 15).
in(52, 17).
in(52, 18).
in(52, 19).
in(52, 22).
in(52, 25).
in(52, 26).
in(52, 27).
in(52, 28).
in(52, 32).
in(52, 36).
in(52, 38).
in(52, 39).
in(52, 44).
in(52, 45).
in(52, 47).
in(52, 48).
in(52, 53).
in(52, 54).
in(52, 55).
in(52, 56).
in(52, 60).
in(52, 64).
in(52, 66).
in(52, 67).
in(52, 68).
in(52, 70).
in(52, 71).
in(52, 72).
in(52, 73).
in(52, 77).
in(52, 78).
in(52, 80).
in(52, 81).
in(52, 83).
in(52, 84).
in(52, 85).
in(52, 90).
in(52, 91).
in(52, 92).
in(52, 93).
in(52, 95).
in(52, 99).
in(52, 100).
in(52, 103).
in(52, 105).
in(52, 106).
in(52, 107).
in(52, 112).
in(52, 114).
in(52, 116).
in(52, 118).
in(52, 121).
in(52, 123).
in(52, 124).
in(53, 1).
in(53, 2).
in(53, 3).
in(53, 4).
in(53, 5).
in(53, 6).
in(53, 9).
in(53, 10).
in(53, 12).
in(53, 13).
in(53, 16).
in(53, 17).
in(53, 18).
in(53, 23).
in(53, 24).
in(53, 27).
in(53, 28).
in(53, 30).
in(53, 33).
in(53, 34).
in(53, 36).
in(53, 38).
in(53, 40).
in(53, 41).
in(53, 44).
in(53, 45).
in(53, 48).
in(53, 49).
in(53, 50).
in(53, 51).
in(53, 52).
in(53, 53).
in(53, 54).
in(53, 59).
in(53, 62).
in(53, 63).
in(53, 65).
in(53, 66).
in(53, 68).
in(53, 71).
in(53, 72).
in(53, 73).
in(53, 74).
in(53, 76).
in(53, 82).
in(53, 88).
in(53, 92).
in(53, 93).
in(53, 96).
in(53, 97).
in(53, 98).
in(53, 99).
in(53, 101).
in(53, 102).
in(53, 103).
in(53, 104).
in(53, 105).
in(53, 107).
in(53, 108).
in(53, 112).
in(53, 113).
in(53, 114).
in(53, 117).
in(53, 118).
in(53, 119).
in(53, 120).
in(53, 122).
in(53, 123).
in(53, 125).
in(53, 126).
in(53, 127).
in(54, 128).
in(54, 1).
in(54, 3).
in(54, 4).
in(54, 7).
in(54, 8).
in(54, 9).
in(54, 10).
in(54, 11).
in(54, 14).
in(54, 16).
in(54, 17).
in(54, 19).
in(54, 21).
in(54, 22).
in(54, 23).
in(54, 25).
in(54, 26).
in(54, 30).
in(54, 31).
in(54, 32).
in(54, 39).
in(54, 41).
in(54, 44).
in(54, 45).
in(54, 46).
in(54, 47).
in(54, 48).
in(54, 49).
in(54, 50).
in(54, 52).
in(54, 54).
in(54, 56).
in(54, 57).
in(54, 59).
in(54, 60).
in(54, 61).
in(54, 63).
in(54, 64).
in(54, 67).
in(54, 69).
in(54, 70).
in(54, 71).
in(54, 75).
in(54, 78).
in(54, 79).
in(54, 84).
in(54, 85).
in(54, 89).
in(54, 94).
in(54, 95).
in(54, 98).
in(54, 103).
in(54, 105).
in(54, 107).
in(54, 110).
in(54, 115).
in(54, 117).
in(54, 118).
in(54, 123).
in(54, 124).
in(54, 125).
in(55, 1).
in(55, 129).
in(55, 5).
in(55, 7).
in(55, 9).
in(55, 10).
in(55, 11).
in(55, 13).
in(55, 15).
in(55, 24).
in(55, 25).
in(55, 29).
in(55, 31).
in(55, 32).
in(55, 34).
in(55, 38).
in(55, 42).
in(55, 43).
in(55, 44).
in(55, 46).
in(55, 48).
in(55, 49).
in(55, 50).
in(55, 52).
in(55, 54).
in(55, 56).
in(55, 58).
in(55, 61).
in(55, 62).
in(55, 64).
in(55, 65).
in(55, 67).
in(55, 68).
in(55, 69).
in(55, 70).
in(55, 71).
in(55, 74).
in(55, 76).
in(55, 78).
in(55, 79).
in(55, 81).
in(55, 83).
in(55, 84).
in(55, 85).
in(55, 88).
in(55, 89).
in(55, 90).
in(55, 91).
in(55, 92).
in(55, 94).
in(55, 95).
in(55, 96).
in(55, 97).
in(55, 98).
in(55, 100).
in(55, 104).
in(55, 105).
in(55, 106).
in(55, 107).
in(55, 108).
in(55, 110).
in(55, 111).
in(55, 112).
in(55, 114).
in(55, 115).
in(55, 117).
in(55, 118).
in(55, 119).
in(55, 120).
in(55, 121).
in(55, 122).
in(55, 123).
in(55, 124).
in(55, 126).
in(56, 1).
in(56, 2).
in(56, 129).
in(56, 8).
in(56, 10).
in(56, 11).
in(56, 12).
in(56, 14).
in(56, 15).
in(56, 18).
in(56, 20).
in(56, 24).
in(56, 27).
in(56, 28).
in(56, 29).
in(56, 32).
in(56, 34).
in(56, 35).
in(56, 36).
in(56, 37).
in(56, 38).
in(56, 39).
in(56, 40).
in(56, 42).
in(56, 45).
in(56, 46).
in(56, 47).
in(56, 48).
in(56, 49).
in(56, 51).
in(56, 52).
in(56, 53).
in(56, 57).
in(56, 59).
in(56, 60).
in(56, 61).
in(56, 62).
in(56, 63).
in(56, 65).
in(56, 67).
in(56, 68).
in(56, 73).
in(56, 81).
in(56, 83).
in(56, 84).
in(56, 85).
in(56, 86).
in(56, 89).
in(56, 91).
in(56, 92).
in(56, 93).
in(56, 95).
in(56, 96).
in(56, 97).
in(56, 101).
in(56, 104).
in(56, 105).
in(56, 106).
in(56, 109).
in(56, 111).
in(56, 117).
in(56, 121).
in(56, 122).
in(56, 123).
in(56, 124).
in(56, 126).
in(56, 127).
in(57, 1).
in(57, 129).
in(57, 3).
in(57, 4).
in(57, 6).
in(57, 7).
in(57, 8).
in(57, 11).
in(57, 13).
in(57, 16).
in(57, 18).
in(57, 19).
in(57, 21).
in(57, 22).
in(57, 27).
in(57, 29).
in(57, 30).
in(57, 32).
in(57, 33).
in(57, 34).
in(57, 35).
in(57, 37).
in(57, 38).
in(57, 41).
in(57, 42).
in(57, 46).
in(57, 48).
in(57, 49).
in(57, 51).
in(57, 52).
in(57, 53).
in(57, 57).
in(57, 58).
in(57, 60).
in(57, 61).
in(57, 63).
in(57, 64).
in(57, 67).
in(57, 68).
in(57, 69).
in(57, 70).
in(57, 72).
in(57, 74).
in(57, 76).
in(57, 78).
in(57, 80).
in(57, 81).
in(57, 82).
in(57, 83).
in(57, 85).
in(57, 86).
in(57, 88).
in(57, 89).
in(57, 90).
in(57, 91).
in(57, 92).
in(57, 95).
in(57, 96).
in(57, 101).
in(57, 102).
in(57, 103).
in(57, 104).
in(57, 106).
in(57, 107).
in(57, 110).
in(57, 113).
in(57, 114).
in(57, 116).
in(57, 118).
in(57, 121).
in(57, 122).
in(57, 123).
in(57, 124).
in(57, 125).
in(57, 126).
in(57, 127).
in(58, 128).
in(58, 129).
in(58, 2).
in(58, 4).
in(58, 8).
in(58, 9).
in(58, 11).
in(58, 12).
in(58, 13).
in(58, 15).
in(58, 17).
in(58, 18).
in(58, 20).
in(58, 21).
in(58, 22).
in(58, 24).
in(58, 29).
in(58, 31).
in(58, 32).
in(58, 33).
in(58, 34).
in(58, 37).
in(58, 39).
in(58, 41).
in(58, 43).
in(58, 45).
in(58, 47).
in(58, 48).
in(58, 52).
in(58, 54).
in(58, 55).
in(58, 56).
in(58, 59).
in(58, 60).
in(58, 61).
in(58, 62).
in(58, 63).
in(58, 65).
in(58, 66).
in(58, 68).
in(58, 69).
in(58, 70).
in(58, 75).
in(58, 76).
in(58, 78).
in(58, 80).
in(58, 81).
in(58, 82).
in(58, 84).
in(58, 85).
in(58, 89).
in(58, 90).
in(58, 92).
in(58, 95).
in(58, 97).
in(58, 98).
in(58, 101).
in(58, 103).
in(58, 105).
in(58, 108).
in(58, 109).
in(58, 110).
in(58, 111).
in(58, 112).
in(58, 114).
in(58, 115).
in(58, 116).
in(58, 117).
in(58, 120).
in(58, 121).
in(58, 122).
in(58, 126).
in(59, 5).
in(59, 6).
in(59, 12).
in(59, 14).
in(59, 18).
in(59, 19).
in(59, 22).
in(59, 26).
in(59, 27).
in(59, 29).
in(59, 31).
in(59, 34).
in(59, 36).
in(59, 37).
in(59, 38).
in(59, 39).
in(59, 44).
in(59, 45).
in(59, 46).
in(59, 47).
in(59, 51).
in(59, 52).
in(59, 54).
in(59, 55).
in(59, 56).
in(59, 59).
in(59, 60).
in(59, 61).
in(59, 64).
in(59, 66).
in(59, 67).
in(59, 68).
in(59, 69).
in(59, 73).
in(59, 75).
in(59, 77).
in(59, 79).
in(59, 80).
in(59, 82).
in(59, 83).
in(59, 84).
in(59, 87).
in(59, 89).
in(59, 90).
in(59, 96).
in(59, 97).
in(59, 99).
in(59, 105).
in(59, 106).
in(59, 107).
in(59, 108).
in(59, 110).
in(59, 112).
in(59, 113).
in(59, 114).
in(59, 116).
in(59, 118).
in(59, 120).
in(59, 121).
in(59, 122).
in(59, 125).
in(60, 129).
in(60, 6).
in(60, 7).
in(60, 9).
in(60, 12).
in(60, 13).
in(60, 14).
in(60, 19).
in(60, 22).
in(60, 27).
in(60, 28).
in(60, 29).
in(60, 30).
in(60, 31).
in(60, 32).
in(60, 33).
in(60, 36).
in(60, 38).
in(60, 39).
in(60, 40).
in(60, 41).
in(60, 42).
in(60, 43).
in(60, 44).
in(60, 45).
in(60, 47).
in(60, 54).
in(60, 56).
in(60, 58).
in(60, 61).
in(60, 65).
in(60, 67).
in(60, 69).
in(60, 70).
in(60, 71).
in(60, 72).
in(60, 73).
in(60, 77).
in(60, 79).
in(60, 80).
in(60, 81).
in(60, 82).
in(60, 83).
in(60, 84).
in(60, 85).
in(60, 86).
in(60, 90).
in(60, 92).
in(60, 96).
in(60, 98).
in(60, 101).
in(60, 103).
in(60, 105).
in(60, 106).
in(60, 110).
in(60, 114).
in(60, 117).
in(60, 118).
in(60, 119).
in(60, 123).
in(60, 124).
in(60, 125).
in(60, 127).
in(61, 1).
in(61, 2).
in(61, 3).
in(61, 129).
in(61, 5).
in(61, 6).
in(61, 7).
in(61, 8).
in(61, 9).
in(61, 10).
in(61, 13).
in(61, 14).
in(61, 19).
in(61, 20).
in(61, 21).
in(61, 22).
in(61, 24).
in(61, 26).
in(61, 28).
in(61, 29).
in(61, 32).
in(61, 35).
in(61, 36).
in(61, 37).
in(61, 38).
in(61, 39).
in(61, 41).
in(61, 42).
in(61, 43).
in(61, 44).
in(61, 47).
in(61, 48).
in(61, 49).
in(61, 50).
in(61, 51).
in(61, 53).
in(61, 54).
in(61, 55).
in(61, 56).
in(61, 58).
in(61, 60).
in(61, 63).
in(61, 64).
in(61, 65).
in(61, 66).
in(61, 68).
in(61, 73).
in(61, 79).
in(61, 80).
in(61, 81).
in(61, 82).
in(61, 85).
in(61, 86).
in(61, 89).
in(61, 92).
in(61, 93).
in(61, 94).
in(61, 97).
in(61, 102).
in(61, 103).
in(61, 104).
in(61, 107).
in(61, 108).
in(61, 110).
in(61, 111).
in(61, 112).
in(61, 113).
in(61, 114).
in(61, 116).
in(61, 119).
in(61, 121).
in(61, 124).
in(61, 125).
in(61, 126).
in(61, 127).
in(62, 128).
in(62, 1).
in(62, 3).
in(62, 4).
in(62, 5).
in(62, 9).
in(62, 10).
in(62, 13).
in(62, 16).
in(62, 17).
in(62, 19).
in(62, 22).
in(62, 23).
in(62, 24).
in(62, 25).
in(62, 26).
in(62, 29).
in(62, 30).
in(62, 35).
in(62, 36).
in(62, 37).
in(62, 38).
in(62, 41).
in(62, 42).
in(62, 45).
in(62, 46).
in(62, 48).
in(62, 51).
in(62, 53).
in(62, 55).
in(62, 59).
in(62, 61).
in(62, 62).
in(62, 63).
in(62, 65).
in(62, 68).
in(62, 69).
in(62, 72).
in(62, 73).
in(62, 78).
in(62, 80).
in(62, 83).
in(62, 84).
in(62, 86).
in(62, 89).
in(62, 90).
in(62, 91).
in(62, 93).
in(62, 94).
in(62, 95).
in(62, 96).
in(62, 97).
in(62, 100).
in(62, 101).
in(62, 102).
in(62, 103).
in(62, 104).
in(62, 105).
in(62, 107).
in(62, 109).
in(62, 111).
in(62, 112).
in(62, 113).
in(62, 114).
in(62, 116).
in(62, 119).
in(62, 121).
in(62, 122).
in(62, 123).
in(62, 127).
in(63, 1).
in(63, 2).
in(63, 4).
in(63, 5).
in(63, 6).
in(63, 8).
in(63, 12).
in(63, 13).
in(63, 19).
in(63, 23).
in(63, 24).
in(63, 25).
in(63, 26).
in(63, 28).
in(63, 29).
in(63, 30).
in(63, 32).
in(63, 37).
in(63, 40).
in(63, 42).
in(63, 43).
in(63, 44).
in(63, 45).
in(63, 46).
in(63, 47).
in(63, 49).
in(63, 53).
in(63, 57).
in(63, 59).
in(63, 60).
in(63, 61).
in(63, 62).
in(63, 65).
in(63, 69).
in(63, 72).
in(63, 73).
in(63, 74).
in(63, 76).
in(63, 81).
in(63, 82).
in(63, 83).
in(63, 84).
in(63, 85).
in(63, 86).
in(63, 87).
in(63, 89).
in(63, 90).
in(63, 91).
in(63, 92).
in(63, 95).
in(63, 96).
in(63, 98).
in(63, 100).
in(63, 103).
in(63, 104).
in(63, 105).
in(63, 109).
in(63, 110).
in(63, 113).
in(63, 114).
in(63, 118).
in(63, 120).
in(64, 128).
in(64, 1).
in(64, 129).
in(64, 3).
in(64, 4).
in(64, 7).
in(64, 9).
in(64, 10).
in(64, 15).
in(64, 16).
in(64, 17).
in(64, 19).
in(64, 20).
in(64, 22).
in(64, 23).
in(64, 25).
in(64, 26).
in(64, 27).
in(64, 29).
in(64, 30).
in(64, 31).
in(64, 33).
in(64, 36).
in(64, 40).
in(64, 41).
in(64, 43).
in(64, 44).
in(64, 45).
in(64, 46).
in(64, 47).
in(64, 48).
in(64, 56).
in(64, 57).
in(64, 59).
in(64, 60).
in(64, 62).
in(64, 63).
in(64, 64).
in(64, 67).
in(64, 68).
in(64, 69).
in(64, 71).
in(64, 73).
in(64, 74).
in(64, 75).
in(64, 76).
in(64, 79).
in(64, 80).
in(64, 81).
in(64, 82).
in(64, 85).
in(64, 87).
in(64, 90).
in(64, 91).
in(64, 94).
in(64, 95).
in(64, 96).
in(64, 97).
in(64, 99).
in(64, 101).
in(64, 102).
in(64, 104).
in(64, 106).
in(64, 107).
in(64, 109).
in(64, 110).
in(64, 112).
in(64, 114).
in(64, 117).
in(64, 122).
in(64, 123).
in(65, 129).
in(65, 4).
in(65, 8).
in(65, 11).
in(65, 12).
in(65, 16).
in(65, 17).
in(65, 19).
in(65, 22).
in(65, 24).
in(65, 25).
in(65, 27).
in(65, 28).
in(65, 30).
in(65, 33).
in(65, 35).
in(65, 36).
in(65, 37).
in(65, 38).
in(65, 40).
in(65, 41).
in(65, 42).
in(65, 44).
in(65, 46).
in(65, 47).
in(65, 49).
in(65, 50).
in(65, 51).
in(65, 52).
in(65, 53).
in(65, 54).
in(65, 56).
in(65, 60).
in(65, 61).
in(65, 62).
in(65, 64).
in(65, 66).
in(65, 68).
in(65, 70).
in(65, 71).
in(65, 77).
in(65, 78).
in(65, 79).
in(65, 81).
in(65, 82).
in(65, 84).
in(65, 86).
in(65, 88).
in(65, 89).
in(65, 90).
in(65, 92).
in(65, 93).
in(65, 94).
in(65, 95).
in(65, 97).
in(65, 98).
in(65, 101).
in(65, 102).
in(65, 103).
in(65, 106).
in(65, 108).
in(65, 111).
in(65, 112).
in(65, 114).
in(65, 115).
in(65, 116).
in(65, 119).
in(65, 121).
in(65, 123).
in(65, 125).
in(65, 126).
in(65, 127).
in(66, 1).
in(66, 129).
in(66, 3).
in(66, 7).
in(66, 10).
in(66, 16).
in(66, 18).
in(66, 19).
in(66, 20).
in(66, 23).
in(66, 24).
in(66, 25).
in(66, 26).
in(66, 27).
in(66, 30).
in(66, 31).
in(66, 33).
in(66, 34).
in(66, 35).
in(66, 38).
in(66, 41).
in(66, 43).
in(66, 45).
in(66, 47).
in(66, 48).
in(66, 49).
in(66, 51).
in(66, 52).
in(66, 54).
in(66, 55).
in(66, 57).
in(66, 58).
in(66, 59).
in(66, 60).
in(66, 61).
in(66, 62).
in(66, 63).
in(66, 65).
in(66, 66).
in(66, 68).
in(66, 69).
in(66, 70).
in(66, 72).
in(66, 75).
in(66, 77).
in(66, 80).
in(66, 81).
in(66, 82).
in(66, 83).
in(66, 87).
in(66, 88).
in(66, 89).
in(66, 90).
in(66, 91).
in(66, 92).
in(66, 94).
in(66, 95).
in(66, 96).
in(66, 97).
in(66, 98).
in(66, 100).
in(66, 104).
in(66, 109).
in(66, 111).
in(66, 112).
in(66, 119).
in(66, 121).
in(66, 122).
in(66, 123).
in(66, 124).
in(66, 125).
in(66, 127).
in(67, 129).
in(67, 2).
in(67, 3).
in(67, 5).
in(67, 9).
in(67, 11).
in(67, 12).
in(67, 13).
in(67, 14).
in(67, 16).
in(67, 17).
in(67, 18).
in(67, 19).
in(67, 21).
in(67, 24).
in(67, 28).
in(67, 31).
in(67, 32).
in(67, 33).
in(67, 34).
in(67, 36).
in(67, 37).
in(67, 38).
in(67, 39).
in(67, 40).
in(67, 41).
in(67, 42).
in(67, 43).
in(67, 44).
in(67, 47).
in(67, 48).
in(67, 50).
in(67, 53).
in(67, 55).
in(67, 58).
in(67, 59).
in(67, 60).
in(67, 62).
in(67, 64).
in(67, 66).
in(67, 67).
in(67, 70).
in(67, 72).
in(67, 75).
in(67, 79).
in(67, 81).
in(67, 83).
in(67, 84).
in(67, 85).
in(67, 86).
in(67, 88).
in(67, 89).
in(67, 91).
in(67, 95).
in(67, 98).
in(67, 99).
in(67, 100).
in(67, 101).
in(67, 102).
in(67, 106).
in(67, 110).
in(67, 111).
in(67, 113).
in(67, 116).
in(67, 118).
in(67, 120).
in(67, 121).
in(67, 122).
in(67, 124).
in(67, 126).
in(68, 128).
in(68, 1).
in(68, 2).
in(68, 3).
in(68, 4).
in(68, 129).
in(68, 6).
in(68, 9).
in(68, 10).
in(68, 11).
in(68, 12).
in(68, 14).
in(68, 16).
in(68, 19).
in(68, 20).
in(68, 21).
in(68, 24).
in(68, 25).
in(68, 28).
in(68, 29).
in(68, 30).
in(68, 31).
in(68, 32).
in(68, 34).
in(68, 36).
in(68, 38).
in(68, 41).
in(68, 42).
in(68, 43).
in(68, 45).
in(68, 46).
in(68, 47).
in(68, 48).
in(68, 49).
in(68, 51).
in(68, 54).
in(68, 56).
in(68, 57).
in(68, 60).
in(68, 62).
in(68, 66).
in(68, 68).
in(68, 69).
in(68, 70).
in(68, 73).
in(68, 74).
in(68, 75).
in(68, 77).
in(68, 80).
in(68, 82).
in(68, 83).
in(68, 86).
in(68, 87).
in(68, 88).
in(68, 89).
in(68, 90).
in(68, 96).
in(68, 97).
in(68, 98).
in(68, 99).
in(68, 102).
in(68, 104).
in(68, 106).
in(68, 108).
in(68, 109).
in(68, 110).
in(68, 111).
in(68, 114).
in(68, 115).
in(68, 116).
in(68, 119).
in(68, 122).
in(68, 123).
in(68, 125).
in(68, 127).
in(69, 129).
in(69, 2).
in(69, 3).
in(69, 4).
in(69, 5).
in(69, 8).
in(69, 10).
in(69, 11).
in(69, 13).
in(69, 14).
in(69, 18).
in(69, 21).
in(69, 22).
in(69, 24).
in(69, 26).
in(69, 31).
in(69, 32).
in(69, 33).
in(69, 38).
in(69, 39).
in(69, 40).
in(69, 42).
in(69, 48).
in(69, 50).
in(69, 51).
in(69, 54).
in(69, 55).
in(69, 57).
in(69, 58).
in(69, 60).
in(69, 61).
in(69, 62).
in(69, 63).
in(69, 65).
in(69, 67).
in(69, 75).
in(69, 76).
in(69, 86).
in(69, 88).
in(69, 89).
in(69, 90).
in(69, 91).
in(69, 93).
in(69, 94).
in(69, 96).
in(69, 97).
in(69, 100).
in(69, 101).
in(69, 103).
in(69, 105).
in(69, 108).
in(69, 109).
in(69, 114).
in(69, 115).
in(69, 117).
in(69, 118).
in(69, 119).
in(69, 123).
in(69, 124).
in(69, 125).
in(70, 128).
in(70, 1).
in(70, 2).
in(70, 129).
in(70, 4).
in(70, 5).
in(70, 7).
in(70, 9).
in(70, 10).
in(70, 11).
in(70, 12).
in(70, 13).
in(70, 16).
in(70, 18).
in(70, 19).
in(70, 20).
in(70, 21).
in(70, 22).
in(70, 24).
in(70, 26).
in(70, 29).
in(70, 30).
in(70, 35).
in(70, 36).
in(70, 38).
in(70, 39).
in(70, 42).
in(70, 44).
in(70, 45).
in(70, 47).
in(70, 48).
in(70, 52).
in(70, 53).
in(70, 54).
in(70, 55).
in(70, 58).
in(70, 59).
in(70, 62).
in(70, 63).
in(70, 64).
in(70, 65).
in(70, 67).
in(70, 68).
in(70, 69).
in(70, 70).
in(70, 72).
in(70, 74).
in(70, 75).
in(70, 76).
in(70, 77).
in(70, 79).
in(70, 80).
in(70, 81).
in(70, 82).
in(70, 83).
in(70, 84).
in(70, 86).
in(70, 91).
in(70, 93).
in(70, 95).
in(70, 96).
in(70, 101).
in(70, 103).
in(70, 104).
in(70, 105).
in(70, 106).
in(70, 108).
in(70, 109).
in(70, 111).
in(70, 112).
in(70, 115).
in(70, 116).
in(70, 117).
in(70, 118).
in(70, 122).
in(70, 127).
in(71, 1).
in(71, 3).
in(71, 4).
in(71, 5).
in(71, 7).
in(71, 11).
in(71, 12).
in(71, 17).
in(71, 19).
in(71, 23).
in(71, 24).
in(71, 25).
in(71, 26).
in(71, 27).
in(71, 30).
in(71, 32).
in(71, 33).
in(71, 34).
in(71, 35).
in(71, 37).
in(71, 38).
in(71, 40).
in(71, 42).
in(71, 46).
in(71, 48).
in(71, 49).
in(71, 50).
in(71, 51).
in(71, 53).
in(71, 54).
in(71, 56).
in(71, 57).
in(71, 58).
in(71, 59).
in(71, 60).
in(71, 62).
in(71, 66).
in(71, 68).
in(71, 71).
in(71, 75).
in(71, 77).
in(71, 78).
in(71, 79).
in(71, 80).
in(71, 82).
in(71, 84).
in(71, 85).
in(71, 87).
in(71, 90).
in(71, 92).
in(71, 93).
in(71, 95).
in(71, 97).
in(71, 98).
in(71, 99).
in(71, 101).
in(71, 102).
in(71, 103).
in(71, 105).
in(71, 108).
in(71, 111).
in(71, 112).
in(71, 113).
in(71, 115).
in(71, 118).
in(71, 119).
in(71, 121).
in(71, 122).
in(71, 123).
in(71, 125).
in(71, 127).
in(72, 1).
in(72, 2).
in(72, 3).
in(72, 5).
in(72, 6).
in(72, 8).
in(72, 9).
in(72, 11).
in(72, 13).
in(72, 16).
in(72, 17).
in(72, 18).
in(72, 23).
in(72, 24).
in(72, 25).
in(72, 28).
in(72, 30).
in(72, 31).
in(72, 34).
in(72, 36).
in(72, 37).
in(72, 38).
in(72, 39).
in(72, 41).
in(72, 43).
in(72, 48).
in(72, 49).
in(72, 50).
in(72, 51).
in(72, 52).
in(72, 54).
in(72, 55).
in(72, 57).
in(72, 61).
in(72, 64).
in(72, 65).
in(72, 66).
in(72, 68).
in(72, 70).
in(72, 71).
in(72, 72).
in(72, 73).
in(72, 74).
in(72, 76).
in(72, 77).
in(72, 78).
in(72, 81).
in(72, 86).
in(72, 88).
in(72, 91).
in(72, 92).
in(72, 93).
in(72, 95).
in(72, 96).
in(72, 97).
in(72, 98).
in(72, 99).
in(72, 100).
in(72, 102).
in(72, 104).
in(72, 105).
in(72, 108).
in(72, 109).
in(72, 110).
in(72, 112).
in(72, 113).
in(72, 115).
in(72, 117).
in(72, 118).
in(72, 120).
in(72, 122).
in(72, 124).
in(72, 125).
in(72, 126).
in(72, 127).
in(72, 128).
in(72, 129).
in(73, 128).
in(73, 129).
in(73, 4).
in(73, 5).
in(73, 8).
in(73, 9).
in(73, 11).
in(73, 13).
in(73, 15).
in(73, 18).
in(73, 19).
in(73, 21).
in(73, 23).
in(73, 25).
in(73, 26).
in(73, 29).
in(73, 30).
in(73, 32).
in(73, 33).
in(73, 34).
in(73, 36).
in(73, 39).
in(73, 40).
in(73, 47).
in(73, 48).
in(73, 50).
in(73, 51).
in(73, 55).
in(73, 56).
in(73, 60).
in(73, 61).
in(73, 62).
in(73, 64).
in(73, 65).
in(73, 66).
in(73, 67).
in(73, 71).
in(73, 72).
in(73, 73).
in(73, 74).
in(73, 77).
in(73, 81).
in(73, 82).
in(73, 83).
in(73, 84).
in(73, 85).
in(73, 87).
in(73, 89).
in(73, 90).
in(73, 91).
in(73, 93).
in(73, 94).
in(73, 95).
in(73, 97).
in(73, 98).
in(73, 99).
in(73, 101).
in(73, 102).
in(73, 104).
in(73, 105).
in(73, 107).
in(73, 108).
in(73, 110).
in(73, 112).
in(73, 113).
in(73, 117).
in(73, 118).
in(73, 121).
in(73, 124).
in(73, 125).
in(73, 126).
in(73, 127).
in(74, 1).
in(74, 129).
in(74, 3).
in(74, 6).
in(74, 7).
in(74, 10).
in(74, 11).
in(74, 13).
in(74, 15).
in(74, 16).
in(74, 18).
in(74, 23).
in(74, 25).
in(74, 26).
in(74, 27).
in(74, 30).
in(74, 32).
in(74, 33).
in(74, 35).
in(74, 37).
in(74, 38).
in(74, 41).
in(74, 42).
in(74, 43).
in(74, 46).
in(74, 47).
in(74, 51).
in(74, 52).
in(74, 53).
in(74, 54).
in(74, 55).
in(74, 56).
in(74, 58).
in(74, 61).
in(74, 64).
in(74, 65).
in(74, 67).
in(74, 69).
in(74, 73).
in(74, 74).
in(74, 75).
in(74, 78).
in(74, 80).
in(74, 81).
in(74, 89).
in(74, 90).
in(74, 91).
in(74, 97).
in(74, 100).
in(74, 105).
in(74, 107).
in(74, 110).
in(74, 111).
in(74, 113).
in(74, 115).
in(74, 119).
in(74, 122).
in(74, 126).
in(75, 1).
in(75, 2).
in(75, 3).
in(75, 6).
in(75, 7).
in(75, 11).
in(75, 14).
in(75, 15).
in(75, 16).
in(75, 17).
in(75, 18).
in(75, 19).
in(75, 22).
in(75, 28).
in(75, 29).
in(75, 30).
in(75, 34).
in(75, 35).
in(75, 36).
in(75, 42).
in(75, 43).
in(75, 44).
in(75, 47).
in(75, 48).
in(75, 51).
in(75, 52).
in(75, 55).
in(75, 56).
in(75, 57).
in(75, 61).
in(75, 65).
in(75, 71).
in(75, 76).
in(75, 77).
in(75, 79).
in(75, 80).
in(75, 83).
in(75, 85).
in(75, 87).
in(75, 89).
in(75, 93).
in(75, 94).
in(75, 97).
in(75, 98).
in(75, 99).
in(75, 101).
in(75, 102).
in(75, 103).
in(75, 104).
in(75, 105).
in(75, 107).
in(75, 109).
in(75, 111).
in(75, 113).
in(75, 116).
in(75, 117).
in(75, 120).
in(75, 121).
in(75, 122).
in(75, 123).
in(75, 124).
in(75, 126).
in(76, 128).
in(76, 129).
in(76, 2).
in(76, 8).
in(76, 9).
in(76, 12).
in(76, 13).
in(76, 16).
in(76, 17).
in(76, 18).
in(76, 23).
in(76, 24).
in(76, 25).
in(76, 27).
in(76, 28).
in(76, 32).
in(76, 34).
in(76, 35).
in(76, 36).
in(76, 37).
in(76, 42).
in(76, 44).
in(76, 48).
in(76, 49).
in(76, 52).
in(76, 54).
in(76, 55).
in(76, 58).
in(76, 60).
in(76, 62).
in(76, 63).
in(76, 64).
in(76, 65).
in(76, 66).
in(76, 69).
in(76, 70).
in(76, 71).
in(76, 74).
in(76, 77).
in(76, 79).
in(76, 82).
in(76, 84).
in(76, 85).
in(76, 86).
in(76, 87).
in(76, 88).
in(76, 89).
in(76, 90).
in(76, 95).
in(76, 96).
in(76, 98).
in(76, 101).
in(76, 105).
in(76, 106).
in(76, 107).
in(76, 110).
in(76, 111).
in(76, 113).
in(76, 114).
in(76, 115).
in(76, 118).
in(76, 119).
in(76, 120).
in(76, 121).
in(76, 122).
in(76, 124).
in(76, 125).
in(77, 128).
in(77, 1).
in(77, 2).
in(77, 3).
in(77, 4).
in(77, 5).
in(77, 129).
in(77, 8).
in(77, 9).
in(77, 10).
in(77, 12).
in(77, 14).
in(77, 15).
in(77, 18).
in(77, 19).
in(77, 21).
in(77, 23).
in(77, 24).
in(77, 25).
in(77, 28).
in(77, 29).
in(77, 30).
in(77, 31).
in(77, 36).
in(77, 39).
in(77, 40).
in(77, 43).
in(77, 46).
in(77, 47).
in(77, 48).
in(77, 49).
in(77, 50).
in(77, 60).
in(77, 61).
in(77, 62).
in(77, 63).
in(77, 66).
in(77, 68).
in(77, 69).
in(77, 70).
in(77, 72).
in(77, 76).
in(77, 78).
in(77, 79).
in(77, 80).
in(77, 81).
in(77, 86).
in(77, 88).
in(77, 89).
in(77, 94).
in(77, 98).
in(77, 105).
in(77, 106).
in(77, 107).
in(77, 109).
in(77, 111).
in(77, 114).
in(77, 115).
in(77, 116).
in(77, 118).
in(77, 119).
in(77, 120).
in(77, 122).
in(77, 126).
in(77, 127).
in(78, 5).
in(78, 7).
in(78, 9).
in(78, 11).
in(78, 12).
in(78, 13).
in(78, 17).
in(78, 18).
in(78, 19).
in(78, 21).
in(78, 22).
in(78, 23).
in(78, 24).
in(78, 25).
in(78, 29).
in(78, 30).
in(78, 31).
in(78, 32).
in(78, 33).
in(78, 34).
in(78, 35).
in(78, 36).
in(78, 37).
in(78, 40).
in(78, 45).
in(78, 49).
in(78, 50).
in(78, 53).
in(78, 54).
in(78, 56).
in(78, 57).
in(78, 59).
in(78, 60).
in(78, 67).
in(78, 71).
in(78, 72).
in(78, 73).
in(78, 74).
in(78, 76).
in(78, 77).
in(78, 81).
in(78, 83).
in(78, 84).
in(78, 85).
in(78, 88).
in(78, 90).
in(78, 91).
in(78, 94).
in(78, 96).
in(78, 97).
in(78, 98).
in(78, 104).
in(78, 105).
in(78, 106).
in(78, 108).
in(78, 109).
in(78, 112).
in(78, 113).
in(78, 114).
in(78, 116).
in(78, 120).
in(78, 121).
in(78, 123).
in(78, 126).
in(79, 129).
in(79, 3).
in(79, 4).
in(79, 6).
in(79, 7).
in(79, 9).
in(79, 10).
in(79, 11).
in(79, 13).
in(79, 14).
in(79, 16).
in(79, 17).
in(79, 23).
in(79, 24).
in(79, 25).
in(79, 26).
in(79, 29).
in(79, 32).
in(79, 34).
in(79, 37).
in(79, 38).
in(79, 39).
in(79, 40).
in(79, 41).
in(79, 44).
in(79, 48).
in(79, 49).
in(79, 52).
in(79, 55).
in(79, 58).
in(79, 59).
in(79, 60).
in(79, 61).
in(79, 63).
in(79, 64).
in(79, 65).
in(79, 67).
in(79, 68).
in(79, 71).
in(79, 72).
in(79, 73).
in(79, 75).
in(79, 76).
in(79, 77).
in(79, 78).
in(79, 81).
in(79, 82).
in(79, 84).
in(79, 85).
in(79, 86).
in(79, 88).
in(79, 91).
in(79, 93).
in(79, 94).
in(79, 95).
in(79, 97).
in(79, 98).
in(79, 99).
in(79, 100).
in(79, 101).
in(79, 102).
in(79, 106).
in(79, 110).
in(79, 112).
in(79, 113).
in(79, 115).
in(79, 117).
in(79, 118).
in(79, 120).
in(79, 122).
in(79, 123).
in(79, 124).
in(79, 126).
in(80, 1).
in(80, 3).
in(80, 7).
in(80, 13).
in(80, 15).
in(80, 17).
in(80, 19).
in(80, 21).
in(80, 22).
in(80, 24).
in(80, 26).
in(80, 27).
in(80, 28).
in(80, 30).
in(80, 34).
in(80, 35).
in(80, 38).
in(80, 39).
in(80, 40).
in(80, 41).
in(80, 42).
in(80, 43).
in(80, 46).
in(80, 48).
in(80, 49).
in(80, 53).
in(80, 59).
in(80, 60).
in(80, 64).
in(80, 67).
in(80, 69).
in(80, 70).
in(80, 71).
in(80, 74).
in(80, 75).
in(80, 78).
in(80, 79).
in(80, 82).
in(80, 83).
in(80, 84).
in(80, 85).
in(80, 90).
in(80, 91).
in(80, 95).
in(80, 96).
in(80, 98).
in(80, 99).
in(80, 100).
in(80, 101).
in(80, 102).
in(80, 103).
in(80, 104).
in(80, 105).
in(80, 106).
in(80, 110).
in(80, 112).
in(80, 113).
in(80, 114).
in(80, 116).
in(80, 120).
in(81, 128).
in(81, 1).
in(81, 5).
in(81, 7).
in(81, 12).
in(81, 15).
in(81, 16).
in(81, 17).
in(81, 19).
in(81, 20).
in(81, 21).
in(81, 22).
in(81, 23).
in(81, 24).
in(81, 25).
in(81, 27).
in(81, 28).
in(81, 29).
in(81, 35).
in(81, 36).
in(81, 37).
in(81, 38).
in(81, 42).
in(81, 44).
in(81, 46).
in(81, 47).
in(81, 54).
in(81, 56).
in(81, 59).
in(81, 60).
in(81, 63).
in(81, 64).
in(81, 70).
in(81, 71).
in(81, 72).
in(81, 73).
in(81, 77).
in(81, 78).
in(81, 79).
in(81, 81).
in(81, 84).
in(81, 88).
in(81, 89).
in(81, 90).
in(81, 91).
in(81, 92).
in(81, 94).
in(81, 95).
in(81, 97).
in(81, 98).
in(81, 99).
in(81, 101).
in(81, 103).
in(81, 104).
in(81, 106).
in(81, 107).
in(81, 110).
in(81, 111).
in(81, 112).
in(81, 113).
in(81, 114).
in(81, 116).
in(81, 118).
in(81, 121).
in(81, 122).
in(81, 123).
in(81, 124).
in(81, 125).
in(82, 2).
in(82, 3).
in(82, 4).
in(82, 7).
in(82, 9).
in(82, 12).
in(82, 13).
in(82, 15).
in(82, 16).
in(82, 18).
in(82, 19).
in(82, 21).
in(82, 22).
in(82, 25).
in(82, 26).
in(82, 30).
in(82, 35).
in(82, 36).
in(82, 37).
in(82, 38).
in(82, 39).
in(82, 40).
in(82, 42).
in(82, 43).
in(82, 44).
in(82, 46).
in(82, 47).
in(82, 48).
in(82, 49).
in(82, 50).
in(82, 51).
in(82, 52).
in(82, 53).
in(82, 56).
in(82, 57).
in(82, 60).
in(82, 62).
in(82, 64).
in(82, 67).
in(82, 70).
in(82, 72).
in(82, 74).
in(82, 77).
in(82, 78).
in(82, 81).
in(82, 83).
in(82, 84).
in(82, 85).
in(82, 87).
in(82, 88).
in(82, 91).
in(82, 92).
in(82, 94).
in(82, 95).
in(82, 98).
in(82, 99).
in(82, 101).
in(82, 104).
in(82, 108).
in(82, 110).
in(82, 113).
in(82, 116).
in(82, 117).
in(82, 118).
in(82, 120).
in(82, 121).
in(82, 123).
in(82, 127).
in(83, 128).
in(83, 1).
in(83, 2).
in(83, 3).
in(83, 129).
in(83, 5).
in(83, 6).
in(83, 8).
in(83, 11).
in(83, 12).
in(83, 14).
in(83, 16).
in(83, 19).
in(83, 20).
in(83, 22).
in(83, 24).
in(83, 25).
in(83, 27).
in(83, 28).
in(83, 30).
in(83, 31).
in(83, 35).
in(83, 37).
in(83, 39).
in(83, 40).
in(83, 41).
in(83, 43).
in(83, 44).
in(83, 47).
in(83, 51).
in(83, 52).
in(83, 57).
in(83, 59).
in(83, 60).
in(83, 64).
in(83, 66).
in(83, 67).
in(83, 68).
in(83, 70).
in(83, 73).
in(83, 74).
in(83, 76).
in(83, 77).
in(83, 82).
in(83, 84).
in(83, 87).
in(83, 88).
in(83, 89).
in(83, 91).
in(83, 92).
in(83, 96).
in(83, 97).
in(83, 98).
in(83, 100).
in(83, 102).
in(83, 104).
in(83, 105).
in(83, 106).
in(83, 110).
in(83, 113).
in(83, 115).
in(83, 117).
in(83, 118).
in(83, 120).
in(83, 121).
in(83, 123).
in(83, 125).
in(83, 126).
in(84, 1).
in(84, 4).
in(84, 7).
in(84, 8).
in(84, 9).
in(84, 13).
in(84, 14).
in(84, 15).
in(84, 16).
in(84, 19).
in(84, 20).
in(84, 21).
in(84, 23).
in(84, 24).
in(84, 26).
in(84, 28).
in(84, 31).
in(84, 32).
in(84, 33).
in(84, 34).
in(84, 35).
in(84, 36).
in(84, 37).
in(84, 38).
in(84, 39).
in(84, 40).
in(84, 41).
in(84, 45).
in(84, 46).
in(84, 47).
in(84, 48).
in(84, 49).
in(84, 50).
in(84, 51).
in(84, 53).
in(84, 54).
in(84, 55).
in(84, 59).
in(84, 63).
in(84, 64).
in(84, 65).
in(84, 69).
in(84, 71).
in(84, 73).
in(84, 74).
in(84, 75).
in(84, 76).
in(84, 82).
in(84, 83).
in(84, 85).
in(84, 87).
in(84, 88).
in(84, 90).
in(84, 93).
in(84, 94).
in(84, 95).
in(84, 99).
in(84, 101).
in(84, 102).
in(84, 103).
in(84, 106).
in(84, 107).
in(84, 111).
in(84, 112).
in(84, 113).
in(84, 114).
in(84, 115).
in(84, 118).
in(84, 120).
in(85, 128).
in(85, 129).
in(85, 2).
in(85, 6).
in(85, 7).
in(85, 9).
in(85, 11).
in(85, 12).
in(85, 16).
in(85, 17).
in(85, 18).
in(85, 20).
in(85, 21).
in(85, 29).
in(85, 31).
in(85, 32).
in(85, 33).
in(85, 34).
in(85, 35).
in(85, 41).
in(85, 42).
in(85, 43).
in(85, 44).
in(85, 46).
in(85, 47).
in(85, 49).
in(85, 50).
in(85, 52).
in(85, 54).
in(85, 58).
in(85, 59).
in(85, 60).
in(85, 64).
in(85, 66).
in(85, 68).
in(85, 69).
in(85, 73).
in(85, 74).
in(85, 75).
in(85, 76).
in(85, 80).
in(85, 81).
in(85, 82).
in(85, 84).
in(85, 86).
in(85, 87).
in(85, 89).
in(85, 90).
in(85, 91).
in(85, 92).
in(85, 93).
in(85, 94).
in(85, 97).
in(85, 98).
in(85, 99).
in(85, 104).
in(85, 105).
in(85, 109).
in(85, 112).
in(85, 116).
in(85, 117).
in(85, 119).
in(85, 121).
in(85, 124).
in(86, 128).
in(86, 129).
in(86, 2).
in(86, 3).
in(86, 5).
in(86, 7).
in(86, 9).
in(86, 10).
in(86, 14).
in(86, 16).
in(86, 18).
in(86, 20).
in(86, 21).
in(86, 22).
in(86, 23).
in(86, 24).
in(86, 26).
in(86, 28).
in(86, 30).
in(86, 33).
in(86, 34).
in(86, 38).
in(86, 39).
in(86, 40).
in(86, 45).
in(86, 48).
in(86, 49).
in(86, 50).
in(86, 51).
in(86, 53).
in(86, 54).
in(86, 55).
in(86, 56).
in(86, 64).
in(86, 66).
in(86, 69).
in(86, 70).
in(86, 71).
in(86, 76).
in(86, 77).
in(86, 78).
in(86, 82).
in(86, 85).
in(86, 86).
in(86, 88).
in(86, 91).
in(86, 92).
in(86, 96).
in(86, 99).
in(86, 101).
in(86, 102).
in(86, 104).
in(86, 105).
in(86, 106).
in(86, 107).
in(86, 108).
in(86, 110).
in(86, 111).
in(86, 112).
in(86, 115).
in(86, 116).
in(86, 119).
in(86, 121).
in(86, 126).
in(86, 127).
in(87, 128).
in(87, 129).
in(87, 2).
in(87, 4).
in(87, 5).
in(87, 6).
in(87, 7).
in(87, 8).
in(87, 9).
in(87, 10).
in(87, 11).
in(87, 17).
in(87, 21).
in(87, 25).
in(87, 27).
in(87, 28).
in(87, 31).
in(87, 32).
in(87, 35).
in(87, 36).
in(87, 38).
in(87, 42).
in(87, 43).
in(87, 44).
in(87, 48).
in(87, 49).
in(87, 50).
in(87, 54).
in(87, 55).
in(87, 56).
in(87, 59).
in(87, 60).
in(87, 61).
in(87, 62).
in(87, 68).
in(87, 71).
in(87, 73).
in(87, 74).
in(87, 75).
in(87, 76).
in(87, 77).
in(87, 82).
in(87, 83).
in(87, 85).
in(87, 87).
in(87, 92).
in(87, 94).
in(87, 96).
in(87, 98).
in(87, 99).
in(87, 100).
in(87, 102).
in(87, 103).
in(87, 104).
in(87, 105).
in(87, 106).
in(87, 107).
in(87, 110).
in(87, 111).
in(87, 113).
in(87, 116).
in(87, 117).
in(87, 118).
in(87, 120).
in(87, 122).
in(87, 123).
in(87, 125).
in(87, 126).
in(88, 1).
in(88, 4).
in(88, 9).
in(88, 13).
in(88, 14).
in(88, 16).
in(88, 18).
in(88, 22).
in(88, 23).
in(88, 24).
in(88, 25).
in(88, 26).
in(88, 27).
in(88, 28).
in(88, 31).
in(88, 33).
in(88, 37).
in(88, 40).
in(88, 42).
in(88, 43).
in(88, 45).
in(88, 46).
in(88, 47).
in(88, 48).
in(88, 49).
in(88, 50).
in(88, 51).
in(88, 52).
in(88, 54).
in(88, 56).
in(88, 58).
in(88, 61).
in(88, 64).
in(88, 71).
in(88, 75).
in(88, 76).
in(88, 81).
in(88, 83).
in(88, 84).
in(88, 85).
in(88, 86).
in(88, 87).
in(88, 90).
in(88, 93).
in(88, 95).
in(88, 97).
in(88, 99).
in(88, 101).
in(88, 102).
in(88, 103).
in(88, 105).
in(88, 106).
in(88, 107).
in(88, 108).
in(88, 109).
in(88, 110).
in(88, 112).
in(88, 113).
in(88, 114).
in(88, 117).
in(88, 118).
in(88, 119).
in(88, 121).
in(88, 122).
in(88, 123).
in(88, 125).
in(88, 126).
in(89, 129).
in(89, 2).
in(89, 3).
in(89, 4).
in(89, 5).
in(89, 6).
in(89, 7).
in(89, 11).
in(89, 13).
in(89, 18).
in(89, 19).
in(89, 20).
in(89, 21).
in(89, 22).
in(89, 23).
in(89, 27).
in(89, 28).
in(89, 29).
in(89, 30).
in(89, 31).
in(89, 32).
in(89, 34).
in(89, 39).
in(89, 41).
in(89, 42).
in(89, 43).
in(89, 45).
in(89, 49).
in(89, 50).
in(89, 55).
in(89, 56).
in(89, 57).
in(89, 58).
in(89, 63).
in(89, 64).
in(89, 65).
in(89, 67).
in(89, 68).
in(89, 72).
in(89, 73).
in(89, 75).
in(89, 76).
in(89, 78).
in(89, 80).
in(89, 81).
in(89, 83).
in(89, 85).
in(89, 86).
in(89, 87).
in(89, 89).
in(89, 90).
in(89, 93).
in(89, 95).
in(89, 96).
in(89, 97).
in(89, 99).
in(89, 100).
in(89, 104).
in(89, 106).
in(89, 108).
in(89, 109).
in(89, 110).
in(89, 111).
in(89, 112).
in(89, 116).
in(89, 117).
in(89, 118).
in(89, 119).
in(89, 120).
in(89, 123).
in(89, 124).
in(89, 126).
in(89, 127).
in(90, 129).
in(90, 2).
in(90, 3).
in(90, 5).
in(90, 6).
in(90, 7).
in(90, 8).
in(90, 10).
in(90, 13).
in(90, 14).
in(90, 18).
in(90, 21).
in(90, 22).
in(90, 26).
in(90, 27).
in(90, 31).
in(90, 34).
in(90, 35).
in(90, 36).
in(90, 37).
in(90, 41).
in(90, 44).
in(90, 47).
in(90, 49).
in(90, 50).
in(90, 51).
in(90, 54).
in(90, 55).
in(90, 56).
in(90, 58).
in(90, 60).
in(90, 64).
in(90, 65).
in(90, 66).
in(90, 67).
in(90, 68).
in(90, 70).
in(90, 74).
in(90, 76).
in(90, 78).
in(90, 80).
in(90, 82).
in(90, 84).
in(90, 86).
in(90, 87).
in(90, 88).
in(90, 90).
in(90, 95).
in(90, 100).
in(90, 101).
in(90, 103).
in(90, 105).
in(90, 106).
in(90, 107).
in(90, 108).
in(90, 109).
in(90, 112).
in(90, 114).
in(90, 115).
in(90, 116).
in(90, 118).
in(90, 122).
in(90, 123).
in(90, 124).
in(90, 125).
in(90, 126).
in(90, 127).
in(91, 1).
in(91, 2).
in(91, 3).
in(91, 10).
in(91, 15).
in(91, 16).
in(91, 18).
in(91, 20).
in(91, 22).
in(91, 23).
in(91, 25).
in(91, 27).
in(91, 28).
in(91, 33).
in(91, 35).
in(91, 37).
in(91, 41).
in(91, 42).
in(91, 44).
in(91, 45).
in(91, 46).
in(91, 49).
in(91, 50).
in(91, 51).
in(91, 52).
in(91, 53).
in(91, 54).
in(91, 55).
in(91, 56).
in(91, 57).
in(91, 67).
in(91, 72).
in(91, 75).
in(91, 76).
in(91, 79).
in(91, 82).
in(91, 83).
in(91, 86).
in(91, 87).
in(91, 89).
in(91, 90).
in(91, 92).
in(91, 93).
in(91, 100).
in(91, 101).
in(91, 103).
in(91, 104).
in(91, 107).
in(91, 108).
in(91, 109).
in(91, 111).
in(91, 112).
in(91, 113).
in(91, 114).
in(91, 118).
in(91, 120).
in(91, 121).
in(91, 122).
in(91, 124).
in(92, 1).
in(92, 3).
in(92, 4).
in(92, 5).
in(92, 6).
in(92, 7).
in(92, 8).
in(92, 9).
in(92, 10).
in(92, 11).
in(92, 12).
in(92, 13).
in(92, 15).
in(92, 16).
in(92, 17).
in(92, 20).
in(92, 21).
in(92, 22).
in(92, 24).
in(92, 25).
in(92, 26).
in(92, 31).
in(92, 35).
in(92, 37).
in(92, 38).
in(92, 39).
in(92, 40).
in(92, 41).
in(92, 43).
in(92, 45).
in(92, 46).
in(92, 49).
in(92, 51).
in(92, 52).
in(92, 55).
in(92, 56).
in(92, 57).
in(92, 58).
in(92, 60).
in(92, 61).
in(92, 63).
in(92, 64).
in(92, 66).
in(92, 69).
in(92, 70).
in(92, 73).
in(92, 77).
in(92, 80).
in(92, 81).
in(92, 82).
in(92, 84).
in(92, 88).
in(92, 89).
in(92, 91).
in(92, 92).
in(92, 95).
in(92, 96).
in(92, 97).
in(92, 99).
in(92, 102).
in(92, 103).
in(92, 104).
in(92, 105).
in(92, 106).
in(92, 109).
in(92, 112).
in(92, 113).
in(92, 114).
in(92, 115).
in(92, 118).
in(92, 119).
in(92, 120).
in(92, 121).
in(92, 122).
in(92, 123).
in(92, 126).
in(92, 127).
in(92, 129).
in(93, 128).
in(93, 1).
in(93, 3).
in(93, 4).
in(93, 6).
in(93, 8).
in(93, 10).
in(93, 15).
in(93, 16).
in(93, 17).
in(93, 18).
in(93, 19).
in(93, 21).
in(93, 22).
in(93, 23).
in(93, 25).
in(93, 30).
in(93, 31).
in(93, 32).
in(93, 36).
in(93, 37).
in(93, 38).
in(93, 39).
in(93, 40).
in(93, 43).
in(93, 44).
in(93, 47).
in(93, 48).
in(93, 52).
in(93, 53).
in(93, 54).
in(93, 55).
in(93, 56).
in(93, 61).
in(93, 65).
in(93, 67).
in(93, 68).
in(93, 70).
in(93, 71).
in(93, 73).
in(93, 74).
in(93, 75).
in(93, 78).
in(93, 79).
in(93, 80).
in(93, 81).
in(93, 82).
in(93, 83).
in(93, 84).
in(93, 85).
in(93, 89).
in(93, 91).
in(93, 92).
in(93, 96).
in(93, 98).
in(93, 101).
in(93, 102).
in(93, 105).
in(93, 106).
in(93, 107).
in(93, 109).
in(93, 111).
in(93, 112).
in(93, 113).
in(93, 114).
in(93, 116).
in(93, 118).
in(93, 120).
in(93, 121).
in(93, 123).
in(93, 124).
in(93, 125).
in(94, 128).
in(94, 3).
in(94, 4).
in(94, 7).
in(94, 8).
in(94, 9).
in(94, 10).
in(94, 11).
in(94, 13).
in(94, 14).
in(94, 16).
in(94, 18).
in(94, 19).
in(94, 23).
in(94, 28).
in(94, 30).
in(94, 31).
in(94, 32).
in(94, 35).
in(94, 36).
in(94, 38).
in(94, 40).
in(94, 42).
in(94, 44).
in(94, 45).
in(94, 46).
in(94, 47).
in(94, 48).
in(94, 53).
in(94, 54).
in(94, 55).
in(94, 56).
in(94, 59).
in(94, 60).
in(94, 62).
in(94, 64).
in(94, 66).
in(94, 69).
in(94, 70).
in(94, 72).
in(94, 73).
in(94, 74).
in(94, 75).
in(94, 76).
in(94, 78).
in(94, 81).
in(94, 82).
in(94, 85).
in(94, 87).
in(94, 90).
in(94, 91).
in(94, 92).
in(94, 94).
in(94, 96).
in(94, 99).
in(94, 101).
in(94, 104).
in(94, 105).
in(94, 108).
in(94, 110).
in(94, 112).
in(94, 114).
in(94, 116).
in(94, 118).
in(94, 119).
in(94, 122).
in(94, 123).
in(94, 125).
in(94, 127).
in(95, 1).
in(95, 2).
in(95, 3).
in(95, 9).
in(95, 10).
in(95, 11).
in(95, 13).
in(95, 14).
in(95, 15).
in(95, 18).
in(95, 20).
in(95, 21).
in(95, 24).
in(95, 26).
in(95, 27).
in(95, 31).
in(95, 34).
in(95, 35).
in(95, 36).
in(95, 37).
in(95, 39).
in(95, 40).
in(95, 42).
in(95, 45).
in(95, 47).
in(95, 48).
in(95, 50).
in(95, 54).
in(95, 56).
in(95, 59).
in(95, 60).
in(95, 61).
in(95, 62).
in(95, 63).
in(95, 64).
in(95, 65).
in(95, 66).
in(95, 70).
in(95, 71).
in(95, 72).
in(95, 73).
in(95, 74).
in(95, 75).
in(95, 76).
in(95, 77).
in(95, 79).
in(95, 80).
in(95, 82).
in(95, 84).
in(95, 85).
in(95, 88).
in(95, 91).
in(95, 92).
in(95, 93).
in(95, 96).
in(95, 97).
in(95, 103).
in(95, 104).
in(95, 105).
in(95, 106).
in(95, 107).
in(95, 108).
in(95, 109).
in(95, 110).
in(95, 111).
in(95, 114).
in(95, 116).
in(95, 117).
in(95, 118).
in(95, 119).
in(95, 120).
in(95, 122).
in(95, 124).
in(95, 126).
in(96, 128).
in(96, 6).
in(96, 7).
in(96, 8).
in(96, 9).
in(96, 12).
in(96, 14).
in(96, 15).
in(96, 17).
in(96, 19).
in(96, 20).
in(96, 21).
in(96, 23).
in(96, 24).
in(96, 25).
in(96, 26).
in(96, 28).
in(96, 29).
in(96, 30).
in(96, 31).
in(96, 32).
in(96, 33).
in(96, 35).
in(96, 37).
in(96, 38).
in(96, 39).
in(96, 41).
in(96, 43).
in(96, 45).
in(96, 46).
in(96, 50).
in(96, 51).
in(96, 52).
in(96, 53).
in(96, 56).
in(96, 59).
in(96, 60).
in(96, 61).
in(96, 62).
in(96, 64).
in(96, 66).
in(96, 67).
in(96, 68).
in(96, 69).
in(96, 72).
in(96, 73).
in(96, 75).
in(96, 76).
in(96, 79).
in(96, 84).
in(96, 85).
in(96, 91).
in(96, 94).
in(96, 95).
in(96, 96).
in(96, 97).
in(96, 99).
in(96, 101).
in(96, 102).
in(96, 106).
in(96, 107).
in(96, 108).
in(96, 111).
in(96, 112).
in(96, 113).
in(96, 114).
in(96, 115).
in(96, 118).
in(96, 122).
in(96, 125).
in(96, 126).
in(97, 128).
in(97, 129).
in(97, 3).
in(97, 4).
in(97, 5).
in(97, 9).
in(97, 10).
in(97, 12).
in(97, 14).
in(97, 18).
in(97, 19).
in(97, 20).
in(97, 23).
in(97, 24).
in(97, 26).
in(97, 27).
in(97, 28).
in(97, 30).
in(97, 31).
in(97, 33).
in(97, 37).
in(97, 38).
in(97, 39).
in(97, 41).
in(97, 44).
in(97, 48).
in(97, 50).
in(97, 54).
in(97, 56).
in(97, 59).
in(97, 60).
in(97, 63).
in(97, 65).
in(97, 71).
in(97, 72).
in(97, 73).
in(97, 74).
in(97, 83).
in(97, 84).
in(97, 85).
in(97, 86).
in(97, 89).
in(97, 90).
in(97, 92).
in(97, 93).
in(97, 96).
in(97, 98).
in(97, 100).
in(97, 103).
in(97, 105).
in(97, 107).
in(97, 110).
in(97, 113).
in(97, 114).
in(97, 116).
in(97, 119).
in(97, 122).
in(97, 125).
in(97, 127).
in(98, 128).
in(98, 1).
in(98, 4).
in(98, 5).
in(98, 6).
in(98, 7).
in(98, 8).
in(98, 9).
in(98, 11).
in(98, 13).
in(98, 14).
in(98, 15).
in(98, 17).
in(98, 21).
in(98, 23).
in(98, 24).
in(98, 25).
in(98, 27).
in(98, 29).
in(98, 30).
in(98, 32).
in(98, 34).
in(98, 35).
in(98, 36).
in(98, 37).
in(98, 38).
in(98, 40).
in(98, 44).
in(98, 45).
in(98, 46).
in(98, 48).
in(98, 51).
in(98, 53).
in(98, 54).
in(98, 55).
in(98, 56).
in(98, 57).
in(98, 61).
in(98, 66).
in(98, 67).
in(98, 69).
in(98, 70).
in(98, 71).
in(98, 72).
in(98, 75).
in(98, 77).
in(98, 78).
in(98, 85).
in(98, 88).
in(98, 90).
in(98, 92).
in(98, 93).
in(98, 95).
in(98, 96).
in(98, 100).
in(98, 102).
in(98, 107).
in(98, 109).
in(98, 111).
in(98, 113).
in(98, 114).
in(98, 116).
in(98, 117).
in(98, 118).
in(98, 119).
in(98, 121).
in(98, 122).
in(98, 124).
in(98, 125).
in(98, 126).
in(99, 128).
in(99, 1).
in(99, 129).
in(99, 4).
in(99, 6).
in(99, 8).
in(99, 11).
in(99, 12).
in(99, 14).
in(99, 15).
in(99, 16).
in(99, 17).
in(99, 20).
in(99, 22).
in(99, 23).
in(99, 28).
in(99, 32).
in(99, 33).
in(99, 34).
in(99, 35).
in(99, 39).
in(99, 41).
in(99, 42).
in(99, 43).
in(99, 47).
in(99, 48).
in(99, 49).
in(99, 50).
in(99, 51).
in(99, 57).
in(99, 58).
in(99, 59).
in(99, 61).
in(99, 62).
in(99, 64).
in(99, 65).
in(99, 66).
in(99, 72).
in(99, 73).
in(99, 74).
in(99, 75).
in(99, 76).
in(99, 77).
in(99, 78).
in(99, 79).
in(99, 80).
in(99, 82).
in(99, 89).
in(99, 93).
in(99, 94).
in(99, 96).
in(99, 102).
in(99, 103).
in(99, 109).
in(99, 110).
in(99, 111).
in(99, 112).
in(99, 113).
in(99, 115).
in(99, 116).
in(99, 118).
in(99, 119).
in(99, 120).
in(99, 121).
in(99, 122).
in(99, 123).
in(99, 124).
in(99, 125).
in(100, 128).
in(100, 3).
in(100, 5).
in(100, 8).
in(100, 11).
in(100, 14).
in(100, 16).
in(100, 17).
in(100, 18).
in(100, 19).
in(100, 20).
in(100, 25).
in(100, 26).
in(100, 32).
in(100, 33).
in(100, 37).
in(100, 39).
in(100, 42).
in(100, 44).
in(100, 45).
in(100, 48).
in(100, 49).
in(100, 51).
in(100, 56).
in(100, 60).
in(100, 61).
in(100, 62).
in(100, 63).
in(100, 65).
in(100, 67).
in(100, 68).
in(100, 72).
in(100, 73).
in(100, 74).
in(100, 75).
in(100, 77).
in(100, 82).
in(100, 83).
in(100, 84).
in(100, 86).
in(100, 87).
in(100, 88).
in(100, 91).
in(100, 92).
in(100, 94).
in(100, 95).
in(100, 97).
in(100, 99).
in(100, 104).
in(100, 105).
in(100, 106).
in(100, 107).
in(100, 108).
in(100, 112).
in(100, 116).
in(100, 117).
in(100, 119).
in(100, 122).
in(100, 124).
in(100, 126).
in(101, 5).
in(101, 8).
in(101, 10).
in(101, 11).
in(101, 13).
in(101, 14).
in(101, 16).
in(101, 17).
in(101, 19).
in(101, 20).
in(101, 21).
in(101, 23).
in(101, 25).
in(101, 26).
in(101, 28).
in(101, 29).
in(101, 34).
in(101, 35).
in(101, 38).
in(101, 40).
in(101, 41).
in(101, 43).
in(101, 44).
in(101, 46).
in(101, 48).
in(101, 51).
in(101, 54).
in(101, 57).
in(101, 58).
in(101, 59).
in(101, 60).
in(101, 64).
in(101, 65).
in(101, 67).
in(101, 70).
in(101, 74).
in(101, 75).
in(101, 76).
in(101, 78).
in(101, 79).
in(101, 81).
in(101, 83).
in(101, 84).
in(101, 85).
in(101, 88).
in(101, 89).
in(101, 90).
in(101, 91).
in(101, 93).
in(101, 94).
in(101, 96).
in(101, 97).
in(101, 100).
in(101, 102).
in(101, 104).
in(101, 105).
in(101, 108).
in(101, 109).
in(101, 110).
in(101, 111).
in(101, 112).
in(101, 113).
in(101, 119).
in(101, 120).
in(101, 121).
in(101, 122).
in(101, 126).
in(101, 127).
in(102, 128).
in(102, 1).
in(102, 2).
in(102, 129).
in(102, 4).
in(102, 6).
in(102, 7).
in(102, 8).
in(102, 9).
in(102, 10).
in(102, 11).
in(102, 16).
in(102, 18).
in(102, 19).
in(102, 25).
in(102, 26).
in(102, 28).
in(102, 29).
in(102, 30).
in(102, 31).
in(102, 32).
in(102, 36).
in(102, 38).
in(102, 39).
in(102, 43).
in(102, 44).
in(102, 46).
in(102, 48).
in(102, 50).
in(102, 52).
in(102, 54).
in(102, 55).
in(102, 57).
in(102, 59).
in(102, 60).
in(102, 63).
in(102, 64).
in(102, 65).
in(102, 68).
in(102, 69).
in(102, 72).
in(102, 74).
in(102, 79).
in(102, 81).
in(102, 82).
in(102, 83).
in(102, 84).
in(102, 88).
in(102, 89).
in(102, 90).
in(102, 94).
in(102, 96).
in(102, 97).
in(102, 98).
in(102, 101).
in(102, 102).
in(102, 106).
in(102, 107).
in(102, 108).
in(102, 109).
in(102, 110).
in(102, 112).
in(102, 113).
in(102, 115).
in(102, 116).
in(102, 118).
in(102, 119).
in(102, 121).
in(102, 124).
in(103, 2).
in(103, 3).
in(103, 4).
in(103, 5).
in(103, 6).
in(103, 7).
in(103, 9).
in(103, 11).
in(103, 14).
in(103, 16).
in(103, 17).
in(103, 18).
in(103, 20).
in(103, 22).
in(103, 25).
in(103, 26).
in(103, 30).
in(103, 31).
in(103, 32).
in(103, 34).
in(103, 35).
in(103, 36).
in(103, 37).
in(103, 38).
in(103, 40).
in(103, 41).
in(103, 42).
in(103, 45).
in(103, 46).
in(103, 47).
in(103, 49).
in(103, 50).
in(103, 53).
in(103, 54).
in(103, 55).
in(103, 56).
in(103, 59).
in(103, 60).
in(103, 64).
in(103, 65).
in(103, 66).
in(103, 68).
in(103, 70).
in(103, 71).
in(103, 72).
in(103, 73).
in(103, 74).
in(103, 75).
in(103, 76).
in(103, 78).
in(103, 80).
in(103, 84).
in(103, 85).
in(103, 86).
in(103, 87).
in(103, 88).
in(103, 90).
in(103, 93).
in(103, 94).
in(103, 95).
in(103, 97).
in(103, 98).
in(103, 99).
in(103, 100).
in(103, 101).
in(103, 102).
in(103, 103).
in(103, 104).
in(103, 105).
in(103, 106).
in(103, 108).
in(103, 111).
in(103, 112).
in(103, 113).
in(103, 114).
in(103, 115).
in(103, 117).
in(103, 120).
in(103, 123).
in(103, 124).
in(103, 125).
in(103, 128).
in(103, 129).
in(104, 129).
in(104, 3).
in(104, 5).
in(104, 6).
in(104, 9).
in(104, 10).
in(104, 13).
in(104, 14).
in(104, 16).
in(104, 19).
in(104, 20).
in(104, 22).
in(104, 23).
in(104, 24).
in(104, 28).
in(104, 29).
in(104, 31).
in(104, 32).
in(104, 33).
in(104, 35).
in(104, 36).
in(104, 37).
in(104, 38).
in(104, 40).
in(104, 41).
in(104, 42).
in(104, 43).
in(104, 44).
in(104, 45).
in(104, 48).
in(104, 49).
in(104, 51).
in(104, 55).
in(104, 56).
in(104, 58).
in(104, 61).
in(104, 62).
in(104, 64).
in(104, 65).
in(104, 72).
in(104, 75).
in(104, 76).
in(104, 77).
in(104, 78).
in(104, 79).
in(104, 80).
in(104, 83).
in(104, 84).
in(104, 85).
in(104, 86).
in(104, 90).
in(104, 91).
in(104, 92).
in(104, 93).
in(104, 94).
in(104, 95).
in(104, 98).
in(104, 99).
in(104, 100).
in(104, 102).
in(104, 108).
in(104, 110).
in(104, 111).
in(104, 115).
in(104, 116).
in(104, 121).
in(104, 122).
in(104, 124).
in(104, 125).
in(104, 126).
in(105, 1).
in(105, 3).
in(105, 5).
in(105, 6).
in(105, 10).
in(105, 14).
in(105, 15).
in(105, 16).
in(105, 17).
in(105, 19).
in(105, 24).
in(105, 28).
in(105, 30).
in(105, 32).
in(105, 35).
in(105, 36).
in(105, 37).
in(105, 38).
in(105, 40).
in(105, 41).
in(105, 45).
in(105, 46).
in(105, 47).
in(105, 48).
in(105, 49).
in(105, 50).
in(105, 51).
in(105, 52).
in(105, 54).
in(105, 55).
in(105, 57).
in(105, 58).
in(105, 59).
in(105, 61).
in(105, 62).
in(105, 63).
in(105, 64).
in(105, 65).
in(105, 68).
in(105, 69).
in(105, 70).
in(105, 71).
in(105, 72).
in(105, 73).
in(105, 75).
in(105, 76).
in(105, 78).
in(105, 82).
in(105, 83).
in(105, 85).
in(105, 87).
in(105, 88).
in(105, 94).
in(105, 96).
in(105, 98).
in(105, 99).
in(105, 103).
in(105, 106).
in(105, 107).
in(105, 110).
in(105, 112).
in(105, 113).
in(105, 116).
in(105, 118).
in(105, 124).
in(105, 125).
in(105, 126).
in(106, 1).
in(106, 2).
in(106, 3).
in(106, 8).
in(106, 10).
in(106, 11).
in(106, 12).
in(106, 13).
in(106, 16).
in(106, 17).
in(106, 19).
in(106, 21).
in(106, 24).
in(106, 25).
in(106, 27).
in(106, 29).
in(106, 30).
in(106, 33).
in(106, 39).
in(106, 40).
in(106, 41).
in(106, 43).
in(106, 45).
in(106, 48).
in(106, 51).
in(106, 53).
in(106, 54).
in(106, 55).
in(106, 59).
in(106, 60).
in(106, 62).
in(106, 63).
in(106, 64).
in(106, 67).
in(106, 69).
in(106, 70).
in(106, 71).
in(106, 77).
in(106, 78).
in(106, 80).
in(106, 81).
in(106, 86).
in(106, 88).
in(106, 92).
in(106, 93).
in(106, 94).
in(106, 96).
in(106, 100).
in(106, 101).
in(106, 102).
in(106, 104).
in(106, 105).
in(106, 110).
in(106, 115).
in(106, 116).
in(106, 117).
in(106, 118).
in(106, 120).
in(106, 122).
in(106, 123).
in(106, 126).
in(107, 1).
in(107, 3).
in(107, 5).
in(107, 9).
in(107, 10).
in(107, 13).
in(107, 14).
in(107, 15).
in(107, 16).
in(107, 17).
in(107, 19).
in(107, 21).
in(107, 23).
in(107, 25).
in(107, 26).
in(107, 28).
in(107, 29).
in(107, 30).
in(107, 31).
in(107, 35).
in(107, 38).
in(107, 39).
in(107, 41).
in(107, 43).
in(107, 45).
in(107, 47).
in(107, 48).
in(107, 51).
in(107, 52).
in(107, 53).
in(107, 56).
in(107, 59).
in(107, 60).
in(107, 63).
in(107, 64).
in(107, 65).
in(107, 66).
in(107, 67).
in(107, 68).
in(107, 69).
in(107, 71).
in(107, 72).
in(107, 73).
in(107, 76).
in(107, 77).
in(107, 80).
in(107, 81).
in(107, 82).
in(107, 83).
in(107, 85).
in(107, 86).
in(107, 87).
in(107, 88).
in(107, 89).
in(107, 90).
in(107, 93).
in(107, 95).
in(107, 96).
in(107, 97).
in(107, 98).
in(107, 99).
in(107, 100).
in(107, 106).
in(107, 107).
in(107, 109).
in(107, 110).
in(107, 111).
in(107, 112).
in(107, 113).
in(107, 114).
in(107, 115).
in(107, 116).
in(107, 120).
in(107, 122).
in(107, 123).
in(107, 127).
in(108, 1).
in(108, 2).
in(108, 3).
in(108, 4).
in(108, 5).
in(108, 10).
in(108, 11).
in(108, 12).
in(108, 13).
in(108, 14).
in(108, 15).
in(108, 16).
in(108, 17).
in(108, 18).
in(108, 19).
in(108, 21).
in(108, 22).
in(108, 25).
in(108, 30).
in(108, 31).
in(108, 39).
in(108, 40).
in(108, 41).
in(108, 44).
in(108, 46).
in(108, 47).
in(108, 48).
in(108, 58).
in(108, 61).
in(108, 64).
in(108, 65).
in(108, 67).
in(108, 69).
in(108, 70).
in(108, 75).
in(108, 77).
in(108, 78).
in(108, 82).
in(108, 84).
in(108, 87).
in(108, 89).
in(108, 90).
in(108, 92).
in(108, 94).
in(108, 96).
in(108, 98).
in(108, 99).
in(108, 101).
in(108, 102).
in(108, 103).
in(108, 104).
in(108, 105).
in(108, 106).
in(108, 108).
in(108, 110).
in(108, 111).
in(108, 112).
in(108, 113).
in(108, 114).
in(108, 115).
in(108, 118).
in(108, 120).
in(108, 121).
in(108, 125).
in(108, 127).
in(109, 2).
in(109, 4).
in(109, 6).
in(109, 7).
in(109, 8).
in(109, 9).
in(109, 10).
in(109, 11).
in(109, 12).
in(109, 14).
in(109, 17).
in(109, 20).
in(109, 21).
in(109, 22).
in(109, 23).
in(109, 25).
in(109, 26).
in(109, 28).
in(109, 32).
in(109, 33).
in(109, 35).
in(109, 38).
in(109, 39).
in(109, 41).
in(109, 42).
in(109, 43).
in(109, 45).
in(109, 47).
in(109, 48).
in(109, 49).
in(109, 51).
in(109, 52).
in(109, 53).
in(109, 54).
in(109, 56).
in(109, 57).
in(109, 58).
in(109, 60).
in(109, 61).
in(109, 64).
in(109, 66).
in(109, 67).
in(109, 69).
in(109, 70).
in(109, 71).
in(109, 73).
in(109, 74).
in(109, 76).
in(109, 77).
in(109, 78).
in(109, 80).
in(109, 82).
in(109, 83).
in(109, 85).
in(109, 86).
in(109, 87).
in(109, 89).
in(109, 90).
in(109, 93).
in(109, 94).
in(109, 97).
in(109, 98).
in(109, 103).
in(109, 106).
in(109, 108).
in(109, 109).
in(109, 114).
in(109, 115).
in(109, 116).
in(109, 120).
in(109, 121).
in(109, 122).
in(109, 126).
in(110, 3).
in(110, 6).
in(110, 8).
in(110, 10).
in(110, 11).
in(110, 12).
in(110, 16).
in(110, 17).
in(110, 18).
in(110, 20).
in(110, 22).
in(110, 23).
in(110, 26).
in(110, 33).
in(110, 34).
in(110, 35).
in(110, 38).
in(110, 41).
in(110, 43).
in(110, 44).
in(110, 47).
in(110, 48).
in(110, 52).
in(110, 53).
in(110, 54).
in(110, 56).
in(110, 58).
in(110, 59).
in(110, 60).
in(110, 61).
in(110, 62).
in(110, 64).
in(110, 69).
in(110, 71).
in(110, 72).
in(110, 77).
in(110, 79).
in(110, 82).
in(110, 83).
in(110, 86).
in(110, 89).
in(110, 90).
in(110, 91).
in(110, 92).
in(110, 93).
in(110, 95).
in(110, 98).
in(110, 99).
in(110, 101).
in(110, 102).
in(110, 103).
in(110, 104).
in(110, 108).
in(110, 112).
in(110, 113).
in(110, 115).
in(110, 116).
in(110, 118).
in(110, 119).
in(110, 120).
in(110, 121).
in(110, 122).
in(110, 123).
in(110, 125).
in(110, 127).
in(111, 128).
in(111, 129).
in(111, 2).
in(111, 5).
in(111, 6).
in(111, 8).
in(111, 10).
in(111, 17).
in(111, 19).
in(111, 20).
in(111, 21).
in(111, 26).
in(111, 27).
in(111, 30).
in(111, 32).
in(111, 34).
in(111, 36).
in(111, 40).
in(111, 42).
in(111, 43).
in(111, 52).
in(111, 53).
in(111, 54).
in(111, 56).
in(111, 57).
in(111, 58).
in(111, 59).
in(111, 61).
in(111, 62).
in(111, 66).
in(111, 67).
in(111, 68).
in(111, 71).
in(111, 75).
in(111, 76).
in(111, 79).
in(111, 80).
in(111, 82).
in(111, 86).
in(111, 88).
in(111, 91).
in(111, 92).
in(111, 94).
in(111, 96).
in(111, 98).
in(111, 99).
in(111, 100).
in(111, 103).
in(111, 104).
in(111, 105).
in(111, 110).
in(111, 111).
in(111, 113).
in(111, 116).
in(111, 118).
in(111, 119).
in(111, 121).
in(111, 123).
in(111, 124).
in(112, 1).
in(112, 2).
in(112, 7).
in(112, 8).
in(112, 9).
in(112, 13).
in(112, 16).
in(112, 17).
in(112, 18).
in(112, 20).
in(112, 21).
in(112, 23).
in(112, 24).
in(112, 26).
in(112, 27).
in(112, 29).
in(112, 31).
in(112, 32).
in(112, 33).
in(112, 34).
in(112, 36).
in(112, 39).
in(112, 40).
in(112, 42).
in(112, 45).
in(112, 47).
in(112, 52).
in(112, 53).
in(112, 57).
in(112, 60).
in(112, 61).
in(112, 62).
in(112, 63).
in(112, 64).
in(112, 65).
in(112, 67).
in(112, 69).
in(112, 70).
in(112, 72).
in(112, 74).
in(112, 75).
in(112, 78).
in(112, 79).
in(112, 81).
in(112, 82).
in(112, 84).
in(112, 87).
in(112, 89).
in(112, 90).
in(112, 91).
in(112, 92).
in(112, 94).
in(112, 95).
in(112, 97).
in(112, 99).
in(112, 101).
in(112, 106).
in(112, 107).
in(112, 113).
in(112, 116).
in(112, 117).
in(112, 119).
in(112, 120).
in(112, 122).
in(112, 123).
in(112, 124).
in(113, 128).
in(113, 1).
in(113, 2).
in(113, 3).
in(113, 4).
in(113, 5).
in(113, 6).
in(113, 7).
in(113, 129).
in(113, 9).
in(113, 11).
in(113, 12).
in(113, 14).
in(113, 15).
in(113, 18).
in(113, 19).
in(113, 20).
in(113, 21).
in(113, 24).
in(113, 26).
in(113, 27).
in(113, 29).
in(113, 31).
in(113, 32).
in(113, 33).
in(113, 37).
in(113, 41).
in(113, 43).
in(113, 44).
in(113, 45).
in(113, 48).
in(113, 51).
in(113, 52).
in(113, 57).
in(113, 61).
in(113, 62).
in(113, 63).
in(113, 65).
in(113, 67).
in(113, 72).
in(113, 76).
in(113, 78).
in(113, 79).
in(113, 80).
in(113, 81).
in(113, 83).
in(113, 85).
in(113, 86).
in(113, 87).
in(113, 90).
in(113, 91).
in(113, 94).
in(113, 95).
in(113, 99).
in(113, 100).
in(113, 102).
in(113, 104).
in(113, 107).
in(113, 108).
in(113, 110).
in(113, 112).
in(113, 113).
in(113, 116).
in(113, 118).
in(113, 120).
in(113, 121).
in(113, 123).
in(113, 124).
in(113, 127).
in(114, 129).
in(114, 2).
in(114, 4).
in(114, 11).
in(114, 12).
in(114, 13).
in(114, 14).
in(114, 16).
in(114, 17).
in(114, 19).
in(114, 20).
in(114, 21).
in(114, 22).
in(114, 24).
in(114, 25).
in(114, 26).
in(114, 28).
in(114, 31).
in(114, 32).
in(114, 35).
in(114, 36).
in(114, 37).
in(114, 38).
in(114, 39).
in(114, 41).
in(114, 42).
in(114, 44).
in(114, 45).
in(114, 46).
in(114, 50).
in(114, 52).
in(114, 53).
in(114, 54).
in(114, 55).
in(114, 56).
in(114, 57).
in(114, 61).
in(114, 63).
in(114, 64).
in(114, 68).
in(114, 69).
in(114, 70).
in(114, 73).
in(114, 74).
in(114, 78).
in(114, 79).
in(114, 80).
in(114, 81).
in(114, 82).
in(114, 83).
in(114, 86).
in(114, 89).
in(114, 92).
in(114, 93).
in(114, 94).
in(114, 96).
in(114, 97).
in(114, 98).
in(114, 100).
in(114, 103).
in(114, 104).
in(114, 105).
in(114, 108).
in(114, 111).
in(114, 112).
in(114, 114).
in(114, 116).
in(114, 117).
in(114, 118).
in(114, 121).
in(114, 123).
in(114, 126).
in(114, 127).
in(115, 1).
in(115, 2).
in(115, 3).
in(115, 129).
in(115, 5).
in(115, 6).
in(115, 7).
in(115, 9).
in(115, 13).
in(115, 14).
in(115, 20).
in(115, 22).
in(115, 24).
in(115, 28).
in(115, 31).
in(115, 34).
in(115, 35).
in(115, 37).
in(115, 39).
in(115, 40).
in(115, 41).
in(115, 44).
in(115, 52).
in(115, 54).
in(115, 56).
in(115, 57).
in(115, 58).
in(115, 59).
in(115, 60).
in(115, 61).
in(115, 65).
in(115, 66).
in(115, 68).
in(115, 72).
in(115, 75).
in(115, 82).
in(115, 84).
in(115, 86).
in(115, 89).
in(115, 92).
in(115, 93).
in(115, 94).
in(115, 98).
in(115, 101).
in(115, 104).
in(115, 106).
in(115, 107).
in(115, 109).
in(115, 110).
in(115, 111).
in(115, 112).
in(115, 113).
in(115, 114).
in(115, 115).
in(115, 118).
in(115, 119).
in(115, 120).
in(115, 121).
in(115, 127).
in(116, 128).
in(116, 129).
in(116, 2).
in(116, 3).
in(116, 5).
in(116, 6).
in(116, 8).
in(116, 9).
in(116, 10).
in(116, 12).
in(116, 14).
in(116, 16).
in(116, 22).
in(116, 25).
in(116, 29).
in(116, 30).
in(116, 31).
in(116, 35).
in(116, 36).
in(116, 38).
in(116, 39).
in(116, 41).
in(116, 46).
in(116, 48).
in(116, 50).
in(116, 53).
in(116, 54).
in(116, 55).
in(116, 58).
in(116, 60).
in(116, 61).
in(116, 64).
in(116, 66).
in(116, 67).
in(116, 68).
in(116, 69).
in(116, 70).
in(116, 72).
in(116, 73).
in(116, 74).
in(116, 75).
in(116, 76).
in(116, 82).
in(116, 83).
in(116, 84).
in(116, 85).
in(116, 86).
in(116, 88).
in(116, 89).
in(116, 90).
in(116, 91).
in(116, 93).
in(116, 95).
in(116, 96).
in(116, 98).
in(116, 99).
in(116, 100).
in(116, 102).
in(116, 104).
in(116, 105).
in(116, 106).
in(116, 108).
in(116, 109).
in(116, 110).
in(116, 111).
in(116, 112).
in(116, 114).
in(116, 118).
in(116, 119).
in(116, 120).
in(116, 122).
in(116, 124).
in(116, 125).
in(117, 128).
in(117, 3).
in(117, 5).
in(117, 6).
in(117, 7).
in(117, 8).
in(117, 9).
in(117, 10).
in(117, 11).
in(117, 12).
in(117, 16).
in(117, 18).
in(117, 20).
in(117, 23).
in(117, 24).
in(117, 25).
in(117, 27).
in(117, 30).
in(117, 32).
in(117, 36).
in(117, 38).
in(117, 39).
in(117, 42).
in(117, 43).
in(117, 44).
in(117, 45).
in(117, 48).
in(117, 49).
in(117, 52).
in(117, 55).
in(117, 56).
in(117, 59).
in(117, 60).
in(117, 61).
in(117, 62).
in(117, 65).
in(117, 66).
in(117, 67).
in(117, 70).
in(117, 71).
in(117, 74).
in(117, 78).
in(117, 79).
in(117, 82).
in(117, 83).
in(117, 85).
in(117, 86).
in(117, 88).
in(117, 89).
in(117, 90).
in(117, 93).
in(117, 95).
in(117, 96).
in(117, 97).
in(117, 98).
in(117, 99).
in(117, 100).
in(117, 101).
in(117, 102).
in(117, 103).
in(117, 104).
in(117, 107).
in(117, 109).
in(117, 110).
in(117, 111).
in(117, 112).
in(117, 117).
in(117, 120).
in(117, 121).
in(117, 122).
in(117, 125).
in(117, 126).
in(117, 127).
in(118, 128).
in(118, 1).
in(118, 129).
in(118, 3).
in(118, 6).
in(118, 7).
in(118, 8).
in(118, 9).
in(118, 10).
in(118, 11).
in(118, 14).
in(118, 16).
in(118, 19).
in(118, 21).
in(118, 23).
in(118, 24).
in(118, 25).
in(118, 30).
in(118, 34).
in(118, 38).
in(118, 39).
in(118, 40).
in(118, 41).
in(118, 43).
in(118, 44).
in(118, 46).
in(118, 49).
in(118, 51).
in(118, 53).
in(118, 55).
in(118, 60).
in(118, 61).
in(118, 64).
in(118, 65).
in(118, 66).
in(118, 68).
in(118, 69).
in(118, 71).
in(118, 72).
in(118, 75).
in(118, 78).
in(118, 79).
in(118, 81).
in(118, 82).
in(118, 83).
in(118, 86).
in(118, 88).
in(118, 92).
in(118, 93).
in(118, 94).
in(118, 95).
in(118, 96).
in(118, 98).
in(118, 102).
in(118, 103).
in(118, 105).
in(118, 107).
in(118, 109).
in(118, 112).
in(118, 114).
in(118, 115).
in(118, 118).
in(118, 119).
in(118, 120).
in(118, 122).
in(118, 123).
in(118, 125).
in(118, 126).
in(118, 127).
in(119, 128).
in(119, 1).
in(119, 2).
in(119, 7).
in(119, 9).
in(119, 11).
in(119, 13).
in(119, 16).
in(119, 18).
in(119, 19).
in(119, 24).
in(119, 25).
in(119, 26).
in(119, 29).
in(119, 32).
in(119, 35).
in(119, 36).
in(119, 39).
in(119, 43).
in(119, 44).
in(119, 45).
in(119, 46).
in(119, 47).
in(119, 48).
in(119, 50).
in(119, 51).
in(119, 53).
in(119, 54).
in(119, 56).
in(119, 57).
in(119, 58).
in(119, 59).
in(119, 60).
in(119, 61).
in(119, 65).
in(119, 67).
in(119, 70).
in(119, 71).
in(119, 73).
in(119, 75).
in(119, 76).
in(119, 79).
in(119, 81).
in(119, 82).
in(119, 84).
in(119, 85).
in(119, 89).
in(119, 90).
in(119, 91).
in(119, 95).
in(119, 98).
in(119, 104).
in(119, 107).
in(119, 110).
in(119, 114).
in(119, 115).
in(119, 116).
in(119, 118).
in(119, 120).
in(119, 123).
in(119, 124).
in(119, 125).
in(120, 128).
in(120, 1).
in(120, 129).
in(120, 3).
in(120, 4).
in(120, 9).
in(120, 11).
in(120, 15).
in(120, 16).
in(120, 17).
in(120, 20).
in(120, 25).
in(120, 26).
in(120, 29).
in(120, 30).
in(120, 31).
in(120, 33).
in(120, 34).
in(120, 35).
in(120, 36).
in(120, 42).
in(120, 43).
in(120, 44).
in(120, 47).
in(120, 48).
in(120, 51).
in(120, 54).
in(120, 56).
in(120, 57).
in(120, 59).
in(120, 61).
in(120, 62).
in(120, 64).
in(120, 65).
in(120, 66).
in(120, 68).
in(120, 70).
in(120, 73).
in(120, 75).
in(120, 79).
in(120, 80).
in(120, 81).
in(120, 83).
in(120, 84).
in(120, 86).
in(120, 91).
in(120, 92).
in(120, 93).
in(120, 94).
in(120, 95).
in(120, 98).
in(120, 102).
in(120, 105).
in(120, 106).
in(120, 107).
in(120, 108).
in(120, 113).
in(120, 120).
in(120, 122).
in(120, 123).
in(120, 124).
in(120, 126).
in(121, 129).
in(121, 3).
in(121, 7).
in(121, 8).
in(121, 9).
in(121, 10).
in(121, 11).
in(121, 13).
in(121, 14).
in(121, 19).
in(121, 21).
in(121, 22).
in(121, 24).
in(121, 26).
in(121, 29).
in(121, 30).
in(121, 31).
in(121, 33).
in(121, 36).
in(121, 39).
in(121, 41).
in(121, 42).
in(121, 44).
in(121, 45).
in(121, 46).
in(121, 47).
in(121, 48).
in(121, 51).
in(121, 52).
in(121, 53).
in(121, 54).
in(121, 55).
in(121, 56).
in(121, 57).
in(121, 58).
in(121, 59).
in(121, 62).
in(121, 66).
in(121, 69).
in(121, 70).
in(121, 73).
in(121, 74).
in(121, 75).
in(121, 80).
in(121, 81).
in(121, 82).
in(121, 83).
in(121, 84).
in(121, 85).
in(121, 86).
in(121, 88).
in(121, 90).
in(121, 91).
in(121, 92).
in(121, 93).
in(121, 94).
in(121, 100).
in(121, 101).
in(121, 106).
in(121, 108).
in(121, 109).
in(121, 110).
in(121, 114).
in(121, 115).
in(121, 119).
in(121, 120).
in(121, 121).
in(121, 122).
in(121, 124).
in(121, 126).
in(121, 127).
in(122, 128).
in(122, 1).
in(122, 2).
in(122, 129).
in(122, 4).
in(122, 8).
in(122, 10).
in(122, 12).
in(122, 13).
in(122, 16).
in(122, 17).
in(122, 20).
in(122, 21).
in(122, 22).
in(122, 23).
in(122, 25).
in(122, 27).
in(122, 29).
in(122, 31).
in(122, 32).
in(122, 33).
in(122, 38).
in(122, 39).
in(122, 46).
in(122, 50).
in(122, 52).
in(122, 54).
in(122, 56).
in(122, 57).
in(122, 58).
in(122, 61).
in(122, 62).
in(122, 66).
in(122, 67).
in(122, 70).
in(122, 71).
in(122, 73).
in(122, 74).
in(122, 75).
in(122, 76).
in(122, 79).
in(122, 83).
in(122, 85).
in(122, 89).
in(122, 91).
in(122, 93).
in(122, 94).
in(122, 97).
in(122, 98).
in(122, 100).
in(122, 101).
in(122, 102).
in(122, 103).
in(122, 104).
in(122, 106).
in(122, 109).
in(122, 110).
in(122, 111).
in(122, 113).
in(122, 115).
in(122, 116).
in(122, 118).
in(122, 120).
in(122, 123).
in(122, 124).
in(122, 127).
in(123, 128).
in(123, 3).
in(123, 5).
in(123, 6).
in(123, 9).
in(123, 10).
in(123, 11).
in(123, 16).
in(123, 17).
in(123, 19).
in(123, 21).
in(123, 22).
in(123, 25).
in(123, 26).
in(123, 32).
in(123, 33).
in(123, 34).
in(123, 36).
in(123, 37).
in(123, 39).
in(123, 40).
in(123, 45).
in(123, 46).
in(123, 47).
in(123, 50).
in(123, 51).
in(123, 52).
in(123, 55).
in(123, 56).
in(123, 63).
in(123, 64).
in(123, 65).
in(123, 66).
in(123, 69).
in(123, 71).
in(123, 72).
in(123, 73).
in(123, 75).
in(123, 77).
in(123, 78).
in(123, 80).
in(123, 82).
in(123, 85).
in(123, 86).
in(123, 87).
in(123, 90).
in(123, 92).
in(123, 93).
in(123, 94).
in(123, 96).
in(123, 98).
in(123, 99).
in(123, 101).
in(123, 102).
in(123, 105).
in(123, 106).
in(123, 107).
in(123, 108).
in(123, 109).
in(123, 113).
in(123, 114).
in(123, 117).
in(123, 118).
in(123, 119).
in(123, 120).
in(123, 121).
in(123, 123).
in(123, 124).
in(123, 125).
in(123, 126).
in(124, 1).
in(124, 2).
in(124, 3).
in(124, 129).
in(124, 6).
in(124, 7).
in(124, 8).
in(124, 10).
in(124, 17).
in(124, 19).
in(124, 20).
in(124, 21).
in(124, 23).
in(124, 25).
in(124, 26).
in(124, 27).
in(124, 28).
in(124, 29).
in(124, 33).
in(124, 34).
in(124, 35).
in(124, 36).
in(124, 37).
in(124, 38).
in(124, 40).
in(124, 41).
in(124, 43).
in(124, 44).
in(124, 45).
in(124, 46).
in(124, 49).
in(124, 50).
in(124, 53).
in(124, 56).
in(124, 63).
in(124, 65).
in(124, 66).
in(124, 67).
in(124, 68).
in(124, 71).
in(124, 75).
in(124, 79).
in(124, 80).
in(124, 83).
in(124, 85).
in(124, 87).
in(124, 88).
in(124, 89).
in(124, 90).
in(124, 93).
in(124, 94).
in(124, 96).
in(124, 98).
in(124, 99).
in(124, 100).
in(124, 101).
in(124, 103).
in(124, 104).
in(124, 106).
in(124, 107).
in(124, 108).
in(124, 109).
in(124, 111).
in(124, 112).
in(124, 114).
in(124, 116).
in(124, 118).
in(124, 120).
in(124, 123).
in(124, 126).
in(124, 127).
in(125, 1).
in(125, 129).
in(125, 4).
in(125, 5).
in(125, 8).
in(125, 9).
in(125, 11).
in(125, 12).
in(125, 14).
in(125, 18).
in(125, 21).
in(125, 22).
in(125, 27).
in(125, 29).
in(125, 30).
in(125, 33).
in(125, 34).
in(125, 37).
in(125, 38).
in(125, 40).
in(125, 42).
in(125, 47).
in(125, 49).
in(125, 51).
in(125, 52).
in(125, 55).
in(125, 56).
in(125, 58).
in(125, 59).
in(125, 60).
in(125, 61).
in(125, 62).
in(125, 64).
in(125, 66).
in(125, 68).
in(125, 70).
in(125, 72).
in(125, 73).
in(125, 79).
in(125, 81).
in(125, 82).
in(125, 83).
in(125, 84).
in(125, 85).
in(125, 86).
in(125, 87).
in(125, 89).
in(125, 93).
in(125, 95).
in(125, 96).
in(125, 97).
in(125, 99).
in(125, 103).
in(125, 104).
in(125, 107).
in(125, 108).
in(125, 109).
in(125, 111).
in(125, 114).
in(125, 115).
in(125, 116).
in(125, 117).
in(125, 119).
in(125, 120).
in(125, 122).
in(125, 123).
in(125, 124).
in(125, 125).
in(126, 129).
in(126, 2).
in(126, 3).
in(126, 6).
in(126, 7).
in(126, 8).
in(126, 11).
in(126, 12).
in(126, 14).
in(126, 17).
in(126, 20).
in(126, 21).
in(126, 22).
in(126, 23).
in(126, 24).
in(126, 25).
in(126, 27).
in(126, 30).
in(126, 36).
in(126, 38).
in(126, 39).
in(126, 40).
in(126, 42).
in(126, 43).
in(126, 46).
in(126, 47).
in(126, 48).
in(126, 49).
in(126, 51).
in(126, 55).
in(126, 59).
in(126, 61).
in(126, 65).
in(126, 66).
in(126, 67).
in(126, 68).
in(126, 69).
in(126, 71).
in(126, 74).
in(126, 77).
in(126, 80).
in(126, 81).
in(126, 82).
in(126, 84).
in(126, 85).
in(126, 86).
in(126, 87).
in(126, 88).
in(126, 89).
in(126, 91).
in(126, 93).
in(126, 96).
in(126, 97).
in(126, 98).
in(126, 99).
in(126, 103).
in(126, 104).
in(126, 105).
in(126, 106).
in(126, 113).
in(126, 114).
in(126, 115).
in(126, 116).
in(126, 117).
in(126, 119).
in(126, 121).
in(126, 123).
in(126, 124).
in(126, 125).
in(126, 126).
in(126, 127).
in(127, 129).
in(127, 4).
in(127, 6).
in(127, 7).
in(127, 9).
in(127, 10).
in(127, 11).
in(127, 12).
in(127, 13).
in(127, 16).
in(127, 17).
in(127, 21).
in(127, 22).
in(127, 23).
in(127, 24).
in(127, 25).
in(127, 28).
in(127, 32).
in(127, 36).
in(127, 37).
in(127, 38).
in(127, 41).
in(127, 42).
in(127, 44).
in(127, 45).
in(127, 46).
in(127, 51).
in(127, 52).
in(127, 54).
in(127, 55).
in(127, 57).
in(127, 58).
in(127, 60).
in(127, 61).
in(127, 64).
in(127, 68).
in(127, 69).
in(127, 70).
in(127, 74).
in(127, 75).
in(127, 78).
in(127, 79).
in(127, 80).
in(127, 81).
in(127, 82).
in(127, 85).
in(127, 86).
in(127, 88).
in(127, 89).
in(127, 90).
in(127, 92).
in(127, 94).
in(127, 97).
in(127, 100).
in(127, 101).
in(127, 103).
in(127, 104).
in(127, 107).
in(127, 108).
in(127, 109).
in(127, 110).
in(127, 114).
in(127, 115).
in(127, 116).
in(127, 118).
in(127, 119).
in(127, 121).
in(127, 123).
in(127, 126).
in(127, 127).
in(128, 128).
in(128, 1).
in(128, 129).
in(128, 3).
in(128, 4).
in(128, 6).
in(128, 8).
in(128, 10).
in(128, 12).
in(128, 13).
in(128, 15).
in(128, 16).
in(128, 17).
in(128, 18).
in(128, 21).
in(128, 23).
in(128, 24).
in(128, 25).
in(128, 26).
in(128, 27).
in(128, 28).
in(128, 29).
in(128, 30).
in(128, 31).
in(128, 37).
in(128, 38).
in(128, 39).
in(128, 42).
in(128, 43).
in(128, 45).
in(128, 49).
in(128, 54).
in(128, 58).
in(128, 59).
in(128, 61).
in(128, 62).
in(128, 63).
in(128, 66).
in(128, 70).
in(128, 71).
in(128, 72).
in(128, 73).
in(128, 74).
in(128, 75).
in(128, 77).
in(128, 78).
in(128, 80).
in(128, 86).
in(128, 90).
in(128, 91).
in(128, 92).
in(128, 93).
in(128, 95).
in(128, 102).
in(128, 106).
in(128, 107).
in(128, 110).
in(128, 112).
in(128, 114).
in(128, 115).
in(128, 116).
in(128, 118).
in(128, 120).
in(128, 124).
in(128, 125).
in(128, 126).
in(129, 128).
in(129, 10).
in(129, 16).
in(129, 17).
in(129, 18).
in(129, 20).
in(129, 22).
in(129, 23).
in(129, 25).
in(129, 27).
in(129, 28).
in(129, 31).
in(129, 34).
in(129, 37).
in(129, 39).
in(129, 42).
in(129, 43).
in(129, 44).
in(129, 46).
in(129, 50).
in(129, 51).
in(129, 52).
in(129, 53).
in(129, 55).
in(129, 58).
in(129, 59).
in(129, 61).
in(129, 63).
in(129, 64).
in(129, 70).
in(129, 71).
in(129, 72).
in(129, 73).
in(129, 75).
in(129, 79).
in(129, 80).
in(129, 81).
in(129, 82).
in(129, 84).
in(129, 87).
in(129, 88).
in(129, 92).
in(129, 93).
in(129, 95).
in(129, 98).
in(129, 102).
in(129, 103).
in(129, 104).
in(129, 105).
in(129, 106).
in(129, 107).
in(129, 108).
in(129, 110).
in(129, 111).
in(129, 112).
in(129, 113).
in(129, 116).
in(129, 117).
in(129, 121).
in(129, 122).
in(129, 123).
in(129, 124).
in(130, 128).
in(130, 1).
in(130, 129).
in(130, 3).
in(130, 7).
in(130, 9).
in(130, 13).
in(130, 15).
in(130, 19).
in(130, 20).
in(130, 22).
in(130, 23).
in(130, 25).
in(130, 26).
in(130, 27).
in(130, 28).
in(130, 30).
in(130, 31).
in(130, 32).
in(130, 33).
in(130, 36).
in(130, 37).
in(130, 38).
in(130, 40).
in(130, 41).
in(130, 42).
in(130, 47).
in(130, 48).
in(130, 49).
in(130, 51).
in(130, 52).
in(130, 53).
in(130, 56).
in(130, 59).
in(130, 61).
in(130, 66).
in(130, 67).
in(130, 69).
in(130, 73).
in(130, 74).
in(130, 75).
in(130, 76).
in(130, 80).
in(130, 81).
in(130, 83).
in(130, 84).
in(130, 87).
in(130, 89).
in(130, 91).
in(130, 92).
in(130, 93).
in(130, 94).
in(130, 97).
in(130, 98).
in(130, 100).
in(130, 101).
in(130, 106).
in(130, 108).
in(130, 109).
in(130, 112).
in(130, 113).
in(130, 118).
in(130, 119).
in(130, 121).
in(130, 122).
in(130, 125).
in(130, 126).
in(130, 127).
in(131, 128).
in(131, 1).
in(131, 2).
in(131, 6).
in(131, 9).
in(131, 10).
in(131, 11).
in(131, 14).
in(131, 17).
in(131, 22).
in(131, 25).
in(131, 27).
in(131, 28).
in(131, 30).
in(131, 32).
in(131, 36).
in(131, 40).
in(131, 41).
in(131, 42).
in(131, 45).
in(131, 52).
in(131, 54).
in(131, 55).
in(131, 56).
in(131, 58).
in(131, 59).
in(131, 61).
in(131, 63).
in(131, 64).
in(131, 65).
in(131, 66).
in(131, 68).
in(131, 69).
in(131, 72).
in(131, 76).
in(131, 78).
in(131, 81).
in(131, 82).
in(131, 84).
in(131, 85).
in(131, 88).
in(131, 89).
in(131, 90).
in(131, 93).
in(131, 96).
in(131, 98).
in(131, 99).
in(131, 102).
in(131, 104).
in(131, 105).
in(131, 107).
in(131, 109).
in(131, 110).
in(131, 112).
in(131, 114).
in(131, 120).
in(131, 121).
in(131, 122).
in(131, 124).
in(131, 125).
in(131, 126).
in(132, 1).
in(132, 129).
in(132, 3).
in(132, 5).
in(132, 9).
in(132, 10).
in(132, 11).
in(132, 12).
in(132, 16).
in(132, 18).
in(132, 19).
in(132, 20).
in(132, 21).
in(132, 22).
in(132, 26).
in(132, 27).
in(132, 28).
in(132, 31).
in(132, 34).
in(132, 37).
in(132, 39).
in(132, 41).
in(132, 43).
in(132, 46).
in(132, 54).
in(132, 58).
in(132, 59).
in(132, 60).
in(132, 62).
in(132, 63).
in(132, 65).
in(132, 67).
in(132, 68).
in(132, 69).
in(132, 70).
in(132, 71).
in(132, 72).
in(132, 73).
in(132, 75).
in(132, 76).
in(132, 77).
in(132, 79).
in(132, 80).
in(132, 85).
in(132, 86).
in(132, 88).
in(132, 90).
in(132, 91).
in(132, 93).
in(132, 98).
in(132, 99).
in(132, 106).
in(132, 112).
in(132, 115).
in(132, 119).
in(132, 121).
in(132, 122).
in(132, 123).
in(132, 124).
in(132, 127).
in(133, 129).
in(133, 2).
in(133, 4).
in(133, 8).
in(133, 9).
in(133, 11).
in(133, 12).
in(133, 13).
in(133, 15).
in(133, 16).
in(133, 19).
in(133, 21).
in(133, 22).
in(133, 23).
in(133, 25).
in(133, 29).
in(133, 30).
in(133, 31).
in(133, 37).
in(133, 43).
in(133, 44).
in(133, 46).
in(133, 47).
in(133, 51).
in(133, 55).
in(133, 58).
in(133, 60).
in(133, 64).
in(133, 65).
in(133, 67).
in(133, 68).
in(133, 73).
in(133, 74).
in(133, 75).
in(133, 76).
in(133, 77).
in(133, 80).
in(133, 81).
in(133, 85).
in(133, 86).
in(133, 90).
in(133, 92).
in(133, 94).
in(133, 95).
in(133, 96).
in(133, 97).
in(133, 98).
in(133, 100).
in(133, 102).
in(133, 105).
in(133, 106).
in(133, 107).
in(133, 110).
in(133, 111).
in(133, 112).
in(133, 114).
in(133, 115).
in(133, 117).
in(133, 118).
in(133, 119).
in(133, 120).
in(133, 125).
in(133, 127).
in(134, 128).
in(134, 129).
in(134, 2).
in(134, 5).
in(134, 7).
in(134, 8).
in(134, 9).
in(134, 13).
in(134, 16).
in(134, 20).
in(134, 21).
in(134, 22).
in(134, 23).
in(134, 24).
in(134, 26).
in(134, 28).
in(134, 29).
in(134, 30).
in(134, 32).
in(134, 33).
in(134, 38).
in(134, 41).
in(134, 42).
in(134, 43).
in(134, 44).
in(134, 46).
in(134, 47).
in(134, 48).
in(134, 49).
in(134, 50).
in(134, 51).
in(134, 54).
in(134, 55).
in(134, 57).
in(134, 59).
in(134, 60).
in(134, 61).
in(134, 62).
in(134, 68).
in(134, 71).
in(134, 72).
in(134, 73).
in(134, 74).
in(134, 75).
in(134, 79).
in(134, 80).
in(134, 81).
in(134, 82).
in(134, 83).
in(134, 84).
in(134, 86).
in(134, 87).
in(134, 89).
in(134, 90).
in(134, 94).
in(134, 95).
in(134, 97).
in(134, 99).
in(134, 100).
in(134, 101).
in(134, 104).
in(134, 105).
in(134, 108).
in(134, 113).
in(134, 116).
in(134, 117).
in(134, 118).
in(134, 119).
in(134, 120).
in(134, 121).
in(134, 122).
in(135, 128).
in(135, 1).
in(135, 3).
in(135, 4).
in(135, 6).
in(135, 8).
in(135, 9).
in(135, 12).
in(135, 13).
in(135, 14).
in(135, 17).
in(135, 20).
in(135, 21).
in(135, 23).
in(135, 24).
in(135, 26).
in(135, 27).
in(135, 30).
in(135, 31).
in(135, 33).
in(135, 36).
in(135, 40).
in(135, 44).
in(135, 46).
in(135, 48).
in(135, 49).
in(135, 50).
in(135, 51).
in(135, 54).
in(135, 56).
in(135, 57).
in(135, 59).
in(135, 60).
in(135, 66).
in(135, 67).
in(135, 68).
in(135, 69).
in(135, 75).
in(135, 79).
in(135, 84).
in(135, 85).
in(135, 87).
in(135, 88).
in(135, 90).
in(135, 91).
in(135, 92).
in(135, 96).
in(135, 97).
in(135, 99).
in(135, 100).
in(135, 102).
in(135, 104).
in(135, 105).
in(135, 106).
in(135, 107).
in(135, 108).
in(135, 110).
in(135, 111).
in(135, 112).
in(135, 114).
in(135, 116).
in(135, 117).
in(135, 118).
in(135, 121).
in(135, 123).
in(135, 125).
in(135, 126).
in(136, 1).
in(136, 2).
in(136, 3).
in(136, 4).
in(136, 6).
in(136, 10).
in(136, 11).
in(136, 12).
in(136, 13).
in(136, 14).
in(136, 15).
in(136, 18).
in(136, 19).
in(136, 23).
in(136, 25).
in(136, 30).
in(136, 36).
in(136, 37).
in(136, 44).
in(136, 46).
in(136, 47).
in(136, 48).
in(136, 49).
in(136, 51).
in(136, 56).
in(136, 57).
in(136, 60).
in(136, 61).
in(136, 62).
in(136, 63).
in(136, 64).
in(136, 65).
in(136, 66).
in(136, 67).
in(136, 68).
in(136, 75).
in(136, 76).
in(136, 80).
in(136, 83).
in(136, 84).
in(136, 86).
in(136, 87).
in(136, 88).
in(136, 91).
in(136, 92).
in(136, 93).
in(136, 94).
in(136, 96).
in(136, 98).
in(136, 101).
in(136, 102).
in(136, 104).
in(136, 107).
in(136, 110).
in(136, 112).
in(136, 113).
in(136, 114).
in(136, 115).
in(136, 117).
in(136, 121).
in(136, 122).
in(136, 123).
in(136, 124).
in(136, 125).
in(137, 1).
in(137, 2).
in(137, 3).
in(137, 5).
in(137, 6).
in(137, 10).
in(137, 11).
in(137, 12).
in(137, 13).
in(137, 14).
in(137, 15).
in(137, 22).
in(137, 23).
in(137, 25).
in(137, 26).
in(137, 27).
in(137, 29).
in(137, 30).
in(137, 33).
in(137, 35).
in(137, 36).
in(137, 37).
in(137, 39).
in(137, 44).
in(137, 45).
in(137, 47).
in(137, 48).
in(137, 49).
in(137, 50).
in(137, 52).
in(137, 53).
in(137, 54).
in(137, 55).
in(137, 57).
in(137, 59).
in(137, 61).
in(137, 62).
in(137, 64).
in(137, 68).
in(137, 69).
in(137, 70).
in(137, 71).
in(137, 72).
in(137, 73).
in(137, 79).
in(137, 80).
in(137, 83).
in(137, 84).
in(137, 86).
in(137, 87).
in(137, 88).
in(137, 90).
in(137, 92).
in(137, 94).
in(137, 96).
in(137, 99).
in(137, 103).
in(137, 104).
in(137, 105).
in(137, 106).
in(137, 108).
in(137, 112).
in(137, 113).
in(137, 114).
in(137, 115).
in(137, 116).
in(137, 120).
in(137, 122).
in(137, 125).
in(137, 126).
in(138, 1).
in(138, 3).
in(138, 7).
in(138, 8).
in(138, 11).
in(138, 12).
in(138, 13).
in(138, 19).
in(138, 24).
in(138, 25).
in(138, 26).
in(138, 28).
in(138, 29).
in(138, 30).
in(138, 31).
in(138, 33).
in(138, 35).
in(138, 37).
in(138, 38).
in(138, 41).
in(138, 43).
in(138, 44).
in(138, 45).
in(138, 48).
in(138, 50).
in(138, 51).
in(138, 52).
in(138, 56).
in(138, 57).
in(138, 58).
in(138, 59).
in(138, 61).
in(138, 62).
in(138, 64).
in(138, 66).
in(138, 67).
in(138, 70).
in(138, 75).
in(138, 76).
in(138, 79).
in(138, 80).
in(138, 81).
in(138, 82).
in(138, 83).
in(138, 84).
in(138, 85).
in(138, 86).
in(138, 88).
in(138, 91).
in(138, 93).
in(138, 94).
in(138, 95).
in(138, 96).
in(138, 98).
in(138, 100).
in(138, 103).
in(138, 108).
in(138, 112).
in(138, 113).
in(138, 114).
in(138, 115).
in(138, 116).
in(138, 117).
in(138, 118).
in(138, 119).
in(138, 120).
in(138, 121).
in(138, 123).
in(138, 124).
in(138, 125).
in(139, 128).
in(139, 1).
in(139, 2).
in(139, 129).
in(139, 4).
in(139, 9).
in(139, 14).
in(139, 15).
in(139, 16).
in(139, 17).
in(139, 18).
in(139, 19).
in(139, 22).
in(139, 23).
in(139, 24).
in(139, 27).
in(139, 28).
in(139, 29).
in(139, 32).
in(139, 33).
in(139, 34).
in(139, 35).
in(139, 36).
in(139, 38).
in(139, 39).
in(139, 43).
in(139, 47).
in(139, 48).
in(139, 50).
in(139, 51).
in(139, 57).
in(139, 59).
in(139, 60).
in(139, 61).
in(139, 62).
in(139, 63).
in(139, 64).
in(139, 65).
in(139, 66).
in(139, 68).
in(139, 70).
in(139, 76).
in(139, 78).
in(139, 79).
in(139, 80).
in(139, 82).
in(139, 85).
in(139, 87).
in(139, 88).
in(139, 89).
in(139, 91).
in(139, 98).
in(139, 99).
in(139, 101).
in(139, 102).
in(139, 103).
in(139, 105).
in(139, 107).
in(139, 108).
in(139, 110).
in(139, 111).
in(139, 114).
in(139, 116).
in(139, 118).
in(139, 120).
in(139, 124).
in(139, 126).
in(140, 1).
in(140, 2).
in(140, 129).
in(140, 5).
in(140, 9).
in(140, 12).
in(140, 13).
in(140, 14).
in(140, 17).
in(140, 18).
in(140, 19).
in(140, 21).
in(140, 24).
in(140, 26).
in(140, 27).
in(140, 28).
in(140, 29).
in(140, 30).
in(140, 31).
in(140, 32).
in(140, 35).
in(140, 36).
in(140, 37).
in(140, 38).
in(140, 41).
in(140, 43).
in(140, 44).
in(140, 46).
in(140, 48).
in(140, 49).
in(140, 50).
in(140, 51).
in(140, 52).
in(140, 55).
in(140, 56).
in(140, 58).
in(140, 59).
in(140, 61).
in(140, 68).
in(140, 70).
in(140, 74).
in(140, 76).
in(140, 78).
in(140, 80).
in(140, 88).
in(140, 89).
in(140, 93).
in(140, 94).
in(140, 95).
in(140, 97).
in(140, 98).
in(140, 99).
in(140, 101).
in(140, 103).
in(140, 107).
in(140, 110).
in(140, 111).
in(140, 117).
in(140, 118).
in(140, 119).
in(140, 120).
in(140, 122).
in(140, 123).
in(140, 124).
in(140, 125).
in(140, 126).
in(141, 1).
in(141, 2).
in(141, 129).
in(141, 4).
in(141, 5).
in(141, 7).
in(141, 8).
in(141, 9).
in(141, 10).
in(141, 12).
in(141, 13).
in(141, 14).
in(141, 15).
in(141, 18).
in(141, 19).
in(141, 20).
in(141, 21).
in(141, 24).
in(141, 25).
in(141, 26).
in(141, 27).
in(141, 29).
in(141, 34).
in(141, 36).
in(141, 37).
in(141, 39).
in(141, 41).
in(141, 42).
in(141, 43).
in(141, 50).
in(141, 51).
in(141, 53).
in(141, 54).
in(141, 55).
in(141, 56).
in(141, 58).
in(141, 66).
in(141, 68).
in(141, 70).
in(141, 73).
in(141, 77).
in(141, 84).
in(141, 85).
in(141, 89).
in(141, 92).
in(141, 95).
in(141, 96).
in(141, 99).
in(141, 103).
in(141, 106).
in(141, 108).
in(141, 109).
in(141, 110).
in(141, 112).
in(141, 113).
in(141, 114).
in(141, 115).
in(141, 116).
in(141, 117).
in(141, 119).
in(141, 121).
in(141, 123).
in(141, 124).
in(141, 125).
in(141, 126).
in(141, 127).
in(142, 128).
in(142, 1).
in(142, 129).
in(142, 3).
in(142, 4).
in(142, 5).
in(142, 6).
in(142, 7).
in(142, 8).
in(142, 9).
in(142, 12).
in(142, 15).
in(142, 16).
in(142, 19).
in(142, 21).
in(142, 23).
in(142, 28).
in(142, 31).
in(142, 33).
in(142, 34).
in(142, 35).
in(142, 38).
in(142, 40).
in(142, 42).
in(142, 43).
in(142, 47).
in(142, 50).
in(142, 52).
in(142, 54).
in(142, 57).
in(142, 58).
in(142, 59).
in(142, 61).
in(142, 64).
in(142, 65).
in(142, 66).
in(142, 67).
in(142, 69).
in(142, 71).
in(142, 72).
in(142, 75).
in(142, 76).
in(142, 77).
in(142, 81).
in(142, 82).
in(142, 83).
in(142, 85).
in(142, 86).
in(142, 88).
in(142, 89).
in(142, 90).
in(142, 91).
in(142, 93).
in(142, 94).
in(142, 95).
in(142, 98).
in(142, 99).
in(142, 102).
in(142, 105).
in(142, 106).
in(142, 107).
in(142, 109).
in(142, 110).
in(142, 111).
in(142, 112).
in(142, 115).
in(142, 116).
in(142, 119).
in(142, 125).
in(142, 126).
in(143, 1).
in(143, 2).
in(143, 3).
in(143, 129).
in(143, 5).
in(143, 8).
in(143, 10).
in(143, 11).
in(143, 12).
in(143, 13).
in(143, 15).
in(143, 16).
in(143, 19).
in(143, 22).
in(143, 24).
in(143, 25).
in(143, 26).
in(143, 32).
in(143, 34).
in(143, 36).
in(143, 42).
in(143, 45).
in(143, 47).
in(143, 48).
in(143, 49).
in(143, 53).
in(143, 54).
in(143, 56).
in(143, 57).
in(143, 58).
in(143, 61).
in(143, 64).
in(143, 68).
in(143, 69).
in(143, 70).
in(143, 71).
in(143, 74).
in(143, 75).
in(143, 77).
in(143, 78).
in(143, 79).
in(143, 80).
in(143, 81).
in(143, 83).
in(143, 84).
in(143, 85).
in(143, 86).
in(143, 88).
in(143, 89).
in(143, 92).
in(143, 96).
in(143, 98).
in(143, 101).
in(143, 103).
in(143, 105).
in(143, 107).
in(143, 108).
in(143, 109).
in(143, 114).
in(143, 116).
in(143, 117).
in(143, 118).
in(143, 120).
in(143, 122).
in(143, 123).
in(143, 127).
in(144, 4).
in(144, 6).
in(144, 8).
in(144, 12).
in(144, 13).
in(144, 14).
in(144, 15).
in(144, 19).
in(144, 22).
in(144, 23).
in(144, 25).
in(144, 28).
in(144, 30).
in(144, 33).
in(144, 36).
in(144, 38).
in(144, 39).
in(144, 40).
in(144, 41).
in(144, 42).
in(144, 51).
in(144, 54).
in(144, 55).
in(144, 56).
in(144, 58).
in(144, 59).
in(144, 60).
in(144, 61).
in(144, 62).
in(144, 63).
in(144, 65).
in(144, 66).
in(144, 67).
in(144, 69).
in(144, 71).
in(144, 74).
in(144, 77).
in(144, 80).
in(144, 81).
in(144, 84).
in(144, 85).
in(144, 87).
in(144, 88).
in(144, 91).
in(144, 92).
in(144, 94).
in(144, 95).
in(144, 96).
in(144, 98).
in(144, 99).
in(144, 100).
in(144, 101).
in(144, 102).
in(144, 103).
in(144, 104).
in(144, 105).
in(144, 106).
in(144, 109).
in(144, 111).
in(144, 116).
in(144, 117).
in(144, 118).
in(144, 119).
in(144, 120).
in(144, 121).
in(144, 124).
in(144, 126).
in(145, 129).
in(145, 2).
in(145, 4).
in(145, 9).
in(145, 13).
in(145, 14).
in(145, 16).
in(145, 17).
in(145, 19).
in(145, 20).
in(145, 23).
in(145, 25).
in(145, 26).
in(145, 27).
in(145, 28).
in(145, 29).
in(145, 30).
in(145, 32).
in(145, 35).
in(145, 36).
in(145, 37).
in(145, 38).
in(145, 39).
in(145, 43).
in(145, 44).
in(145, 45).
in(145, 50).
in(145, 51).
in(145, 53).
in(145, 54).
in(145, 58).
in(145, 60).
in(145, 62).
in(145, 64).
in(145, 67).
in(145, 70).
in(145, 77).
in(145, 79).
in(145, 81).
in(145, 82).
in(145, 83).
in(145, 87).
in(145, 88).
in(145, 90).
in(145, 91).
in(145, 93).
in(145, 96).
in(145, 98).
in(145, 99).
in(145, 101).
in(145, 103).
in(145, 107).
in(145, 108).
in(145, 111).
in(145, 112).
in(145, 113).
in(145, 114).
in(145, 116).
in(145, 121).
in(145, 122).
in(145, 124).
in(145, 126).
in(145, 127).
in(146, 1).
in(146, 2).
in(146, 3).
in(146, 4).
in(146, 5).
in(146, 6).
in(146, 8).
in(146, 9).
in(146, 10).
in(146, 14).
in(146, 17).
in(146, 20).
in(146, 22).
in(146, 23).
in(146, 24).
in(146, 25).
in(146, 27).
in(146, 28).
in(146, 29).
in(146, 31).
in(146, 36).
in(146, 39).
in(146, 40).
in(146, 41).
in(146, 42).
in(146, 43).
in(146, 44).
in(146, 46).
in(146, 49).
in(146, 53).
in(146, 54).
in(146, 56).
in(146, 57).
in(146, 58).
in(146, 59).
in(146, 61).
in(146, 64).
in(146, 65).
in(146, 66).
in(146, 67).
in(146, 68).
in(146, 70).
in(146, 71).
in(146, 72).
in(146, 74).
in(146, 75).
in(146, 77).
in(146, 79).
in(146, 80).
in(146, 82).
in(146, 83).
in(146, 84).
in(146, 87).
in(146, 89).
in(146, 91).
in(146, 92).
in(146, 93).
in(146, 95).
in(146, 98).
in(146, 99).
in(146, 102).
in(146, 104).
in(146, 105).
in(146, 106).
in(146, 108).
in(146, 112).
in(146, 113).
in(146, 115).
in(146, 116).
in(146, 118).
in(146, 119).
in(146, 120).
in(146, 121).
in(146, 124).
in(146, 125).
in(146, 126).
in(146, 127).
in(146, 129).
in(147, 128).
in(147, 1).
in(147, 2).
in(147, 3).
in(147, 129).
in(147, 9).
in(147, 13).
in(147, 15).
in(147, 17).
in(147, 19).
in(147, 23).
in(147, 24).
in(147, 25).
in(147, 26).
in(147, 29).
in(147, 30).
in(147, 32).
in(147, 34).
in(147, 35).
in(147, 38).
in(147, 39).
in(147, 40).
in(147, 46).
in(147, 49).
in(147, 50).
in(147, 51).
in(147, 52).
in(147, 53).
in(147, 56).
in(147, 59).
in(147, 64).
in(147, 67).
in(147, 68).
in(147, 69).
in(147, 71).
in(147, 72).
in(147, 73).
in(147, 74).
in(147, 75).
in(147, 76).
in(147, 77).
in(147, 78).
in(147, 79).
in(147, 81).
in(147, 82).
in(147, 83).
in(147, 84).
in(147, 86).
in(147, 88).
in(147, 89).
in(147, 91).
in(147, 94).
in(147, 95).
in(147, 96).
in(147, 99).
in(147, 100).
in(147, 101).
in(147, 103).
in(147, 105).
in(147, 106).
in(147, 112).
in(147, 114).
in(147, 118).
in(147, 119).
in(147, 120).
in(147, 123).
in(147, 124).
in(147, 125).
in(147, 126).
in(147, 127).
in(148, 1).
in(148, 2).
in(148, 5).
in(148, 6).
in(148, 7).
in(148, 8).
in(148, 10).
in(148, 11).
in(148, 12).
in(148, 15).
in(148, 19).
in(148, 20).
in(148, 21).
in(148, 28).
in(148, 30).
in(148, 31).
in(148, 33).
in(148, 37).
in(148, 38).
in(148, 39).
in(148, 40).
in(148, 44).
in(148, 47).
in(148, 48).
in(148, 49).
in(148, 52).
in(148, 54).
in(148, 56).
in(148, 58).
in(148, 60).
in(148, 61).
in(148, 62).
in(148, 63).
in(148, 65).
in(148, 66).
in(148, 69).
in(148, 72).
in(148, 75).
in(148, 76).
in(148, 80).
in(148, 82).
in(148, 84).
in(148, 86).
in(148, 88).
in(148, 89).
in(148, 93).
in(148, 94).
in(148, 96).
in(148, 97).
in(148, 99).
in(148, 102).
in(148, 105).
in(148, 106).
in(148, 107).
in(148, 108).
in(148, 110).
in(148, 111).
in(148, 113).
in(148, 114).
in(148, 115).
in(148, 117).
in(148, 118).
in(148, 120).
in(148, 121).
in(148, 126).
in(148, 127).
in(149, 1).
in(149, 2).
in(149, 3).
in(149, 4).
in(149, 129).
in(149, 6).
in(149, 7).
in(149, 9).
in(149, 13).
in(149, 14).
in(149, 15).
in(149, 17).
in(149, 18).
in(149, 19).
in(149, 20).
in(149, 21).
in(149, 22).
in(149, 23).
in(149, 24).
in(149, 30).
in(149, 32).
in(149, 34).
in(149, 36).
in(149, 39).
in(149, 41).
in(149, 43).
in(149, 44).
in(149, 45).
in(149, 46).
in(149, 49).
in(149, 50).
in(149, 51).
in(149, 52).
in(149, 53).
in(149, 57).
in(149, 59).
in(149, 62).
in(149, 63).
in(149, 64).
in(149, 68).
in(149, 70).
in(149, 71).
in(149, 73).
in(149, 76).
in(149, 78).
in(149, 79).
in(149, 80).
in(149, 81).
in(149, 85).
in(149, 87).
in(149, 89).
in(149, 90).
in(149, 92).
in(149, 93).
in(149, 94).
in(149, 95).
in(149, 97).
in(149, 98).
in(149, 103).
in(149, 104).
in(149, 106).
in(149, 107).
in(149, 109).
in(149, 111).
in(149, 114).
in(149, 116).
in(149, 122).
in(149, 123).
in(149, 124).
in(149, 125).
in(150, 128).
in(150, 3).
in(150, 5).
in(150, 9).
in(150, 10).
in(150, 13).
in(150, 14).
in(150, 16).
in(150, 19).
in(150, 22).
in(150, 26).
in(150, 27).
in(150, 29).
in(150, 31).
in(150, 32).
in(150, 33).
in(150, 34).
in(150, 36).
in(150, 37).
in(150, 38).
in(150, 39).
in(150, 42).
in(150, 44).
in(150, 45).
in(150, 46).
in(150, 49).
in(150, 51).
in(150, 57).
in(150, 59).
in(150, 60).
in(150, 61).
in(150, 66).
in(150, 68).
in(150, 70).
in(150, 71).
in(150, 72).
in(150, 73).
in(150, 75).
in(150, 76).
in(150, 77).
in(150, 78).
in(150, 80).
in(150, 87).
in(150, 90).
in(150, 91).
in(150, 93).
in(150, 95).
in(150, 96).
in(150, 98).
in(150, 101).
in(150, 103).
in(150, 104).
in(150, 105).
in(150, 106).
in(150, 108).
in(150, 109).
in(150, 110).
in(150, 111).
in(150, 113).
in(150, 117).
in(150, 122).
in(150, 124).
in(150, 125).
in(150, 127).
in(151, 128).
in(151, 3).
in(151, 4).
in(151, 6).
in(151, 7).
in(151, 8).
in(151, 9).
in(151, 12).
in(151, 13).
in(151, 14).
in(151, 18).
in(151, 19).
in(151, 20).
in(151, 21).
in(151, 22).
in(151, 24).
in(151, 26).
in(151, 28).
in(151, 29).
in(151, 30).
in(151, 31).
in(151, 33).
in(151, 34).
in(151, 35).
in(151, 36).
in(151, 40).
in(151, 41).
in(151, 44).
in(151, 46).
in(151, 47).
in(151, 51).
in(151, 53).
in(151, 56).
in(151, 59).
in(151, 61).
in(151, 62).
in(151, 63).
in(151, 64).
in(151, 65).
in(151, 67).
in(151, 68).
in(151, 70).
in(151, 74).
in(151, 77).
in(151, 79).
in(151, 80).
in(151, 82).
in(151, 83).
in(151, 85).
in(151, 86).
in(151, 87).
in(151, 90).
in(151, 91).
in(151, 93).
in(151, 94).
in(151, 96).
in(151, 97).
in(151, 100).
in(151, 104).
in(151, 110).
in(151, 113).
in(151, 115).
in(151, 116).
in(151, 117).
in(151, 121).
in(151, 123).
in(151, 124).
in(151, 127).
in(152, 128).
in(152, 129).
in(152, 4).
in(152, 5).
in(152, 6).
in(152, 7).
in(152, 9).
in(152, 10).
in(152, 15).
in(152, 17).
in(152, 19).
in(152, 20).
in(152, 22).
in(152, 24).
in(152, 25).
in(152, 27).
in(152, 28).
in(152, 29).
in(152, 34).
in(152, 35).
in(152, 36).
in(152, 39).
in(152, 40).
in(152, 41).
in(152, 42).
in(152, 44).
in(152, 45).
in(152, 49).
in(152, 50).
in(152, 51).
in(152, 52).
in(152, 53).
in(152, 54).
in(152, 55).
in(152, 57).
in(152, 58).
in(152, 59).
in(152, 62).
in(152, 63).
in(152, 64).
in(152, 66).
in(152, 68).
in(152, 74).
in(152, 77).
in(152, 78).
in(152, 79).
in(152, 80).
in(152, 82).
in(152, 83).
in(152, 84).
in(152, 85).
in(152, 87).
in(152, 89).
in(152, 92).
in(152, 93).
in(152, 94).
in(152, 100).
in(152, 102).
in(152, 103).
in(152, 104).
in(152, 107).
in(152, 108).
in(152, 109).
in(152, 110).
in(152, 111).
in(152, 113).
in(152, 114).
in(152, 115).
in(152, 122).
in(152, 125).
in(152, 127).
in(153, 128).
in(153, 129).
in(153, 2).
in(153, 10).
in(153, 11).
in(153, 12).
in(153, 13).
in(153, 17).
in(153, 19).
in(153, 20).
in(153, 21).
in(153, 24).
in(153, 25).
in(153, 30).
in(153, 31).
in(153, 33).
in(153, 34).
in(153, 35).
in(153, 38).
in(153, 39).
in(153, 40).
in(153, 41).
in(153, 42).
in(153, 44).
in(153, 46).
in(153, 48).
in(153, 49).
in(153, 50).
in(153, 51).
in(153, 53).
in(153, 54).
in(153, 55).
in(153, 56).
in(153, 58).
in(153, 60).
in(153, 61).
in(153, 65).
in(153, 69).
in(153, 71).
in(153, 76).
in(153, 78).
in(153, 79).
in(153, 81).
in(153, 82).
in(153, 84).
in(153, 85).
in(153, 86).
in(153, 88).
in(153, 92).
in(153, 93).
in(153, 95).
in(153, 96).
in(153, 97).
in(153, 98).
in(153, 99).
in(153, 100).
in(153, 103).
in(153, 107).
in(153, 110).
in(153, 112).
in(153, 117).
in(153, 120).
in(153, 121).
in(153, 122).
in(153, 123).
in(153, 125).
in(154, 128).
in(154, 2).
in(154, 4).
in(154, 7).
in(154, 8).
in(154, 11).
in(154, 12).
in(154, 13).
in(154, 14).
in(154, 18).
in(154, 19).
in(154, 20).
in(154, 24).
in(154, 25).
in(154, 27).
in(154, 30).
in(154, 33).
in(154, 35).
in(154, 36).
in(154, 37).
in(154, 39).
in(154, 42).
in(154, 43).
in(154, 44).
in(154, 47).
in(154, 48).
in(154, 51).
in(154, 53).
in(154, 54).
in(154, 57).
in(154, 58).
in(154, 60).
in(154, 61).
in(154, 62).
in(154, 64).
in(154, 65).
in(154, 66).
in(154, 75).
in(154, 76).
in(154, 77).
in(154, 78).
in(154, 81).
in(154, 82).
in(154, 83).
in(154, 84).
in(154, 86).
in(154, 87).
in(154, 88).
in(154, 90).
in(154, 91).
in(154, 93).
in(154, 94).
in(154, 96).
in(154, 97).
in(154, 98).
in(154, 101).
in(154, 102).
in(154, 105).
in(154, 106).
in(154, 109).
in(154, 110).
in(154, 112).
in(154, 113).
in(154, 114).
in(154, 116).
in(154, 118).
in(154, 121).
in(154, 122).
in(154, 123).
in(154, 127).
in(155, 128).
in(155, 1).
in(155, 2).
in(155, 129).
in(155, 4).
in(155, 8).
in(155, 10).
in(155, 11).
in(155, 14).
in(155, 16).
in(155, 17).
in(155, 22).
in(155, 26).
in(155, 27).
in(155, 28).
in(155, 30).
in(155, 31).
in(155, 32).
in(155, 34).
in(155, 35).
in(155, 36).
in(155, 37).
in(155, 38).
in(155, 40).
in(155, 42).
in(155, 44).
in(155, 46).
in(155, 47).
in(155, 49).
in(155, 50).
in(155, 52).
in(155, 53).
in(155, 55).
in(155, 56).
in(155, 59).
in(155, 63).
in(155, 64).
in(155, 65).
in(155, 66).
in(155, 68).
in(155, 71).
in(155, 72).
in(155, 75).
in(155, 76).
in(155, 79).
in(155, 83).
in(155, 84).
in(155, 89).
in(155, 91).
in(155, 96).
in(155, 97).
in(155, 99).
in(155, 102).
in(155, 103).
in(155, 104).
in(155, 105).
in(155, 106).
in(155, 107).
in(155, 108).
in(155, 109).
in(155, 110).
in(155, 112).
in(155, 113).
in(155, 114).
in(155, 116).
in(155, 119).
in(155, 121).
in(155, 122).
in(155, 126).
in(155, 127).
in(156, 128).
in(156, 129).
in(156, 2).
in(156, 3).
in(156, 4).
in(156, 5).
in(156, 6).
in(156, 9).
in(156, 11).
in(156, 13).
in(156, 14).
in(156, 17).
in(156, 20).
in(156, 22).
in(156, 24).
in(156, 25).
in(156, 26).
in(156, 27).
in(156, 30).
in(156, 34).
in(156, 35).
in(156, 36).
in(156, 38).
in(156, 39).
in(156, 43).
in(156, 44).
in(156, 46).
in(156, 48).
in(156, 52).
in(156, 53).
in(156, 58).
in(156, 59).
in(156, 60).
in(156, 63).
in(156, 64).
in(156, 65).
in(156, 71).
in(156, 72).
in(156, 75).
in(156, 77).
in(156, 79).
in(156, 81).
in(156, 83).
in(156, 84).
in(156, 87).
in(156, 89).
in(156, 90).
in(156, 92).
in(156, 96).
in(156, 99).
in(156, 100).
in(156, 104).
in(156, 108).
in(156, 109).
in(156, 110).
in(156, 111).
in(156, 112).
in(156, 113).
in(156, 115).
in(156, 117).
in(156, 118).
in(156, 119).
in(156, 120).
in(156, 121).
in(156, 127).
in(157, 128).
in(157, 1).
in(157, 2).
in(157, 3).
in(157, 129).
in(157, 5).
in(157, 7).
in(157, 9).
in(157, 10).
in(157, 11).
in(157, 13).
in(157, 15).
in(157, 17).
in(157, 18).
in(157, 19).
in(157, 23).
in(157, 24).
in(157, 25).
in(157, 27).
in(157, 28).
in(157, 29).
in(157, 31).
in(157, 32).
in(157, 36).
in(157, 37).
in(157, 38).
in(157, 45).
in(157, 46).
in(157, 50).
in(157, 51).
in(157, 57).
in(157, 59).
in(157, 62).
in(157, 63).
in(157, 64).
in(157, 65).
in(157, 66).
in(157, 67).
in(157, 69).
in(157, 70).
in(157, 71).
in(157, 72).
in(157, 73).
in(157, 75).
in(157, 76).
in(157, 78).
in(157, 80).
in(157, 83).
in(157, 84).
in(157, 86).
in(157, 91).
in(157, 99).
in(157, 101).
in(157, 102).
in(157, 104).
in(157, 105).
in(157, 107).
in(157, 108).
in(157, 112).
in(157, 113).
in(157, 115).
in(157, 117).
in(157, 119).
in(157, 122).
in(157, 123).
in(157, 124).
in(157, 125).
in(157, 126).
in(157, 127).
in(158, 128).
in(158, 1).
in(158, 9).
in(158, 11).
in(158, 12).
in(158, 14).
in(158, 15).
in(158, 16).
in(158, 26).
in(158, 28).
in(158, 32).
in(158, 33).
in(158, 34).
in(158, 35).
in(158, 36).
in(158, 37).
in(158, 40).
in(158, 42).
in(158, 43).
in(158, 44).
in(158, 46).
in(158, 47).
in(158, 49).
in(158, 51).
in(158, 53).
in(158, 54).
in(158, 55).
in(158, 57).
in(158, 58).
in(158, 60).
in(158, 66).
in(158, 67).
in(158, 70).
in(158, 74).
in(158, 80).
in(158, 81).
in(158, 82).
in(158, 83).
in(158, 85).
in(158, 86).
in(158, 89).
in(158, 92).
in(158, 93).
in(158, 94).
in(158, 95).
in(158, 96).
in(158, 97).
in(158, 98).
in(158, 100).
in(158, 101).
in(158, 105).
in(158, 106).
in(158, 107).
in(158, 108).
in(158, 109).
in(158, 114).
in(158, 116).
in(158, 118).
in(158, 122).
in(158, 124).
in(158, 126).
in(159, 4).
in(159, 5).
in(159, 7).
in(159, 9).
in(159, 11).
in(159, 14).
in(159, 15).
in(159, 16).
in(159, 17).
in(159, 18).
in(159, 19).
in(159, 22).
in(159, 27).
in(159, 30).
in(159, 31).
in(159, 33).
in(159, 34).
in(159, 37).
in(159, 38).
in(159, 39).
in(159, 41).
in(159, 42).
in(159, 44).
in(159, 45).
in(159, 46).
in(159, 47).
in(159, 48).
in(159, 50).
in(159, 51).
in(159, 52).
in(159, 53).
in(159, 56).
in(159, 58).
in(159, 59).
in(159, 64).
in(159, 66).
in(159, 70).
in(159, 72).
in(159, 74).
in(159, 75).
in(159, 78).
in(159, 79).
in(159, 80).
in(159, 81).
in(159, 82).
in(159, 83).
in(159, 85).
in(159, 86).
in(159, 88).
in(159, 89).
in(159, 92).
in(159, 93).
in(159, 95).
in(159, 96).
in(159, 98).
in(159, 100).
in(159, 103).
in(159, 104).
in(159, 105).
in(159, 107).
in(159, 108).
in(159, 110).
in(159, 114).
in(159, 117).
in(159, 118).
in(159, 120).
in(159, 122).
in(159, 124).
in(159, 127).
in(160, 1).
in(160, 2).
in(160, 3).
in(160, 5).
in(160, 10).
in(160, 11).
in(160, 14).
in(160, 15).
in(160, 17).
in(160, 18).
in(160, 20).
in(160, 21).
in(160, 22).
in(160, 25).
in(160, 26).
in(160, 27).
in(160, 28).
in(160, 34).
in(160, 37).
in(160, 39).
in(160, 40).
in(160, 41).
in(160, 47).
in(160, 51).
in(160, 54).
in(160, 58).
in(160, 59).
in(160, 60).
in(160, 62).
in(160, 63).
in(160, 65).
in(160, 66).
in(160, 68).
in(160, 69).
in(160, 71).
in(160, 73).
in(160, 74).
in(160, 75).
in(160, 76).
in(160, 77).
in(160, 78).
in(160, 81).
in(160, 83).
in(160, 85).
in(160, 86).
in(160, 88).
in(160, 89).
in(160, 91).
in(160, 99).
in(160, 100).
in(160, 101).
in(160, 102).
in(160, 103).
in(160, 104).
in(160, 105).
in(160, 107).
in(160, 108).
in(160, 109).
in(160, 114).
in(160, 116).
in(160, 117).
in(160, 118).
in(160, 121).
in(160, 122).
in(160, 124).
in(160, 126).
in(160, 127).
in(161, 1).
in(161, 2).
in(161, 129).
in(161, 4).
in(161, 5).
in(161, 7).
in(161, 8).
in(161, 12).
in(161, 13).
in(161, 14).
in(161, 15).
in(161, 16).
in(161, 17).
in(161, 18).
in(161, 19).
in(161, 20).
in(161, 21).
in(161, 22).
in(161, 27).
in(161, 29).
in(161, 32).
in(161, 35).
in(161, 37).
in(161, 39).
in(161, 40).
in(161, 41).
in(161, 44).
in(161, 46).
in(161, 47).
in(161, 50).
in(161, 53).
in(161, 54).
in(161, 57).
in(161, 58).
in(161, 59).
in(161, 61).
in(161, 62).
in(161, 64).
in(161, 65).
in(161, 66).
in(161, 67).
in(161, 70).
in(161, 72).
in(161, 74).
in(161, 75).
in(161, 76).
in(161, 80).
in(161, 85).
in(161, 86).
in(161, 87).
in(161, 88).
in(161, 90).
in(161, 94).
in(161, 96).
in(161, 101).
in(161, 102).
in(161, 104).
in(161, 105).
in(161, 109).
in(161, 110).
in(161, 111).
in(161, 112).
in(161, 113).
in(161, 114).
in(161, 115).
in(161, 117).
in(161, 118).
in(161, 121).
in(161, 125).
in(162, 128).
in(162, 129).
in(162, 4).
in(162, 5).
in(162, 6).
in(162, 7).
in(162, 8).
in(162, 14).
in(162, 15).
in(162, 18).
in(162, 21).
in(162, 22).
in(162, 23).
in(162, 25).
in(162, 26).
in(162, 28).
in(162, 31).
in(162, 33).
in(162, 34).
in(162, 37).
in(162, 41).
in(162, 44).
in(162, 45).
in(162, 46).
in(162, 47).
in(162, 48).
in(162, 50).
in(162, 51).
in(162, 53).
in(162, 55).
in(162, 59).
in(162, 62).
in(162, 64).
in(162, 67).
in(162, 68).
in(162, 70).
in(162, 72).
in(162, 74).
in(162, 75).
in(162, 77).
in(162, 78).
in(162, 79).
in(162, 85).
in(162, 86).
in(162, 90).
in(162, 94).
in(162, 96).
in(162, 97).
in(162, 100).
in(162, 101).
in(162, 102).
in(162, 103).
in(162, 105).
in(162, 109).
in(162, 110).
in(162, 111).
in(162, 112).
in(162, 115).
in(162, 117).
in(162, 119).
in(162, 121).
in(162, 123).
in(162, 124).
in(162, 126).
in(163, 128).
in(163, 3).
in(163, 4).
in(163, 6).
in(163, 9).
in(163, 11).
in(163, 14).
in(163, 16).
in(163, 22).
in(163, 23).
in(163, 25).
in(163, 27).
in(163, 28).
in(163, 29).
in(163, 30).
in(163, 31).
in(163, 32).
in(163, 35).
in(163, 36).
in(163, 39).
in(163, 41).
in(163, 43).
in(163, 45).
in(163, 46).
in(163, 47).
in(163, 48).
in(163, 49).
in(163, 50).
in(163, 52).
in(163, 53).
in(163, 54).
in(163, 55).
in(163, 57).
in(163, 60).
in(163, 63).
in(163, 66).
in(163, 67).
in(163, 69).
in(163, 70).
in(163, 72).
in(163, 73).
in(163, 75).
in(163, 78).
in(163, 79).
in(163, 81).
in(163, 83).
in(163, 84).
in(163, 86).
in(163, 87).
in(163, 89).
in(163, 91).
in(163, 92).
in(163, 95).
in(163, 96).
in(163, 99).
in(163, 101).
in(163, 102).
in(163, 103).
in(163, 106).
in(163, 107).
in(163, 111).
in(163, 114).
in(163, 115).
in(163, 116).
in(163, 117).
in(163, 123).
in(163, 126).
in(164, 128).
in(164, 2).
in(164, 3).
in(164, 4).
in(164, 5).
in(164, 6).
in(164, 7).
in(164, 8).
in(164, 9).
in(164, 10).
in(164, 13).
in(164, 14).
in(164, 15).
in(164, 16).
in(164, 18).
in(164, 22).
in(164, 23).
in(164, 25).
in(164, 27).
in(164, 28).
in(164, 30).
in(164, 34).
in(164, 38).
in(164, 40).
in(164, 41).
in(164, 45).
in(164, 46).
in(164, 48).
in(164, 50).
in(164, 52).
in(164, 53).
in(164, 55).
in(164, 59).
in(164, 60).
in(164, 61).
in(164, 63).
in(164, 66).
in(164, 72).
in(164, 74).
in(164, 76).
in(164, 78).
in(164, 79).
in(164, 80).
in(164, 82).
in(164, 86).
in(164, 88).
in(164, 89).
in(164, 91).
in(164, 92).
in(164, 95).
in(164, 97).
in(164, 100).
in(164, 102).
in(164, 104).
in(164, 107).
in(164, 108).
in(164, 109).
in(164, 111).
in(164, 113).
in(164, 115).
in(164, 116).
in(164, 117).
in(164, 121).
in(164, 123).
in(164, 124).
in(164, 125).
in(165, 2).
in(165, 3).
in(165, 8).
in(165, 10).
in(165, 11).
in(165, 12).
in(165, 13).
in(165, 14).
in(165, 18).
in(165, 20).
in(165, 21).
in(165, 22).
in(165, 23).
in(165, 25).
in(165, 26).
in(165, 27).
in(165, 28).
in(165, 29).
in(165, 30).
in(165, 31).
in(165, 32).
in(165, 35).
in(165, 36).
in(165, 37).
in(165, 41).
in(165, 43).
in(165, 45).
in(165, 46).
in(165, 51).
in(165, 53).
in(165, 54).
in(165, 58).
in(165, 59).
in(165, 60).
in(165, 61).
in(165, 68).
in(165, 69).
in(165, 70).
in(165, 71).
in(165, 73).
in(165, 74).
in(165, 76).
in(165, 77).
in(165, 79).
in(165, 80).
in(165, 83).
in(165, 84).
in(165, 87).
in(165, 88).
in(165, 90).
in(165, 91).
in(165, 93).
in(165, 96).
in(165, 97).
in(165, 98).
in(165, 100).
in(165, 101).
in(165, 103).
in(165, 105).
in(165, 107).
in(165, 108).
in(165, 111).
in(165, 112).
in(165, 116).
in(165, 117).
in(165, 120).
in(165, 121).
in(165, 123).
in(165, 124).
in(166, 128).
in(166, 1).
in(166, 2).
in(166, 3).
in(166, 4).
in(166, 5).
in(166, 129).
in(166, 7).
in(166, 8).
in(166, 9).
in(166, 10).
in(166, 12).
in(166, 15).
in(166, 16).
in(166, 22).
in(166, 25).
in(166, 26).
in(166, 28).
in(166, 29).
in(166, 30).
in(166, 31).
in(166, 33).
in(166, 35).
in(166, 36).
in(166, 38).
in(166, 44).
in(166, 47).
in(166, 49).
in(166, 51).
in(166, 53).
in(166, 54).
in(166, 56).
in(166, 60).
in(166, 62).
in(166, 65).
in(166, 68).
in(166, 69).
in(166, 70).
in(166, 74).
in(166, 75).
in(166, 77).
in(166, 78).
in(166, 79).
in(166, 81).
in(166, 82).
in(166, 86).
in(166, 87).
in(166, 90).
in(166, 91).
in(166, 93).
in(166, 95).
in(166, 97).
in(166, 98).
in(166, 100).
in(166, 101).
in(166, 104).
in(166, 105).
in(166, 106).
in(166, 107).
in(166, 109).
in(166, 110).
in(166, 112).
in(166, 116).
in(166, 121).
in(166, 122).
in(166, 124).
in(166, 126).
in(167, 128).
in(167, 3).
in(167, 4).
in(167, 6).
in(167, 8).
in(167, 11).
in(167, 15).
in(167, 16).
in(167, 17).
in(167, 18).
in(167, 20).
in(167, 22).
in(167, 23).
in(167, 24).
in(167, 32).
in(167, 33).
in(167, 36).
in(167, 37).
in(167, 38).
in(167, 39).
in(167, 40).
in(167, 42).
in(167, 43).
in(167, 45).
in(167, 46).
in(167, 50).
in(167, 51).
in(167, 54).
in(167, 55).
in(167, 56).
in(167, 57).
in(167, 58).
in(167, 59).
in(167, 60).
in(167, 61).
in(167, 63).
in(167, 65).
in(167, 66).
in(167, 69).
in(167, 73).
in(167, 76).
in(167, 78).
in(167, 79).
in(167, 80).
in(167, 82).
in(167, 83).
in(167, 84).
in(167, 87).
in(167, 89).
in(167, 90).
in(167, 91).
in(167, 92).
in(167, 93).
in(167, 95).
in(167, 100).
in(167, 102).
in(167, 103).
in(167, 104).
in(167, 107).
in(167, 111).
in(167, 112).
in(167, 113).
in(167, 116).
in(167, 118).
in(167, 119).
in(167, 121).
in(168, 128).
in(168, 1).
in(168, 2).
in(168, 3).
in(168, 5).
in(168, 6).
in(168, 7).
in(168, 8).
in(168, 11).
in(168, 13).
in(168, 15).
in(168, 17).
in(168, 18).
in(168, 19).
in(168, 20).
in(168, 21).
in(168, 25).
in(168, 27).
in(168, 30).
in(168, 34).
in(168, 37).
in(168, 38).
in(168, 39).
in(168, 42).
in(168, 43).
in(168, 46).
in(168, 47).
in(168, 50).
in(168, 51).
in(168, 52).
in(168, 53).
in(168, 56).
in(168, 57).
in(168, 60).
in(168, 61).
in(168, 62).
in(168, 63).
in(168, 64).
in(168, 67).
in(168, 70).
in(168, 71).
in(168, 72).
in(168, 76).
in(168, 78).
in(168, 81).
in(168, 82).
in(168, 83).
in(168, 84).
in(168, 87).
in(168, 88).
in(168, 90).
in(168, 92).
in(168, 94).
in(168, 95).
in(168, 96).
in(168, 99).
in(168, 102).
in(168, 103).
in(168, 106).
in(168, 112).
in(168, 113).
in(168, 115).
in(168, 116).
in(168, 117).
in(168, 119).
in(168, 120).
in(168, 122).
in(168, 124).
in(168, 125).
in(168, 126).
in(168, 127).
in(169, 128).
in(169, 1).
in(169, 2).
in(169, 3).
in(169, 129).
in(169, 7).
in(169, 8).
in(169, 9).
in(169, 10).
in(169, 14).
in(169, 15).
in(169, 18).
in(169, 22).
in(169, 24).
in(169, 25).
in(169, 26).
in(169, 27).
in(169, 29).
in(169, 31).
in(169, 39).
in(169, 40).
in(169, 43).
in(169, 44).
in(169, 45).
in(169, 46).
in(169, 48).
in(169, 53).
in(169, 54).
in(169, 55).
in(169, 56).
in(169, 57).
in(169, 58).
in(169, 59).
in(169, 60).
in(169, 61).
in(169, 63).
in(169, 67).
in(169, 68).
in(169, 70).
in(169, 72).
in(169, 74).
in(169, 76).
in(169, 77).
in(169, 79).
in(169, 83).
in(169, 85).
in(169, 86).
in(169, 87).
in(169, 89).
in(169, 90).
in(169, 91).
in(169, 92).
in(169, 93).
in(169, 95).
in(169, 101).
in(169, 102).
in(169, 103).
in(169, 105).
in(169, 106).
in(169, 107).
in(169, 108).
in(169, 112).
in(169, 113).
in(169, 115).
in(169, 116).
in(169, 117).
in(169, 118).
in(169, 120).
in(169, 121).
in(169, 123).
in(169, 125).
in(169, 126).
in(169, 127).
in(170, 128).
in(170, 1).
in(170, 129).
in(170, 3).
in(170, 4).
in(170, 5).
in(170, 8).
in(170, 9).
in(170, 10).
in(170, 12).
in(170, 16).
in(170, 18).
in(170, 20).
in(170, 25).
in(170, 26).
in(170, 29).
in(170, 32).
in(170, 33).
in(170, 34).
in(170, 35).
in(170, 36).
in(170, 37).
in(170, 38).
in(170, 39).
in(170, 40).
in(170, 41).
in(170, 42).
in(170, 43).
in(170, 48).
in(170, 49).
in(170, 50).
in(170, 52).
in(170, 54).
in(170, 56).
in(170, 58).
in(170, 62).
in(170, 63).
in(170, 64).
in(170, 65).
in(170, 66).
in(170, 67).
in(170, 68).
in(170, 69).
in(170, 70).
in(170, 75).
in(170, 77).
in(170, 78).
in(170, 79).
in(170, 81).
in(170, 83).
in(170, 84).
in(170, 85).
in(170, 86).
in(170, 87).
in(170, 88).
in(170, 90).
in(170, 94).
in(170, 99).
in(170, 100).
in(170, 102).
in(170, 103).
in(170, 106).
in(170, 109).
in(170, 110).
in(170, 113).
in(170, 114).
in(170, 117).
in(170, 119).
in(170, 122).
in(170, 123).
in(170, 125).
in(171, 128).
in(171, 1).
in(171, 2).
in(171, 129).
in(171, 8).
in(171, 11).
in(171, 19).
in(171, 20).
in(171, 21).
in(171, 22).
in(171, 24).
in(171, 26).
in(171, 27).
in(171, 28).
in(171, 29).
in(171, 32).
in(171, 34).
in(171, 35).
in(171, 36).
in(171, 37).
in(171, 40).
in(171, 41).
in(171, 42).
in(171, 44).
in(171, 46).
in(171, 47).
in(171, 48).
in(171, 49).
in(171, 51).
in(171, 52).
in(171, 54).
in(171, 59).
in(171, 60).
in(171, 61).
in(171, 62).
in(171, 66).
in(171, 67).
in(171, 69).
in(171, 70).
in(171, 73).
in(171, 74).
in(171, 78).
in(171, 82).
in(171, 83).
in(171, 87).
in(171, 91).
in(171, 92).
in(171, 93).
in(171, 94).
in(171, 97).
in(171, 98).
in(171, 100).
in(171, 102).
in(171, 103).
in(171, 104).
in(171, 105).
in(171, 107).
in(171, 109).
in(171, 110).
in(171, 112).
in(171, 113).
in(171, 114).
in(171, 116).
in(171, 121).
in(171, 122).
in(171, 123).
in(171, 124).
in(171, 126).
in(172, 1).
in(172, 2).
in(172, 6).
in(172, 7).
in(172, 10).
in(172, 11).
in(172, 12).
in(172, 13).
in(172, 16).
in(172, 17).
in(172, 18).
in(172, 22).
in(172, 25).
in(172, 33).
in(172, 34).
in(172, 37).
in(172, 38).
in(172, 42).
in(172, 43).
in(172, 45).
in(172, 46).
in(172, 47).
in(172, 48).
in(172, 49).
in(172, 53).
in(172, 54).
in(172, 55).
in(172, 56).
in(172, 58).
in(172, 60).
in(172, 64).
in(172, 65).
in(172, 67).
in(172, 77).
in(172, 80).
in(172, 81).
in(172, 82).
in(172, 83).
in(172, 84).
in(172, 85).
in(172, 87).
in(172, 88).
in(172, 89).
in(172, 90).
in(172, 92).
in(172, 94).
in(172, 96).
in(172, 97).
in(172, 101).
in(172, 105).
in(172, 107).
in(172, 109).
in(172, 112).
in(172, 113).
in(172, 114).
in(172, 117).
in(172, 119).
in(172, 121).
in(172, 122).
in(172, 123).
in(172, 127).
in(173, 1).
in(173, 2).
in(173, 6).
in(173, 7).
in(173, 9).
in(173, 10).
in(173, 11).
in(173, 13).
in(173, 14).
in(173, 15).
in(173, 16).
in(173, 18).
in(173, 20).
in(173, 21).
in(173, 23).
in(173, 25).
in(173, 28).
in(173, 30).
in(173, 34).
in(173, 36).
in(173, 37).
in(173, 38).
in(173, 39).
in(173, 40).
in(173, 41).
in(173, 43).
in(173, 45).
in(173, 46).
in(173, 54).
in(173, 55).
in(173, 56).
in(173, 57).
in(173, 58).
in(173, 63).
in(173, 64).
in(173, 69).
in(173, 72).
in(173, 73).
in(173, 75).
in(173, 77).
in(173, 79).
in(173, 82).
in(173, 84).
in(173, 85).
in(173, 89).
in(173, 91).
in(173, 92).
in(173, 93).
in(173, 97).
in(173, 104).
in(173, 105).
in(173, 106).
in(173, 107).
in(173, 108).
in(173, 109).
in(173, 112).
in(173, 113).
in(173, 114).
in(173, 115).
in(173, 119).
in(173, 122).
in(173, 123).
in(173, 124).
in(173, 125).
in(173, 126).
in(174, 128).
in(174, 2).
in(174, 5).
in(174, 6).
in(174, 7).
in(174, 9).
in(174, 12).
in(174, 13).
in(174, 14).
in(174, 15).
in(174, 16).
in(174, 22).
in(174, 25).
in(174, 38).
in(174, 39).
in(174, 40).
in(174, 41).
in(174, 42).
in(174, 44).
in(174, 47).
in(174, 48).
in(174, 49).
in(174, 50).
in(174, 52).
in(174, 53).
in(174, 54).
in(174, 56).
in(174, 58).
in(174, 63).
in(174, 65).
in(174, 66).
in(174, 67).
in(174, 68).
in(174, 70).
in(174, 71).
in(174, 73).
in(174, 74).
in(174, 75).
in(174, 77).
in(174, 78).
in(174, 79).
in(174, 81).
in(174, 84).
in(174, 85).
in(174, 88).
in(174, 89).
in(174, 95).
in(174, 99).
in(174, 100).
in(174, 101).
in(174, 103).
in(174, 107).
in(174, 110).
in(174, 113).
in(174, 115).
in(174, 116).
in(174, 118).
in(174, 120).
in(174, 121).
in(174, 124).
in(174, 125).
in(175, 128).
in(175, 129).
in(175, 2).
in(175, 3).
in(175, 5).
in(175, 7).
in(175, 10).
in(175, 11).
in(175, 13).
in(175, 14).
in(175, 15).
in(175, 19).
in(175, 20).
in(175, 23).
in(175, 28).
in(175, 29).
in(175, 30).
in(175, 32).
in(175, 36).
in(175, 37).
in(175, 38).
in(175, 42).
in(175, 43).
in(175, 44).
in(175, 45).
in(175, 48).
in(175, 49).
in(175, 50).
in(175, 51).
in(175, 55).
in(175, 56).
in(175, 59).
in(175, 60).
in(175, 62).
in(175, 64).
in(175, 66).
in(175, 69).
in(175, 71).
in(175, 74).
in(175, 76).
in(175, 78).
in(175, 81).
in(175, 85).
in(175, 86).
in(175, 88).
in(175, 89).
in(175, 92).
in(175, 93).
in(175, 95).
in(175, 99).
in(175, 100).
in(175, 103).
in(175, 105).
in(175, 106).
in(175, 109).
in(175, 111).
in(175, 112).
in(175, 113).
in(175, 114).
in(175, 116).
in(175, 117).
in(175, 118).
in(175, 119).
in(175, 123).
in(175, 124).
in(175, 126).
in(175, 127).
in(176, 128).
in(176, 3).
in(176, 4).
in(176, 6).
in(176, 10).
in(176, 11).
in(176, 12).
in(176, 16).
in(176, 18).
in(176, 19).
in(176, 21).
in(176, 22).
in(176, 23).
in(176, 28).
in(176, 30).
in(176, 31).
in(176, 32).
in(176, 38).
in(176, 39).
in(176, 41).
in(176, 42).
in(176, 44).
in(176, 46).
in(176, 48).
in(176, 51).
in(176, 52).
in(176, 53).
in(176, 54).
in(176, 55).
in(176, 56).
in(176, 59).
in(176, 61).
in(176, 62).
in(176, 63).
in(176, 64).
in(176, 65).
in(176, 66).
in(176, 67).
in(176, 70).
in(176, 75).
in(176, 76).
in(176, 79).
in(176, 81).
in(176, 87).
in(176, 90).
in(176, 91).
in(176, 92).
in(176, 94).
in(176, 95).
in(176, 98).
in(176, 99).
in(176, 100).
in(176, 101).
in(176, 103).
in(176, 104).
in(176, 106).
in(176, 107).
in(176, 108).
in(176, 110).
in(176, 111).
in(176, 112).
in(176, 115).
in(176, 116).
in(176, 119).
in(176, 122).
in(176, 123).
in(176, 124).
in(176, 125).
in(177, 2).
in(177, 5).
in(177, 8).
in(177, 11).
in(177, 14).
in(177, 16).
in(177, 21).
in(177, 22).
in(177, 23).
in(177, 27).
in(177, 28).
in(177, 29).
in(177, 30).
in(177, 32).
in(177, 33).
in(177, 34).
in(177, 40).
in(177, 46).
in(177, 48).
in(177, 49).
in(177, 50).
in(177, 51).
in(177, 53).
in(177, 55).
in(177, 57).
in(177, 58).
in(177, 63).
in(177, 65).
in(177, 66).
in(177, 67).
in(177, 68).
in(177, 71).
in(177, 72).
in(177, 74).
in(177, 75).
in(177, 76).
in(177, 79).
in(177, 80).
in(177, 83).
in(177, 85).
in(177, 88).
in(177, 90).
in(177, 91).
in(177, 93).
in(177, 96).
in(177, 98).
in(177, 99).
in(177, 103).
in(177, 104).
in(177, 109).
in(177, 110).
in(177, 112).
in(177, 113).
in(177, 114).
in(177, 119).
in(177, 120).
in(177, 121).
in(177, 125).
in(177, 127).
in(178, 128).
in(178, 1).
in(178, 129).
in(178, 4).
in(178, 7).
in(178, 11).
in(178, 12).
in(178, 16).
in(178, 18).
in(178, 22).
in(178, 24).
in(178, 25).
in(178, 26).
in(178, 27).
in(178, 30).
in(178, 31).
in(178, 33).
in(178, 34).
in(178, 38).
in(178, 40).
in(178, 41).
in(178, 42).
in(178, 43).
in(178, 44).
in(178, 46).
in(178, 49).
in(178, 50).
in(178, 53).
in(178, 57).
in(178, 58).
in(178, 60).
in(178, 61).
in(178, 62).
in(178, 65).
in(178, 66).
in(178, 70).
in(178, 71).
in(178, 72).
in(178, 73).
in(178, 77).
in(178, 79).
in(178, 81).
in(178, 82).
in(178, 83).
in(178, 87).
in(178, 88).
in(178, 89).
in(178, 91).
in(178, 92).
in(178, 94).
in(178, 96).
in(178, 97).
in(178, 99).
in(178, 100).
in(178, 103).
in(178, 104).
in(178, 107).
in(178, 112).
in(178, 115).
in(178, 116).
in(178, 119).
in(178, 122).
in(178, 123).
in(178, 126).
in(178, 127).
in(179, 1).
in(179, 2).
in(179, 3).
in(179, 129).
in(179, 8).
in(179, 11).
in(179, 12).
in(179, 13).
in(179, 14).
in(179, 15).
in(179, 16).
in(179, 18).
in(179, 20).
in(179, 23).
in(179, 24).
in(179, 25).
in(179, 27).
in(179, 30).
in(179, 31).
in(179, 33).
in(179, 34).
in(179, 35).
in(179, 39).
in(179, 40).
in(179, 41).
in(179, 42).
in(179, 43).
in(179, 44).
in(179, 45).
in(179, 46).
in(179, 47).
in(179, 48).
in(179, 52).
in(179, 53).
in(179, 55).
in(179, 56).
in(179, 62).
in(179, 63).
in(179, 64).
in(179, 67).
in(179, 68).
in(179, 69).
in(179, 71).
in(179, 75).
in(179, 76).
in(179, 77).
in(179, 82).
in(179, 83).
in(179, 86).
in(179, 88).
in(179, 89).
in(179, 91).
in(179, 94).
in(179, 97).
in(179, 103).
in(179, 104).
in(179, 105).
in(179, 107).
in(179, 108).
in(179, 109).
in(179, 110).
in(179, 111).
in(179, 112).
in(179, 117).
in(179, 118).
in(179, 119).
in(179, 121).
in(179, 122).
in(179, 123).
in(179, 125).
in(179, 126).
in(179, 127).
in(180, 129).
in(180, 2).
in(180, 6).
in(180, 9).
in(180, 10).
in(180, 12).
in(180, 16).
in(180, 17).
in(180, 18).
in(180, 19).
in(180, 21).
in(180, 22).
in(180, 24).
in(180, 27).
in(180, 28).
in(180, 35).
in(180, 39).
in(180, 40).
in(180, 41).
in(180, 43).
in(180, 47).
in(180, 48).
in(180, 52).
in(180, 55).
in(180, 57).
in(180, 60).
in(180, 62).
in(180, 63).
in(180, 65).
in(180, 66).
in(180, 67).
in(180, 68).
in(180, 69).
in(180, 70).
in(180, 71).
in(180, 72).
in(180, 73).
in(180, 74).
in(180, 77).
in(180, 78).
in(180, 79).
in(180, 80).
in(180, 81).
in(180, 83).
in(180, 85).
in(180, 91).
in(180, 93).
in(180, 94).
in(180, 96).
in(180, 97).
in(180, 99).
in(180, 100).
in(180, 101).
in(180, 103).
in(180, 112).
in(180, 114).
in(180, 115).
in(180, 118).
in(180, 119).
in(180, 120).
in(180, 121).
in(180, 123).
in(180, 124).
in(180, 125).
in(181, 128).
in(181, 129).
in(181, 2).
in(181, 3).
in(181, 5).
in(181, 9).
in(181, 11).
in(181, 18).
in(181, 19).
in(181, 21).
in(181, 22).
in(181, 26).
in(181, 28).
in(181, 29).
in(181, 31).
in(181, 32).
in(181, 34).
in(181, 35).
in(181, 36).
in(181, 39).
in(181, 41).
in(181, 42).
in(181, 44).
in(181, 45).
in(181, 46).
in(181, 48).
in(181, 50).
in(181, 51).
in(181, 52).
in(181, 53).
in(181, 56).
in(181, 62).
in(181, 64).
in(181, 72).
in(181, 76).
in(181, 77).
in(181, 78).
in(181, 79).
in(181, 80).
in(181, 82).
in(181, 84).
in(181, 86).
in(181, 87).
in(181, 95).
in(181, 97).
in(181, 98).
in(181, 100).
in(181, 103).
in(181, 104).
in(181, 107).
in(181, 108).
in(181, 110).
in(181, 112).
in(181, 118).
in(181, 119).
in(181, 124).
in(181, 125).
in(181, 126).
in(181, 127).
in(182, 1).
in(182, 2).
in(182, 3).
in(182, 4).
in(182, 5).
in(182, 8).
in(182, 10).
in(182, 11).
in(182, 15).
in(182, 16).
in(182, 17).
in(182, 18).
in(182, 19).
in(182, 21).
in(182, 22).
in(182, 25).
in(182, 27).
in(182, 28).
in(182, 29).
in(182, 31).
in(182, 32).
in(182, 35).
in(182, 36).
in(182, 37).
in(182, 41).
in(182, 42).
in(182, 43).
in(182, 46).
in(182, 47).
in(182, 49).
in(182, 54).
in(182, 55).
in(182, 56).
in(182, 57).
in(182, 58).
in(182, 60).
in(182, 63).
in(182, 64).
in(182, 65).
in(182, 66).
in(182, 68).
in(182, 70).
in(182, 72).
in(182, 73).
in(182, 75).
in(182, 76).
in(182, 77).
in(182, 80).
in(182, 81).
in(182, 82).
in(182, 83).
in(182, 91).
in(182, 92).
in(182, 94).
in(182, 95).
in(182, 98).
in(182, 99).
in(182, 102).
in(182, 103).
in(182, 104).
in(182, 105).
in(182, 106).
in(182, 108).
in(182, 111).
in(182, 112).
in(182, 113).
in(182, 114).
in(182, 115).
in(182, 117).
in(182, 119).
in(182, 120).
in(182, 121).
in(182, 122).
in(182, 124).
in(182, 126).
in(182, 127).
in(183, 128).
in(183, 1).
in(183, 2).
in(183, 3).
in(183, 4).
in(183, 129).
in(183, 6).
in(183, 8).
in(183, 10).
in(183, 17).
in(183, 21).
in(183, 22).
in(183, 23).
in(183, 25).
in(183, 27).
in(183, 30).
in(183, 31).
in(183, 32).
in(183, 33).
in(183, 35).
in(183, 36).
in(183, 39).
in(183, 40).
in(183, 41).
in(183, 42).
in(183, 45).
in(183, 46).
in(183, 47).
in(183, 48).
in(183, 49).
in(183, 50).
in(183, 51).
in(183, 52).
in(183, 53).
in(183, 57).
in(183, 58).
in(183, 59).
in(183, 60).
in(183, 61).
in(183, 63).
in(183, 68).
in(183, 70).
in(183, 73).
in(183, 74).
in(183, 77).
in(183, 78).
in(183, 80).
in(183, 81).
in(183, 84).
in(183, 87).
in(183, 89).
in(183, 90).
in(183, 93).
in(183, 94).
in(183, 95).
in(183, 96).
in(183, 100).
in(183, 102).
in(183, 107).
in(183, 110).
in(183, 111).
in(183, 114).
in(183, 115).
in(183, 116).
in(183, 117).
in(183, 120).
in(183, 122).
in(183, 123).
in(183, 124).
in(183, 125).
in(184, 1).
in(184, 2).
in(184, 3).
in(184, 4).
in(184, 5).
in(184, 6).
in(184, 7).
in(184, 8).
in(184, 129).
in(184, 10).
in(184, 11).
in(184, 13).
in(184, 14).
in(184, 16).
in(184, 18).
in(184, 19).
in(184, 20).
in(184, 24).
in(184, 27).
in(184, 29).
in(184, 30).
in(184, 31).
in(184, 32).
in(184, 38).
in(184, 41).
in(184, 43).
in(184, 44).
in(184, 45).
in(184, 49).
in(184, 50).
in(184, 51).
in(184, 52).
in(184, 57).
in(184, 60).
in(184, 62).
in(184, 64).
in(184, 65).
in(184, 66).
in(184, 67).
in(184, 68).
in(184, 69).
in(184, 70).
in(184, 71).
in(184, 73).
in(184, 74).
in(184, 75).
in(184, 76).
in(184, 78).
in(184, 79).
in(184, 80).
in(184, 82).
in(184, 83).
in(184, 84).
in(184, 86).
in(184, 90).
in(184, 91).
in(184, 92).
in(184, 93).
in(184, 95).
in(184, 96).
in(184, 98).
in(184, 99).
in(184, 102).
in(184, 103).
in(184, 106).
in(184, 108).
in(184, 109).
in(184, 111).
in(184, 112).
in(184, 113).
in(184, 114).
in(184, 115).
in(184, 116).
in(184, 117).
in(184, 118).
in(185, 1).
in(185, 2).
in(185, 3).
in(185, 6).
in(185, 9).
in(185, 10).
in(185, 12).
in(185, 14).
in(185, 16).
in(185, 17).
in(185, 19).
in(185, 20).
in(185, 23).
in(185, 24).
in(185, 25).
in(185, 27).
in(185, 31).
in(185, 32).
in(185, 34).
in(185, 36).
in(185, 37).
in(185, 38).
in(185, 40).
in(185, 41).
in(185, 42).
in(185, 43).
in(185, 46).
in(185, 48).
in(185, 49).
in(185, 50).
in(185, 51).
in(185, 54).
in(185, 55).
in(185, 56).
in(185, 58).
in(185, 59).
in(185, 60).
in(185, 62).
in(185, 63).
in(185, 65).
in(185, 67).
in(185, 72).
in(185, 74).
in(185, 75).
in(185, 76).
in(185, 77).
in(185, 78).
in(185, 79).
in(185, 80).
in(185, 83).
in(185, 85).
in(185, 86).
in(185, 87).
in(185, 88).
in(185, 89).
in(185, 91).
in(185, 92).
in(185, 93).
in(185, 94).
in(185, 95).
in(185, 96).
in(185, 97).
in(185, 98).
in(185, 99).
in(185, 102).
in(185, 103).
in(185, 106).
in(185, 107).
in(185, 108).
in(185, 110).
in(185, 111).
in(185, 112).
in(185, 114).
in(185, 115).
in(185, 116).
in(185, 117).
in(185, 120).
in(185, 125).
in(185, 127).
in(185, 128).
in(186, 128).
in(186, 129).
in(186, 3).
in(186, 5).
in(186, 9).
in(186, 11).
in(186, 12).
in(186, 15).
in(186, 18).
in(186, 20).
in(186, 23).
in(186, 24).
in(186, 30).
in(186, 33).
in(186, 34).
in(186, 35).
in(186, 37).
in(186, 38).
in(186, 39).
in(186, 40).
in(186, 42).
in(186, 43).
in(186, 44).
in(186, 46).
in(186, 47).
in(186, 48).
in(186, 49).
in(186, 50).
in(186, 52).
in(186, 58).
in(186, 60).
in(186, 71).
in(186, 72).
in(186, 73).
in(186, 76).
in(186, 77).
in(186, 79).
in(186, 80).
in(186, 83).
in(186, 84).
in(186, 86).
in(186, 87).
in(186, 88).
in(186, 90).
in(186, 91).
in(186, 92).
in(186, 93).
in(186, 94).
in(186, 95).
in(186, 97).
in(186, 98).
in(186, 101).
in(186, 102).
in(186, 103).
in(186, 105).
in(186, 106).
in(186, 107).
in(186, 109).
in(186, 110).
in(186, 112).
in(186, 114).
in(186, 115).
in(186, 116).
in(186, 120).
in(186, 122).
in(186, 123).
in(186, 124).
in(186, 125).
in(186, 127).
in(187, 128).
in(187, 129).
in(187, 8).
in(187, 9).
in(187, 10).
in(187, 13).
in(187, 15).
in(187, 16).
in(187, 17).
in(187, 19).
in(187, 21).
in(187, 23).
in(187, 26).
in(187, 29).
in(187, 30).
in(187, 31).
in(187, 32).
in(187, 33).
in(187, 34).
in(187, 35).
in(187, 36).
in(187, 37).
in(187, 38).
in(187, 40).
in(187, 42).
in(187, 47).
in(187, 50).
in(187, 51).
in(187, 52).
in(187, 53).
in(187, 55).
in(187, 56).
in(187, 57).
in(187, 58).
in(187, 60).
in(187, 62).
in(187, 65).
in(187, 67).
in(187, 68).
in(187, 71).
in(187, 72).
in(187, 74).
in(187, 76).
in(187, 77).
in(187, 78).
in(187, 80).
in(187, 82).
in(187, 84).
in(187, 85).
in(187, 87).
in(187, 88).
in(187, 89).
in(187, 91).
in(187, 93).
in(187, 96).
in(187, 99).
in(187, 100).
in(187, 101).
in(187, 106).
in(187, 107).
in(187, 109).
in(187, 112).
in(187, 113).
in(187, 114).
in(187, 115).
in(187, 116).
in(187, 118).
in(187, 122).
in(187, 123).
in(187, 124).
in(187, 125).
in(187, 126).
in(188, 1).
in(188, 129).
in(188, 3).
in(188, 4).
in(188, 5).
in(188, 6).
in(188, 8).
in(188, 9).
in(188, 12).
in(188, 15).
in(188, 16).
in(188, 18).
in(188, 21).
in(188, 23).
in(188, 27).
in(188, 31).
in(188, 35).
in(188, 37).
in(188, 40).
in(188, 42).
in(188, 43).
in(188, 44).
in(188, 46).
in(188, 47).
in(188, 48).
in(188, 49).
in(188, 52).
in(188, 53).
in(188, 55).
in(188, 56).
in(188, 59).
in(188, 60).
in(188, 62).
in(188, 63).
in(188, 64).
in(188, 66).
in(188, 67).
in(188, 68).
in(188, 70).
in(188, 73).
in(188, 76).
in(188, 77).
in(188, 81).
in(188, 84).
in(188, 90).
in(188, 93).
in(188, 94).
in(188, 95).
in(188, 97).
in(188, 101).
in(188, 102).
in(188, 103).
in(188, 105).
in(188, 106).
in(188, 109).
in(188, 111).
in(188, 114).
in(188, 116).
in(188, 118).
in(188, 119).
in(188, 123).
in(189, 128).
in(189, 129).
in(189, 3).
in(189, 4).
in(189, 6).
in(189, 8).
in(189, 10).
in(189, 16).
in(189, 18).
in(189, 21).
in(189, 23).
in(189, 27).
in(189, 28).
in(189, 30).
in(189, 31).
in(189, 32).
in(189, 33).
in(189, 35).
in(189, 37).
in(189, 38).
in(189, 39).
in(189, 41).
in(189, 46).
in(189, 47).
in(189, 53).
in(189, 54).
in(189, 55).
in(189, 56).
in(189, 57).
in(189, 58).
in(189, 59).
in(189, 64).
in(189, 65).
in(189, 66).
in(189, 70).
in(189, 71).
in(189, 72).
in(189, 73).
in(189, 74).
in(189, 75).
in(189, 77).
in(189, 78).
in(189, 79).
in(189, 83).
in(189, 84).
in(189, 85).
in(189, 87).
in(189, 90).
in(189, 91).
in(189, 94).
in(189, 100).
in(189, 102).
in(189, 104).
in(189, 105).
in(189, 107).
in(189, 108).
in(189, 111).
in(189, 113).
in(189, 115).
in(189, 116).
in(189, 117).
in(189, 119).
in(189, 124).
in(189, 127).
in(190, 1).
in(190, 2).
in(190, 3).
in(190, 129).
in(190, 5).
in(190, 7).
in(190, 8).
in(190, 9).
in(190, 11).
in(190, 12).
in(190, 17).
in(190, 18).
in(190, 19).
in(190, 20).
in(190, 21).
in(190, 22).
in(190, 23).
in(190, 24).
in(190, 26).
in(190, 28).
in(190, 31).
in(190, 34).
in(190, 36).
in(190, 38).
in(190, 44).
in(190, 47).
in(190, 48).
in(190, 50).
in(190, 52).
in(190, 53).
in(190, 54).
in(190, 56).
in(190, 57).
in(190, 58).
in(190, 59).
in(190, 60).
in(190, 62).
in(190, 63).
in(190, 64).
in(190, 65).
in(190, 68).
in(190, 69).
in(190, 73).
in(190, 74).
in(190, 77).
in(190, 78).
in(190, 80).
in(190, 82).
in(190, 83).
in(190, 84).
in(190, 89).
in(190, 91).
in(190, 93).
in(190, 94).
in(190, 96).
in(190, 97).
in(190, 98).
in(190, 101).
in(190, 103).
in(190, 104).
in(190, 109).
in(190, 110).
in(190, 113).
in(190, 115).
in(190, 117).
in(190, 118).
in(190, 120).
in(190, 123).
in(190, 124).
in(191, 128).
in(191, 129).
in(191, 2).
in(191, 3).
in(191, 5).
in(191, 6).
in(191, 7).
in(191, 10).
in(191, 11).
in(191, 14).
in(191, 18).
in(191, 22).
in(191, 23).
in(191, 24).
in(191, 25).
in(191, 27).
in(191, 29).
in(191, 30).
in(191, 31).
in(191, 32).
in(191, 33).
in(191, 35).
in(191, 36).
in(191, 37).
in(191, 39).
in(191, 42).
in(191, 43).
in(191, 44).
in(191, 45).
in(191, 48).
in(191, 50).
in(191, 51).
in(191, 53).
in(191, 55).
in(191, 59).
in(191, 60).
in(191, 64).
in(191, 65).
in(191, 69).
in(191, 71).
in(191, 73).
in(191, 74).
in(191, 76).
in(191, 77).
in(191, 78).
in(191, 79).
in(191, 80).
in(191, 81).
in(191, 83).
in(191, 84).
in(191, 85).
in(191, 86).
in(191, 90).
in(191, 91).
in(191, 92).
in(191, 93).
in(191, 95).
in(191, 96).
in(191, 98).
in(191, 100).
in(191, 101).
in(191, 103).
in(191, 104).
in(191, 106).
in(191, 107).
in(191, 108).
in(191, 113).
in(191, 114).
in(191, 115).
in(191, 119).
in(191, 124).
in(191, 127).
in(192, 128).
in(192, 129).
in(192, 3).
in(192, 5).
in(192, 6).
in(192, 8).
in(192, 9).
in(192, 10).
in(192, 12).
in(192, 13).
in(192, 16).
in(192, 19).
in(192, 21).
in(192, 22).
in(192, 25).
in(192, 26).
in(192, 28).
in(192, 29).
in(192, 33).
in(192, 34).
in(192, 37).
in(192, 38).
in(192, 40).
in(192, 43).
in(192, 46).
in(192, 48).
in(192, 49).
in(192, 50).
in(192, 53).
in(192, 55).
in(192, 56).
in(192, 57).
in(192, 58).
in(192, 59).
in(192, 61).
in(192, 62).
in(192, 63).
in(192, 64).
in(192, 65).
in(192, 68).
in(192, 69).
in(192, 70).
in(192, 71).
in(192, 72).
in(192, 73).
in(192, 74).
in(192, 75).
in(192, 78).
in(192, 82).
in(192, 83).
in(192, 85).
in(192, 86).
in(192, 88).
in(192, 89).
in(192, 91).
in(192, 92).
in(192, 94).
in(192, 97).
in(192, 99).
in(192, 100).
in(192, 101).
in(192, 106).
in(192, 107).
in(192, 108).
in(192, 109).
in(192, 110).
in(192, 111).
in(192, 114).
in(192, 115).
in(192, 116).
in(192, 118).
in(192, 119).
in(192, 120).
in(192, 122).
in(192, 125).
in(192, 126).
in(193, 1).
in(193, 2).
in(193, 4).
in(193, 7).
in(193, 15).
in(193, 16).
in(193, 17).
in(193, 19).
in(193, 21).
in(193, 22).
in(193, 23).
in(193, 25).
in(193, 26).
in(193, 27).
in(193, 28).
in(193, 30).
in(193, 32).
in(193, 33).
in(193, 36).
in(193, 37).
in(193, 40).
in(193, 41).
in(193, 43).
in(193, 44).
in(193, 45).
in(193, 48).
in(193, 50).
in(193, 51).
in(193, 52).
in(193, 53).
in(193, 54).
in(193, 55).
in(193, 56).
in(193, 59).
in(193, 60).
in(193, 62).
in(193, 63).
in(193, 65).
in(193, 70).
in(193, 72).
in(193, 73).
in(193, 74).
in(193, 75).
in(193, 78).
in(193, 79).
in(193, 81).
in(193, 83).
in(193, 85).
in(193, 87).
in(193, 91).
in(193, 92).
in(193, 93).
in(193, 94).
in(193, 95).
in(193, 97).
in(193, 99).
in(193, 102).
in(193, 103).
in(193, 105).
in(193, 106).
in(193, 111).
in(193, 113).
in(193, 116).
in(193, 117).
in(193, 118).
in(193, 119).
in(193, 121).
in(193, 123).
in(193, 126).
in(194, 128).
in(194, 3).
in(194, 6).
in(194, 7).
in(194, 8).
in(194, 10).
in(194, 13).
in(194, 14).
in(194, 16).
in(194, 22).
in(194, 24).
in(194, 25).
in(194, 26).
in(194, 28).
in(194, 30).
in(194, 32).
in(194, 33).
in(194, 35).
in(194, 36).
in(194, 38).
in(194, 42).
in(194, 44).
in(194, 45).
in(194, 47).
in(194, 51).
in(194, 55).
in(194, 58).
in(194, 60).
in(194, 62).
in(194, 65).
in(194, 66).
in(194, 67).
in(194, 69).
in(194, 71).
in(194, 73).
in(194, 80).
in(194, 82).
in(194, 85).
in(194, 90).
in(194, 93).
in(194, 94).
in(194, 96).
in(194, 98).
in(194, 100).
in(194, 101).
in(194, 103).
in(194, 105).
in(194, 106).
in(194, 108).
in(194, 111).
in(194, 114).
in(194, 115).
in(194, 119).
in(194, 120).
in(194, 121).
in(194, 122).
in(194, 123).
in(194, 125).
in(194, 126).
in(194, 127).
in(195, 128).
in(195, 2).
in(195, 7).
in(195, 9).
in(195, 11).
in(195, 13).
in(195, 15).
in(195, 17).
in(195, 18).
in(195, 23).
in(195, 24).
in(195, 25).
in(195, 26).
in(195, 27).
in(195, 29).
in(195, 30).
in(195, 34).
in(195, 37).
in(195, 38).
in(195, 40).
in(195, 41).
in(195, 42).
in(195, 44).
in(195, 45).
in(195, 46).
in(195, 47).
in(195, 49).
in(195, 51).
in(195, 53).
in(195, 56).
in(195, 58).
in(195, 60).
in(195, 61).
in(195, 64).
in(195, 65).
in(195, 70).
in(195, 74).
in(195, 76).
in(195, 77).
in(195, 80).
in(195, 82).
in(195, 83).
in(195, 84).
in(195, 85).
in(195, 91).
in(195, 94).
in(195, 96).
in(195, 97).
in(195, 101).
in(195, 102).
in(195, 103).
in(195, 104).
in(195, 106).
in(195, 107).
in(195, 109).
in(195, 111).
in(195, 114).
in(195, 115).
in(195, 121).
in(195, 125).
in(195, 126).
in(196, 2).
in(196, 3).
in(196, 4).
in(196, 5).
in(196, 8).
in(196, 9).
in(196, 11).
in(196, 12).
in(196, 13).
in(196, 14).
in(196, 15).
in(196, 17).
in(196, 18).
in(196, 19).
in(196, 20).
in(196, 21).
in(196, 23).
in(196, 27).
in(196, 28).
in(196, 32).
in(196, 33).
in(196, 34).
in(196, 35).
in(196, 38).
in(196, 39).
in(196, 42).
in(196, 43).
in(196, 45).
in(196, 46).
in(196, 47).
in(196, 49).
in(196, 50).
in(196, 51).
in(196, 56).
in(196, 57).
in(196, 59).
in(196, 61).
in(196, 62).
in(196, 65).
in(196, 67).
in(196, 69).
in(196, 70).
in(196, 75).
in(196, 77).
in(196, 79).
in(196, 80).
in(196, 81).
in(196, 84).
in(196, 87).
in(196, 88).
in(196, 89).
in(196, 93).
in(196, 95).
in(196, 99).
in(196, 100).
in(196, 101).
in(196, 102).
in(196, 103).
in(196, 104).
in(196, 106).
in(196, 107).
in(196, 109).
in(196, 110).
in(196, 111).
in(196, 114).
in(196, 116).
in(196, 117).
in(196, 119).
in(196, 120).
in(196, 122).
in(196, 126).
in(197, 128).
in(197, 1).
in(197, 2).
in(197, 3).
in(197, 129).
in(197, 7).
in(197, 8).
in(197, 9).
in(197, 10).
in(197, 11).
in(197, 13).
in(197, 15).
in(197, 17).
in(197, 20).
in(197, 22).
in(197, 23).
in(197, 25).
in(197, 27).
in(197, 29).
in(197, 30).
in(197, 31).
in(197, 32).
in(197, 38).
in(197, 39).
in(197, 40).
in(197, 43).
in(197, 47).
in(197, 48).
in(197, 49).
in(197, 53).
in(197, 55).
in(197, 56).
in(197, 57).
in(197, 58).
in(197, 59).
in(197, 63).
in(197, 67).
in(197, 68).
in(197, 69).
in(197, 70).
in(197, 73).
in(197, 74).
in(197, 78).
in(197, 79).
in(197, 81).
in(197, 82).
in(197, 83).
in(197, 85).
in(197, 87).
in(197, 89).
in(197, 93).
in(197, 96).
in(197, 97).
in(197, 98).
in(197, 101).
in(197, 102).
in(197, 103).
in(197, 106).
in(197, 107).
in(197, 108).
in(197, 109).
in(197, 111).
in(197, 112).
in(197, 114).
in(197, 115).
in(197, 116).
in(197, 117).
in(197, 119).
in(197, 120).
in(197, 121).
in(197, 125).
in(197, 127).
in(198, 3).
in(198, 4).
in(198, 5).
in(198, 6).
in(198, 8).
in(198, 9).
in(198, 11).
in(198, 12).
in(198, 14).
in(198, 16).
in(198, 18).
in(198, 19).
in(198, 22).
in(198, 23).
in(198, 24).
in(198, 25).
in(198, 27).
in(198, 29).
in(198, 30).
in(198, 31).
in(198, 32).
in(198, 33).
in(198, 36).
in(198, 39).
in(198, 40).
in(198, 41).
in(198, 42).
in(198, 44).
in(198, 45).
in(198, 48).
in(198, 49).
in(198, 50).
in(198, 51).
in(198, 53).
in(198, 54).
in(198, 55).
in(198, 56).
in(198, 60).
in(198, 62).
in(198, 63).
in(198, 64).
in(198, 67).
in(198, 68).
in(198, 72).
in(198, 74).
in(198, 77).
in(198, 78).
in(198, 81).
in(198, 82).
in(198, 83).
in(198, 84).
in(198, 86).
in(198, 88).
in(198, 89).
in(198, 90).
in(198, 91).
in(198, 92).
in(198, 93).
in(198, 96).
in(198, 97).
in(198, 98).
in(198, 103).
in(198, 104).
in(198, 105).
in(198, 106).
in(198, 107).
in(198, 108).
in(198, 109).
in(198, 111).
in(198, 112).
in(198, 114).
in(198, 117).
in(198, 118).
in(198, 120).
in(198, 123).
in(198, 124).
in(198, 125).
in(198, 126).
in(198, 128).
in(199, 128).
in(199, 1).
in(199, 2).
in(199, 129).
in(199, 6).
in(199, 8).
in(199, 11).
in(199, 17).
in(199, 19).
in(199, 20).
in(199, 24).
in(199, 27).
in(199, 30).
in(199, 32).
in(199, 35).
in(199, 37).
in(199, 41).
in(199, 46).
in(199, 47).
in(199, 49).
in(199, 50).
in(199, 51).
in(199, 53).
in(199, 55).
in(199, 56).
in(199, 58).
in(199, 59).
in(199, 63).
in(199, 65).
in(199, 66).
in(199, 69).
in(199, 71).
in(199, 72).
in(199, 74).
in(199, 75).
in(199, 76).
in(199, 77).
in(199, 78).
in(199, 79).
in(199, 86).
in(199, 92).
in(199, 93).
in(199, 94).
in(199, 95).
in(199, 102).
in(199, 104).
in(199, 105).
in(199, 106).
in(199, 109).
in(199, 110).
in(199, 113).
in(199, 117).
in(199, 118).
in(199, 119).
in(199, 120).
in(199, 121).
in(199, 122).
in(199, 123).
in(200, 128).
in(200, 2).
in(200, 3).
in(200, 6).
in(200, 8).
in(200, 9).
in(200, 10).
in(200, 15).
in(200, 17).
in(200, 20).
in(200, 21).
in(200, 23).
in(200, 24).
in(200, 29).
in(200, 30).
in(200, 32).
in(200, 34).
in(200, 38).
in(200, 39).
in(200, 40).
in(200, 44).
in(200, 45).
in(200, 48).
in(200, 50).
in(200, 52).
in(200, 56).
in(200, 58).
in(200, 61).
in(200, 62).
in(200, 64).
in(200, 66).
in(200, 67).
in(200, 68).
in(200, 69).
in(200, 70).
in(200, 72).
in(200, 73).
in(200, 74).
in(200, 75).
in(200, 76).
in(200, 77).
in(200, 78).
in(200, 79).
in(200, 80).
in(200, 82).
in(200, 86).
in(200, 88).
in(200, 92).
in(200, 94).
in(200, 95).
in(200, 98).
in(200, 103).
in(200, 104).
in(200, 105).
in(200, 106).
in(200, 107).
in(200, 108).
in(200, 109).
in(200, 110).
in(200, 111).
in(200, 113).
in(200, 114).
in(200, 115).
in(200, 116).
in(200, 117).
in(200, 118).
in(200, 119).
in(200, 120).
in(200, 121).
in(200, 123).
in(200, 125).
in(200, 126).
in(200, 127).
in(201, 129).
in(201, 2).
in(201, 3).
in(201, 5).
in(201, 6).
in(201, 7).
in(201, 10).
in(201, 11).
in(201, 14).
in(201, 15).
in(201, 17).
in(201, 18).
in(201, 19).
in(201, 21).
in(201, 23).
in(201, 24).
in(201, 25).
in(201, 26).
in(201, 27).
in(201, 28).
in(201, 29).
in(201, 30).
in(201, 36).
in(201, 37).
in(201, 38).
in(201, 39).
in(201, 42).
in(201, 45).
in(201, 46).
in(201, 48).
in(201, 49).
in(201, 51).
in(201, 52).
in(201, 53).
in(201, 57).
in(201, 60).
in(201, 62).
in(201, 64).
in(201, 66).
in(201, 74).
in(201, 75).
in(201, 76).
in(201, 78).
in(201, 82).
in(201, 83).
in(201, 86).
in(201, 88).
in(201, 89).
in(201, 91).
in(201, 93).
in(201, 94).
in(201, 95).
in(201, 97).
in(201, 98).
in(201, 101).
in(201, 102).
in(201, 103).
in(201, 104).
in(201, 116).
in(201, 119).
in(201, 120).
in(201, 123).
in(201, 124).
in(202, 1).
in(202, 2).
in(202, 3).
in(202, 5).
in(202, 7).
in(202, 8).
in(202, 10).
in(202, 14).
in(202, 15).
in(202, 17).
in(202, 18).
in(202, 19).
in(202, 20).
in(202, 21).
in(202, 22).
in(202, 23).
in(202, 27).
in(202, 28).
in(202, 29).
in(202, 30).
in(202, 32).
in(202, 34).
in(202, 36).
in(202, 38).
in(202, 40).
in(202, 41).
in(202, 46).
in(202, 49).
in(202, 50).
in(202, 53).
in(202, 54).
in(202, 56).
in(202, 58).
in(202, 59).
in(202, 61).
in(202, 63).
in(202, 64).
in(202, 65).
in(202, 67).
in(202, 68).
in(202, 72).
in(202, 73).
in(202, 74).
in(202, 75).
in(202, 77).
in(202, 78).
in(202, 79).
in(202, 80).
in(202, 81).
in(202, 83).
in(202, 84).
in(202, 86).
in(202, 88).
in(202, 89).
in(202, 90).
in(202, 91).
in(202, 92).
in(202, 94).
in(202, 95).
in(202, 97).
in(202, 98).
in(202, 102).
in(202, 103).
in(202, 105).
in(202, 106).
in(202, 108).
in(202, 109).
in(202, 110).
in(202, 114).
in(202, 115).
in(202, 116).
in(202, 117).
in(202, 118).
in(202, 119).
in(202, 121).
in(202, 122).
in(202, 123).
in(202, 125).
in(202, 128).
in(203, 1).
in(203, 129).
in(203, 5).
in(203, 7).
in(203, 8).
in(203, 9).
in(203, 13).
in(203, 14).
in(203, 15).
in(203, 21).
in(203, 23).
in(203, 24).
in(203, 27).
in(203, 28).
in(203, 29).
in(203, 32).
in(203, 33).
in(203, 35).
in(203, 38).
in(203, 43).
in(203, 45).
in(203, 49).
in(203, 52).
in(203, 53).
in(203, 54).
in(203, 55).
in(203, 56).
in(203, 57).
in(203, 58).
in(203, 62).
in(203, 66).
in(203, 67).
in(203, 68).
in(203, 71).
in(203, 73).
in(203, 74).
in(203, 75).
in(203, 76).
in(203, 78).
in(203, 82).
in(203, 84).
in(203, 86).
in(203, 87).
in(203, 89).
in(203, 91).
in(203, 93).
in(203, 94).
in(203, 98).
in(203, 99).
in(203, 100).
in(203, 101).
in(203, 104).
in(203, 107).
in(203, 108).
in(203, 109).
in(203, 110).
in(203, 113).
in(203, 114).
in(203, 116).
in(203, 117).
in(203, 118).
in(203, 120).
in(203, 123).
in(203, 125).
in(203, 126).
weight(1, 3).
weight(2, 1).
weight(3, 10).
weight(4, 6).
weight(5, 4).
weight(6, 1).
weight(7, 1).
weight(8, 6).
weight(9, 1).
weight(10, 9).
weight(11, 6).
weight(12, 10).
weight(13, 11).
weight(14, 1).
weight(15, 9).
weight(16, 1).
weight(17, 2).
weight(18, 8).
weight(19, 4).
weight(20, 7).
weight(21, 9).
weight(22, 4).
weight(23, 11).
weight(24, 11).
weight(25, 6).
weight(26, 7).
weight(27, 9).
weight(28, 5).
weight(29, 5).
weight(30, 2).
weight(31, 4).
weight(32, 2).
weight(33, 10).
weight(34, 7).
weight(35, 11).
weight(36, 9).
weight(37, 4).
weight(38, 2).
weight(39, 3).
weight(40, 2).
weight(41, 8).
weight(42, 8).
weight(43, 7).
weight(44, 2).
weight(45, 5).
weight(46, 6).
weight(47, 4).
weight(48, 8).
weight(49, 2).
weight(50, 1).
weight(51, 8).
weight(52, 6).
weight(53, 11).
weight(54, 11).
weight(55, 9).
weight(56, 4).
weight(57, 6).
weight(58, 8).
weight(59, 10).
weight(60, 2).
weight(61, 5).
weight(62, 8).
weight(63, 7).
weight(64, 10).
weight(65, 9).
weight(66, 5).
weight(67, 8).
weight(68, 4).
weight(69, 1).
weight(70, 3).
weight(71, 10).
weight(72, 9).
weight(73, 4).
weight(74, 8).
weight(75, 2).
weight(76, 7).
weight(77, 10).
weight(78, 11).
weight(79, 9).
weight(80, 1).
weight(81, 8).
weight(82, 11).
weight(83, 4).
weight(84, 2).
weight(85, 4).
weight(86, 6).
weight(87, 3).
weight(88, 4).
weight(89, 7).
weight(90, 1).
weight(91, 6).
weight(92, 7).
weight(93, 6).
weight(94, 8).
weight(95, 9).
weight(96, 9).
weight(97, 1).
weight(98, 9).
weight(99, 2).
weight(100, 10).
weight(101, 11).
weight(102, 4).
weight(103, 3).
weight(104, 3).
weight(105, 7).
weight(106, 1).
weight(107, 9).
weight(108, 5).
weight(109, 6).
weight(110, 5).
weight(111, 4).
weight(112, 5).
weight(113, 1).
weight(114, 7).
weight(115, 1).
weight(116, 7).
weight(117, 8).
weight(118, 4).
weight(119, 10).
weight(120, 11).
weight(121, 1).
weight(122, 8).
weight(123, 2).
weight(124, 4).
weight(125, 3).
weight(126, 3).
weight(127, 11).
weight(128, 9).
weight(129, 10).
weight(130, 5).
weight(131, 5).
weight(132, 2).
weight(133, 7).
weight(134, 1).
weight(135, 9).
weight(136, 3).
weight(137, 2).
weight(138, 2).
weight(139, 11).
weight(140, 5).
weight(141, 3).
weight(142, 1).
weight(143, 3).
weight(144, 9).
weight(145, 6).
weight(146, 1).
weight(147, 8).
weight(148, 9).
weight(149, 10).
weight(150, 7).
weight(151, 1).
weight(152, 3).
weight(153, 6).
weight(154, 11).
weight(155, 7).
weight(156, 5).
weight(157, 4).
weight(158, 10).
weight(159, 8).
weight(160, 2).
weight(161, 3).
weight(162, 4).
weight(163, 6).
weight(164, 6).
weight(165, 6).
weight(166, 6).
weight(167, 3).
weight(168, 5).
weight(169, 8).
weight(170, 6).
weight(171, 8).
weight(172, 9).
weight(173, 5).
weight(174, 5).
weight(175, 6).
weight(176, 11).
weight(177, 5).
weight(178, 3).
weight(179, 11).
weight(180, 8).
weight(181, 5).
weight(182, 2).
weight(183, 3).
weight(184, 8).
weight(185, 8).
weight(186, 10).
weight(187, 8).
weight(188, 1).
weight(189, 1).
weight(190, 1).
weight(191, 7).
weight(192, 10).
weight(193, 9).
weight(194, 1).
weight(195, 4).
weight(196, 6).
weight(197, 2).
weight(198, 10).
weight(199, 10).
weight(200, 7).
weight(201, 1).
weight(202, 11).
weight(203, 4).

{ choose(S) } :- set(S).
:- choose(S1), choose(S2), S1 < S2, in(S1,E), in(S2,E).
:~ not choose(S), weight(S,W). [W@1,S]
