elem(1..133).
set(1..209).
in(1, 128).
in(1, 1).
in(1, 129).
in(1, 130).
in(1, 5).
in(1, 6).
in(1, 7).
in(1, 8).
in(1, 13).
in(1, 16).
in(1, 19).
in(1, 21).
in(1, 24).
in(1, 26).
in(1, 27).
in(1, 31).
in(1, 32).
in(1, 33).
in(1, 36).
in(1, 37).
in(1, 38).
in(1, 39).
in(1, 40).
in(1, 43).
in(1, 44).
in(1, 45).
in(1, 52).
in(1, 54).
in(1, 55).
in(1, 56).
in(1, 58).
in(1, 60).
in(1, 64).
in(1, 65).
in(1, 69).
in(1, 71).
in(1, 74).
in(1, 75).
in(1, 78).
in(1, 79).
in(1, 81).
in(1, 82).
in(1, 84).
in(1, 88).
in(1, 91).
in(1, 93).
in(1, 94).
in(1, 96).
in(1, 99).
in(1, 100).
in(1, 101).
in(1, 104).
in(1, 107).
in(1, 109).
in(1, 110).
in(1, 111).
in(1, 113).
in(1, 119).
in(1, 120).
in(1, 125).
in(1, 126).
in(1, 127).
in(2, 130).
in(2, 131).
in(2, 4).
in(2, 5).
in(2, 7).
in(2, 11).
in(2, 12).
in(2, 13).
in(2, 14).
in(2, 16).
in(2, 20).
in(2, 22).
in(2, 24).
in(2, 25).
in(2, 26).
in(2, 29).
in(2, 30).
in(2, 34).
in(2, 35).
in(2, 36).
in(2, 37).
in(2, 39).
in(2, 40).
in(2, 41).
in(2, 42).
in(2, 43).
in(2, 45).
in(2, 46).
in(2, 47).
in(2, 48).
in(2, 49).
in(2, 50).
in(2, 56).
in(2, 60).
in(2, 63).
in(2, 66).
in(2, 69).
in(2, 73).
in(2, 75).
in(2, 76).
in(2, 79).
in(2, 80).
in(2, 83).
in(2, 84).
in(2, 85).
in(2, 88).
in(2, 90).
in(2, 93).
in(2, 95).
in(2, 96).
in(2, 99).
in(2, 100).
in(2, 104).
in(2, 105).
in(2, 106).
in(2, 107).
in(2, 110).
in(2, 112).
in(2, 116).
in(2, 117).
in(2, 119).
in(2, 122).
in(2, 125).
in(2, 127).
in(3, 129).
in(3, 130).
in(3, 131).
in(3, 5).
in(3, 133).
in(3, 12).
in(3, 14).
in(3, 16).
in(3, 21).
in(3, 23).
in(3, 25).
in(3, 26).
in(3, 31).
in(3, 33).
in(3, 36).
in(3, 37).
in(3, 38).
in(3, 41).
in(3, 42).
in(3, 44).
in(3, 51).
in(3, 52).
in(3, 56).
in(3, 57).
in(3, 58).
in(3, 60).
in(3, 61).
in(3, 62).
in(3, 63).
in(3, 64).
in(3, 66).
in(3, 67).
in(3, 77).
in(3, 79).
in(3, 80).
in(3, 84).
in(3, 88).
in(3, 92).
in(3, 93).
in(3, 94).
in(3, 95).
in(3, 97).
in(3, 100).
in(3, 101).
in(3, 103).
in(3, 104).
in(3, 105).
in(3, 108).
in(3, 113).
in(3, 114).
in(3, 115).
in(3, 116).
in(3, 118).
in(3, 119).
in(3, 122).
in(3, 126).
in(4, 2).
in(4, 3).
in(4, 130).
in(4, 5).
in(4, 131).
in(4, 132).
in(4, 133).
in(4, 9).
in(4, 12).
in(4, 15).
in(4, 20).
in(4, 22).
in(4, 24).
in(4, 25).
in(4, 26).
in(4, 28).
in(4, 29).
in(4, 30).
in(4, 31).
in(4, 32).
in(4, 34).
in(4, 39).
in(4, 45).
in(4, 46).
in(4, 48).
in(4, 49).
in(4, 51).
in(4, 53).
in(4, 56).
in(4, 60).
in(4, 61).
in(4, 63).
in(4, 66).
in(4, 67).
in(4, 69).
in(4, 71).
in(4, 75).
in(4, 80).
in(4, 81).
in(4, 83).
in(4, 84).
in(4, 85).
in(4, 87).
in(4, 88).
in(4, 89).
in(4, 92).
in(4, 97).
in(4, 98).
in(4, 101).
in(4, 103).
in(4, 104).
in(4, 106).
in(4, 108).
in(4, 111).
in(4, 112).
in(4, 113).
in(4, 115).
in(4, 116).
in(4, 122).
in(4, 123).
in(5, 129).
in(5, 130).
in(5, 3).
in(5, 131).
in(5, 132).
in(5, 133).
in(5, 8).
in(5, 10).
in(5, 15).
in(5, 17).
in(5, 18).
in(5, 20).
in(5, 25).
in(5, 26).
in(5, 27).
in(5, 28).
in(5, 30).
in(5, 31).
in(5, 32).
in(5, 33).
in(5, 35).
in(5, 38).
in(5, 39).
in(5, 40).
in(5, 41).
in(5, 42).
in(5, 45).
in(5, 46).
in(5, 47).
in(5, 49).
in(5, 53).
in(5, 55).
in(5, 56).
in(5, 58).
in(5, 60).
in(5, 61).
in(5, 64).
in(5, 68).
in(5, 71).
in(5, 76).
in(5, 77).
in(5, 78).
in(5, 80).
in(5, 81).
in(5, 85).
in(5, 86).
in(5, 89).
in(5, 90).
in(5, 96).
in(5, 97).
in(5, 102).
in(5, 106).
in(5, 108).
in(5, 110).
in(5, 114).
in(5, 117).
in(5, 119).
in(5, 124).
in(5, 126).
in(6, 129).
in(6, 5).
in(6, 6).
in(6, 10).
in(6, 12).
in(6, 15).
in(6, 16).
in(6, 17).
in(6, 20).
in(6, 21).
in(6, 23).
in(6, 24).
in(6, 26).
in(6, 28).
in(6, 30).
in(6, 31).
in(6, 34).
in(6, 36).
in(6, 37).
in(6, 41).
in(6, 43).
in(6, 46).
in(6, 47).
in(6, 48).
in(6, 49).
in(6, 52).
in(6, 56).
in(6, 57).
in(6, 58).
in(6, 62).
in(6, 64).
in(6, 68).
in(6, 70).
in(6, 71).
in(6, 72).
in(6, 81).
in(6, 83).
in(6, 85).
in(6, 86).
in(6, 89).
in(6, 90).
in(6, 91).
in(6, 93).
in(6, 97).
in(6, 99).
in(6, 100).
in(6, 105).
in(6, 106).
in(6, 112).
in(6, 117).
in(6, 122).
in(6, 123).
in(6, 127).
in(7, 2).
in(7, 130).
in(7, 5).
in(7, 11).
in(7, 13).
in(7, 14).
in(7, 15).
in(7, 16).
in(7, 18).
in(7, 19).
in(7, 22).
in(7, 23).
in(7, 25).
in(7, 29).
in(7, 31).
in(7, 36).
in(7, 37).
in(7, 38).
in(7, 39).
in(7, 40).
in(7, 43).
in(7, 46).
in(7, 47).
in(7, 48).
in(7, 51).
in(7, 52).
in(7, 54).
in(7, 56).
in(7, 67).
in(7, 70).
in(7, 71).
in(7, 72).
in(7, 73).
in(7, 74).
in(7, 77).
in(7, 78).
in(7, 84).
in(7, 88).
in(7, 91).
in(7, 97).
in(7, 98).
in(7, 100).
in(7, 102).
in(7, 103).
in(7, 111).
in(7, 112).
in(7, 119).
in(7, 120).
in(7, 121).
in(7, 122).
in(8, 130).
in(8, 3).
in(8, 133).
in(8, 8).
in(8, 9).
in(8, 11).
in(8, 13).
in(8, 16).
in(8, 17).
in(8, 18).
in(8, 22).
in(8, 24).
in(8, 25).
in(8, 26).
in(8, 27).
in(8, 28).
in(8, 30).
in(8, 33).
in(8, 38).
in(8, 42).
in(8, 44).
in(8, 49).
in(8, 50).
in(8, 51).
in(8, 52).
in(8, 53).
in(8, 54).
in(8, 55).
in(8, 57).
in(8, 59).
in(8, 60).
in(8, 68).
in(8, 71).
in(8, 72).
in(8, 74).
in(8, 76).
in(8, 80).
in(8, 82).
in(8, 86).
in(8, 90).
in(8, 92).
in(8, 97).
in(8, 99).
in(8, 100).
in(8, 103).
in(8, 104).
in(8, 107).
in(8, 109).
in(8, 111).
in(8, 115).
in(8, 117).
in(8, 119).
in(8, 120).
in(8, 125).
in(9, 1).
in(9, 2).
in(9, 130).
in(9, 4).
in(9, 131).
in(9, 132).
in(9, 7).
in(9, 133).
in(9, 10).
in(9, 15).
in(9, 16).
in(9, 18).
in(9, 22).
in(9, 23).
in(9, 27).
in(9, 30).
in(9, 32).
in(9, 33).
in(9, 34).
in(9, 35).
in(9, 37).
in(9, 38).
in(9, 39).
in(9, 40).
in(9, 42).
in(9, 43).
in(9, 45).
in(9, 47).
in(9, 48).
in(9, 52).
in(9, 53).
in(9, 55).
in(9, 57).
in(9, 61).
in(9, 62).
in(9, 63).
in(9, 68).
in(9, 69).
in(9, 70).
in(9, 71).
in(9, 73).
in(9, 78).
in(9, 80).
in(9, 83).
in(9, 84).
in(9, 85).
in(9, 86).
in(9, 87).
in(9, 89).
in(9, 91).
in(9, 93).
in(9, 94).
in(9, 98).
in(9, 101).
in(9, 103).
in(9, 104).
in(9, 106).
in(9, 107).
in(9, 115).
in(9, 122).
in(9, 123).
in(9, 124).
in(9, 125).
in(10, 2).
in(10, 3).
in(10, 4).
in(10, 130).
in(10, 132).
in(10, 8).
in(10, 9).
in(10, 10).
in(10, 11).
in(10, 12).
in(10, 14).
in(10, 15).
in(10, 19).
in(10, 20).
in(10, 22).
in(10, 23).
in(10, 26).
in(10, 34).
in(10, 39).
in(10, 41).
in(10, 42).
in(10, 44).
in(10, 45).
in(10, 47).
in(10, 50).
in(10, 51).
in(10, 55).
in(10, 57).
in(10, 58).
in(10, 61).
in(10, 63).
in(10, 65).
in(10, 68).
in(10, 69).
in(10, 73).
in(10, 74).
in(10, 77).
in(10, 78).
in(10, 79).
in(10, 82).
in(10, 83).
in(10, 84).
in(10, 87).
in(10, 88).
in(10, 90).
in(10, 91).
in(10, 92).
in(10, 93).
in(10, 94).
in(10, 98).
in(10, 100).
in(10, 101).
in(10, 102).
in(10, 103).
in(10, 104).
in(10, 105).
in(10, 107).
in(10, 109).
in(10, 112).
in(10, 114).
in(10, 115).
in(10, 116).
in(10, 118).
in(10, 119).
in(10, 120).
in(10, 121).
in(10, 122).
in(10, 126).
in(11, 1).
in(11, 5).
in(11, 10).
in(11, 12).
in(11, 14).
in(11, 17).
in(11, 19).
in(11, 22).
in(11, 26).
in(11, 29).
in(11, 30).
in(11, 33).
in(11, 35).
in(11, 38).
in(11, 40).
in(11, 43).
in(11, 44).
in(11, 46).
in(11, 51).
in(11, 53).
in(11, 55).
in(11, 57).
in(11, 58).
in(11, 60).
in(11, 61).
in(11, 62).
in(11, 63).
in(11, 65).
in(11, 70).
in(11, 71).
in(11, 73).
in(11, 74).
in(11, 75).
in(11, 78).
in(11, 79).
in(11, 83).
in(11, 87).
in(11, 88).
in(11, 93).
in(11, 94).
in(11, 97).
in(11, 99).
in(11, 104).
in(11, 105).
in(11, 106).
in(11, 107).
in(11, 108).
in(11, 110).
in(11, 112).
in(11, 115).
in(11, 117).
in(11, 120).
in(11, 121).
in(11, 123).
in(11, 127).
in(12, 128).
in(12, 2).
in(12, 4).
in(12, 5).
in(12, 6).
in(12, 132).
in(12, 10).
in(12, 11).
in(12, 14).
in(12, 20).
in(12, 21).
in(12, 23).
in(12, 27).
in(12, 29).
in(12, 31).
in(12, 33).
in(12, 34).
in(12, 35).
in(12, 36).
in(12, 37).
in(12, 38).
in(12, 40).
in(12, 41).
in(12, 42).
in(12, 43).
in(12, 44).
in(12, 46).
in(12, 49).
in(12, 52).
in(12, 54).
in(12, 55).
in(12, 59).
in(12, 64).
in(12, 65).
in(12, 66).
in(12, 69).
in(12, 71).
in(12, 72).
in(12, 73).
in(12, 76).
in(12, 77).
in(12, 82).
in(12, 84).
in(12, 88).
in(12, 90).
in(12, 92).
in(12, 97).
in(12, 99).
in(12, 101).
in(12, 102).
in(12, 103).
in(12, 106).
in(12, 107).
in(12, 108).
in(12, 115).
in(12, 117).
in(12, 120).
in(12, 122).
in(12, 124).
in(12, 126).
in(12, 127).
in(13, 128).
in(13, 1).
in(13, 130).
in(13, 5).
in(13, 6).
in(13, 133).
in(13, 12).
in(13, 15).
in(13, 17).
in(13, 18).
in(13, 20).
in(13, 22).
in(13, 23).
in(13, 25).
in(13, 27).
in(13, 29).
in(13, 30).
in(13, 32).
in(13, 33).
in(13, 34).
in(13, 35).
in(13, 39).
in(13, 40).
in(13, 41).
in(13, 47).
in(13, 50).
in(13, 52).
in(13, 53).
in(13, 54).
in(13, 56).
in(13, 57).
in(13, 63).
in(13, 65).
in(13, 68).
in(13, 71).
in(13, 75).
in(13, 81).
in(13, 82).
in(13, 83).
in(13, 84).
in(13, 86).
in(13, 90).
in(13, 91).
in(13, 92).
in(13, 96).
in(13, 98).
in(13, 99).
in(13, 104).
in(13, 107).
in(13, 109).
in(13, 117).
in(13, 119).
in(13, 121).
in(13, 123).
in(13, 126).
in(14, 128).
in(14, 2).
in(14, 3).
in(14, 130).
in(14, 10).
in(14, 14).
in(14, 15).
in(14, 16).
in(14, 26).
in(14, 29).
in(14, 31).
in(14, 32).
in(14, 34).
in(14, 38).
in(14, 41).
in(14, 46).
in(14, 49).
in(14, 51).
in(14, 52).
in(14, 54).
in(14, 59).
in(14, 62).
in(14, 64).
in(14, 65).
in(14, 67).
in(14, 69).
in(14, 72).
in(14, 74).
in(14, 76).
in(14, 78).
in(14, 82).
in(14, 83).
in(14, 84).
in(14, 87).
in(14, 88).
in(14, 90).
in(14, 92).
in(14, 95).
in(14, 100).
in(14, 102).
in(14, 103).
in(14, 106).
in(14, 109).
in(14, 110).
in(14, 114).
in(14, 115).
in(14, 116).
in(14, 118).
in(14, 120).
in(14, 123).
in(15, 3).
in(15, 4).
in(15, 7).
in(15, 11).
in(15, 12).
in(15, 13).
in(15, 14).
in(15, 16).
in(15, 17).
in(15, 20).
in(15, 23).
in(15, 25).
in(15, 27).
in(15, 32).
in(15, 35).
in(15, 40).
in(15, 42).
in(15, 46).
in(15, 50).
in(15, 52).
in(15, 53).
in(15, 56).
in(15, 57).
in(15, 59).
in(15, 60).
in(15, 63).
in(15, 64).
in(15, 67).
in(15, 68).
in(15, 69).
in(15, 70).
in(15, 71).
in(15, 75).
in(15, 77).
in(15, 79).
in(15, 80).
in(15, 84).
in(15, 86).
in(15, 88).
in(15, 92).
in(15, 93).
in(15, 95).
in(15, 96).
in(15, 98).
in(15, 99).
in(15, 100).
in(15, 103).
in(15, 105).
in(15, 106).
in(15, 113).
in(15, 115).
in(15, 118).
in(15, 121).
in(15, 122).
in(15, 124).
in(15, 127).
in(16, 1).
in(16, 129).
in(16, 5).
in(16, 6).
in(16, 133).
in(16, 8).
in(16, 10).
in(16, 14).
in(16, 17).
in(16, 19).
in(16, 23).
in(16, 25).
in(16, 27).
in(16, 31).
in(16, 32).
in(16, 35).
in(16, 38).
in(16, 42).
in(16, 47).
in(16, 48).
in(16, 49).
in(16, 51).
in(16, 53).
in(16, 56).
in(16, 57).
in(16, 58).
in(16, 59).
in(16, 60).
in(16, 61).
in(16, 64).
in(16, 67).
in(16, 68).
in(16, 71).
in(16, 73).
in(16, 74).
in(16, 81).
in(16, 83).
in(16, 84).
in(16, 85).
in(16, 86).
in(16, 89).
in(16, 90).
in(16, 93).
in(16, 94).
in(16, 96).
in(16, 98).
in(16, 99).
in(16, 100).
in(16, 101).
in(16, 102).
in(16, 103).
in(16, 104).
in(16, 109).
in(16, 111).
in(16, 112).
in(16, 115).
in(16, 116).
in(16, 118).
in(16, 120).
in(16, 122).
in(16, 124).
in(16, 127).
in(17, 2).
in(17, 3).
in(17, 131).
in(17, 8).
in(17, 9).
in(17, 10).
in(17, 12).
in(17, 20).
in(17, 21).
in(17, 22).
in(17, 24).
in(17, 25).
in(17, 26).
in(17, 30).
in(17, 32).
in(17, 34).
in(17, 35).
in(17, 37).
in(17, 38).
in(17, 39).
in(17, 40).
in(17, 41).
in(17, 46).
in(17, 48).
in(17, 50).
in(17, 51).
in(17, 53).
in(17, 54).
in(17, 55).
in(17, 57).
in(17, 61).
in(17, 62).
in(17, 64).
in(17, 69).
in(17, 70).
in(17, 71).
in(17, 75).
in(17, 78).
in(17, 80).
in(17, 86).
in(17, 87).
in(17, 89).
in(17, 90).
in(17, 99).
in(17, 101).
in(17, 102).
in(17, 103).
in(17, 106).
in(17, 107).
in(17, 108).
in(17, 109).
in(17, 113).
in(17, 114).
in(17, 116).
in(17, 117).
in(17, 120).
in(17, 121).
in(17, 122).
in(17, 125).
in(17, 126).
in(18, 128).
in(18, 1).
in(18, 130).
in(18, 3).
in(18, 131).
in(18, 132).
in(18, 6).
in(18, 9).
in(18, 10).
in(18, 11).
in(18, 12).
in(18, 15).
in(18, 17).
in(18, 18).
in(18, 21).
in(18, 22).
in(18, 24).
in(18, 25).
in(18, 26).
in(18, 27).
in(18, 28).
in(18, 31).
in(18, 33).
in(18, 34).
in(18, 35).
in(18, 36).
in(18, 38).
in(18, 41).
in(18, 42).
in(18, 43).
in(18, 44).
in(18, 47).
in(18, 48).
in(18, 49).
in(18, 51).
in(18, 52).
in(18, 59).
in(18, 61).
in(18, 66).
in(18, 67).
in(18, 68).
in(18, 71).
in(18, 76).
in(18, 77).
in(18, 78).
in(18, 79).
in(18, 80).
in(18, 82).
in(18, 83).
in(18, 88).
in(18, 90).
in(18, 91).
in(18, 92).
in(18, 93).
in(18, 97).
in(18, 98).
in(18, 101).
in(18, 103).
in(18, 105).
in(18, 106).
in(18, 107).
in(18, 108).
in(18, 113).
in(18, 115).
in(18, 117).
in(18, 118).
in(18, 119).
in(18, 121).
in(18, 122).
in(18, 127).
in(19, 2).
in(19, 3).
in(19, 4).
in(19, 5).
in(19, 6).
in(19, 11).
in(19, 12).
in(19, 16).
in(19, 19).
in(19, 20).
in(19, 25).
in(19, 26).
in(19, 29).
in(19, 32).
in(19, 34).
in(19, 35).
in(19, 36).
in(19, 37).
in(19, 39).
in(19, 42).
in(19, 48).
in(19, 49).
in(19, 50).
in(19, 52).
in(19, 55).
in(19, 56).
in(19, 60).
in(19, 62).
in(19, 65).
in(19, 66).
in(19, 68).
in(19, 69).
in(19, 70).
in(19, 71).
in(19, 74).
in(19, 75).
in(19, 77).
in(19, 78).
in(19, 81).
in(19, 85).
in(19, 89).
in(19, 91).
in(19, 92).
in(19, 94).
in(19, 98).
in(19, 99).
in(19, 100).
in(19, 101).
in(19, 104).
in(19, 105).
in(19, 106).
in(19, 108).
in(19, 109).
in(19, 111).
in(19, 117).
in(19, 119).
in(19, 120).
in(19, 121).
in(19, 122).
in(19, 123).
in(19, 124).
in(19, 125).
in(19, 127).
in(20, 128).
in(20, 129).
in(20, 132).
in(20, 6).
in(20, 8).
in(20, 14).
in(20, 15).
in(20, 16).
in(20, 18).
in(20, 20).
in(20, 21).
in(20, 22).
in(20, 23).
in(20, 24).
in(20, 26).
in(20, 27).
in(20, 30).
in(20, 31).
in(20, 32).
in(20, 33).
in(20, 35).
in(20, 36).
in(20, 38).
in(20, 39).
in(20, 40).
in(20, 41).
in(20, 42).
in(20, 44).
in(20, 49).
in(20, 50).
in(20, 51).
in(20, 52).
in(20, 53).
in(20, 56).
in(20, 59).
in(20, 64).
in(20, 67).
in(20, 68).
in(20, 70).
in(20, 76).
in(20, 78).
in(20, 79).
in(20, 80).
in(20, 82).
in(20, 88).
in(20, 90).
in(20, 95).
in(20, 97).
in(20, 99).
in(20, 101).
in(20, 103).
in(20, 105).
in(20, 106).
in(20, 107).
in(20, 109).
in(20, 110).
in(20, 113).
in(20, 114).
in(20, 116).
in(20, 117).
in(20, 122).
in(20, 126).
in(21, 130).
in(21, 3).
in(21, 8).
in(21, 11).
in(21, 13).
in(21, 17).
in(21, 18).
in(21, 19).
in(21, 21).
in(21, 22).
in(21, 28).
in(21, 30).
in(21, 31).
in(21, 36).
in(21, 37).
in(21, 39).
in(21, 41).
in(21, 42).
in(21, 43).
in(21, 47).
in(21, 50).
in(21, 54).
in(21, 55).
in(21, 56).
in(21, 57).
in(21, 59).
in(21, 63).
in(21, 65).
in(21, 66).
in(21, 68).
in(21, 69).
in(21, 71).
in(21, 72).
in(21, 73).
in(21, 76).
in(21, 77).
in(21, 78).
in(21, 79).
in(21, 81).
in(21, 84).
in(21, 85).
in(21, 86).
in(21, 87).
in(21, 93).
in(21, 96).
in(21, 98).
in(21, 100).
in(21, 101).
in(21, 103).
in(21, 106).
in(21, 107).
in(21, 108).
in(21, 115).
in(21, 116).
in(21, 118).
in(21, 119).
in(21, 120).
in(21, 121).
in(21, 123).
in(21, 125).
in(22, 2).
in(22, 130).
in(22, 132).
in(22, 133).
in(22, 6).
in(22, 7).
in(22, 15).
in(22, 17).
in(22, 18).
in(22, 22).
in(22, 24).
in(22, 26).
in(22, 27).
in(22, 28).
in(22, 29).
in(22, 32).
in(22, 33).
in(22, 35).
in(22, 36).
in(22, 37).
in(22, 39).
in(22, 40).
in(22, 41).
in(22, 42).
in(22, 44).
in(22, 45).
in(22, 50).
in(22, 56).
in(22, 58).
in(22, 60).
in(22, 61).
in(22, 62).
in(22, 66).
in(22, 68).
in(22, 73).
in(22, 74).
in(22, 75).
in(22, 78).
in(22, 80).
in(22, 82).
in(22, 83).
in(22, 84).
in(22, 86).
in(22, 88).
in(22, 90).
in(22, 91).
in(22, 92).
in(22, 95).
in(22, 96).
in(22, 100).
in(22, 104).
in(22, 105).
in(22, 106).
in(22, 107).
in(22, 109).
in(22, 110).
in(22, 112).
in(22, 115).
in(22, 117).
in(22, 118).
in(22, 119).
in(22, 121).
in(22, 122).
in(22, 126).
in(23, 128).
in(23, 129).
in(23, 130).
in(23, 3).
in(23, 132).
in(23, 133).
in(23, 8).
in(23, 10).
in(23, 11).
in(23, 12).
in(23, 14).
in(23, 15).
in(23, 16).
in(23, 19).
in(23, 20).
in(23, 21).
in(23, 23).
in(23, 26).
in(23, 28).
in(23, 30).
in(23, 33).
in(23, 34).
in(23, 37).
in(23, 42).
in(23, 46).
in(23, 47).
in(23, 48).
in(23, 51).
in(23, 60).
in(23, 62).
in(23, 63).
in(23, 69).
in(23, 73).
in(23, 74).
in(23, 75).
in(23, 76).
in(23, 78).
in(23, 81).
in(23, 83).
in(23, 86).
in(23, 87).
in(23, 88).
in(23, 90).
in(23, 94).
in(23, 96).
in(23, 97).
in(23, 102).
in(23, 105).
in(23, 106).
in(23, 107).
in(23, 110).
in(23, 111).
in(23, 112).
in(23, 113).
in(23, 114).
in(23, 115).
in(23, 116).
in(23, 121).
in(23, 123).
in(24, 129).
in(24, 2).
in(24, 5).
in(24, 133).
in(24, 9).
in(24, 13).
in(24, 14).
in(24, 19).
in(24, 22).
in(24, 23).
in(24, 28).
in(24, 30).
in(24, 31).
in(24, 32).
in(24, 34).
in(24, 38).
in(24, 41).
in(24, 42).
in(24, 48).
in(24, 51).
in(24, 52).
in(24, 54).
in(24, 55).
in(24, 58).
in(24, 62).
in(24, 65).
in(24, 66).
in(24, 68).
in(24, 70).
in(24, 72).
in(24, 73).
in(24, 76).
in(24, 78).
in(24, 80).
in(24, 81).
in(24, 93).
in(24, 94).
in(24, 97).
in(24, 100).
in(24, 107).
in(24, 109).
in(24, 111).
in(24, 112).
in(24, 115).
in(24, 117).
in(24, 118).
in(24, 120).
in(24, 123).
in(24, 124).
in(25, 1).
in(25, 130).
in(25, 3).
in(25, 6).
in(25, 7).
in(25, 13).
in(25, 16).
in(25, 19).
in(25, 24).
in(25, 26).
in(25, 27).
in(25, 30).
in(25, 39).
in(25, 40).
in(25, 42).
in(25, 45).
in(25, 46).
in(25, 48).
in(25, 53).
in(25, 55).
in(25, 60).
in(25, 65).
in(25, 66).
in(25, 67).
in(25, 70).
in(25, 73).
in(25, 75).
in(25, 76).
in(25, 78).
in(25, 82).
in(25, 83).
in(25, 85).
in(25, 86).
in(25, 89).
in(25, 90).
in(25, 92).
in(25, 93).
in(25, 98).
in(25, 99).
in(25, 100).
in(25, 106).
in(25, 108).
in(25, 113).
in(25, 115).
in(25, 117).
in(25, 118).
in(25, 124).
in(25, 126).
in(25, 127).
in(26, 128).
in(26, 2).
in(26, 3).
in(26, 131).
in(26, 132).
in(26, 133).
in(26, 7).
in(26, 12).
in(26, 13).
in(26, 15).
in(26, 16).
in(26, 18).
in(26, 20).
in(26, 22).
in(26, 24).
in(26, 28).
in(26, 31).
in(26, 32).
in(26, 33).
in(26, 34).
in(26, 36).
in(26, 37).
in(26, 38).
in(26, 39).
in(26, 42).
in(26, 45).
in(26, 46).
in(26, 52).
in(26, 54).
in(26, 57).
in(26, 60).
in(26, 62).
in(26, 64).
in(26, 68).
in(26, 71).
in(26, 72).
in(26, 73).
in(26, 74).
in(26, 75).
in(26, 76).
in(26, 77).
in(26, 78).
in(26, 83).
in(26, 84).
in(26, 85).
in(26, 86).
in(26, 87).
in(26, 88).
in(26, 89).
in(26, 94).
in(26, 96).
in(26, 99).
in(26, 104).
in(26, 106).
in(26, 107).
in(26, 109).
in(26, 110).
in(26, 112).
in(26, 113).
in(26, 116).
in(26, 118).
in(26, 120).
in(26, 125).
in(26, 127).
in(27, 128).
in(27, 1).
in(27, 2).
in(27, 3).
in(27, 129).
in(27, 131).
in(27, 6).
in(27, 133).
in(27, 10).
in(27, 13).
in(27, 14).
in(27, 17).
in(27, 18).
in(27, 20).
in(27, 22).
in(27, 23).
in(27, 24).
in(27, 27).
in(27, 28).
in(27, 32).
in(27, 36).
in(27, 37).
in(27, 41).
in(27, 43).
in(27, 44).
in(27, 45).
in(27, 46).
in(27, 48).
in(27, 49).
in(27, 50).
in(27, 51).
in(27, 53).
in(27, 58).
in(27, 59).
in(27, 61).
in(27, 62).
in(27, 64).
in(27, 65).
in(27, 67).
in(27, 68).
in(27, 70).
in(27, 72).
in(27, 73).
in(27, 75).
in(27, 76).
in(27, 77).
in(27, 79).
in(27, 80).
in(27, 83).
in(27, 87).
in(27, 91).
in(27, 93).
in(27, 94).
in(27, 99).
in(27, 102).
in(27, 105).
in(27, 106).
in(27, 108).
in(27, 109).
in(27, 112).
in(27, 115).
in(27, 116).
in(27, 117).
in(27, 119).
in(27, 122).
in(27, 123).
in(28, 1).
in(28, 129).
in(28, 3).
in(28, 130).
in(28, 6).
in(28, 9).
in(28, 12).
in(28, 15).
in(28, 16).
in(28, 19).
in(28, 22).
in(28, 23).
in(28, 24).
in(28, 25).
in(28, 26).
in(28, 28).
in(28, 29).
in(28, 30).
in(28, 31).
in(28, 32).
in(28, 33).
in(28, 34).
in(28, 36).
in(28, 37).
in(28, 38).
in(28, 39).
in(28, 42).
in(28, 43).
in(28, 46).
in(28, 47).
in(28, 48).
in(28, 49).
in(28, 54).
in(28, 55).
in(28, 57).
in(28, 59).
in(28, 60).
in(28, 62).
in(28, 63).
in(28, 65).
in(28, 67).
in(28, 68).
in(28, 70).
in(28, 72).
in(28, 73).
in(28, 74).
in(28, 76).
in(28, 78).
in(28, 79).
in(28, 81).
in(28, 82).
in(28, 83).
in(28, 84).
in(28, 85).
in(28, 87).
in(28, 88).
in(28, 95).
in(28, 96).
in(28, 97).
in(28, 98).
in(28, 103).
in(28, 106).
in(28, 109).
in(28, 112).
in(28, 113).
in(28, 114).
in(28, 116).
in(28, 120).
in(28, 123).
in(28, 124).
in(28, 126).
in(29, 128).
in(29, 2).
in(29, 131).
in(29, 4).
in(29, 5).
in(29, 132).
in(29, 7).
in(29, 133).
in(29, 11).
in(29, 13).
in(29, 15).
in(29, 17).
in(29, 18).
in(29, 20).
in(29, 24).
in(29, 28).
in(29, 31).
in(29, 33).
in(29, 35).
in(29, 38).
in(29, 39).
in(29, 43).
in(29, 44).
in(29, 51).
in(29, 52).
in(29, 53).
in(29, 58).
in(29, 63).
in(29, 70).
in(29, 73).
in(29, 76).
in(29, 77).
in(29, 78).
in(29, 80).
in(29, 82).
in(29, 83).
in(29, 87).
in(29, 88).
in(29, 89).
in(29, 90).
in(29, 95).
in(29, 100).
in(29, 106).
in(29, 108).
in(29, 111).
in(29, 112).
in(29, 113).
in(29, 114).
in(29, 115).
in(29, 118).
in(29, 120).
in(29, 121).
in(29, 123).
in(29, 124).
in(29, 125).
in(29, 126).
in(30, 2).
in(30, 132).
in(30, 5).
in(30, 133).
in(30, 7).
in(30, 8).
in(30, 9).
in(30, 10).
in(30, 11).
in(30, 12).
in(30, 14).
in(30, 15).
in(30, 19).
in(30, 21).
in(30, 24).
in(30, 28).
in(30, 31).
in(30, 35).
in(30, 39).
in(30, 41).
in(30, 42).
in(30, 44).
in(30, 48).
in(30, 54).
in(30, 56).
in(30, 58).
in(30, 60).
in(30, 62).
in(30, 63).
in(30, 64).
in(30, 67).
in(30, 71).
in(30, 72).
in(30, 74).
in(30, 75).
in(30, 78).
in(30, 80).
in(30, 86).
in(30, 87).
in(30, 89).
in(30, 92).
in(30, 93).
in(30, 95).
in(30, 100).
in(30, 102).
in(30, 104).
in(30, 106).
in(30, 107).
in(30, 117).
in(30, 118).
in(30, 120).
in(30, 124).
in(30, 127).
in(31, 128).
in(31, 3).
in(31, 133).
in(31, 9).
in(31, 12).
in(31, 17).
in(31, 19).
in(31, 20).
in(31, 21).
in(31, 23).
in(31, 27).
in(31, 30).
in(31, 38).
in(31, 41).
in(31, 43).
in(31, 45).
in(31, 49).
in(31, 50).
in(31, 53).
in(31, 54).
in(31, 56).
in(31, 57).
in(31, 59).
in(31, 62).
in(31, 63).
in(31, 64).
in(31, 68).
in(31, 72).
in(31, 73).
in(31, 76).
in(31, 77).
in(31, 79).
in(31, 80).
in(31, 82).
in(31, 83).
in(31, 84).
in(31, 87).
in(31, 92).
in(31, 94).
in(31, 97).
in(31, 98).
in(31, 99).
in(31, 100).
in(31, 101).
in(31, 103).
in(31, 104).
in(31, 106).
in(31, 113).
in(31, 118).
in(31, 119).
in(31, 121).
in(31, 125).
in(31, 126).
in(31, 127).
in(32, 1).
in(32, 3).
in(32, 132).
in(32, 133).
in(32, 7).
in(32, 8).
in(32, 9).
in(32, 11).
in(32, 12).
in(32, 15).
in(32, 18).
in(32, 19).
in(32, 23).
in(32, 26).
in(32, 27).
in(32, 28).
in(32, 29).
in(32, 30).
in(32, 32).
in(32, 36).
in(32, 37).
in(32, 38).
in(32, 42).
in(32, 43).
in(32, 46).
in(32, 47).
in(32, 51).
in(32, 57).
in(32, 62).
in(32, 63).
in(32, 64).
in(32, 65).
in(32, 66).
in(32, 68).
in(32, 73).
in(32, 74).
in(32, 76).
in(32, 77).
in(32, 78).
in(32, 80).
in(32, 82).
in(32, 84).
in(32, 85).
in(32, 87).
in(32, 88).
in(32, 92).
in(32, 93).
in(32, 96).
in(32, 97).
in(32, 98).
in(32, 104).
in(32, 105).
in(32, 107).
in(32, 108).
in(32, 110).
in(32, 112).
in(32, 113).
in(32, 114).
in(32, 115).
in(32, 116).
in(32, 117).
in(32, 118).
in(32, 121).
in(32, 123).
in(33, 2).
in(33, 3).
in(33, 130).
in(33, 5).
in(33, 131).
in(33, 7).
in(33, 9).
in(33, 12).
in(33, 13).
in(33, 14).
in(33, 15).
in(33, 19).
in(33, 20).
in(33, 21).
in(33, 23).
in(33, 25).
in(33, 27).
in(33, 29).
in(33, 30).
in(33, 34).
in(33, 35).
in(33, 36).
in(33, 39).
in(33, 40).
in(33, 47).
in(33, 48).
in(33, 50).
in(33, 52).
in(33, 54).
in(33, 57).
in(33, 59).
in(33, 61).
in(33, 64).
in(33, 67).
in(33, 68).
in(33, 73).
in(33, 81).
in(33, 82).
in(33, 87).
in(33, 88).
in(33, 94).
in(33, 95).
in(33, 99).
in(33, 100).
in(33, 104).
in(33, 105).
in(33, 112).
in(33, 114).
in(33, 120).
in(33, 125).
in(33, 126).
in(33, 127).
in(34, 1).
in(34, 2).
in(34, 3).
in(34, 4).
in(34, 5).
in(34, 130).
in(34, 131).
in(34, 11).
in(34, 19).
in(34, 25).
in(34, 26).
in(34, 30).
in(34, 31).
in(34, 38).
in(34, 39).
in(34, 40).
in(34, 44).
in(34, 46).
in(34, 48).
in(34, 53).
in(34, 54).
in(34, 57).
in(34, 58).
in(34, 59).
in(34, 62).
in(34, 64).
in(34, 65).
in(34, 66).
in(34, 69).
in(34, 70).
in(34, 74).
in(34, 76).
in(34, 78).
in(34, 79).
in(34, 83).
in(34, 84).
in(34, 88).
in(34, 89).
in(34, 91).
in(34, 94).
in(34, 96).
in(34, 98).
in(34, 101).
in(34, 106).
in(34, 111).
in(34, 112).
in(34, 113).
in(34, 120).
in(34, 121).
in(34, 122).
in(34, 124).
in(34, 127).
in(35, 3).
in(35, 8).
in(35, 10).
in(35, 11).
in(35, 14).
in(35, 15).
in(35, 16).
in(35, 17).
in(35, 18).
in(35, 19).
in(35, 22).
in(35, 25).
in(35, 27).
in(35, 33).
in(35, 34).
in(35, 36).
in(35, 38).
in(35, 40).
in(35, 41).
in(35, 42).
in(35, 46).
in(35, 47).
in(35, 50).
in(35, 53).
in(35, 55).
in(35, 58).
in(35, 63).
in(35, 64).
in(35, 68).
in(35, 69).
in(35, 71).
in(35, 73).
in(35, 77).
in(35, 80).
in(35, 86).
in(35, 89).
in(35, 90).
in(35, 94).
in(35, 95).
in(35, 98).
in(35, 99).
in(35, 102).
in(35, 104).
in(35, 106).
in(35, 109).
in(35, 116).
in(35, 118).
in(35, 119).
in(35, 120).
in(35, 121).
in(35, 122).
in(35, 123).
in(35, 125).
in(36, 1).
in(36, 129).
in(36, 3).
in(36, 4).
in(36, 5).
in(36, 6).
in(36, 7).
in(36, 8).
in(36, 130).
in(36, 131).
in(36, 132).
in(36, 12).
in(36, 13).
in(36, 133).
in(36, 15).
in(36, 16).
in(36, 23).
in(36, 29).
in(36, 30).
in(36, 32).
in(36, 34).
in(36, 37).
in(36, 38).
in(36, 39).
in(36, 42).
in(36, 44).
in(36, 48).
in(36, 49).
in(36, 51).
in(36, 53).
in(36, 54).
in(36, 55).
in(36, 56).
in(36, 57).
in(36, 58).
in(36, 60).
in(36, 64).
in(36, 65).
in(36, 68).
in(36, 70).
in(36, 75).
in(36, 79).
in(36, 85).
in(36, 88).
in(36, 89).
in(36, 91).
in(36, 92).
in(36, 94).
in(36, 95).
in(36, 97).
in(36, 98).
in(36, 102).
in(36, 105).
in(36, 108).
in(36, 116).
in(36, 118).
in(36, 119).
in(36, 120).
in(36, 121).
in(36, 123).
in(36, 124).
in(36, 127).
in(37, 128).
in(37, 129).
in(37, 2).
in(37, 3).
in(37, 132).
in(37, 5).
in(37, 6).
in(37, 7).
in(37, 133).
in(37, 10).
in(37, 13).
in(37, 15).
in(37, 16).
in(37, 18).
in(37, 24).
in(37, 25).
in(37, 30).
in(37, 33).
in(37, 35).
in(37, 36).
in(37, 40).
in(37, 41).
in(37, 42).
in(37, 49).
in(37, 50).
in(37, 52).
in(37, 53).
in(37, 55).
in(37, 58).
in(37, 59).
in(37, 63).
in(37, 64).
in(37, 65).
in(37, 71).
in(37, 75).
in(37, 76).
in(37, 77).
in(37, 78).
in(37, 85).
in(37, 87).
in(37, 90).
in(37, 91).
in(37, 92).
in(37, 95).
in(37, 96).
in(37, 97).
in(37, 100).
in(37, 101).
in(37, 102).
in(37, 104).
in(37, 105).
in(37, 106).
in(37, 107).
in(37, 108).
in(37, 112).
in(37, 113).
in(37, 122).
in(37, 123).
in(37, 124).
in(37, 125).
in(37, 126).
in(37, 127).
in(38, 128).
in(38, 3).
in(38, 132).
in(38, 133).
in(38, 7).
in(38, 8).
in(38, 10).
in(38, 11).
in(38, 14).
in(38, 17).
in(38, 18).
in(38, 20).
in(38, 21).
in(38, 24).
in(38, 27).
in(38, 29).
in(38, 30).
in(38, 32).
in(38, 33).
in(38, 40).
in(38, 42).
in(38, 48).
in(38, 53).
in(38, 54).
in(38, 61).
in(38, 62).
in(38, 66).
in(38, 70).
in(38, 71).
in(38, 74).
in(38, 76).
in(38, 77).
in(38, 80).
in(38, 82).
in(38, 83).
in(38, 87).
in(38, 90).
in(38, 94).
in(38, 96).
in(38, 97).
in(38, 99).
in(38, 104).
in(38, 105).
in(38, 107).
in(38, 108).
in(38, 111).
in(38, 116).
in(38, 120).
in(38, 121).
in(38, 122).
in(38, 123).
in(38, 125).
in(38, 126).
in(39, 128).
in(39, 1).
in(39, 129).
in(39, 3).
in(39, 130).
in(39, 5).
in(39, 6).
in(39, 7).
in(39, 9).
in(39, 11).
in(39, 12).
in(39, 13).
in(39, 14).
in(39, 15).
in(39, 18).
in(39, 20).
in(39, 23).
in(39, 24).
in(39, 26).
in(39, 28).
in(39, 29).
in(39, 31).
in(39, 33).
in(39, 34).
in(39, 37).
in(39, 40).
in(39, 41).
in(39, 42).
in(39, 43).
in(39, 44).
in(39, 47).
in(39, 49).
in(39, 50).
in(39, 51).
in(39, 56).
in(39, 60).
in(39, 61).
in(39, 63).
in(39, 66).
in(39, 68).
in(39, 69).
in(39, 72).
in(39, 75).
in(39, 78).
in(39, 79).
in(39, 84).
in(39, 85).
in(39, 89).
in(39, 91).
in(39, 93).
in(39, 101).
in(39, 105).
in(39, 109).
in(39, 110).
in(39, 111).
in(39, 113).
in(39, 114).
in(39, 118).
in(39, 120).
in(39, 123).
in(39, 126).
in(39, 127).
in(40, 1).
in(40, 2).
in(40, 129).
in(40, 4).
in(40, 5).
in(40, 6).
in(40, 130).
in(40, 131).
in(40, 132).
in(40, 15).
in(40, 17).
in(40, 18).
in(40, 19).
in(40, 21).
in(40, 24).
in(40, 26).
in(40, 29).
in(40, 30).
in(40, 32).
in(40, 34).
in(40, 36).
in(40, 37).
in(40, 39).
in(40, 41).
in(40, 44).
in(40, 45).
in(40, 48).
in(40, 49).
in(40, 51).
in(40, 59).
in(40, 60).
in(40, 62).
in(40, 63).
in(40, 64).
in(40, 65).
in(40, 70).
in(40, 72).
in(40, 73).
in(40, 74).
in(40, 80).
in(40, 81).
in(40, 84).
in(40, 85).
in(40, 88).
in(40, 90).
in(40, 91).
in(40, 95).
in(40, 96).
in(40, 98).
in(40, 102).
in(40, 103).
in(40, 105).
in(40, 107).
in(40, 108).
in(40, 110).
in(40, 111).
in(40, 113).
in(40, 114).
in(40, 115).
in(40, 125).
in(41, 128).
in(41, 1).
in(41, 2).
in(41, 3).
in(41, 4).
in(41, 5).
in(41, 129).
in(41, 130).
in(41, 132).
in(41, 133).
in(41, 12).
in(41, 14).
in(41, 15).
in(41, 22).
in(41, 27).
in(41, 29).
in(41, 31).
in(41, 32).
in(41, 37).
in(41, 38).
in(41, 40).
in(41, 41).
in(41, 42).
in(41, 43).
in(41, 50).
in(41, 51).
in(41, 52).
in(41, 54).
in(41, 56).
in(41, 57).
in(41, 58).
in(41, 59).
in(41, 63).
in(41, 65).
in(41, 69).
in(41, 72).
in(41, 73).
in(41, 75).
in(41, 76).
in(41, 78).
in(41, 83).
in(41, 92).
in(41, 99).
in(41, 101).
in(41, 103).
in(41, 106).
in(41, 107).
in(41, 108).
in(41, 111).
in(41, 112).
in(41, 115).
in(41, 116).
in(41, 117).
in(41, 118).
in(41, 120).
in(41, 123).
in(41, 126).
in(42, 128).
in(42, 2).
in(42, 3).
in(42, 132).
in(42, 5).
in(42, 6).
in(42, 7).
in(42, 8).
in(42, 10).
in(42, 12).
in(42, 13).
in(42, 14).
in(42, 17).
in(42, 18).
in(42, 19).
in(42, 22).
in(42, 25).
in(42, 26).
in(42, 28).
in(42, 29).
in(42, 38).
in(42, 39).
in(42, 41).
in(42, 42).
in(42, 43).
in(42, 44).
in(42, 45).
in(42, 46).
in(42, 53).
in(42, 54).
in(42, 57).
in(42, 58).
in(42, 60).
in(42, 65).
in(42, 66).
in(42, 67).
in(42, 68).
in(42, 69).
in(42, 71).
in(42, 73).
in(42, 74).
in(42, 76).
in(42, 78).
in(42, 79).
in(42, 82).
in(42, 83).
in(42, 84).
in(42, 85).
in(42, 86).
in(42, 88).
in(42, 98).
in(42, 100).
in(42, 105).
in(42, 109).
in(42, 112).
in(42, 113).
in(42, 114).
in(42, 118).
in(42, 120).
in(42, 125).
in(42, 126).
in(42, 127).
in(43, 128).
in(43, 1).
in(43, 2).
in(43, 129).
in(43, 4).
in(43, 5).
in(43, 7).
in(43, 8).
in(43, 9).
in(43, 10).
in(43, 11).
in(43, 12).
in(43, 14).
in(43, 16).
in(43, 17).
in(43, 20).
in(43, 22).
in(43, 23).
in(43, 33).
in(43, 35).
in(43, 37).
in(43, 38).
in(43, 41).
in(43, 43).
in(43, 44).
in(43, 45).
in(43, 47).
in(43, 49).
in(43, 51).
in(43, 54).
in(43, 56).
in(43, 63).
in(43, 66).
in(43, 67).
in(43, 69).
in(43, 70).
in(43, 72).
in(43, 75).
in(43, 79).
in(43, 81).
in(43, 89).
in(43, 91).
in(43, 92).
in(43, 94).
in(43, 95).
in(43, 97).
in(43, 108).
in(43, 111).
in(43, 112).
in(43, 114).
in(43, 120).
in(43, 122).
in(44, 129).
in(44, 2).
in(44, 131).
in(44, 133).
in(44, 8).
in(44, 10).
in(44, 13).
in(44, 18).
in(44, 19).
in(44, 30).
in(44, 32).
in(44, 35).
in(44, 41).
in(44, 45).
in(44, 47).
in(44, 51).
in(44, 57).
in(44, 60).
in(44, 67).
in(44, 69).
in(44, 71).
in(44, 75).
in(44, 76).
in(44, 78).
in(44, 80).
in(44, 83).
in(44, 88).
in(44, 90).
in(44, 91).
in(44, 94).
in(44, 95).
in(44, 96).
in(44, 97).
in(44, 98).
in(44, 99).
in(44, 100).
in(44, 106).
in(44, 107).
in(44, 111).
in(44, 117).
in(44, 119).
in(44, 123).
in(45, 129).
in(45, 130).
in(45, 11).
in(45, 15).
in(45, 16).
in(45, 20).
in(45, 21).
in(45, 23).
in(45, 25).
in(45, 27).
in(45, 28).
in(45, 32).
in(45, 39).
in(45, 42).
in(45, 46).
in(45, 50).
in(45, 51).
in(45, 59).
in(45, 60).
in(45, 63).
in(45, 64).
in(45, 65).
in(45, 70).
in(45, 73).
in(45, 74).
in(45, 75).
in(45, 77).
in(45, 80).
in(45, 83).
in(45, 86).
in(45, 89).
in(45, 90).
in(45, 92).
in(45, 93).
in(45, 96).
in(45, 102).
in(45, 103).
in(45, 104).
in(45, 105).
in(45, 106).
in(45, 108).
in(45, 110).
in(45, 115).
in(45, 122).
in(45, 124).
in(45, 127).
in(46, 1).
in(46, 2).
in(46, 3).
in(46, 4).
in(46, 129).
in(46, 130).
in(46, 131).
in(46, 132).
in(46, 133).
in(46, 11).
in(46, 12).
in(46, 18).
in(46, 22).
in(46, 23).
in(46, 29).
in(46, 30).
in(46, 34).
in(46, 36).
in(46, 39).
in(46, 41).
in(46, 43).
in(46, 44).
in(46, 46).
in(46, 47).
in(46, 49).
in(46, 54).
in(46, 59).
in(46, 60).
in(46, 67).
in(46, 69).
in(46, 73).
in(46, 82).
in(46, 87).
in(46, 88).
in(46, 92).
in(46, 94).
in(46, 95).
in(46, 100).
in(46, 101).
in(46, 102).
in(46, 104).
in(46, 105).
in(46, 107).
in(46, 114).
in(46, 115).
in(46, 116).
in(46, 120).
in(46, 124).
in(46, 125).
in(47, 128).
in(47, 4).
in(47, 5).
in(47, 7).
in(47, 9).
in(47, 14).
in(47, 15).
in(47, 16).
in(47, 17).
in(47, 19).
in(47, 20).
in(47, 23).
in(47, 25).
in(47, 30).
in(47, 31).
in(47, 35).
in(47, 37).
in(47, 38).
in(47, 40).
in(47, 41).
in(47, 42).
in(47, 43).
in(47, 47).
in(47, 48).
in(47, 55).
in(47, 56).
in(47, 62).
in(47, 63).
in(47, 64).
in(47, 66).
in(47, 69).
in(47, 70).
in(47, 71).
in(47, 72).
in(47, 75).
in(47, 76).
in(47, 77).
in(47, 78).
in(47, 79).
in(47, 81).
in(47, 82).
in(47, 83).
in(47, 84).
in(47, 85).
in(47, 87).
in(47, 89).
in(47, 95).
in(47, 97).
in(47, 99).
in(47, 105).
in(47, 107).
in(47, 110).
in(47, 111).
in(47, 112).
in(47, 119).
in(47, 120).
in(47, 123).
in(47, 124).
in(47, 127).
in(48, 132).
in(48, 6).
in(48, 11).
in(48, 12).
in(48, 13).
in(48, 16).
in(48, 17).
in(48, 19).
in(48, 22).
in(48, 23).
in(48, 26).
in(48, 28).
in(48, 29).
in(48, 31).
in(48, 32).
in(48, 33).
in(48, 38).
in(48, 42).
in(48, 46).
in(48, 47).
in(48, 48).
in(48, 49).
in(48, 50).
in(48, 52).
in(48, 53).
in(48, 59).
in(48, 63).
in(48, 64).
in(48, 66).
in(48, 67).
in(48, 73).
in(48, 74).
in(48, 75).
in(48, 76).
in(48, 77).
in(48, 78).
in(48, 80).
in(48, 81).
in(48, 82).
in(48, 85).
in(48, 86).
in(48, 87).
in(48, 91).
in(48, 94).
in(48, 95).
in(48, 99).
in(48, 100).
in(48, 101).
in(48, 102).
in(48, 108).
in(48, 110).
in(48, 112).
in(48, 113).
in(48, 114).
in(48, 118).
in(48, 121).
in(48, 122).
in(48, 124).
in(48, 125).
in(48, 127).
in(49, 133).
in(49, 8).
in(49, 9).
in(49, 14).
in(49, 15).
in(49, 17).
in(49, 19).
in(49, 26).
in(49, 28).
in(49, 30).
in(49, 31).
in(49, 32).
in(49, 33).
in(49, 39).
in(49, 41).
in(49, 45).
in(49, 46).
in(49, 48).
in(49, 53).
in(49, 55).
in(49, 56).
in(49, 57).
in(49, 58).
in(49, 63).
in(49, 64).
in(49, 67).
in(49, 68).
in(49, 69).
in(49, 70).
in(49, 71).
in(49, 72).
in(49, 74).
in(49, 75).
in(49, 77).
in(49, 78).
in(49, 81).
in(49, 82).
in(49, 86).
in(49, 87).
in(49, 88).
in(49, 89).
in(49, 94).
in(49, 95).
in(49, 98).
in(49, 99).
in(49, 100).
in(49, 103).
in(49, 104).
in(49, 105).
in(49, 107).
in(49, 109).
in(49, 110).
in(49, 112).
in(49, 116).
in(49, 117).
in(49, 119).
in(49, 120).
in(49, 121).
in(49, 124).
in(49, 125).
in(49, 127).
in(50, 1).
in(50, 129).
in(50, 130).
in(50, 4).
in(50, 131).
in(50, 133).
in(50, 9).
in(50, 11).
in(50, 14).
in(50, 15).
in(50, 16).
in(50, 17).
in(50, 18).
in(50, 19).
in(50, 21).
in(50, 24).
in(50, 25).
in(50, 26).
in(50, 28).
in(50, 30).
in(50, 32).
in(50, 34).
in(50, 36).
in(50, 38).
in(50, 40).
in(50, 42).
in(50, 43).
in(50, 44).
in(50, 45).
in(50, 46).
in(50, 49).
in(50, 50).
in(50, 51).
in(50, 54).
in(50, 55).
in(50, 59).
in(50, 62).
in(50, 70).
in(50, 71).
in(50, 72).
in(50, 83).
in(50, 86).
in(50, 88).
in(50, 96).
in(50, 99).
in(50, 104).
in(50, 105).
in(50, 107).
in(50, 110).
in(50, 111).
in(50, 115).
in(50, 120).
in(50, 122).
in(51, 128).
in(51, 1).
in(51, 2).
in(51, 132).
in(51, 5).
in(51, 133).
in(51, 8).
in(51, 9).
in(51, 13).
in(51, 14).
in(51, 15).
in(51, 17).
in(51, 19).
in(51, 20).
in(51, 22).
in(51, 24).
in(51, 25).
in(51, 26).
in(51, 27).
in(51, 28).
in(51, 29).
in(51, 30).
in(51, 31).
in(51, 33).
in(51, 34).
in(51, 36).
in(51, 37).
in(51, 38).
in(51, 44).
in(51, 45).
in(51, 49).
in(51, 50).
in(51, 51).
in(51, 53).
in(51, 54).
in(51, 56).
in(51, 58).
in(51, 62).
in(51, 64).
in(51, 65).
in(51, 68).
in(51, 69).
in(51, 71).
in(51, 72).
in(51, 73).
in(51, 75).
in(51, 76).
in(51, 77).
in(51, 78).
in(51, 79).
in(51, 83).
in(51, 85).
in(51, 86).
in(51, 87).
in(51, 88).
in(51, 92).
in(51, 94).
in(51, 103).
in(51, 108).
in(51, 110).
in(51, 113).
in(51, 114).
in(51, 117).
in(51, 118).
in(51, 119).
in(51, 120).
in(51, 121).
in(51, 125).
in(52, 129).
in(52, 130).
in(52, 3).
in(52, 4).
in(52, 5).
in(52, 6).
in(52, 7).
in(52, 131).
in(52, 12).
in(52, 14).
in(52, 18).
in(52, 19).
in(52, 20).
in(52, 26).
in(52, 32).
in(52, 33).
in(52, 36).
in(52, 44).
in(52, 46).
in(52, 48).
in(52, 49).
in(52, 51).
in(52, 53).
in(52, 56).
in(52, 57).
in(52, 62).
in(52, 63).
in(52, 65).
in(52, 69).
in(52, 70).
in(52, 71).
in(52, 73).
in(52, 74).
in(52, 78).
in(52, 79).
in(52, 80).
in(52, 81).
in(52, 83).
in(52, 85).
in(52, 87).
in(52, 89).
in(52, 91).
in(52, 96).
in(52, 99).
in(52, 100).
in(52, 103).
in(52, 105).
in(52, 106).
in(52, 108).
in(52, 109).
in(52, 110).
in(52, 111).
in(52, 114).
in(52, 115).
in(52, 116).
in(52, 119).
in(52, 122).
in(52, 123).
in(52, 124).
in(53, 128).
in(53, 129).
in(53, 2).
in(53, 4).
in(53, 132).
in(53, 14).
in(53, 15).
in(53, 17).
in(53, 18).
in(53, 19).
in(53, 21).
in(53, 29).
in(53, 31).
in(53, 32).
in(53, 34).
in(53, 40).
in(53, 43).
in(53, 45).
in(53, 46).
in(53, 47).
in(53, 49).
in(53, 50).
in(53, 53).
in(53, 54).
in(53, 55).
in(53, 58).
in(53, 64).
in(53, 68).
in(53, 69).
in(53, 71).
in(53, 72).
in(53, 77).
in(53, 78).
in(53, 80).
in(53, 82).
in(53, 86).
in(53, 87).
in(53, 92).
in(53, 95).
in(53, 97).
in(53, 98).
in(53, 100).
in(53, 101).
in(53, 102).
in(53, 106).
in(53, 108).
in(53, 111).
in(53, 115).
in(53, 116).
in(53, 117).
in(53, 118).
in(53, 122).
in(54, 128).
in(54, 129).
in(54, 4).
in(54, 5).
in(54, 133).
in(54, 9).
in(54, 13).
in(54, 17).
in(54, 19).
in(54, 21).
in(54, 22).
in(54, 24).
in(54, 25).
in(54, 29).
in(54, 31).
in(54, 32).
in(54, 35).
in(54, 36).
in(54, 37).
in(54, 38).
in(54, 42).
in(54, 43).
in(54, 46).
in(54, 47).
in(54, 48).
in(54, 49).
in(54, 52).
in(54, 53).
in(54, 54).
in(54, 55).
in(54, 56).
in(54, 57).
in(54, 58).
in(54, 60).
in(54, 61).
in(54, 63).
in(54, 64).
in(54, 67).
in(54, 70).
in(54, 71).
in(54, 72).
in(54, 73).
in(54, 77).
in(54, 79).
in(54, 83).
in(54, 87).
in(54, 88).
in(54, 89).
in(54, 92).
in(54, 93).
in(54, 94).
in(54, 96).
in(54, 97).
in(54, 100).
in(54, 101).
in(54, 102).
in(54, 104).
in(54, 106).
in(54, 108).
in(54, 110).
in(54, 111).
in(54, 113).
in(54, 114).
in(54, 115).
in(54, 116).
in(54, 118).
in(54, 119).
in(54, 120).
in(54, 122).
in(54, 127).
in(55, 129).
in(55, 2).
in(55, 4).
in(55, 5).
in(55, 6).
in(55, 7).
in(55, 8).
in(55, 132).
in(55, 10).
in(55, 11).
in(55, 12).
in(55, 13).
in(55, 133).
in(55, 18).
in(55, 19).
in(55, 21).
in(55, 23).
in(55, 24).
in(55, 27).
in(55, 30).
in(55, 32).
in(55, 34).
in(55, 37).
in(55, 38).
in(55, 40).
in(55, 41).
in(55, 42).
in(55, 44).
in(55, 47).
in(55, 52).
in(55, 54).
in(55, 55).
in(55, 57).
in(55, 59).
in(55, 62).
in(55, 63).
in(55, 68).
in(55, 73).
in(55, 74).
in(55, 75).
in(55, 76).
in(55, 77).
in(55, 78).
in(55, 79).
in(55, 80).
in(55, 82).
in(55, 83).
in(55, 85).
in(55, 86).
in(55, 87).
in(55, 88).
in(55, 91).
in(55, 93).
in(55, 96).
in(55, 97).
in(55, 104).
in(55, 108).
in(55, 111).
in(55, 116).
in(55, 117).
in(55, 118).
in(55, 120).
in(55, 124).
in(55, 127).
in(56, 129).
in(56, 130).
in(56, 131).
in(56, 4).
in(56, 7).
in(56, 10).
in(56, 15).
in(56, 21).
in(56, 22).
in(56, 26).
in(56, 29).
in(56, 30).
in(56, 31).
in(56, 32).
in(56, 33).
in(56, 36).
in(56, 37).
in(56, 41).
in(56, 42).
in(56, 44).
in(56, 46).
in(56, 48).
in(56, 50).
in(56, 54).
in(56, 55).
in(56, 56).
in(56, 60).
in(56, 64).
in(56, 68).
in(56, 69).
in(56, 70).
in(56, 72).
in(56, 75).
in(56, 78).
in(56, 85).
in(56, 86).
in(56, 90).
in(56, 91).
in(56, 92).
in(56, 95).
in(56, 96).
in(56, 99).
in(56, 100).
in(56, 102).
in(56, 106).
in(56, 108).
in(56, 110).
in(56, 113).
in(56, 114).
in(56, 116).
in(56, 120).
in(56, 122).
in(57, 128).
in(57, 2).
in(57, 3).
in(57, 4).
in(57, 5).
in(57, 6).
in(57, 7).
in(57, 9).
in(57, 11).
in(57, 13).
in(57, 15).
in(57, 17).
in(57, 21).
in(57, 24).
in(57, 25).
in(57, 27).
in(57, 28).
in(57, 30).
in(57, 31).
in(57, 33).
in(57, 34).
in(57, 37).
in(57, 38).
in(57, 39).
in(57, 40).
in(57, 42).
in(57, 45).
in(57, 46).
in(57, 47).
in(57, 50).
in(57, 51).
in(57, 56).
in(57, 57).
in(57, 59).
in(57, 64).
in(57, 65).
in(57, 66).
in(57, 67).
in(57, 71).
in(57, 77).
in(57, 78).
in(57, 81).
in(57, 82).
in(57, 83).
in(57, 88).
in(57, 89).
in(57, 92).
in(57, 95).
in(57, 96).
in(57, 97).
in(57, 98).
in(57, 99).
in(57, 100).
in(57, 102).
in(57, 106).
in(57, 108).
in(57, 110).
in(57, 116).
in(57, 117).
in(57, 118).
in(57, 120).
in(57, 122).
in(57, 127).
in(58, 1).
in(58, 2).
in(58, 129).
in(58, 4).
in(58, 132).
in(58, 133).
in(58, 7).
in(58, 10).
in(58, 15).
in(58, 17).
in(58, 18).
in(58, 19).
in(58, 20).
in(58, 22).
in(58, 23).
in(58, 29).
in(58, 31).
in(58, 38).
in(58, 39).
in(58, 40).
in(58, 41).
in(58, 45).
in(58, 46).
in(58, 47).
in(58, 51).
in(58, 52).
in(58, 53).
in(58, 55).
in(58, 56).
in(58, 57).
in(58, 59).
in(58, 65).
in(58, 68).
in(58, 69).
in(58, 71).
in(58, 72).
in(58, 73).
in(58, 75).
in(58, 79).
in(58, 82).
in(58, 83).
in(58, 86).
in(58, 87).
in(58, 88).
in(58, 90).
in(58, 93).
in(58, 94).
in(58, 98).
in(58, 101).
in(58, 102).
in(58, 105).
in(58, 106).
in(58, 107).
in(58, 108).
in(58, 111).
in(58, 112).
in(58, 113).
in(58, 115).
in(58, 117).
in(58, 122).
in(58, 123).
in(58, 124).
in(58, 126).
in(58, 127).
in(59, 129).
in(59, 2).
in(59, 130).
in(59, 4).
in(59, 131).
in(59, 6).
in(59, 132).
in(59, 8).
in(59, 133).
in(59, 10).
in(59, 11).
in(59, 13).
in(59, 16).
in(59, 17).
in(59, 18).
in(59, 19).
in(59, 21).
in(59, 22).
in(59, 23).
in(59, 25).
in(59, 28).
in(59, 29).
in(59, 31).
in(59, 32).
in(59, 34).
in(59, 38).
in(59, 40).
in(59, 47).
in(59, 51).
in(59, 52).
in(59, 58).
in(59, 62).
in(59, 63).
in(59, 65).
in(59, 67).
in(59, 72).
in(59, 74).
in(59, 75).
in(59, 76).
in(59, 78).
in(59, 79).
in(59, 80).
in(59, 81).
in(59, 83).
in(59, 85).
in(59, 86).
in(59, 87).
in(59, 90).
in(59, 93).
in(59, 94).
in(59, 96).
in(59, 97).
in(59, 101).
in(59, 102).
in(59, 103).
in(59, 104).
in(59, 105).
in(59, 107).
in(59, 108).
in(59, 109).
in(59, 114).
in(59, 115).
in(59, 116).
in(59, 117).
in(59, 120).
in(59, 124).
in(59, 125).
in(60, 128).
in(60, 1).
in(60, 2).
in(60, 3).
in(60, 130).
in(60, 131).
in(60, 132).
in(60, 133).
in(60, 8).
in(60, 9).
in(60, 11).
in(60, 12).
in(60, 13).
in(60, 14).
in(60, 16).
in(60, 17).
in(60, 18).
in(60, 19).
in(60, 21).
in(60, 22).
in(60, 23).
in(60, 25).
in(60, 26).
in(60, 35).
in(60, 36).
in(60, 39).
in(60, 41).
in(60, 42).
in(60, 46).
in(60, 47).
in(60, 53).
in(60, 57).
in(60, 58).
in(60, 60).
in(60, 63).
in(60, 66).
in(60, 69).
in(60, 70).
in(60, 72).
in(60, 78).
in(60, 79).
in(60, 81).
in(60, 82).
in(60, 83).
in(60, 84).
in(60, 86).
in(60, 88).
in(60, 90).
in(60, 91).
in(60, 95).
in(60, 96).
in(60, 97).
in(60, 98).
in(60, 99).
in(60, 101).
in(60, 102).
in(60, 104).
in(60, 105).
in(60, 106).
in(60, 110).
in(60, 111).
in(60, 112).
in(60, 116).
in(60, 117).
in(60, 118).
in(60, 119).
in(60, 120).
in(60, 124).
in(60, 125).
in(60, 126).
in(61, 128).
in(61, 129).
in(61, 2).
in(61, 3).
in(61, 130).
in(61, 131).
in(61, 132).
in(61, 7).
in(61, 12).
in(61, 14).
in(61, 15).
in(61, 16).
in(61, 17).
in(61, 19).
in(61, 22).
in(61, 23).
in(61, 25).
in(61, 26).
in(61, 27).
in(61, 29).
in(61, 31).
in(61, 41).
in(61, 42).
in(61, 43).
in(61, 47).
in(61, 49).
in(61, 50).
in(61, 53).
in(61, 54).
in(61, 56).
in(61, 58).
in(61, 60).
in(61, 61).
in(61, 62).
in(61, 63).
in(61, 64).
in(61, 65).
in(61, 66).
in(61, 69).
in(61, 70).
in(61, 72).
in(61, 73).
in(61, 74).
in(61, 76).
in(61, 79).
in(61, 80).
in(61, 83).
in(61, 88).
in(61, 90).
in(61, 91).
in(61, 92).
in(61, 93).
in(61, 96).
in(61, 98).
in(61, 100).
in(61, 106).
in(61, 112).
in(61, 113).
in(61, 114).
in(61, 116).
in(61, 117).
in(61, 121).
in(61, 122).
in(61, 123).
in(61, 125).
in(62, 128).
in(62, 1).
in(62, 129).
in(62, 132).
in(62, 133).
in(62, 6).
in(62, 7).
in(62, 8).
in(62, 9).
in(62, 10).
in(62, 11).
in(62, 16).
in(62, 18).
in(62, 20).
in(62, 21).
in(62, 22).
in(62, 24).
in(62, 27).
in(62, 29).
in(62, 32).
in(62, 33).
in(62, 36).
in(62, 41).
in(62, 43).
in(62, 45).
in(62, 47).
in(62, 52).
in(62, 54).
in(62, 58).
in(62, 60).
in(62, 62).
in(62, 68).
in(62, 70).
in(62, 72).
in(62, 77).
in(62, 78).
in(62, 82).
in(62, 87).
in(62, 90).
in(62, 95).
in(62, 97).
in(62, 98).
in(62, 100).
in(62, 102).
in(62, 104).
in(62, 106).
in(62, 107).
in(62, 108).
in(62, 112).
in(62, 115).
in(62, 116).
in(62, 120).
in(62, 121).
in(62, 122).
in(62, 124).
in(62, 127).
in(63, 128).
in(63, 1).
in(63, 130).
in(63, 131).
in(63, 132).
in(63, 133).
in(63, 6).
in(63, 7).
in(63, 9).
in(63, 11).
in(63, 14).
in(63, 15).
in(63, 17).
in(63, 19).
in(63, 22).
in(63, 23).
in(63, 25).
in(63, 27).
in(63, 30).
in(63, 34).
in(63, 35).
in(63, 37).
in(63, 39).
in(63, 40).
in(63, 43).
in(63, 48).
in(63, 50).
in(63, 56).
in(63, 59).
in(63, 63).
in(63, 67).
in(63, 68).
in(63, 69).
in(63, 71).
in(63, 74).
in(63, 76).
in(63, 81).
in(63, 83).
in(63, 85).
in(63, 86).
in(63, 90).
in(63, 92).
in(63, 93).
in(63, 95).
in(63, 97).
in(63, 98).
in(63, 101).
in(63, 106).
in(63, 107).
in(63, 111).
in(63, 112).
in(63, 113).
in(63, 115).
in(63, 118).
in(63, 119).
in(63, 120).
in(63, 122).
in(63, 125).
in(63, 126).
in(63, 127).
in(64, 1).
in(64, 2).
in(64, 3).
in(64, 129).
in(64, 10).
in(64, 14).
in(64, 15).
in(64, 17).
in(64, 18).
in(64, 21).
in(64, 22).
in(64, 24).
in(64, 28).
in(64, 30).
in(64, 35).
in(64, 38).
in(64, 40).
in(64, 41).
in(64, 44).
in(64, 45).
in(64, 46).
in(64, 48).
in(64, 49).
in(64, 51).
in(64, 52).
in(64, 54).
in(64, 56).
in(64, 59).
in(64, 61).
in(64, 62).
in(64, 65).
in(64, 68).
in(64, 69).
in(64, 72).
in(64, 73).
in(64, 77).
in(64, 79).
in(64, 81).
in(64, 83).
in(64, 86).
in(64, 91).
in(64, 92).
in(64, 95).
in(64, 100).
in(64, 101).
in(64, 103).
in(64, 106).
in(64, 111).
in(64, 112).
in(64, 113).
in(64, 117).
in(64, 118).
in(64, 119).
in(64, 121).
in(64, 122).
in(64, 124).
in(64, 127).
in(65, 1).
in(65, 129).
in(65, 3).
in(65, 5).
in(65, 7).
in(65, 8).
in(65, 9).
in(65, 10).
in(65, 17).
in(65, 19).
in(65, 20).
in(65, 21).
in(65, 23).
in(65, 24).
in(65, 25).
in(65, 32).
in(65, 36).
in(65, 42).
in(65, 43).
in(65, 44).
in(65, 45).
in(65, 48).
in(65, 51).
in(65, 52).
in(65, 53).
in(65, 56).
in(65, 58).
in(65, 60).
in(65, 62).
in(65, 66).
in(65, 71).
in(65, 74).
in(65, 77).
in(65, 78).
in(65, 81).
in(65, 82).
in(65, 88).
in(65, 92).
in(65, 93).
in(65, 97).
in(65, 98).
in(65, 104).
in(65, 106).
in(65, 107).
in(65, 108).
in(65, 111).
in(65, 113).
in(65, 116).
in(65, 118).
in(65, 119).
in(65, 120).
in(65, 121).
in(65, 123).
in(65, 126).
in(66, 128).
in(66, 1).
in(66, 2).
in(66, 3).
in(66, 129).
in(66, 131).
in(66, 6).
in(66, 8).
in(66, 10).
in(66, 11).
in(66, 12).
in(66, 14).
in(66, 18).
in(66, 20).
in(66, 21).
in(66, 25).
in(66, 29).
in(66, 37).
in(66, 40).
in(66, 44).
in(66, 50).
in(66, 53).
in(66, 58).
in(66, 59).
in(66, 61).
in(66, 62).
in(66, 63).
in(66, 64).
in(66, 66).
in(66, 68).
in(66, 71).
in(66, 76).
in(66, 78).
in(66, 83).
in(66, 84).
in(66, 86).
in(66, 87).
in(66, 88).
in(66, 90).
in(66, 91).
in(66, 92).
in(66, 93).
in(66, 94).
in(66, 95).
in(66, 97).
in(66, 98).
in(66, 100).
in(66, 107).
in(66, 109).
in(66, 110).
in(66, 116).
in(66, 117).
in(66, 118).
in(66, 123).
in(66, 124).
in(66, 125).
in(66, 127).
in(67, 129).
in(67, 2).
in(67, 130).
in(67, 4).
in(67, 132).
in(67, 133).
in(67, 7).
in(67, 10).
in(67, 12).
in(67, 13).
in(67, 18).
in(67, 19).
in(67, 20).
in(67, 23).
in(67, 25).
in(67, 29).
in(67, 30).
in(67, 32).
in(67, 34).
in(67, 38).
in(67, 39).
in(67, 40).
in(67, 41).
in(67, 45).
in(67, 46).
in(67, 47).
in(67, 52).
in(67, 53).
in(67, 55).
in(67, 56).
in(67, 57).
in(67, 58).
in(67, 65).
in(67, 68).
in(67, 69).
in(67, 72).
in(67, 74).
in(67, 78).
in(67, 80).
in(67, 81).
in(67, 84).
in(67, 87).
in(67, 95).
in(67, 96).
in(67, 98).
in(67, 106).
in(67, 109).
in(67, 110).
in(67, 112).
in(67, 116).
in(67, 118).
in(67, 123).
in(67, 124).
in(67, 127).
in(68, 128).
in(68, 2).
in(68, 3).
in(68, 130).
in(68, 131).
in(68, 6).
in(68, 7).
in(68, 8).
in(68, 9).
in(68, 10).
in(68, 11).
in(68, 132).
in(68, 13).
in(68, 15).
in(68, 18).
in(68, 20).
in(68, 25).
in(68, 28).
in(68, 30).
in(68, 32).
in(68, 34).
in(68, 35).
in(68, 36).
in(68, 38).
in(68, 40).
in(68, 41).
in(68, 44).
in(68, 45).
in(68, 49).
in(68, 51).
in(68, 54).
in(68, 55).
in(68, 58).
in(68, 62).
in(68, 63).
in(68, 65).
in(68, 66).
in(68, 69).
in(68, 70).
in(68, 75).
in(68, 77).
in(68, 78).
in(68, 80).
in(68, 82).
in(68, 83).
in(68, 86).
in(68, 87).
in(68, 89).
in(68, 91).
in(68, 95).
in(68, 97).
in(68, 98).
in(68, 100).
in(68, 102).
in(68, 103).
in(68, 104).
in(68, 105).
in(68, 110).
in(68, 112).
in(68, 113).
in(68, 117).
in(68, 119).
in(68, 120).
in(68, 121).
in(68, 124).
in(68, 126).
in(69, 129).
in(69, 2).
in(69, 3).
in(69, 4).
in(69, 133).
in(69, 10).
in(69, 14).
in(69, 21).
in(69, 22).
in(69, 24).
in(69, 26).
in(69, 28).
in(69, 32).
in(69, 38).
in(69, 42).
in(69, 43).
in(69, 46).
in(69, 49).
in(69, 50).
in(69, 59).
in(69, 60).
in(69, 61).
in(69, 62).
in(69, 64).
in(69, 65).
in(69, 67).
in(69, 70).
in(69, 72).
in(69, 74).
in(69, 78).
in(69, 80).
in(69, 84).
in(69, 85).
in(69, 86).
in(69, 88).
in(69, 89).
in(69, 91).
in(69, 94).
in(69, 96).
in(69, 97).
in(69, 98).
in(69, 102).
in(69, 103).
in(69, 107).
in(69, 111).
in(69, 113).
in(69, 116).
in(69, 124).
in(69, 127).
in(70, 4).
in(70, 132).
in(70, 133).
in(70, 11).
in(70, 14).
in(70, 15).
in(70, 19).
in(70, 20).
in(70, 21).
in(70, 22).
in(70, 23).
in(70, 24).
in(70, 29).
in(70, 31).
in(70, 32).
in(70, 33).
in(70, 34).
in(70, 45).
in(70, 46).
in(70, 52).
in(70, 54).
in(70, 55).
in(70, 57).
in(70, 58).
in(70, 59).
in(70, 60).
in(70, 61).
in(70, 65).
in(70, 67).
in(70, 68).
in(70, 71).
in(70, 74).
in(70, 82).
in(70, 85).
in(70, 86).
in(70, 87).
in(70, 89).
in(70, 90).
in(70, 91).
in(70, 92).
in(70, 93).
in(70, 94).
in(70, 96).
in(70, 97).
in(70, 98).
in(70, 99).
in(70, 100).
in(70, 102).
in(70, 103).
in(70, 104).
in(70, 106).
in(70, 108).
in(70, 110).
in(70, 111).
in(70, 113).
in(70, 115).
in(70, 117).
in(70, 120).
in(70, 121).
in(70, 123).
in(70, 126).
in(70, 127).
in(71, 2).
in(71, 131).
in(71, 4).
in(71, 5).
in(71, 132).
in(71, 7).
in(71, 133).
in(71, 9).
in(71, 11).
in(71, 12).
in(71, 15).
in(71, 16).
in(71, 20).
in(71, 22).
in(71, 26).
in(71, 27).
in(71, 29).
in(71, 31).
in(71, 32).
in(71, 36).
in(71, 37).
in(71, 40).
in(71, 42).
in(71, 43).
in(71, 49).
in(71, 51).
in(71, 53).
in(71, 54).
in(71, 57).
in(71, 59).
in(71, 62).
in(71, 66).
in(71, 67).
in(71, 68).
in(71, 69).
in(71, 71).
in(71, 74).
in(71, 77).
in(71, 78).
in(71, 79).
in(71, 82).
in(71, 85).
in(71, 92).
in(71, 94).
in(71, 95).
in(71, 96).
in(71, 99).
in(71, 102).
in(71, 104).
in(71, 105).
in(71, 107).
in(71, 108).
in(71, 110).
in(71, 112).
in(71, 114).
in(71, 117).
in(71, 119).
in(71, 120).
in(71, 123).
in(71, 125).
in(72, 128).
in(72, 1).
in(72, 2).
in(72, 3).
in(72, 4).
in(72, 133).
in(72, 7).
in(72, 11).
in(72, 13).
in(72, 14).
in(72, 20).
in(72, 21).
in(72, 22).
in(72, 26).
in(72, 27).
in(72, 28).
in(72, 29).
in(72, 31).
in(72, 32).
in(72, 35).
in(72, 37).
in(72, 38).
in(72, 39).
in(72, 40).
in(72, 45).
in(72, 47).
in(72, 50).
in(72, 53).
in(72, 55).
in(72, 58).
in(72, 59).
in(72, 61).
in(72, 62).
in(72, 73).
in(72, 76).
in(72, 77).
in(72, 78).
in(72, 80).
in(72, 82).
in(72, 83).
in(72, 85).
in(72, 87).
in(72, 88).
in(72, 89).
in(72, 91).
in(72, 97).
in(72, 99).
in(72, 100).
in(72, 103).
in(72, 105).
in(72, 107).
in(72, 110).
in(72, 111).
in(72, 112).
in(72, 113).
in(72, 114).
in(72, 115).
in(72, 116).
in(72, 118).
in(72, 122).
in(73, 1).
in(73, 129).
in(73, 4).
in(73, 5).
in(73, 132).
in(73, 7).
in(73, 12).
in(73, 16).
in(73, 17).
in(73, 18).
in(73, 19).
in(73, 24).
in(73, 25).
in(73, 26).
in(73, 29).
in(73, 34).
in(73, 35).
in(73, 37).
in(73, 38).
in(73, 41).
in(73, 43).
in(73, 44).
in(73, 45).
in(73, 46).
in(73, 50).
in(73, 51).
in(73, 53).
in(73, 55).
in(73, 60).
in(73, 62).
in(73, 64).
in(73, 65).
in(73, 67).
in(73, 69).
in(73, 76).
in(73, 78).
in(73, 83).
in(73, 86).
in(73, 90).
in(73, 92).
in(73, 95).
in(73, 96).
in(73, 97).
in(73, 98).
in(73, 100).
in(73, 102).
in(73, 104).
in(73, 107).
in(73, 109).
in(73, 110).
in(73, 113).
in(73, 114).
in(73, 118).
in(73, 120).
in(73, 121).
in(73, 126).
in(74, 128).
in(74, 1).
in(74, 3).
in(74, 132).
in(74, 6).
in(74, 12).
in(74, 13).
in(74, 14).
in(74, 15).
in(74, 16).
in(74, 18).
in(74, 20).
in(74, 21).
in(74, 26).
in(74, 27).
in(74, 31).
in(74, 32).
in(74, 33).
in(74, 35).
in(74, 37).
in(74, 38).
in(74, 41).
in(74, 43).
in(74, 44).
in(74, 47).
in(74, 48).
in(74, 49).
in(74, 50).
in(74, 51).
in(74, 52).
in(74, 56).
in(74, 57).
in(74, 61).
in(74, 63).
in(74, 64).
in(74, 71).
in(74, 72).
in(74, 75).
in(74, 82).
in(74, 83).
in(74, 86).
in(74, 87).
in(74, 88).
in(74, 94).
in(74, 96).
in(74, 98).
in(74, 99).
in(74, 101).
in(74, 102).
in(74, 106).
in(74, 107).
in(74, 108).
in(74, 113).
in(74, 114).
in(74, 115).
in(74, 118).
in(74, 124).
in(74, 126).
in(75, 128).
in(75, 131).
in(75, 132).
in(75, 12).
in(75, 13).
in(75, 16).
in(75, 17).
in(75, 19).
in(75, 20).
in(75, 22).
in(75, 23).
in(75, 24).
in(75, 30).
in(75, 32).
in(75, 33).
in(75, 36).
in(75, 38).
in(75, 39).
in(75, 41).
in(75, 42).
in(75, 43).
in(75, 45).
in(75, 46).
in(75, 47).
in(75, 52).
in(75, 55).
in(75, 58).
in(75, 59).
in(75, 67).
in(75, 68).
in(75, 69).
in(75, 76).
in(75, 77).
in(75, 78).
in(75, 82).
in(75, 83).
in(75, 84).
in(75, 86).
in(75, 88).
in(75, 90).
in(75, 91).
in(75, 92).
in(75, 95).
in(75, 96).
in(75, 97).
in(75, 102).
in(75, 103).
in(75, 104).
in(75, 105).
in(75, 106).
in(75, 107).
in(75, 109).
in(75, 111).
in(75, 112).
in(75, 117).
in(75, 119).
in(75, 120).
in(75, 121).
in(75, 123).
in(76, 1).
in(76, 2).
in(76, 3).
in(76, 131).
in(76, 7).
in(76, 12).
in(76, 13).
in(76, 16).
in(76, 17).
in(76, 19).
in(76, 23).
in(76, 24).
in(76, 25).
in(76, 26).
in(76, 28).
in(76, 29).
in(76, 30).
in(76, 32).
in(76, 34).
in(76, 35).
in(76, 36).
in(76, 37).
in(76, 38).
in(76, 41).
in(76, 45).
in(76, 46).
in(76, 47).
in(76, 49).
in(76, 53).
in(76, 55).
in(76, 58).
in(76, 61).
in(76, 63).
in(76, 64).
in(76, 65).
in(76, 67).
in(76, 68).
in(76, 69).
in(76, 70).
in(76, 71).
in(76, 72).
in(76, 73).
in(76, 74).
in(76, 79).
in(76, 82).
in(76, 83).
in(76, 84).
in(76, 88).
in(76, 89).
in(76, 97).
in(76, 98).
in(76, 99).
in(76, 100).
in(76, 102).
in(76, 103).
in(76, 104).
in(76, 107).
in(76, 110).
in(76, 111).
in(76, 114).
in(76, 118).
in(76, 119).
in(76, 123).
in(76, 127).
in(77, 1).
in(77, 2).
in(77, 129).
in(77, 132).
in(77, 6).
in(77, 9).
in(77, 10).
in(77, 11).
in(77, 12).
in(77, 13).
in(77, 15).
in(77, 16).
in(77, 18).
in(77, 20).
in(77, 22).
in(77, 28).
in(77, 29).
in(77, 33).
in(77, 34).
in(77, 39).
in(77, 40).
in(77, 42).
in(77, 44).
in(77, 49).
in(77, 50).
in(77, 52).
in(77, 54).
in(77, 55).
in(77, 56).
in(77, 59).
in(77, 63).
in(77, 64).
in(77, 66).
in(77, 67).
in(77, 68).
in(77, 71).
in(77, 75).
in(77, 76).
in(77, 77).
in(77, 80).
in(77, 82).
in(77, 84).
in(77, 85).
in(77, 88).
in(77, 97).
in(77, 98).
in(77, 101).
in(77, 103).
in(77, 104).
in(77, 106).
in(77, 108).
in(77, 109).
in(77, 111).
in(77, 117).
in(77, 123).
in(78, 128).
in(78, 131).
in(78, 4).
in(78, 133).
in(78, 9).
in(78, 10).
in(78, 11).
in(78, 12).
in(78, 15).
in(78, 16).
in(78, 17).
in(78, 18).
in(78, 19).
in(78, 20).
in(78, 22).
in(78, 24).
in(78, 26).
in(78, 29).
in(78, 31).
in(78, 32).
in(78, 41).
in(78, 42).
in(78, 46).
in(78, 47).
in(78, 50).
in(78, 57).
in(78, 59).
in(78, 63).
in(78, 72).
in(78, 74).
in(78, 75).
in(78, 78).
in(78, 79).
in(78, 80).
in(78, 81).
in(78, 85).
in(78, 87).
in(78, 88).
in(78, 89).
in(78, 91).
in(78, 93).
in(78, 96).
in(78, 98).
in(78, 99).
in(78, 100).
in(78, 103).
in(78, 104).
in(78, 105).
in(78, 108).
in(78, 109).
in(78, 112).
in(78, 113).
in(78, 115).
in(78, 117).
in(78, 118).
in(78, 121).
in(78, 122).
in(78, 125).
in(78, 126).
in(79, 128).
in(79, 2).
in(79, 4).
in(79, 5).
in(79, 7).
in(79, 8).
in(79, 10).
in(79, 11).
in(79, 14).
in(79, 18).
in(79, 21).
in(79, 22).
in(79, 24).
in(79, 25).
in(79, 26).
in(79, 27).
in(79, 28).
in(79, 29).
in(79, 31).
in(79, 32).
in(79, 33).
in(79, 34).
in(79, 38).
in(79, 39).
in(79, 41).
in(79, 42).
in(79, 45).
in(79, 48).
in(79, 55).
in(79, 57).
in(79, 58).
in(79, 59).
in(79, 62).
in(79, 66).
in(79, 67).
in(79, 69).
in(79, 72).
in(79, 74).
in(79, 78).
in(79, 81).
in(79, 82).
in(79, 85).
in(79, 88).
in(79, 90).
in(79, 95).
in(79, 97).
in(79, 100).
in(79, 102).
in(79, 105).
in(79, 106).
in(79, 107).
in(79, 109).
in(79, 111).
in(79, 113).
in(79, 114).
in(79, 118).
in(79, 120).
in(79, 126).
in(79, 127).
in(80, 129).
in(80, 2).
in(80, 131).
in(80, 4).
in(80, 5).
in(80, 6).
in(80, 133).
in(80, 9).
in(80, 11).
in(80, 14).
in(80, 17).
in(80, 18).
in(80, 19).
in(80, 23).
in(80, 24).
in(80, 25).
in(80, 35).
in(80, 38).
in(80, 39).
in(80, 42).
in(80, 47).
in(80, 48).
in(80, 50).
in(80, 52).
in(80, 53).
in(80, 59).
in(80, 60).
in(80, 64).
in(80, 66).
in(80, 67).
in(80, 69).
in(80, 70).
in(80, 72).
in(80, 74).
in(80, 75).
in(80, 77).
in(80, 78).
in(80, 79).
in(80, 82).
in(80, 84).
in(80, 89).
in(80, 92).
in(80, 94).
in(80, 95).
in(80, 98).
in(80, 99).
in(80, 100).
in(80, 101).
in(80, 102).
in(80, 104).
in(80, 106).
in(80, 107).
in(80, 109).
in(80, 112).
in(80, 114).
in(80, 116).
in(80, 117).
in(80, 119).
in(80, 121).
in(80, 122).
in(80, 123).
in(80, 125).
in(80, 127).
in(81, 129).
in(81, 2).
in(81, 130).
in(81, 4).
in(81, 5).
in(81, 133).
in(81, 7).
in(81, 9).
in(81, 12).
in(81, 14).
in(81, 15).
in(81, 16).
in(81, 20).
in(81, 21).
in(81, 23).
in(81, 26).
in(81, 28).
in(81, 34).
in(81, 35).
in(81, 38).
in(81, 46).
in(81, 51).
in(81, 53).
in(81, 54).
in(81, 56).
in(81, 58).
in(81, 59).
in(81, 60).
in(81, 62).
in(81, 64).
in(81, 65).
in(81, 69).
in(81, 70).
in(81, 73).
in(81, 79).
in(81, 81).
in(81, 82).
in(81, 84).
in(81, 86).
in(81, 87).
in(81, 90).
in(81, 91).
in(81, 95).
in(81, 97).
in(81, 99).
in(81, 103).
in(81, 104).
in(81, 106).
in(81, 109).
in(81, 112).
in(81, 118).
in(81, 119).
in(81, 120).
in(81, 124).
in(81, 126).
in(81, 127).
in(82, 128).
in(82, 130).
in(82, 3).
in(82, 4).
in(82, 5).
in(82, 133).
in(82, 7).
in(82, 12).
in(82, 15).
in(82, 16).
in(82, 17).
in(82, 19).
in(82, 20).
in(82, 21).
in(82, 26).
in(82, 27).
in(82, 31).
in(82, 32).
in(82, 33).
in(82, 35).
in(82, 37).
in(82, 39).
in(82, 41).
in(82, 44).
in(82, 45).
in(82, 46).
in(82, 47).
in(82, 51).
in(82, 53).
in(82, 56).
in(82, 58).
in(82, 59).
in(82, 62).
in(82, 67).
in(82, 69).
in(82, 71).
in(82, 74).
in(82, 76).
in(82, 77).
in(82, 80).
in(82, 81).
in(82, 82).
in(82, 83).
in(82, 84).
in(82, 89).
in(82, 90).
in(82, 91).
in(82, 93).
in(82, 94).
in(82, 95).
in(82, 96).
in(82, 103).
in(82, 104).
in(82, 105).
in(82, 107).
in(82, 108).
in(82, 109).
in(82, 114).
in(82, 116).
in(82, 119).
in(82, 121).
in(82, 122).
in(82, 124).
in(82, 126).
in(82, 127).
in(83, 1).
in(83, 2).
in(83, 129).
in(83, 4).
in(83, 7).
in(83, 8).
in(83, 10).
in(83, 15).
in(83, 23).
in(83, 24).
in(83, 26).
in(83, 27).
in(83, 29).
in(83, 34).
in(83, 37).
in(83, 38).
in(83, 39).
in(83, 41).
in(83, 44).
in(83, 49).
in(83, 50).
in(83, 53).
in(83, 55).
in(83, 57).
in(83, 58).
in(83, 65).
in(83, 66).
in(83, 67).
in(83, 70).
in(83, 72).
in(83, 76).
in(83, 84).
in(83, 91).
in(83, 92).
in(83, 93).
in(83, 94).
in(83, 96).
in(83, 97).
in(83, 99).
in(83, 101).
in(83, 104).
in(83, 107).
in(83, 111).
in(83, 114).
in(83, 115).
in(83, 119).
in(83, 121).
in(83, 125).
in(84, 128).
in(84, 129).
in(84, 131).
in(84, 4).
in(84, 133).
in(84, 11).
in(84, 12).
in(84, 13).
in(84, 15).
in(84, 16).
in(84, 17).
in(84, 20).
in(84, 25).
in(84, 27).
in(84, 31).
in(84, 32).
in(84, 35).
in(84, 36).
in(84, 37).
in(84, 42).
in(84, 48).
in(84, 49).
in(84, 50).
in(84, 52).
in(84, 55).
in(84, 56).
in(84, 61).
in(84, 62).
in(84, 64).
in(84, 66).
in(84, 67).
in(84, 69).
in(84, 70).
in(84, 75).
in(84, 78).
in(84, 80).
in(84, 82).
in(84, 84).
in(84, 85).
in(84, 87).
in(84, 88).
in(84, 92).
in(84, 95).
in(84, 98).
in(84, 99).
in(84, 100).
in(84, 102).
in(84, 103).
in(84, 106).
in(84, 108).
in(84, 111).
in(84, 114).
in(84, 115).
in(84, 120).
in(84, 121).
in(84, 122).
in(84, 126).
in(84, 127).
in(85, 130).
in(85, 3).
in(85, 132).
in(85, 5).
in(85, 8).
in(85, 10).
in(85, 11).
in(85, 14).
in(85, 18).
in(85, 19).
in(85, 22).
in(85, 24).
in(85, 26).
in(85, 37).
in(85, 38).
in(85, 42).
in(85, 49).
in(85, 50).
in(85, 51).
in(85, 54).
in(85, 56).
in(85, 57).
in(85, 60).
in(85, 61).
in(85, 68).
in(85, 70).
in(85, 72).
in(85, 76).
in(85, 77).
in(85, 78).
in(85, 79).
in(85, 81).
in(85, 83).
in(85, 85).
in(85, 86).
in(85, 88).
in(85, 90).
in(85, 93).
in(85, 96).
in(85, 97).
in(85, 98).
in(85, 103).
in(85, 104).
in(85, 105).
in(85, 107).
in(85, 108).
in(85, 110).
in(85, 112).
in(85, 114).
in(85, 122).
in(85, 123).
in(85, 125).
in(85, 126).
in(85, 127).
in(86, 3).
in(86, 131).
in(86, 132).
in(86, 8).
in(86, 9).
in(86, 12).
in(86, 13).
in(86, 15).
in(86, 17).
in(86, 20).
in(86, 24).
in(86, 25).
in(86, 27).
in(86, 28).
in(86, 31).
in(86, 33).
in(86, 35).
in(86, 37).
in(86, 39).
in(86, 40).
in(86, 43).
in(86, 45).
in(86, 46).
in(86, 48).
in(86, 49).
in(86, 56).
in(86, 58).
in(86, 59).
in(86, 60).
in(86, 63).
in(86, 64).
in(86, 65).
in(86, 70).
in(86, 71).
in(86, 72).
in(86, 74).
in(86, 75).
in(86, 81).
in(86, 83).
in(86, 86).
in(86, 89).
in(86, 92).
in(86, 93).
in(86, 94).
in(86, 95).
in(86, 96).
in(86, 98).
in(86, 102).
in(86, 103).
in(86, 105).
in(86, 106).
in(86, 110).
in(86, 112).
in(86, 114).
in(86, 115).
in(86, 116).
in(86, 119).
in(86, 120).
in(86, 122).
in(86, 123).
in(86, 127).
in(87, 2).
in(87, 3).
in(87, 5).
in(87, 6).
in(87, 7).
in(87, 11).
in(87, 12).
in(87, 17).
in(87, 18).
in(87, 20).
in(87, 23).
in(87, 24).
in(87, 25).
in(87, 26).
in(87, 27).
in(87, 28).
in(87, 29).
in(87, 40).
in(87, 43).
in(87, 44).
in(87, 47).
in(87, 53).
in(87, 54).
in(87, 56).
in(87, 59).
in(87, 61).
in(87, 62).
in(87, 64).
in(87, 67).
in(87, 69).
in(87, 72).
in(87, 74).
in(87, 77).
in(87, 79).
in(87, 81).
in(87, 85).
in(87, 88).
in(87, 90).
in(87, 93).
in(87, 95).
in(87, 97).
in(87, 98).
in(87, 100).
in(87, 103).
in(87, 108).
in(87, 111).
in(87, 122).
in(87, 123).
in(87, 127).
in(88, 129).
in(88, 130).
in(88, 3).
in(88, 4).
in(88, 7).
in(88, 9).
in(88, 10).
in(88, 11).
in(88, 14).
in(88, 15).
in(88, 21).
in(88, 26).
in(88, 28).
in(88, 29).
in(88, 31).
in(88, 32).
in(88, 33).
in(88, 34).
in(88, 35).
in(88, 38).
in(88, 43).
in(88, 44).
in(88, 45).
in(88, 46).
in(88, 48).
in(88, 49).
in(88, 51).
in(88, 54).
in(88, 55).
in(88, 56).
in(88, 59).
in(88, 61).
in(88, 63).
in(88, 64).
in(88, 67).
in(88, 68).
in(88, 70).
in(88, 71).
in(88, 72).
in(88, 80).
in(88, 85).
in(88, 86).
in(88, 87).
in(88, 89).
in(88, 90).
in(88, 91).
in(88, 94).
in(88, 95).
in(88, 97).
in(88, 98).
in(88, 99).
in(88, 100).
in(88, 102).
in(88, 103).
in(88, 107).
in(88, 109).
in(88, 110).
in(88, 115).
in(88, 116).
in(88, 117).
in(88, 118).
in(88, 121).
in(88, 123).
in(88, 124).
in(88, 126).
in(88, 127).
in(89, 128).
in(89, 131).
in(89, 132).
in(89, 5).
in(89, 6).
in(89, 8).
in(89, 9).
in(89, 12).
in(89, 13).
in(89, 14).
in(89, 17).
in(89, 19).
in(89, 21).
in(89, 22).
in(89, 25).
in(89, 31).
in(89, 33).
in(89, 37).
in(89, 40).
in(89, 43).
in(89, 44).
in(89, 45).
in(89, 47).
in(89, 49).
in(89, 50).
in(89, 53).
in(89, 54).
in(89, 57).
in(89, 58).
in(89, 59).
in(89, 61).
in(89, 62).
in(89, 63).
in(89, 64).
in(89, 65).
in(89, 69).
in(89, 71).
in(89, 76).
in(89, 78).
in(89, 81).
in(89, 84).
in(89, 85).
in(89, 86).
in(89, 93).
in(89, 94).
in(89, 98).
in(89, 104).
in(89, 106).
in(89, 108).
in(89, 110).
in(89, 111).
in(89, 112).
in(89, 113).
in(89, 119).
in(89, 125).
in(90, 128).
in(90, 1).
in(90, 2).
in(90, 3).
in(90, 4).
in(90, 6).
in(90, 7).
in(90, 11).
in(90, 12).
in(90, 14).
in(90, 16).
in(90, 18).
in(90, 19).
in(90, 21).
in(90, 24).
in(90, 26).
in(90, 27).
in(90, 29).
in(90, 33).
in(90, 35).
in(90, 36).
in(90, 37).
in(90, 39).
in(90, 40).
in(90, 41).
in(90, 42).
in(90, 43).
in(90, 44).
in(90, 46).
in(90, 50).
in(90, 55).
in(90, 56).
in(90, 61).
in(90, 67).
in(90, 68).
in(90, 73).
in(90, 77).
in(90, 81).
in(90, 84).
in(90, 87).
in(90, 89).
in(90, 91).
in(90, 92).
in(90, 95).
in(90, 97).
in(90, 99).
in(90, 100).
in(90, 101).
in(90, 102).
in(90, 104).
in(90, 109).
in(90, 111).
in(90, 112).
in(90, 115).
in(90, 118).
in(90, 121).
in(90, 123).
in(90, 124).
in(90, 126).
in(91, 2).
in(91, 3).
in(91, 130).
in(91, 5).
in(91, 131).
in(91, 7).
in(91, 8).
in(91, 9).
in(91, 10).
in(91, 132).
in(91, 12).
in(91, 133).
in(91, 16).
in(91, 18).
in(91, 19).
in(91, 20).
in(91, 21).
in(91, 22).
in(91, 23).
in(91, 25).
in(91, 26).
in(91, 27).
in(91, 28).
in(91, 31).
in(91, 32).
in(91, 33).
in(91, 34).
in(91, 35).
in(91, 36).
in(91, 38).
in(91, 39).
in(91, 42).
in(91, 43).
in(91, 52).
in(91, 55).
in(91, 59).
in(91, 60).
in(91, 63).
in(91, 64).
in(91, 66).
in(91, 68).
in(91, 70).
in(91, 73).
in(91, 80).
in(91, 81).
in(91, 90).
in(91, 93).
in(91, 96).
in(91, 100).
in(91, 101).
in(91, 102).
in(91, 103).
in(91, 106).
in(91, 107).
in(91, 111).
in(91, 112).
in(91, 114).
in(91, 117).
in(91, 118).
in(91, 123).
in(91, 124).
in(91, 125).
in(91, 127).
in(92, 1).
in(92, 3).
in(92, 4).
in(92, 133).
in(92, 9).
in(92, 11).
in(92, 14).
in(92, 16).
in(92, 18).
in(92, 24).
in(92, 25).
in(92, 27).
in(92, 36).
in(92, 37).
in(92, 38).
in(92, 39).
in(92, 41).
in(92, 42).
in(92, 45).
in(92, 47).
in(92, 48).
in(92, 49).
in(92, 50).
in(92, 51).
in(92, 56).
in(92, 57).
in(92, 61).
in(92, 64).
in(92, 65).
in(92, 66).
in(92, 68).
in(92, 70).
in(92, 72).
in(92, 75).
in(92, 78).
in(92, 83).
in(92, 85).
in(92, 86).
in(92, 90).
in(92, 92).
in(92, 93).
in(92, 95).
in(92, 98).
in(92, 101).
in(92, 103).
in(92, 104).
in(92, 106).
in(92, 107).
in(92, 111).
in(92, 112).
in(92, 115).
in(92, 117).
in(92, 122).
in(92, 123).
in(92, 125).
in(92, 126).
in(93, 3).
in(93, 4).
in(93, 7).
in(93, 8).
in(93, 10).
in(93, 12).
in(93, 14).
in(93, 16).
in(93, 22).
in(93, 23).
in(93, 28).
in(93, 31).
in(93, 33).
in(93, 36).
in(93, 37).
in(93, 38).
in(93, 39).
in(93, 40).
in(93, 47).
in(93, 49).
in(93, 50).
in(93, 51).
in(93, 55).
in(93, 59).
in(93, 62).
in(93, 63).
in(93, 64).
in(93, 65).
in(93, 72).
in(93, 73).
in(93, 74).
in(93, 75).
in(93, 84).
in(93, 86).
in(93, 89).
in(93, 94).
in(93, 95).
in(93, 96).
in(93, 98).
in(93, 102).
in(93, 108).
in(93, 113).
in(93, 115).
in(93, 117).
in(93, 119).
in(93, 121).
in(93, 123).
in(93, 124).
in(94, 130).
in(94, 4).
in(94, 132).
in(94, 133).
in(94, 10).
in(94, 13).
in(94, 17).
in(94, 18).
in(94, 21).
in(94, 22).
in(94, 23).
in(94, 27).
in(94, 28).
in(94, 31).
in(94, 32).
in(94, 36).
in(94, 38).
in(94, 41).
in(94, 45).
in(94, 49).
in(94, 50).
in(94, 53).
in(94, 60).
in(94, 63).
in(94, 67).
in(94, 69).
in(94, 70).
in(94, 72).
in(94, 73).
in(94, 74).
in(94, 77).
in(94, 80).
in(94, 85).
in(94, 87).
in(94, 89).
in(94, 95).
in(94, 98).
in(94, 101).
in(94, 108).
in(94, 109).
in(94, 111).
in(94, 113).
in(94, 114).
in(94, 120).
in(94, 121).
in(94, 124).
in(94, 125).
in(95, 128).
in(95, 129).
in(95, 130).
in(95, 131).
in(95, 4).
in(95, 132).
in(95, 133).
in(95, 8).
in(95, 10).
in(95, 12).
in(95, 14).
in(95, 15).
in(95, 16).
in(95, 18).
in(95, 21).
in(95, 28).
in(95, 30).
in(95, 31).
in(95, 40).
in(95, 41).
in(95, 43).
in(95, 46).
in(95, 48).
in(95, 50).
in(95, 51).
in(95, 55).
in(95, 56).
in(95, 57).
in(95, 58).
in(95, 61).
in(95, 62).
in(95, 65).
in(95, 66).
in(95, 68).
in(95, 70).
in(95, 72).
in(95, 74).
in(95, 75).
in(95, 76).
in(95, 84).
in(95, 86).
in(95, 87).
in(95, 89).
in(95, 91).
in(95, 95).
in(95, 97).
in(95, 98).
in(95, 100).
in(95, 101).
in(95, 102).
in(95, 108).
in(95, 111).
in(95, 113).
in(95, 114).
in(95, 116).
in(95, 125).
in(95, 126).
in(95, 127).
in(96, 128).
in(96, 1).
in(96, 2).
in(96, 129).
in(96, 4).
in(96, 5).
in(96, 130).
in(96, 7).
in(96, 8).
in(96, 132).
in(96, 12).
in(96, 13).
in(96, 20).
in(96, 24).
in(96, 26).
in(96, 30).
in(96, 32).
in(96, 37).
in(96, 39).
in(96, 40).
in(96, 41).
in(96, 46).
in(96, 47).
in(96, 48).
in(96, 49).
in(96, 50).
in(96, 52).
in(96, 55).
in(96, 60).
in(96, 61).
in(96, 62).
in(96, 63).
in(96, 67).
in(96, 71).
in(96, 75).
in(96, 76).
in(96, 77).
in(96, 78).
in(96, 79).
in(96, 81).
in(96, 84).
in(96, 85).
in(96, 88).
in(96, 89).
in(96, 91).
in(96, 92).
in(96, 93).
in(96, 94).
in(96, 96).
in(96, 98).
in(96, 100).
in(96, 103).
in(96, 107).
in(96, 108).
in(96, 110).
in(96, 111).
in(96, 115).
in(96, 116).
in(96, 118).
in(96, 119).
in(96, 121).
in(96, 123).
in(96, 125).
in(96, 127).
in(97, 128).
in(97, 3).
in(97, 4).
in(97, 5).
in(97, 6).
in(97, 131).
in(97, 8).
in(97, 11).
in(97, 14).
in(97, 15).
in(97, 17).
in(97, 18).
in(97, 19).
in(97, 21).
in(97, 22).
in(97, 25).
in(97, 28).
in(97, 30).
in(97, 31).
in(97, 32).
in(97, 35).
in(97, 36).
in(97, 39).
in(97, 40).
in(97, 41).
in(97, 42).
in(97, 43).
in(97, 44).
in(97, 46).
in(97, 47).
in(97, 48).
in(97, 51).
in(97, 56).
in(97, 57).
in(97, 60).
in(97, 62).
in(97, 64).
in(97, 65).
in(97, 66).
in(97, 67).
in(97, 68).
in(97, 69).
in(97, 71).
in(97, 72).
in(97, 74).
in(97, 77).
in(97, 80).
in(97, 85).
in(97, 87).
in(97, 88).
in(97, 89).
in(97, 91).
in(97, 93).
in(97, 96).
in(97, 98).
in(97, 99).
in(97, 100).
in(97, 102).
in(97, 104).
in(97, 110).
in(97, 115).
in(97, 121).
in(97, 122).
in(97, 123).
in(97, 125).
in(97, 127).
in(98, 129).
in(98, 7).
in(98, 8).
in(98, 9).
in(98, 15).
in(98, 16).
in(98, 18).
in(98, 19).
in(98, 21).
in(98, 22).
in(98, 23).
in(98, 26).
in(98, 27).
in(98, 28).
in(98, 29).
in(98, 32).
in(98, 35).
in(98, 38).
in(98, 40).
in(98, 42).
in(98, 52).
in(98, 53).
in(98, 57).
in(98, 59).
in(98, 60).
in(98, 61).
in(98, 62).
in(98, 64).
in(98, 65).
in(98, 66).
in(98, 69).
in(98, 73).
in(98, 76).
in(98, 80).
in(98, 82).
in(98, 83).
in(98, 85).
in(98, 86).
in(98, 87).
in(98, 89).
in(98, 95).
in(98, 96).
in(98, 98).
in(98, 100).
in(98, 104).
in(98, 107).
in(98, 109).
in(98, 111).
in(98, 115).
in(98, 116).
in(98, 117).
in(98, 119).
in(98, 120).
in(98, 121).
in(98, 124).
in(99, 128).
in(99, 1).
in(99, 3).
in(99, 4).
in(99, 131).
in(99, 6).
in(99, 7).
in(99, 8).
in(99, 132).
in(99, 12).
in(99, 13).
in(99, 17).
in(99, 18).
in(99, 21).
in(99, 28).
in(99, 29).
in(99, 31).
in(99, 35).
in(99, 36).
in(99, 37).
in(99, 40).
in(99, 46).
in(99, 49).
in(99, 50).
in(99, 51).
in(99, 52).
in(99, 53).
in(99, 54).
in(99, 57).
in(99, 60).
in(99, 64).
in(99, 67).
in(99, 68).
in(99, 70).
in(99, 72).
in(99, 76).
in(99, 79).
in(99, 80).
in(99, 82).
in(99, 83).
in(99, 85).
in(99, 86).
in(99, 87).
in(99, 88).
in(99, 91).
in(99, 94).
in(99, 97).
in(99, 98).
in(99, 99).
in(99, 102).
in(99, 104).
in(99, 105).
in(99, 111).
in(99, 112).
in(99, 113).
in(99, 114).
in(99, 115).
in(99, 117).
in(99, 121).
in(99, 122).
in(99, 124).
in(99, 125).
in(99, 126).
in(99, 127).
in(100, 2).
in(100, 3).
in(100, 5).
in(100, 6).
in(100, 7).
in(100, 133).
in(100, 9).
in(100, 10).
in(100, 11).
in(100, 12).
in(100, 13).
in(100, 14).
in(100, 16).
in(100, 17).
in(100, 18).
in(100, 19).
in(100, 21).
in(100, 22).
in(100, 24).
in(100, 26).
in(100, 27).
in(100, 31).
in(100, 34).
in(100, 35).
in(100, 36).
in(100, 37).
in(100, 38).
in(100, 40).
in(100, 41).
in(100, 45).
in(100, 46).
in(100, 47).
in(100, 49).
in(100, 52).
in(100, 57).
in(100, 59).
in(100, 60).
in(100, 63).
in(100, 66).
in(100, 67).
in(100, 70).
in(100, 71).
in(100, 72).
in(100, 77).
in(100, 81).
in(100, 83).
in(100, 85).
in(100, 86).
in(100, 88).
in(100, 89).
in(100, 93).
in(100, 94).
in(100, 98).
in(100, 99).
in(100, 101).
in(100, 105).
in(100, 106).
in(100, 108).
in(100, 111).
in(100, 115).
in(100, 116).
in(100, 118).
in(100, 119).
in(100, 122).
in(100, 127).
in(101, 1).
in(101, 130).
in(101, 131).
in(101, 132).
in(101, 5).
in(101, 6).
in(101, 133).
in(101, 8).
in(101, 13).
in(101, 14).
in(101, 15).
in(101, 21).
in(101, 22).
in(101, 24).
in(101, 26).
in(101, 30).
in(101, 31).
in(101, 33).
in(101, 36).
in(101, 37).
in(101, 38).
in(101, 39).
in(101, 40).
in(101, 41).
in(101, 48).
in(101, 50).
in(101, 54).
in(101, 59).
in(101, 64).
in(101, 65).
in(101, 66).
in(101, 67).
in(101, 69).
in(101, 71).
in(101, 73).
in(101, 74).
in(101, 76).
in(101, 78).
in(101, 82).
in(101, 83).
in(101, 84).
in(101, 85).
in(101, 86).
in(101, 88).
in(101, 89).
in(101, 90).
in(101, 91).
in(101, 94).
in(101, 96).
in(101, 97).
in(101, 98).
in(101, 99).
in(101, 100).
in(101, 102).
in(101, 105).
in(101, 107).
in(101, 108).
in(101, 109).
in(101, 110).
in(101, 112).
in(101, 113).
in(101, 115).
in(101, 118).
in(101, 119).
in(101, 121).
in(101, 122).
in(101, 124).
in(101, 125).
in(101, 127).
in(102, 128).
in(102, 129).
in(102, 3).
in(102, 4).
in(102, 5).
in(102, 6).
in(102, 131).
in(102, 8).
in(102, 132).
in(102, 133).
in(102, 17).
in(102, 18).
in(102, 19).
in(102, 20).
in(102, 21).
in(102, 22).
in(102, 23).
in(102, 24).
in(102, 28).
in(102, 29).
in(102, 31).
in(102, 32).
in(102, 34).
in(102, 36).
in(102, 37).
in(102, 42).
in(102, 50).
in(102, 51).
in(102, 55).
in(102, 56).
in(102, 58).
in(102, 59).
in(102, 60).
in(102, 61).
in(102, 63).
in(102, 64).
in(102, 65).
in(102, 67).
in(102, 68).
in(102, 70).
in(102, 71).
in(102, 74).
in(102, 75).
in(102, 77).
in(102, 78).
in(102, 84).
in(102, 88).
in(102, 91).
in(102, 95).
in(102, 101).
in(102, 102).
in(102, 105).
in(102, 108).
in(102, 113).
in(102, 114).
in(102, 115).
in(102, 117).
in(102, 118).
in(102, 122).
in(102, 125).
in(102, 126).
in(102, 127).
in(103, 128).
in(103, 1).
in(103, 2).
in(103, 3).
in(103, 129).
in(103, 130).
in(103, 6).
in(103, 7).
in(103, 132).
in(103, 14).
in(103, 15).
in(103, 19).
in(103, 21).
in(103, 23).
in(103, 24).
in(103, 26).
in(103, 27).
in(103, 28).
in(103, 34).
in(103, 35).
in(103, 37).
in(103, 40).
in(103, 42).
in(103, 43).
in(103, 45).
in(103, 49).
in(103, 54).
in(103, 55).
in(103, 60).
in(103, 62).
in(103, 63).
in(103, 64).
in(103, 65).
in(103, 66).
in(103, 68).
in(103, 70).
in(103, 71).
in(103, 77).
in(103, 78).
in(103, 83).
in(103, 84).
in(103, 87).
in(103, 88).
in(103, 92).
in(103, 93).
in(103, 95).
in(103, 96).
in(103, 98).
in(103, 101).
in(103, 102).
in(103, 104).
in(103, 107).
in(103, 108).
in(103, 110).
in(103, 111).
in(103, 113).
in(103, 114).
in(103, 116).
in(103, 120).
in(103, 122).
in(103, 123).
in(103, 125).
in(104, 1).
in(104, 2).
in(104, 4).
in(104, 5).
in(104, 6).
in(104, 11).
in(104, 14).
in(104, 15).
in(104, 18).
in(104, 19).
in(104, 25).
in(104, 26).
in(104, 27).
in(104, 28).
in(104, 30).
in(104, 33).
in(104, 42).
in(104, 43).
in(104, 44).
in(104, 47).
in(104, 48).
in(104, 51).
in(104, 52).
in(104, 55).
in(104, 56).
in(104, 58).
in(104, 59).
in(104, 61).
in(104, 63).
in(104, 67).
in(104, 71).
in(104, 73).
in(104, 75).
in(104, 78).
in(104, 80).
in(104, 81).
in(104, 84).
in(104, 85).
in(104, 88).
in(104, 90).
in(104, 92).
in(104, 95).
in(104, 96).
in(104, 97).
in(104, 98).
in(104, 100).
in(104, 105).
in(104, 106).
in(104, 109).
in(104, 110).
in(104, 116).
in(104, 118).
in(104, 119).
in(104, 122).
in(104, 125).
in(104, 126).
in(104, 127).
in(105, 128).
in(105, 129).
in(105, 2).
in(105, 130).
in(105, 4).
in(105, 5).
in(105, 6).
in(105, 133).
in(105, 9).
in(105, 12).
in(105, 13).
in(105, 14).
in(105, 19).
in(105, 20).
in(105, 21).
in(105, 25).
in(105, 32).
in(105, 34).
in(105, 38).
in(105, 40).
in(105, 43).
in(105, 45).
in(105, 47).
in(105, 51).
in(105, 53).
in(105, 64).
in(105, 67).
in(105, 70).
in(105, 73).
in(105, 74).
in(105, 75).
in(105, 77).
in(105, 81).
in(105, 82).
in(105, 84).
in(105, 86).
in(105, 87).
in(105, 88).
in(105, 89).
in(105, 90).
in(105, 95).
in(105, 98).
in(105, 99).
in(105, 101).
in(105, 102).
in(105, 103).
in(105, 106).
in(105, 108).
in(105, 109).
in(105, 111).
in(105, 112).
in(105, 115).
in(105, 118).
in(105, 120).
in(105, 121).
in(105, 123).
in(105, 124).
in(105, 125).
in(105, 126).
in(106, 1).
in(106, 129).
in(106, 130).
in(106, 131).
in(106, 132).
in(106, 7).
in(106, 11).
in(106, 14).
in(106, 15).
in(106, 16).
in(106, 17).
in(106, 18).
in(106, 19).
in(106, 20).
in(106, 21).
in(106, 22).
in(106, 26).
in(106, 29).
in(106, 30).
in(106, 32).
in(106, 35).
in(106, 36).
in(106, 38).
in(106, 41).
in(106, 43).
in(106, 45).
in(106, 48).
in(106, 50).
in(106, 51).
in(106, 52).
in(106, 54).
in(106, 58).
in(106, 61).
in(106, 62).
in(106, 65).
in(106, 66).
in(106, 73).
in(106, 76).
in(106, 80).
in(106, 82).
in(106, 83).
in(106, 85).
in(106, 87).
in(106, 88).
in(106, 89).
in(106, 90).
in(106, 93).
in(106, 94).
in(106, 96).
in(106, 97).
in(106, 98).
in(106, 99).
in(106, 102).
in(106, 103).
in(106, 104).
in(106, 108).
in(106, 111).
in(106, 112).
in(106, 114).
in(106, 115).
in(106, 118).
in(106, 119).
in(106, 120).
in(106, 123).
in(106, 124).
in(106, 126).
in(106, 127).
in(107, 2).
in(107, 131).
in(107, 132).
in(107, 9).
in(107, 12).
in(107, 13).
in(107, 16).
in(107, 17).
in(107, 22).
in(107, 24).
in(107, 25).
in(107, 26).
in(107, 27).
in(107, 31).
in(107, 34).
in(107, 37).
in(107, 39).
in(107, 40).
in(107, 41).
in(107, 45).
in(107, 46).
in(107, 47).
in(107, 49).
in(107, 50).
in(107, 52).
in(107, 54).
in(107, 55).
in(107, 59).
in(107, 62).
in(107, 63).
in(107, 65).
in(107, 67).
in(107, 69).
in(107, 74).
in(107, 78).
in(107, 79).
in(107, 80).
in(107, 81).
in(107, 90).
in(107, 93).
in(107, 95).
in(107, 97).
in(107, 98).
in(107, 100).
in(107, 101).
in(107, 111).
in(107, 113).
in(107, 116).
in(107, 121).
in(107, 122).
in(107, 126).
in(108, 128).
in(108, 1).
in(108, 129).
in(108, 130).
in(108, 133).
in(108, 6).
in(108, 7).
in(108, 8).
in(108, 9).
in(108, 11).
in(108, 12).
in(108, 14).
in(108, 17).
in(108, 18).
in(108, 24).
in(108, 25).
in(108, 27).
in(108, 28).
in(108, 32).
in(108, 34).
in(108, 35).
in(108, 36).
in(108, 42).
in(108, 43).
in(108, 44).
in(108, 45).
in(108, 46).
in(108, 47).
in(108, 48).
in(108, 53).
in(108, 60).
in(108, 62).
in(108, 63).
in(108, 65).
in(108, 67).
in(108, 69).
in(108, 71).
in(108, 77).
in(108, 81).
in(108, 83).
in(108, 84).
in(108, 86).
in(108, 87).
in(108, 91).
in(108, 94).
in(108, 96).
in(108, 100).
in(108, 102).
in(108, 103).
in(108, 104).
in(108, 106).
in(108, 107).
in(108, 108).
in(108, 109).
in(108, 110).
in(108, 112).
in(108, 113).
in(108, 114).
in(108, 119).
in(108, 120).
in(108, 123).
in(108, 124).
in(108, 125).
in(108, 127).
in(109, 128).
in(109, 1).
in(109, 4).
in(109, 133).
in(109, 6).
in(109, 7).
in(109, 8).
in(109, 9).
in(109, 10).
in(109, 11).
in(109, 12).
in(109, 14).
in(109, 17).
in(109, 19).
in(109, 22).
in(109, 24).
in(109, 25).
in(109, 26).
in(109, 27).
in(109, 32).
in(109, 33).
in(109, 34).
in(109, 35).
in(109, 38).
in(109, 40).
in(109, 41).
in(109, 42).
in(109, 44).
in(109, 47).
in(109, 48).
in(109, 49).
in(109, 52).
in(109, 54).
in(109, 56).
in(109, 58).
in(109, 60).
in(109, 62).
in(109, 63).
in(109, 68).
in(109, 76).
in(109, 78).
in(109, 79).
in(109, 80).
in(109, 82).
in(109, 83).
in(109, 90).
in(109, 91).
in(109, 92).
in(109, 93).
in(109, 95).
in(109, 100).
in(109, 107).
in(109, 111).
in(109, 112).
in(109, 113).
in(109, 116).
in(109, 117).
in(109, 119).
in(109, 120).
in(109, 121).
in(109, 125).
in(110, 129).
in(110, 2).
in(110, 4).
in(110, 9).
in(110, 10).
in(110, 11).
in(110, 14).
in(110, 15).
in(110, 16).
in(110, 19).
in(110, 21).
in(110, 22).
in(110, 23).
in(110, 24).
in(110, 25).
in(110, 27).
in(110, 34).
in(110, 37).
in(110, 39).
in(110, 43).
in(110, 46).
in(110, 50).
in(110, 51).
in(110, 54).
in(110, 55).
in(110, 56).
in(110, 58).
in(110, 59).
in(110, 60).
in(110, 63).
in(110, 65).
in(110, 67).
in(110, 68).
in(110, 70).
in(110, 73).
in(110, 74).
in(110, 75).
in(110, 76).
in(110, 80).
in(110, 81).
in(110, 83).
in(110, 84).
in(110, 87).
in(110, 88).
in(110, 89).
in(110, 90).
in(110, 91).
in(110, 96).
in(110, 98).
in(110, 100).
in(110, 101).
in(110, 104).
in(110, 105).
in(110, 107).
in(110, 109).
in(110, 113).
in(110, 115).
in(110, 117).
in(110, 121).
in(110, 123).
in(110, 125).
in(110, 126).
in(111, 2).
in(111, 131).
in(111, 132).
in(111, 5).
in(111, 11).
in(111, 13).
in(111, 16).
in(111, 18).
in(111, 19).
in(111, 20).
in(111, 21).
in(111, 23).
in(111, 30).
in(111, 31).
in(111, 32).
in(111, 33).
in(111, 35).
in(111, 36).
in(111, 37).
in(111, 38).
in(111, 39).
in(111, 40).
in(111, 41).
in(111, 43).
in(111, 45).
in(111, 47).
in(111, 48).
in(111, 49).
in(111, 52).
in(111, 54).
in(111, 55).
in(111, 57).
in(111, 59).
in(111, 61).
in(111, 62).
in(111, 63).
in(111, 66).
in(111, 74).
in(111, 75).
in(111, 80).
in(111, 84).
in(111, 87).
in(111, 89).
in(111, 90).
in(111, 91).
in(111, 92).
in(111, 94).
in(111, 97).
in(111, 98).
in(111, 103).
in(111, 107).
in(111, 108).
in(111, 109).
in(111, 111).
in(111, 113).
in(111, 119).
in(111, 124).
in(111, 126).
in(112, 128).
in(112, 130).
in(112, 3).
in(112, 4).
in(112, 5).
in(112, 6).
in(112, 7).
in(112, 133).
in(112, 13).
in(112, 16).
in(112, 20).
in(112, 21).
in(112, 24).
in(112, 25).
in(112, 26).
in(112, 30).
in(112, 34).
in(112, 35).
in(112, 36).
in(112, 38).
in(112, 39).
in(112, 43).
in(112, 44).
in(112, 47).
in(112, 48).
in(112, 49).
in(112, 51).
in(112, 53).
in(112, 57).
in(112, 61).
in(112, 62).
in(112, 64).
in(112, 65).
in(112, 67).
in(112, 68).
in(112, 69).
in(112, 73).
in(112, 76).
in(112, 78).
in(112, 79).
in(112, 80).
in(112, 82).
in(112, 83).
in(112, 84).
in(112, 86).
in(112, 87).
in(112, 88).
in(112, 91).
in(112, 93).
in(112, 94).
in(112, 95).
in(112, 97).
in(112, 99).
in(112, 100).
in(112, 103).
in(112, 104).
in(112, 105).
in(112, 106).
in(112, 109).
in(112, 112).
in(112, 113).
in(112, 117).
in(112, 119).
in(112, 124).
in(112, 125).
in(112, 127).
in(113, 128).
in(113, 130).
in(113, 131).
in(113, 6).
in(113, 14).
in(113, 15).
in(113, 16).
in(113, 18).
in(113, 19).
in(113, 21).
in(113, 22).
in(113, 24).
in(113, 26).
in(113, 27).
in(113, 28).
in(113, 29).
in(113, 30).
in(113, 32).
in(113, 33).
in(113, 34).
in(113, 35).
in(113, 37).
in(113, 39).
in(113, 40).
in(113, 43).
in(113, 45).
in(113, 48).
in(113, 49).
in(113, 51).
in(113, 52).
in(113, 53).
in(113, 56).
in(113, 59).
in(113, 60).
in(113, 61).
in(113, 62).
in(113, 64).
in(113, 65).
in(113, 67).
in(113, 68).
in(113, 70).
in(113, 73).
in(113, 76).
in(113, 77).
in(113, 78).
in(113, 79).
in(113, 81).
in(113, 82).
in(113, 85).
in(113, 87).
in(113, 91).
in(113, 93).
in(113, 94).
in(113, 96).
in(113, 99).
in(113, 101).
in(113, 105).
in(113, 107).
in(113, 108).
in(113, 109).
in(113, 112).
in(113, 113).
in(113, 118).
in(113, 120).
in(113, 121).
in(113, 123).
in(113, 125).
in(113, 126).
in(114, 1).
in(114, 2).
in(114, 3).
in(114, 4).
in(114, 131).
in(114, 132).
in(114, 8).
in(114, 9).
in(114, 11).
in(114, 12).
in(114, 15).
in(114, 16).
in(114, 19).
in(114, 23).
in(114, 26).
in(114, 28).
in(114, 29).
in(114, 30).
in(114, 32).
in(114, 33).
in(114, 38).
in(114, 43).
in(114, 45).
in(114, 46).
in(114, 47).
in(114, 49).
in(114, 50).
in(114, 51).
in(114, 54).
in(114, 57).
in(114, 58).
in(114, 59).
in(114, 61).
in(114, 65).
in(114, 67).
in(114, 72).
in(114, 73).
in(114, 77).
in(114, 79).
in(114, 81).
in(114, 83).
in(114, 84).
in(114, 85).
in(114, 87).
in(114, 90).
in(114, 91).
in(114, 96).
in(114, 97).
in(114, 103).
in(114, 104).
in(114, 105).
in(114, 107).
in(114, 108).
in(114, 109).
in(114, 110).
in(114, 111).
in(114, 112).
in(114, 116).
in(114, 120).
in(114, 121).
in(114, 126).
in(114, 127).
in(115, 1).
in(115, 2).
in(115, 129).
in(115, 4).
in(115, 130).
in(115, 131).
in(115, 7).
in(115, 8).
in(115, 9).
in(115, 133).
in(115, 11).
in(115, 12).
in(115, 18).
in(115, 24).
in(115, 26).
in(115, 33).
in(115, 35).
in(115, 36).
in(115, 37).
in(115, 38).
in(115, 45).
in(115, 47).
in(115, 51).
in(115, 52).
in(115, 54).
in(115, 56).
in(115, 57).
in(115, 67).
in(115, 68).
in(115, 75).
in(115, 77).
in(115, 83).
in(115, 87).
in(115, 88).
in(115, 89).
in(115, 91).
in(115, 92).
in(115, 93).
in(115, 95).
in(115, 96).
in(115, 97).
in(115, 100).
in(115, 101).
in(115, 102).
in(115, 103).
in(115, 105).
in(115, 106).
in(115, 109).
in(115, 110).
in(115, 113).
in(115, 114).
in(115, 115).
in(115, 116).
in(115, 120).
in(115, 122).
in(115, 124).
in(115, 125).
in(116, 128).
in(116, 129).
in(116, 4).
in(116, 132).
in(116, 133).
in(116, 7).
in(116, 8).
in(116, 12).
in(116, 13).
in(116, 16).
in(116, 19).
in(116, 23).
in(116, 24).
in(116, 25).
in(116, 28).
in(116, 29).
in(116, 31).
in(116, 32).
in(116, 33).
in(116, 41).
in(116, 42).
in(116, 43).
in(116, 44).
in(116, 52).
in(116, 56).
in(116, 57).
in(116, 59).
in(116, 60).
in(116, 62).
in(116, 63).
in(116, 64).
in(116, 68).
in(116, 74).
in(116, 75).
in(116, 77).
in(116, 78).
in(116, 81).
in(116, 84).
in(116, 85).
in(116, 86).
in(116, 87).
in(116, 89).
in(116, 92).
in(116, 94).
in(116, 96).
in(116, 97).
in(116, 99).
in(116, 100).
in(116, 101).
in(116, 103).
in(116, 107).
in(116, 111).
in(116, 114).
in(116, 115).
in(116, 118).
in(116, 121).
in(116, 123).
in(116, 124).
in(116, 125).
in(117, 128).
in(117, 1).
in(117, 2).
in(117, 131).
in(117, 5).
in(117, 133).
in(117, 7).
in(117, 9).
in(117, 10).
in(117, 13).
in(117, 14).
in(117, 17).
in(117, 20).
in(117, 21).
in(117, 23).
in(117, 24).
in(117, 26).
in(117, 27).
in(117, 29).
in(117, 31).
in(117, 33).
in(117, 41).
in(117, 43).
in(117, 44).
in(117, 47).
in(117, 48).
in(117, 49).
in(117, 50).
in(117, 51).
in(117, 54).
in(117, 55).
in(117, 57).
in(117, 58).
in(117, 63).
in(117, 66).
in(117, 67).
in(117, 68).
in(117, 69).
in(117, 71).
in(117, 73).
in(117, 74).
in(117, 75).
in(117, 76).
in(117, 77).
in(117, 78).
in(117, 80).
in(117, 85).
in(117, 89).
in(117, 90).
in(117, 91).
in(117, 94).
in(117, 97).
in(117, 100).
in(117, 105).
in(117, 106).
in(117, 111).
in(117, 114).
in(117, 116).
in(117, 117).
in(117, 118).
in(117, 120).
in(117, 123).
in(117, 126).
in(117, 127).
in(118, 129).
in(118, 2).
in(118, 3).
in(118, 4).
in(118, 131).
in(118, 6).
in(118, 7).
in(118, 132).
in(118, 133).
in(118, 11).
in(118, 14).
in(118, 17).
in(118, 18).
in(118, 23).
in(118, 24).
in(118, 28).
in(118, 29).
in(118, 30).
in(118, 34).
in(118, 36).
in(118, 38).
in(118, 42).
in(118, 47).
in(118, 49).
in(118, 51).
in(118, 52).
in(118, 53).
in(118, 54).
in(118, 55).
in(118, 57).
in(118, 61).
in(118, 62).
in(118, 63).
in(118, 65).
in(118, 66).
in(118, 71).
in(118, 75).
in(118, 76).
in(118, 79).
in(118, 81).
in(118, 82).
in(118, 83).
in(118, 84).
in(118, 87).
in(118, 88).
in(118, 90).
in(118, 92).
in(118, 94).
in(118, 96).
in(118, 98).
in(118, 99).
in(118, 101).
in(118, 102).
in(118, 103).
in(118, 104).
in(118, 105).
in(118, 106).
in(118, 107).
in(118, 110).
in(118, 113).
in(118, 118).
in(118, 122).
in(118, 124).
in(118, 125).
in(118, 127).
in(119, 129).
in(119, 2).
in(119, 130).
in(119, 5).
in(119, 8).
in(119, 11).
in(119, 12).
in(119, 14).
in(119, 16).
in(119, 17).
in(119, 19).
in(119, 20).
in(119, 22).
in(119, 25).
in(119, 26).
in(119, 28).
in(119, 30).
in(119, 31).
in(119, 34).
in(119, 36).
in(119, 38).
in(119, 40).
in(119, 42).
in(119, 43).
in(119, 44).
in(119, 47).
in(119, 49).
in(119, 50).
in(119, 53).
in(119, 54).
in(119, 56).
in(119, 60).
in(119, 61).
in(119, 64).
in(119, 65).
in(119, 67).
in(119, 69).
in(119, 70).
in(119, 71).
in(119, 74).
in(119, 80).
in(119, 81).
in(119, 83).
in(119, 84).
in(119, 85).
in(119, 87).
in(119, 88).
in(119, 90).
in(119, 92).
in(119, 94).
in(119, 96).
in(119, 101).
in(119, 104).
in(119, 107).
in(119, 108).
in(119, 109).
in(119, 110).
in(119, 111).
in(119, 113).
in(119, 115).
in(119, 121).
in(119, 122).
in(119, 123).
in(119, 124).
in(119, 125).
in(119, 127).
in(120, 1).
in(120, 129).
in(120, 130).
in(120, 131).
in(120, 5).
in(120, 9).
in(120, 12).
in(120, 14).
in(120, 16).
in(120, 17).
in(120, 18).
in(120, 24).
in(120, 28).
in(120, 29).
in(120, 31).
in(120, 36).
in(120, 39).
in(120, 45).
in(120, 46).
in(120, 52).
in(120, 54).
in(120, 55).
in(120, 56).
in(120, 57).
in(120, 58).
in(120, 61).
in(120, 67).
in(120, 69).
in(120, 74).
in(120, 85).
in(120, 86).
in(120, 91).
in(120, 93).
in(120, 94).
in(120, 95).
in(120, 97).
in(120, 98).
in(120, 99).
in(120, 102).
in(120, 104).
in(120, 107).
in(120, 109).
in(120, 118).
in(120, 119).
in(120, 120).
in(120, 121).
in(120, 127).
in(121, 128).
in(121, 1).
in(121, 5).
in(121, 133).
in(121, 9).
in(121, 12).
in(121, 14).
in(121, 16).
in(121, 21).
in(121, 25).
in(121, 26).
in(121, 28).
in(121, 34).
in(121, 35).
in(121, 37).
in(121, 38).
in(121, 40).
in(121, 41).
in(121, 42).
in(121, 44).
in(121, 46).
in(121, 48).
in(121, 49).
in(121, 55).
in(121, 57).
in(121, 63).
in(121, 68).
in(121, 69).
in(121, 77).
in(121, 80).
in(121, 84).
in(121, 85).
in(121, 89).
in(121, 93).
in(121, 95).
in(121, 97).
in(121, 98).
in(121, 100).
in(121, 101).
in(121, 102).
in(121, 103).
in(121, 104).
in(121, 106).
in(121, 108).
in(121, 109).
in(121, 110).
in(121, 112).
in(121, 114).
in(121, 115).
in(121, 118).
in(121, 120).
in(121, 123).
in(121, 124).
in(121, 126).
in(121, 127).
in(122, 128).
in(122, 1).
in(122, 130).
in(122, 131).
in(122, 7).
in(122, 12).
in(122, 13).
in(122, 14).
in(122, 15).
in(122, 17).
in(122, 18).
in(122, 19).
in(122, 20).
in(122, 23).
in(122, 26).
in(122, 28).
in(122, 29).
in(122, 31).
in(122, 32).
in(122, 33).
in(122, 40).
in(122, 42).
in(122, 43).
in(122, 44).
in(122, 45).
in(122, 46).
in(122, 47).
in(122, 51).
in(122, 52).
in(122, 53).
in(122, 56).
in(122, 57).
in(122, 58).
in(122, 59).
in(122, 60).
in(122, 61).
in(122, 66).
in(122, 67).
in(122, 68).
in(122, 69).
in(122, 71).
in(122, 72).
in(122, 73).
in(122, 75).
in(122, 76).
in(122, 77).
in(122, 78).
in(122, 79).
in(122, 81).
in(122, 85).
in(122, 86).
in(122, 91).
in(122, 92).
in(122, 93).
in(122, 94).
in(122, 96).
in(122, 100).
in(122, 101).
in(122, 102).
in(122, 104).
in(122, 105).
in(122, 107).
in(122, 108).
in(122, 109).
in(122, 110).
in(122, 112).
in(122, 114).
in(122, 117).
in(122, 118).
in(122, 122).
in(122, 127).
in(123, 128).
in(123, 1).
in(123, 130).
in(123, 3).
in(123, 131).
in(123, 5).
in(123, 6).
in(123, 7).
in(123, 133).
in(123, 9).
in(123, 10).
in(123, 13).
in(123, 15).
in(123, 17).
in(123, 22).
in(123, 23).
in(123, 24).
in(123, 25).
in(123, 27).
in(123, 29).
in(123, 33).
in(123, 38).
in(123, 42).
in(123, 43).
in(123, 44).
in(123, 45).
in(123, 46).
in(123, 48).
in(123, 49).
in(123, 51).
in(123, 54).
in(123, 56).
in(123, 62).
in(123, 65).
in(123, 66).
in(123, 67).
in(123, 69).
in(123, 72).
in(123, 76).
in(123, 77).
in(123, 78).
in(123, 79).
in(123, 81).
in(123, 88).
in(123, 91).
in(123, 92).
in(123, 93).
in(123, 94).
in(123, 97).
in(123, 101).
in(123, 102).
in(123, 104).
in(123, 105).
in(123, 106).
in(123, 109).
in(123, 111).
in(123, 112).
in(123, 115).
in(123, 117).
in(123, 119).
in(123, 124).
in(123, 127).
in(124, 7).
in(124, 8).
in(124, 10).
in(124, 13).
in(124, 17).
in(124, 19).
in(124, 21).
in(124, 22).
in(124, 26).
in(124, 29).
in(124, 33).
in(124, 34).
in(124, 39).
in(124, 41).
in(124, 42).
in(124, 43).
in(124, 50).
in(124, 52).
in(124, 58).
in(124, 62).
in(124, 64).
in(124, 65).
in(124, 67).
in(124, 68).
in(124, 69).
in(124, 70).
in(124, 72).
in(124, 76).
in(124, 79).
in(124, 81).
in(124, 84).
in(124, 87).
in(124, 89).
in(124, 90).
in(124, 91).
in(124, 93).
in(124, 97).
in(124, 103).
in(124, 106).
in(124, 108).
in(124, 109).
in(124, 110).
in(124, 111).
in(124, 116).
in(124, 117).
in(124, 118).
in(124, 121).
in(124, 125).
in(124, 126).
in(125, 1).
in(125, 129).
in(125, 131).
in(125, 5).
in(125, 6).
in(125, 7).
in(125, 11).
in(125, 12).
in(125, 13).
in(125, 14).
in(125, 17).
in(125, 19).
in(125, 21).
in(125, 23).
in(125, 25).
in(125, 26).
in(125, 27).
in(125, 28).
in(125, 30).
in(125, 35).
in(125, 36).
in(125, 37).
in(125, 39).
in(125, 44).
in(125, 45).
in(125, 46).
in(125, 48).
in(125, 50).
in(125, 51).
in(125, 52).
in(125, 55).
in(125, 57).
in(125, 58).
in(125, 59).
in(125, 62).
in(125, 66).
in(125, 68).
in(125, 69).
in(125, 76).
in(125, 78).
in(125, 79).
in(125, 82).
in(125, 84).
in(125, 85).
in(125, 86).
in(125, 88).
in(125, 90).
in(125, 92).
in(125, 93).
in(125, 99).
in(125, 100).
in(125, 101).
in(125, 104).
in(125, 106).
in(125, 107).
in(125, 109).
in(125, 110).
in(125, 116).
in(125, 119).
in(125, 120).
in(125, 122).
in(125, 123).
in(125, 124).
in(126, 128).
in(126, 1).
in(126, 2).
in(126, 129).
in(126, 130).
in(126, 132).
in(126, 6).
in(126, 8).
in(126, 9).
in(126, 10).
in(126, 16).
in(126, 19).
in(126, 21).
in(126, 22).
in(126, 23).
in(126, 29).
in(126, 31).
in(126, 32).
in(126, 34).
in(126, 36).
in(126, 37).
in(126, 38).
in(126, 40).
in(126, 42).
in(126, 43).
in(126, 46).
in(126, 51).
in(126, 52).
in(126, 56).
in(126, 58).
in(126, 59).
in(126, 65).
in(126, 66).
in(126, 71).
in(126, 73).
in(126, 74).
in(126, 76).
in(126, 77).
in(126, 80).
in(126, 82).
in(126, 86).
in(126, 87).
in(126, 89).
in(126, 92).
in(126, 93).
in(126, 94).
in(126, 95).
in(126, 98).
in(126, 103).
in(126, 104).
in(126, 105).
in(126, 108).
in(126, 109).
in(126, 111).
in(126, 114).
in(126, 115).
in(126, 116).
in(126, 119).
in(126, 121).
in(126, 122).
in(126, 123).
in(126, 125).
in(126, 126).
in(126, 127).
in(127, 128).
in(127, 2).
in(127, 130).
in(127, 4).
in(127, 133).
in(127, 8).
in(127, 11).
in(127, 13).
in(127, 14).
in(127, 17).
in(127, 18).
in(127, 21).
in(127, 24).
in(127, 25).
in(127, 26).
in(127, 28).
in(127, 30).
in(127, 33).
in(127, 34).
in(127, 36).
in(127, 39).
in(127, 41).
in(127, 43).
in(127, 44).
in(127, 46).
in(127, 48).
in(127, 52).
in(127, 53).
in(127, 54).
in(127, 61).
in(127, 65).
in(127, 66).
in(127, 68).
in(127, 74).
in(127, 75).
in(127, 76).
in(127, 78).
in(127, 79).
in(127, 80).
in(127, 81).
in(127, 82).
in(127, 86).
in(127, 88).
in(127, 90).
in(127, 92).
in(127, 93).
in(127, 96).
in(127, 97).
in(127, 98).
in(127, 101).
in(127, 105).
in(127, 108).
in(127, 111).
in(127, 113).
in(127, 115).
in(127, 116).
in(127, 118).
in(127, 121).
in(127, 124).
in(127, 125).
in(127, 127).
in(128, 128).
in(128, 131).
in(128, 4).
in(128, 5).
in(128, 6).
in(128, 133).
in(128, 8).
in(128, 10).
in(128, 12).
in(128, 13).
in(128, 17).
in(128, 24).
in(128, 26).
in(128, 27).
in(128, 28).
in(128, 30).
in(128, 31).
in(128, 32).
in(128, 35).
in(128, 36).
in(128, 37).
in(128, 38).
in(128, 39).
in(128, 44).
in(128, 46).
in(128, 48).
in(128, 50).
in(128, 51).
in(128, 55).
in(128, 56).
in(128, 64).
in(128, 68).
in(128, 70).
in(128, 71).
in(128, 73).
in(128, 75).
in(128, 76).
in(128, 79).
in(128, 80).
in(128, 81).
in(128, 82).
in(128, 85).
in(128, 88).
in(128, 89).
in(128, 91).
in(128, 92).
in(128, 93).
in(128, 94).
in(128, 95).
in(128, 96).
in(128, 98).
in(128, 100).
in(128, 103).
in(128, 104).
in(128, 110).
in(128, 112).
in(128, 113).
in(128, 116).
in(128, 119).
in(128, 120).
in(128, 122).
in(128, 124).
in(128, 125).
in(128, 126).
in(128, 127).
in(129, 3).
in(129, 131).
in(129, 5).
in(129, 132).
in(129, 7).
in(129, 9).
in(129, 12).
in(129, 16).
in(129, 18).
in(129, 19).
in(129, 25).
in(129, 31).
in(129, 33).
in(129, 35).
in(129, 36).
in(129, 38).
in(129, 49).
in(129, 53).
in(129, 56).
in(129, 57).
in(129, 58).
in(129, 59).
in(129, 60).
in(129, 63).
in(129, 71).
in(129, 75).
in(129, 77).
in(129, 79).
in(129, 80).
in(129, 83).
in(129, 84).
in(129, 85).
in(129, 86).
in(129, 88).
in(129, 91).
in(129, 94).
in(129, 96).
in(129, 97).
in(129, 99).
in(129, 101).
in(129, 104).
in(129, 105).
in(129, 108).
in(129, 110).
in(129, 113).
in(129, 114).
in(129, 120).
in(129, 125).
in(129, 127).
in(130, 128).
in(130, 1).
in(130, 3).
in(130, 4).
in(130, 5).
in(130, 6).
in(130, 131).
in(130, 8).
in(130, 133).
in(130, 10).
in(130, 15).
in(130, 21).
in(130, 24).
in(130, 30).
in(130, 33).
in(130, 35).
in(130, 37).
in(130, 38).
in(130, 40).
in(130, 43).
in(130, 45).
in(130, 48).
in(130, 50).
in(130, 51).
in(130, 53).
in(130, 54).
in(130, 55).
in(130, 56).
in(130, 58).
in(130, 61).
in(130, 62).
in(130, 65).
in(130, 68).
in(130, 70).
in(130, 72).
in(130, 73).
in(130, 75).
in(130, 76).
in(130, 80).
in(130, 82).
in(130, 84).
in(130, 85).
in(130, 86).
in(130, 90).
in(130, 91).
in(130, 93).
in(130, 94).
in(130, 96).
in(130, 101).
in(130, 102).
in(130, 104).
in(130, 106).
in(130, 107).
in(130, 109).
in(130, 111).
in(130, 112).
in(130, 115).
in(130, 119).
in(130, 120).
in(130, 122).
in(131, 128).
in(131, 1).
in(131, 2).
in(131, 5).
in(131, 133).
in(131, 9).
in(131, 12).
in(131, 13).
in(131, 14).
in(131, 17).
in(131, 24).
in(131, 25).
in(131, 27).
in(131, 29).
in(131, 30).
in(131, 33).
in(131, 36).
in(131, 40).
in(131, 46).
in(131, 49).
in(131, 51).
in(131, 52).
in(131, 58).
in(131, 59).
in(131, 63).
in(131, 64).
in(131, 65).
in(131, 66).
in(131, 67).
in(131, 70).
in(131, 74).
in(131, 75).
in(131, 82).
in(131, 83).
in(131, 85).
in(131, 86).
in(131, 87).
in(131, 88).
in(131, 89).
in(131, 90).
in(131, 93).
in(131, 94).
in(131, 96).
in(131, 97).
in(131, 99).
in(131, 101).
in(131, 102).
in(131, 103).
in(131, 105).
in(131, 110).
in(131, 111).
in(131, 112).
in(131, 113).
in(131, 115).
in(131, 116).
in(131, 117).
in(131, 118).
in(131, 120).
in(131, 121).
in(131, 124).
in(131, 125).
in(131, 126).
in(132, 128).
in(132, 129).
in(132, 130).
in(132, 3).
in(132, 4).
in(132, 131).
in(132, 7).
in(132, 8).
in(132, 9).
in(132, 10).
in(132, 11).
in(132, 12).
in(132, 13).
in(132, 16).
in(132, 18).
in(132, 19).
in(132, 20).
in(132, 25).
in(132, 26).
in(132, 33).
in(132, 34).
in(132, 35).
in(132, 38).
in(132, 39).
in(132, 40).
in(132, 41).
in(132, 52).
in(132, 54).
in(132, 57).
in(132, 62).
in(132, 65).
in(132, 66).
in(132, 70).
in(132, 73).
in(132, 76).
in(132, 79).
in(132, 80).
in(132, 82).
in(132, 84).
in(132, 86).
in(132, 87).
in(132, 90).
in(132, 94).
in(132, 96).
in(132, 97).
in(132, 99).
in(132, 101).
in(132, 103).
in(132, 104).
in(132, 106).
in(132, 108).
in(132, 110).
in(132, 113).
in(132, 114).
in(132, 120).
in(132, 122).
in(132, 126).
in(132, 127).
in(133, 128).
in(133, 131).
in(133, 4).
in(133, 5).
in(133, 132).
in(133, 8).
in(133, 9).
in(133, 10).
in(133, 13).
in(133, 14).
in(133, 15).
in(133, 16).
in(133, 17).
in(133, 18).
in(133, 23).
in(133, 24).
in(133, 28).
in(133, 30).
in(133, 31).
in(133, 32).
in(133, 37).
in(133, 38).
in(133, 39).
in(133, 42).
in(133, 43).
in(133, 50).
in(133, 51).
in(133, 53).
in(133, 55).
in(133, 56).
in(133, 63).
in(133, 64).
in(133, 66).
in(133, 68).
in(133, 69).
in(133, 73).
in(133, 75).
in(133, 79).
in(133, 81).
in(133, 82).
in(133, 84).
in(133, 87).
in(133, 88).
in(133, 91).
in(133, 95).
in(133, 98).
in(133, 100).
in(133, 101).
in(133, 102).
in(133, 103).
in(133, 109).
in(133, 112).
in(133, 113).
in(133, 114).
in(133, 115).
in(133, 118).
in(133, 120).
in(133, 124).
in(134, 1).
in(134, 2).
in(134, 131).
in(134, 7).
in(134, 10).
in(134, 11).
in(134, 17).
in(134, 18).
in(134, 22).
in(134, 24).
in(134, 27).
in(134, 28).
in(134, 32).
in(134, 37).
in(134, 39).
in(134, 40).
in(134, 42).
in(134, 45).
in(134, 47).
in(134, 49).
in(134, 51).
in(134, 53).
in(134, 54).
in(134, 57).
in(134, 60).
in(134, 63).
in(134, 65).
in(134, 66).
in(134, 68).
in(134, 73).
in(134, 74).
in(134, 75).
in(134, 76).
in(134, 77).
in(134, 80).
in(134, 82).
in(134, 83).
in(134, 84).
in(134, 88).
in(134, 89).
in(134, 90).
in(134, 91).
in(134, 95).
in(134, 96).
in(134, 97).
in(134, 98).
in(134, 99).
in(134, 101).
in(134, 103).
in(134, 104).
in(134, 105).
in(134, 106).
in(134, 109).
in(134, 114).
in(134, 117).
in(134, 118).
in(134, 121).
in(134, 122).
in(134, 126).
in(135, 128).
in(135, 1).
in(135, 2).
in(135, 3).
in(135, 131).
in(135, 132).
in(135, 10).
in(135, 13).
in(135, 14).
in(135, 19).
in(135, 21).
in(135, 24).
in(135, 25).
in(135, 27).
in(135, 28).
in(135, 29).
in(135, 30).
in(135, 32).
in(135, 34).
in(135, 35).
in(135, 37).
in(135, 39).
in(135, 40).
in(135, 41).
in(135, 46).
in(135, 48).
in(135, 49).
in(135, 50).
in(135, 51).
in(135, 56).
in(135, 58).
in(135, 59).
in(135, 62).
in(135, 63).
in(135, 65).
in(135, 67).
in(135, 70).
in(135, 71).
in(135, 77).
in(135, 78).
in(135, 81).
in(135, 82).
in(135, 83).
in(135, 85).
in(135, 87).
in(135, 88).
in(135, 89).
in(135, 94).
in(135, 97).
in(135, 102).
in(135, 105).
in(135, 106).
in(135, 107).
in(135, 109).
in(135, 111).
in(135, 113).
in(135, 117).
in(135, 124).
in(135, 125).
in(135, 126).
in(135, 127).
in(136, 128).
in(136, 129).
in(136, 3).
in(136, 5).
in(136, 6).
in(136, 7).
in(136, 133).
in(136, 9).
in(136, 11).
in(136, 12).
in(136, 13).
in(136, 16).
in(136, 17).
in(136, 18).
in(136, 20).
in(136, 23).
in(136, 26).
in(136, 27).
in(136, 28).
in(136, 32).
in(136, 33).
in(136, 36).
in(136, 38).
in(136, 39).
in(136, 42).
in(136, 44).
in(136, 45).
in(136, 46).
in(136, 49).
in(136, 52).
in(136, 57).
in(136, 58).
in(136, 60).
in(136, 61).
in(136, 65).
in(136, 70).
in(136, 72).
in(136, 73).
in(136, 74).
in(136, 78).
in(136, 79).
in(136, 80).
in(136, 87).
in(136, 90).
in(136, 91).
in(136, 92).
in(136, 98).
in(136, 101).
in(136, 102).
in(136, 103).
in(136, 104).
in(136, 108).
in(136, 110).
in(136, 111).
in(136, 116).
in(136, 117).
in(136, 122).
in(136, 123).
in(136, 126).
in(137, 129).
in(137, 130).
in(137, 131).
in(137, 5).
in(137, 7).
in(137, 10).
in(137, 12).
in(137, 14).
in(137, 17).
in(137, 18).
in(137, 20).
in(137, 21).
in(137, 25).
in(137, 26).
in(137, 27).
in(137, 29).
in(137, 30).
in(137, 31).
in(137, 36).
in(137, 37).
in(137, 38).
in(137, 39).
in(137, 41).
in(137, 42).
in(137, 46).
in(137, 47).
in(137, 49).
in(137, 50).
in(137, 51).
in(137, 52).
in(137, 53).
in(137, 55).
in(137, 58).
in(137, 59).
in(137, 61).
in(137, 62).
in(137, 63).
in(137, 65).
in(137, 66).
in(137, 68).
in(137, 71).
in(137, 74).
in(137, 77).
in(137, 78).
in(137, 82).
in(137, 84).
in(137, 85).
in(137, 89).
in(137, 90).
in(137, 91).
in(137, 92).
in(137, 95).
in(137, 98).
in(137, 102).
in(137, 104).
in(137, 105).
in(137, 111).
in(137, 113).
in(137, 114).
in(137, 116).
in(137, 119).
in(137, 121).
in(137, 125).
in(138, 128).
in(138, 130).
in(138, 3).
in(138, 8).
in(138, 12).
in(138, 15).
in(138, 16).
in(138, 20).
in(138, 23).
in(138, 25).
in(138, 32).
in(138, 33).
in(138, 36).
in(138, 41).
in(138, 43).
in(138, 44).
in(138, 46).
in(138, 48).
in(138, 51).
in(138, 57).
in(138, 66).
in(138, 68).
in(138, 70).
in(138, 71).
in(138, 72).
in(138, 79).
in(138, 80).
in(138, 82).
in(138, 83).
in(138, 85).
in(138, 86).
in(138, 89).
in(138, 96).
in(138, 97).
in(138, 98).
in(138, 100).
in(138, 104).
in(138, 109).
in(138, 112).
in(138, 115).
in(138, 116).
in(138, 117).
in(138, 119).
in(138, 120).
in(138, 122).
in(138, 124).
in(138, 125).
in(138, 127).
in(139, 128).
in(139, 2).
in(139, 130).
in(139, 4).
in(139, 5).
in(139, 133).
in(139, 10).
in(139, 12).
in(139, 15).
in(139, 16).
in(139, 21).
in(139, 22).
in(139, 23).
in(139, 32).
in(139, 37).
in(139, 44).
in(139, 45).
in(139, 48).
in(139, 49).
in(139, 50).
in(139, 51).
in(139, 55).
in(139, 56).
in(139, 58).
in(139, 60).
in(139, 65).
in(139, 66).
in(139, 68).
in(139, 69).
in(139, 76).
in(139, 77).
in(139, 79).
in(139, 80).
in(139, 84).
in(139, 87).
in(139, 89).
in(139, 90).
in(139, 91).
in(139, 93).
in(139, 94).
in(139, 96).
in(139, 97).
in(139, 98).
in(139, 105).
in(139, 107).
in(139, 109).
in(139, 110).
in(139, 113).
in(139, 119).
in(139, 121).
in(139, 122).
in(139, 123).
in(139, 124).
in(139, 125).
in(139, 126).
in(140, 129).
in(140, 2).
in(140, 3).
in(140, 4).
in(140, 5).
in(140, 130).
in(140, 7).
in(140, 8).
in(140, 9).
in(140, 131).
in(140, 11).
in(140, 12).
in(140, 133).
in(140, 14).
in(140, 17).
in(140, 18).
in(140, 20).
in(140, 21).
in(140, 22).
in(140, 23).
in(140, 24).
in(140, 26).
in(140, 31).
in(140, 33).
in(140, 34).
in(140, 36).
in(140, 38).
in(140, 39).
in(140, 40).
in(140, 41).
in(140, 45).
in(140, 46).
in(140, 47).
in(140, 52).
in(140, 56).
in(140, 57).
in(140, 58).
in(140, 59).
in(140, 63).
in(140, 64).
in(140, 71).
in(140, 76).
in(140, 79).
in(140, 81).
in(140, 85).
in(140, 90).
in(140, 91).
in(140, 93).
in(140, 94).
in(140, 95).
in(140, 96).
in(140, 98).
in(140, 99).
in(140, 100).
in(140, 103).
in(140, 104).
in(140, 107).
in(140, 108).
in(140, 110).
in(140, 113).
in(140, 114).
in(140, 115).
in(140, 119).
in(140, 121).
in(140, 122).
in(140, 124).
in(140, 125).
in(141, 129).
in(141, 2).
in(141, 3).
in(141, 4).
in(141, 5).
in(141, 6).
in(141, 7).
in(141, 131).
in(141, 14).
in(141, 16).
in(141, 18).
in(141, 20).
in(141, 21).
in(141, 23).
in(141, 25).
in(141, 28).
in(141, 30).
in(141, 31).
in(141, 32).
in(141, 33).
in(141, 35).
in(141, 38).
in(141, 39).
in(141, 42).
in(141, 43).
in(141, 44).
in(141, 50).
in(141, 52).
in(141, 53).
in(141, 55).
in(141, 56).
in(141, 60).
in(141, 65).
in(141, 68).
in(141, 75).
in(141, 76).
in(141, 78).
in(141, 82).
in(141, 83).
in(141, 84).
in(141, 85).
in(141, 88).
in(141, 91).
in(141, 92).
in(141, 95).
in(141, 98).
in(141, 100).
in(141, 102).
in(141, 108).
in(141, 110).
in(141, 111).
in(141, 112).
in(141, 113).
in(141, 115).
in(141, 119).
in(141, 122).
in(141, 123).
in(141, 124).
in(141, 125).
in(141, 127).
in(142, 128).
in(142, 2).
in(142, 3).
in(142, 4).
in(142, 130).
in(142, 6).
in(142, 131).
in(142, 132).
in(142, 9).
in(142, 133).
in(142, 11).
in(142, 12).
in(142, 13).
in(142, 14).
in(142, 17).
in(142, 20).
in(142, 22).
in(142, 24).
in(142, 28).
in(142, 36).
in(142, 37).
in(142, 41).
in(142, 44).
in(142, 48).
in(142, 53).
in(142, 56).
in(142, 60).
in(142, 61).
in(142, 64).
in(142, 66).
in(142, 67).
in(142, 68).
in(142, 70).
in(142, 72).
in(142, 74).
in(142, 75).
in(142, 78).
in(142, 80).
in(142, 85).
in(142, 86).
in(142, 87).
in(142, 89).
in(142, 91).
in(142, 95).
in(142, 100).
in(142, 102).
in(142, 105).
in(142, 106).
in(142, 107).
in(142, 108).
in(142, 113).
in(142, 115).
in(142, 119).
in(142, 121).
in(142, 122).
in(142, 123).
in(142, 125).
in(142, 126).
in(142, 127).
in(143, 128).
in(143, 129).
in(143, 2).
in(143, 3).
in(143, 4).
in(143, 131).
in(143, 6).
in(143, 8).
in(143, 11).
in(143, 14).
in(143, 15).
in(143, 16).
in(143, 17).
in(143, 25).
in(143, 27).
in(143, 28).
in(143, 29).
in(143, 30).
in(143, 32).
in(143, 33).
in(143, 36).
in(143, 37).
in(143, 41).
in(143, 43).
in(143, 44).
in(143, 45).
in(143, 50).
in(143, 51).
in(143, 54).
in(143, 56).
in(143, 64).
in(143, 65).
in(143, 66).
in(143, 72).
in(143, 74).
in(143, 75).
in(143, 79).
in(143, 82).
in(143, 84).
in(143, 85).
in(143, 87).
in(143, 88).
in(143, 89).
in(143, 94).
in(143, 101).
in(143, 108).
in(143, 110).
in(143, 115).
in(143, 116).
in(143, 118).
in(143, 120).
in(143, 121).
in(143, 122).
in(143, 123).
in(143, 124).
in(143, 125).
in(143, 127).
in(144, 128).
in(144, 129).
in(144, 130).
in(144, 3).
in(144, 4).
in(144, 8).
in(144, 9).
in(144, 10).
in(144, 11).
in(144, 12).
in(144, 13).
in(144, 14).
in(144, 15).
in(144, 20).
in(144, 23).
in(144, 28).
in(144, 29).
in(144, 30).
in(144, 35).
in(144, 36).
in(144, 37).
in(144, 38).
in(144, 39).
in(144, 42).
in(144, 43).
in(144, 46).
in(144, 47).
in(144, 48).
in(144, 49).
in(144, 50).
in(144, 51).
in(144, 53).
in(144, 56).
in(144, 60).
in(144, 63).
in(144, 64).
in(144, 68).
in(144, 71).
in(144, 78).
in(144, 80).
in(144, 81).
in(144, 82).
in(144, 83).
in(144, 84).
in(144, 86).
in(144, 88).
in(144, 89).
in(144, 90).
in(144, 92).
in(144, 93).
in(144, 95).
in(144, 97).
in(144, 98).
in(144, 99).
in(144, 100).
in(144, 101).
in(144, 105).
in(144, 106).
in(144, 108).
in(144, 110).
in(144, 113).
in(144, 114).
in(144, 115).
in(144, 117).
in(144, 118).
in(144, 120).
in(144, 124).
in(145, 128).
in(145, 1).
in(145, 2).
in(145, 3).
in(145, 131).
in(145, 132).
in(145, 6).
in(145, 7).
in(145, 133).
in(145, 10).
in(145, 12).
in(145, 21).
in(145, 25).
in(145, 27).
in(145, 28).
in(145, 33).
in(145, 34).
in(145, 41).
in(145, 44).
in(145, 46).
in(145, 47).
in(145, 48).
in(145, 50).
in(145, 53).
in(145, 54).
in(145, 56).
in(145, 58).
in(145, 62).
in(145, 64).
in(145, 66).
in(145, 67).
in(145, 68).
in(145, 71).
in(145, 72).
in(145, 74).
in(145, 77).
in(145, 80).
in(145, 81).
in(145, 82).
in(145, 83).
in(145, 85).
in(145, 89).
in(145, 94).
in(145, 95).
in(145, 101).
in(145, 104).
in(145, 107).
in(145, 109).
in(145, 111).
in(145, 116).
in(145, 117).
in(145, 120).
in(145, 121).
in(145, 122).
in(145, 123).
in(145, 124).
in(145, 126).
in(146, 129).
in(146, 2).
in(146, 131).
in(146, 5).
in(146, 133).
in(146, 8).
in(146, 9).
in(146, 11).
in(146, 14).
in(146, 21).
in(146, 22).
in(146, 23).
in(146, 24).
in(146, 26).
in(146, 27).
in(146, 30).
in(146, 31).
in(146, 35).
in(146, 38).
in(146, 39).
in(146, 41).
in(146, 42).
in(146, 48).
in(146, 49).
in(146, 54).
in(146, 55).
in(146, 56).
in(146, 57).
in(146, 58).
in(146, 61).
in(146, 62).
in(146, 63).
in(146, 65).
in(146, 66).
in(146, 67).
in(146, 68).
in(146, 69).
in(146, 70).
in(146, 73).
in(146, 74).
in(146, 78).
in(146, 79).
in(146, 80).
in(146, 82).
in(146, 83).
in(146, 87).
in(146, 88).
in(146, 90).
in(146, 91).
in(146, 93).
in(146, 94).
in(146, 95).
in(146, 96).
in(146, 97).
in(146, 98).
in(146, 99).
in(146, 100).
in(146, 101).
in(146, 102).
in(146, 103).
in(146, 105).
in(146, 106).
in(146, 109).
in(146, 111).
in(146, 113).
in(146, 116).
in(146, 117).
in(146, 119).
in(146, 120).
in(146, 121).
in(146, 124).
in(147, 128).
in(147, 131).
in(147, 9).
in(147, 12).
in(147, 13).
in(147, 17).
in(147, 18).
in(147, 22).
in(147, 24).
in(147, 26).
in(147, 27).
in(147, 30).
in(147, 31).
in(147, 33).
in(147, 34).
in(147, 37).
in(147, 38).
in(147, 43).
in(147, 44).
in(147, 45).
in(147, 48).
in(147, 49).
in(147, 51).
in(147, 54).
in(147, 56).
in(147, 69).
in(147, 73).
in(147, 74).
in(147, 75).
in(147, 77).
in(147, 79).
in(147, 82).
in(147, 83).
in(147, 86).
in(147, 90).
in(147, 91).
in(147, 92).
in(147, 95).
in(147, 98).
in(147, 99).
in(147, 102).
in(147, 104).
in(147, 105).
in(147, 106).
in(147, 107).
in(147, 111).
in(147, 115).
in(147, 117).
in(147, 118).
in(147, 122).
in(147, 123).
in(147, 127).
in(148, 128).
in(148, 2).
in(148, 130).
in(148, 4).
in(148, 132).
in(148, 133).
in(148, 7).
in(148, 8).
in(148, 9).
in(148, 10).
in(148, 12).
in(148, 13).
in(148, 14).
in(148, 15).
in(148, 19).
in(148, 20).
in(148, 21).
in(148, 23).
in(148, 24).
in(148, 25).
in(148, 26).
in(148, 27).
in(148, 28).
in(148, 29).
in(148, 38).
in(148, 40).
in(148, 43).
in(148, 44).
in(148, 46).
in(148, 47).
in(148, 48).
in(148, 49).
in(148, 50).
in(148, 54).
in(148, 55).
in(148, 57).
in(148, 64).
in(148, 65).
in(148, 66).
in(148, 67).
in(148, 68).
in(148, 72).
in(148, 75).
in(148, 77).
in(148, 78).
in(148, 79).
in(148, 81).
in(148, 82).
in(148, 87).
in(148, 88).
in(148, 90).
in(148, 91).
in(148, 92).
in(148, 94).
in(148, 99).
in(148, 100).
in(148, 102).
in(148, 105).
in(148, 106).
in(148, 108).
in(148, 109).
in(148, 111).
in(148, 113).
in(148, 114).
in(148, 115).
in(148, 121).
in(148, 122).
in(148, 125).
in(148, 126).
in(148, 127).
in(149, 2).
in(149, 132).
in(149, 5).
in(149, 8).
in(149, 10).
in(149, 11).
in(149, 13).
in(149, 15).
in(149, 17).
in(149, 19).
in(149, 20).
in(149, 21).
in(149, 22).
in(149, 30).
in(149, 33).
in(149, 37).
in(149, 39).
in(149, 40).
in(149, 44).
in(149, 46).
in(149, 48).
in(149, 51).
in(149, 55).
in(149, 57).
in(149, 60).
in(149, 61).
in(149, 65).
in(149, 66).
in(149, 71).
in(149, 73).
in(149, 75).
in(149, 76).
in(149, 77).
in(149, 79).
in(149, 83).
in(149, 89).
in(149, 91).
in(149, 92).
in(149, 93).
in(149, 94).
in(149, 95).
in(149, 96).
in(149, 98).
in(149, 99).
in(149, 100).
in(149, 101).
in(149, 102).
in(149, 103).
in(149, 104).
in(149, 105).
in(149, 107).
in(149, 108).
in(149, 109).
in(149, 113).
in(149, 115).
in(149, 116).
in(149, 120).
in(149, 122).
in(149, 125).
in(149, 126).
in(149, 127).
in(150, 128).
in(150, 1).
in(150, 131).
in(150, 4).
in(150, 5).
in(150, 7).
in(150, 16).
in(150, 17).
in(150, 20).
in(150, 22).
in(150, 27).
in(150, 31).
in(150, 33).
in(150, 34).
in(150, 35).
in(150, 37).
in(150, 38).
in(150, 39).
in(150, 47).
in(150, 51).
in(150, 52).
in(150, 56).
in(150, 59).
in(150, 61).
in(150, 63).
in(150, 65).
in(150, 66).
in(150, 67).
in(150, 68).
in(150, 71).
in(150, 74).
in(150, 75).
in(150, 76).
in(150, 80).
in(150, 81).
in(150, 82).
in(150, 85).
in(150, 87).
in(150, 88).
in(150, 93).
in(150, 94).
in(150, 96).
in(150, 97).
in(150, 98).
in(150, 101).
in(150, 104).
in(150, 106).
in(150, 108).
in(150, 109).
in(150, 112).
in(150, 114).
in(150, 116).
in(150, 117).
in(150, 121).
in(150, 122).
in(150, 125).
in(150, 127).
in(151, 128).
in(151, 129).
in(151, 2).
in(151, 3).
in(151, 4).
in(151, 5).
in(151, 130).
in(151, 7).
in(151, 10).
in(151, 12).
in(151, 13).
in(151, 14).
in(151, 18).
in(151, 22).
in(151, 23).
in(151, 25).
in(151, 27).
in(151, 29).
in(151, 30).
in(151, 31).
in(151, 34).
in(151, 39).
in(151, 40).
in(151, 44).
in(151, 49).
in(151, 50).
in(151, 52).
in(151, 53).
in(151, 55).
in(151, 58).
in(151, 61).
in(151, 62).
in(151, 63).
in(151, 64).
in(151, 66).
in(151, 67).
in(151, 68).
in(151, 69).
in(151, 72).
in(151, 77).
in(151, 78).
in(151, 79).
in(151, 80).
in(151, 82).
in(151, 85).
in(151, 89).
in(151, 92).
in(151, 93).
in(151, 94).
in(151, 95).
in(151, 99).
in(151, 101).
in(151, 102).
in(151, 108).
in(151, 109).
in(151, 110).
in(151, 112).
in(151, 119).
in(151, 120).
in(151, 124).
in(151, 125).
in(151, 126).
in(151, 127).
in(152, 2).
in(152, 3).
in(152, 131).
in(152, 132).
in(152, 133).
in(152, 10).
in(152, 11).
in(152, 12).
in(152, 13).
in(152, 15).
in(152, 17).
in(152, 19).
in(152, 21).
in(152, 25).
in(152, 26).
in(152, 32).
in(152, 34).
in(152, 35).
in(152, 36).
in(152, 37).
in(152, 40).
in(152, 43).
in(152, 49).
in(152, 54).
in(152, 55).
in(152, 56).
in(152, 58).
in(152, 59).
in(152, 63).
in(152, 64).
in(152, 65).
in(152, 68).
in(152, 70).
in(152, 71).
in(152, 73).
in(152, 74).
in(152, 76).
in(152, 78).
in(152, 82).
in(152, 83).
in(152, 85).
in(152, 88).
in(152, 90).
in(152, 93).
in(152, 95).
in(152, 96).
in(152, 97).
in(152, 99).
in(152, 100).
in(152, 102).
in(152, 104).
in(152, 107).
in(152, 109).
in(152, 111).
in(152, 113).
in(152, 118).
in(152, 122).
in(152, 125).
in(152, 126).
in(153, 1).
in(153, 130).
in(153, 131).
in(153, 132).
in(153, 133).
in(153, 6).
in(153, 8).
in(153, 13).
in(153, 14).
in(153, 17).
in(153, 24).
in(153, 25).
in(153, 30).
in(153, 34).
in(153, 36).
in(153, 37).
in(153, 38).
in(153, 40).
in(153, 43).
in(153, 44).
in(153, 45).
in(153, 46).
in(153, 53).
in(153, 54).
in(153, 55).
in(153, 58).
in(153, 59).
in(153, 62).
in(153, 63).
in(153, 65).
in(153, 68).
in(153, 72).
in(153, 73).
in(153, 77).
in(153, 79).
in(153, 80).
in(153, 84).
in(153, 88).
in(153, 91).
in(153, 93).
in(153, 94).
in(153, 100).
in(153, 102).
in(153, 103).
in(153, 106).
in(153, 108).
in(153, 111).
in(153, 112).
in(153, 114).
in(153, 116).
in(153, 119).
in(153, 125).
in(153, 126).
in(154, 128).
in(154, 3).
in(154, 4).
in(154, 6).
in(154, 7).
in(154, 9).
in(154, 11).
in(154, 12).
in(154, 13).
in(154, 16).
in(154, 17).
in(154, 18).
in(154, 19).
in(154, 20).
in(154, 24).
in(154, 25).
in(154, 27).
in(154, 28).
in(154, 31).
in(154, 33).
in(154, 35).
in(154, 41).
in(154, 45).
in(154, 47).
in(154, 48).
in(154, 52).
in(154, 54).
in(154, 58).
in(154, 59).
in(154, 60).
in(154, 61).
in(154, 62).
in(154, 64).
in(154, 68).
in(154, 70).
in(154, 72).
in(154, 76).
in(154, 81).
in(154, 82).
in(154, 83).
in(154, 85).
in(154, 86).
in(154, 87).
in(154, 90).
in(154, 92).
in(154, 93).
in(154, 96).
in(154, 98).
in(154, 99).
in(154, 100).
in(154, 101).
in(154, 103).
in(154, 104).
in(154, 106).
in(154, 107).
in(154, 109).
in(154, 111).
in(154, 112).
in(154, 116).
in(154, 117).
in(154, 118).
in(154, 120).
in(154, 121).
in(154, 123).
in(154, 124).
in(155, 129).
in(155, 2).
in(155, 8).
in(155, 9).
in(155, 11).
in(155, 13).
in(155, 14).
in(155, 15).
in(155, 18).
in(155, 19).
in(155, 20).
in(155, 24).
in(155, 25).
in(155, 26).
in(155, 27).
in(155, 28).
in(155, 29).
in(155, 32).
in(155, 40).
in(155, 43).
in(155, 44).
in(155, 47).
in(155, 52).
in(155, 57).
in(155, 59).
in(155, 61).
in(155, 66).
in(155, 68).
in(155, 70).
in(155, 72).
in(155, 73).
in(155, 74).
in(155, 75).
in(155, 78).
in(155, 79).
in(155, 80).
in(155, 83).
in(155, 85).
in(155, 86).
in(155, 87).
in(155, 89).
in(155, 90).
in(155, 94).
in(155, 95).
in(155, 98).
in(155, 99).
in(155, 100).
in(155, 102).
in(155, 105).
in(155, 110).
in(155, 111).
in(155, 112).
in(155, 114).
in(155, 115).
in(155, 116).
in(155, 117).
in(155, 119).
in(155, 120).
in(155, 124).
in(155, 125).
in(155, 126).
in(156, 128).
in(156, 1).
in(156, 131).
in(156, 4).
in(156, 5).
in(156, 6).
in(156, 132).
in(156, 8).
in(156, 133).
in(156, 11).
in(156, 12).
in(156, 17).
in(156, 19).
in(156, 21).
in(156, 25).
in(156, 28).
in(156, 30).
in(156, 31).
in(156, 32).
in(156, 34).
in(156, 38).
in(156, 41).
in(156, 43).
in(156, 44).
in(156, 45).
in(156, 46).
in(156, 47).
in(156, 49).
in(156, 50).
in(156, 53).
in(156, 56).
in(156, 57).
in(156, 59).
in(156, 63).
in(156, 67).
in(156, 68).
in(156, 69).
in(156, 73).
in(156, 74).
in(156, 81).
in(156, 85).
in(156, 90).
in(156, 91).
in(156, 92).
in(156, 93).
in(156, 97).
in(156, 102).
in(156, 105).
in(156, 106).
in(156, 108).
in(156, 110).
in(156, 113).
in(156, 115).
in(156, 123).
in(156, 124).
in(156, 127).
in(157, 1).
in(157, 129).
in(157, 3).
in(157, 4).
in(157, 5).
in(157, 130).
in(157, 133).
in(157, 10).
in(157, 27).
in(157, 28).
in(157, 29).
in(157, 30).
in(157, 35).
in(157, 38).
in(157, 39).
in(157, 45).
in(157, 47).
in(157, 48).
in(157, 54).
in(157, 55).
in(157, 56).
in(157, 58).
in(157, 59).
in(157, 66).
in(157, 67).
in(157, 69).
in(157, 72).
in(157, 77).
in(157, 78).
in(157, 79).
in(157, 80).
in(157, 81).
in(157, 83).
in(157, 84).
in(157, 86).
in(157, 89).
in(157, 93).
in(157, 95).
in(157, 98).
in(157, 100).
in(157, 101).
in(157, 103).
in(157, 104).
in(157, 105).
in(157, 109).
in(157, 111).
in(157, 114).
in(157, 115).
in(157, 118).
in(157, 122).
in(158, 1).
in(158, 2).
in(158, 129).
in(158, 4).
in(158, 7).
in(158, 8).
in(158, 9).
in(158, 13).
in(158, 16).
in(158, 19).
in(158, 21).
in(158, 23).
in(158, 25).
in(158, 27).
in(158, 28).
in(158, 29).
in(158, 32).
in(158, 34).
in(158, 37).
in(158, 38).
in(158, 39).
in(158, 40).
in(158, 42).
in(158, 43).
in(158, 45).
in(158, 48).
in(158, 49).
in(158, 50).
in(158, 51).
in(158, 53).
in(158, 54).
in(158, 56).
in(158, 57).
in(158, 58).
in(158, 59).
in(158, 60).
in(158, 63).
in(158, 64).
in(158, 66).
in(158, 67).
in(158, 68).
in(158, 69).
in(158, 72).
in(158, 77).
in(158, 78).
in(158, 81).
in(158, 85).
in(158, 86).
in(158, 87).
in(158, 88).
in(158, 90).
in(158, 91).
in(158, 95).
in(158, 96).
in(158, 98).
in(158, 99).
in(158, 100).
in(158, 104).
in(158, 105).
in(158, 106).
in(158, 107).
in(158, 110).
in(158, 115).
in(158, 117).
in(158, 118).
in(158, 122).
in(158, 123).
in(158, 124).
in(158, 125).
in(158, 127).
in(159, 128).
in(159, 1).
in(159, 5).
in(159, 9).
in(159, 12).
in(159, 13).
in(159, 14).
in(159, 18).
in(159, 20).
in(159, 22).
in(159, 24).
in(159, 26).
in(159, 29).
in(159, 30).
in(159, 31).
in(159, 33).
in(159, 35).
in(159, 37).
in(159, 39).
in(159, 41).
in(159, 43).
in(159, 47).
in(159, 49).
in(159, 54).
in(159, 55).
in(159, 59).
in(159, 62).
in(159, 65).
in(159, 66).
in(159, 67).
in(159, 69).
in(159, 73).
in(159, 78).
in(159, 80).
in(159, 82).
in(159, 86).
in(159, 87).
in(159, 88).
in(159, 92).
in(159, 94).
in(159, 96).
in(159, 98).
in(159, 103).
in(159, 104).
in(159, 105).
in(159, 106).
in(159, 110).
in(159, 111).
in(159, 112).
in(159, 114).
in(159, 115).
in(159, 116).
in(159, 117).
in(159, 118).
in(159, 121).
in(159, 122).
in(159, 123).
in(160, 128).
in(160, 2).
in(160, 131).
in(160, 132).
in(160, 133).
in(160, 7).
in(160, 9).
in(160, 16).
in(160, 18).
in(160, 19).
in(160, 20).
in(160, 21).
in(160, 22).
in(160, 25).
in(160, 26).
in(160, 27).
in(160, 31).
in(160, 33).
in(160, 34).
in(160, 35).
in(160, 40).
in(160, 41).
in(160, 42).
in(160, 44).
in(160, 48).
in(160, 50).
in(160, 52).
in(160, 59).
in(160, 60).
in(160, 61).
in(160, 65).
in(160, 70).
in(160, 71).
in(160, 74).
in(160, 76).
in(160, 77).
in(160, 80).
in(160, 85).
in(160, 87).
in(160, 88).
in(160, 91).
in(160, 93).
in(160, 94).
in(160, 96).
in(160, 98).
in(160, 103).
in(160, 107).
in(160, 110).
in(160, 112).
in(160, 113).
in(160, 116).
in(160, 121).
in(160, 123).
in(160, 124).
in(160, 125).
in(161, 1).
in(161, 129).
in(161, 3).
in(161, 130).
in(161, 5).
in(161, 131).
in(161, 9).
in(161, 11).
in(161, 12).
in(161, 16).
in(161, 17).
in(161, 21).
in(161, 23).
in(161, 24).
in(161, 27).
in(161, 34).
in(161, 35).
in(161, 36).
in(161, 38).
in(161, 40).
in(161, 41).
in(161, 42).
in(161, 44).
in(161, 45).
in(161, 46).
in(161, 47).
in(161, 51).
in(161, 53).
in(161, 56).
in(161, 57).
in(161, 61).
in(161, 62).
in(161, 64).
in(161, 65).
in(161, 66).
in(161, 70).
in(161, 77).
in(161, 79).
in(161, 83).
in(161, 86).
in(161, 87).
in(161, 89).
in(161, 91).
in(161, 92).
in(161, 93).
in(161, 94).
in(161, 97).
in(161, 103).
in(161, 104).
in(161, 107).
in(161, 112).
in(161, 117).
in(161, 119).
in(161, 120).
in(161, 123).
in(161, 126).
in(161, 127).
in(162, 128).
in(162, 129).
in(162, 2).
in(162, 130).
in(162, 4).
in(162, 133).
in(162, 6).
in(162, 7).
in(162, 9).
in(162, 11).
in(162, 12).
in(162, 13).
in(162, 15).
in(162, 17).
in(162, 18).
in(162, 22).
in(162, 23).
in(162, 30).
in(162, 31).
in(162, 38).
in(162, 40).
in(162, 42).
in(162, 43).
in(162, 44).
in(162, 45).
in(162, 46).
in(162, 47).
in(162, 48).
in(162, 52).
in(162, 53).
in(162, 54).
in(162, 57).
in(162, 58).
in(162, 59).
in(162, 71).
in(162, 74).
in(162, 75).
in(162, 78).
in(162, 79).
in(162, 81).
in(162, 82).
in(162, 83).
in(162, 86).
in(162, 87).
in(162, 89).
in(162, 90).
in(162, 92).
in(162, 94).
in(162, 95).
in(162, 96).
in(162, 97).
in(162, 99).
in(162, 101).
in(162, 102).
in(162, 104).
in(162, 106).
in(162, 109).
in(162, 112).
in(162, 113).
in(162, 115).
in(162, 125).
in(162, 126).
in(162, 127).
in(163, 2).
in(163, 3).
in(163, 4).
in(163, 132).
in(163, 133).
in(163, 11).
in(163, 12).
in(163, 13).
in(163, 14).
in(163, 17).
in(163, 18).
in(163, 19).
in(163, 20).
in(163, 24).
in(163, 28).
in(163, 29).
in(163, 33).
in(163, 34).
in(163, 36).
in(163, 48).
in(163, 49).
in(163, 50).
in(163, 51).
in(163, 53).
in(163, 54).
in(163, 57).
in(163, 60).
in(163, 63).
in(163, 66).
in(163, 67).
in(163, 71).
in(163, 73).
in(163, 74).
in(163, 75).
in(163, 85).
in(163, 87).
in(163, 94).
in(163, 96).
in(163, 98).
in(163, 100).
in(163, 101).
in(163, 103).
in(163, 104).
in(163, 106).
in(163, 107).
in(163, 108).
in(163, 109).
in(163, 112).
in(163, 113).
in(163, 119).
in(163, 121).
in(163, 122).
in(163, 126).
in(163, 127).
in(164, 128).
in(164, 129).
in(164, 3).
in(164, 4).
in(164, 131).
in(164, 6).
in(164, 7).
in(164, 8).
in(164, 9).
in(164, 10).
in(164, 132).
in(164, 133).
in(164, 14).
in(164, 19).
in(164, 20).
in(164, 21).
in(164, 23).
in(164, 27).
in(164, 28).
in(164, 31).
in(164, 35).
in(164, 36).
in(164, 37).
in(164, 39).
in(164, 40).
in(164, 42).
in(164, 43).
in(164, 44).
in(164, 46).
in(164, 47).
in(164, 48).
in(164, 50).
in(164, 51).
in(164, 52).
in(164, 54).
in(164, 55).
in(164, 60).
in(164, 63).
in(164, 64).
in(164, 65).
in(164, 66).
in(164, 68).
in(164, 69).
in(164, 73).
in(164, 77).
in(164, 78).
in(164, 80).
in(164, 84).
in(164, 85).
in(164, 87).
in(164, 88).
in(164, 89).
in(164, 93).
in(164, 96).
in(164, 98).
in(164, 100).
in(164, 101).
in(164, 102).
in(164, 104).
in(164, 105).
in(164, 108).
in(164, 110).
in(164, 111).
in(164, 113).
in(164, 116).
in(164, 117).
in(164, 121).
in(164, 122).
in(164, 123).
in(164, 124).
in(164, 125).
in(164, 126).
in(164, 127).
in(165, 128).
in(165, 1).
in(165, 2).
in(165, 129).
in(165, 132).
in(165, 5).
in(165, 14).
in(165, 20).
in(165, 21).
in(165, 22).
in(165, 23).
in(165, 24).
in(165, 25).
in(165, 26).
in(165, 30).
in(165, 32).
in(165, 33).
in(165, 40).
in(165, 43).
in(165, 46).
in(165, 47).
in(165, 48).
in(165, 49).
in(165, 52).
in(165, 61).
in(165, 62).
in(165, 63).
in(165, 64).
in(165, 65).
in(165, 66).
in(165, 67).
in(165, 69).
in(165, 73).
in(165, 74).
in(165, 75).
in(165, 77).
in(165, 78).
in(165, 79).
in(165, 80).
in(165, 81).
in(165, 82).
in(165, 84).
in(165, 85).
in(165, 87).
in(165, 90).
in(165, 92).
in(165, 94).
in(165, 95).
in(165, 102).
in(165, 105).
in(165, 108).
in(165, 109).
in(165, 110).
in(165, 113).
in(165, 115).
in(165, 116).
in(165, 117).
in(165, 120).
in(165, 121).
in(165, 122).
in(165, 123).
in(165, 124).
in(165, 125).
in(165, 127).
in(166, 129).
in(166, 131).
in(166, 4).
in(166, 5).
in(166, 132).
in(166, 7).
in(166, 9).
in(166, 10).
in(166, 12).
in(166, 13).
in(166, 14).
in(166, 17).
in(166, 19).
in(166, 20).
in(166, 23).
in(166, 24).
in(166, 27).
in(166, 29).
in(166, 30).
in(166, 33).
in(166, 34).
in(166, 37).
in(166, 41).
in(166, 43).
in(166, 50).
in(166, 54).
in(166, 57).
in(166, 58).
in(166, 59).
in(166, 60).
in(166, 67).
in(166, 77).
in(166, 78).
in(166, 85).
in(166, 87).
in(166, 88).
in(166, 91).
in(166, 94).
in(166, 97).
in(166, 99).
in(166, 101).
in(166, 102).
in(166, 107).
in(166, 110).
in(166, 112).
in(166, 116).
in(166, 117).
in(166, 118).
in(166, 119).
in(166, 120).
in(166, 125).
in(166, 126).
in(167, 1).
in(167, 2).
in(167, 129).
in(167, 4).
in(167, 133).
in(167, 6).
in(167, 8).
in(167, 9).
in(167, 10).
in(167, 13).
in(167, 17).
in(167, 19).
in(167, 21).
in(167, 22).
in(167, 23).
in(167, 26).
in(167, 28).
in(167, 30).
in(167, 34).
in(167, 37).
in(167, 41).
in(167, 43).
in(167, 44).
in(167, 45).
in(167, 47).
in(167, 49).
in(167, 52).
in(167, 54).
in(167, 55).
in(167, 56).
in(167, 57).
in(167, 59).
in(167, 61).
in(167, 63).
in(167, 64).
in(167, 65).
in(167, 66).
in(167, 69).
in(167, 71).
in(167, 72).
in(167, 76).
in(167, 81).
in(167, 84).
in(167, 86).
in(167, 88).
in(167, 89).
in(167, 92).
in(167, 94).
in(167, 96).
in(167, 97).
in(167, 101).
in(167, 102).
in(167, 109).
in(167, 110).
in(167, 111).
in(167, 117).
in(167, 118).
in(167, 123).
in(167, 125).
in(168, 129).
in(168, 2).
in(168, 3).
in(168, 4).
in(168, 12).
in(168, 18).
in(168, 25).
in(168, 37).
in(168, 39).
in(168, 40).
in(168, 41).
in(168, 43).
in(168, 44).
in(168, 46).
in(168, 47).
in(168, 50).
in(168, 60).
in(168, 61).
in(168, 63).
in(168, 64).
in(168, 67).
in(168, 68).
in(168, 72).
in(168, 76).
in(168, 78).
in(168, 81).
in(168, 82).
in(168, 83).
in(168, 85).
in(168, 88).
in(168, 91).
in(168, 92).
in(168, 93).
in(168, 94).
in(168, 95).
in(168, 96).
in(168, 98).
in(168, 100).
in(168, 106).
in(168, 109).
in(168, 113).
in(168, 114).
in(168, 115).
in(168, 116).
in(168, 118).
in(168, 120).
in(168, 121).
in(168, 123).
in(168, 126).
in(169, 128).
in(169, 129).
in(169, 2).
in(169, 3).
in(169, 4).
in(169, 130).
in(169, 132).
in(169, 7).
in(169, 8).
in(169, 9).
in(169, 12).
in(169, 13).
in(169, 14).
in(169, 15).
in(169, 16).
in(169, 18).
in(169, 19).
in(169, 20).
in(169, 24).
in(169, 26).
in(169, 28).
in(169, 29).
in(169, 30).
in(169, 32).
in(169, 33).
in(169, 35).
in(169, 36).
in(169, 38).
in(169, 39).
in(169, 40).
in(169, 41).
in(169, 42).
in(169, 44).
in(169, 46).
in(169, 48).
in(169, 49).
in(169, 50).
in(169, 56).
in(169, 65).
in(169, 68).
in(169, 69).
in(169, 70).
in(169, 73).
in(169, 75).
in(169, 76).
in(169, 78).
in(169, 80).
in(169, 84).
in(169, 86).
in(169, 87).
in(169, 89).
in(169, 92).
in(169, 93).
in(169, 98).
in(169, 100).
in(169, 102).
in(169, 104).
in(169, 109).
in(169, 110).
in(169, 112).
in(169, 113).
in(169, 114).
in(169, 115).
in(169, 116).
in(169, 119).
in(169, 120).
in(169, 124).
in(169, 126).
in(169, 127).
in(170, 1).
in(170, 129).
in(170, 131).
in(170, 5).
in(170, 6).
in(170, 8).
in(170, 11).
in(170, 13).
in(170, 18).
in(170, 20).
in(170, 21).
in(170, 24).
in(170, 32).
in(170, 34).
in(170, 36).
in(170, 37).
in(170, 38).
in(170, 41).
in(170, 44).
in(170, 46).
in(170, 48).
in(170, 49).
in(170, 51).
in(170, 56).
in(170, 57).
in(170, 58).
in(170, 60).
in(170, 63).
in(170, 64).
in(170, 66).
in(170, 73).
in(170, 76).
in(170, 80).
in(170, 81).
in(170, 82).
in(170, 88).
in(170, 92).
in(170, 96).
in(170, 97).
in(170, 98).
in(170, 99).
in(170, 100).
in(170, 108).
in(170, 111).
in(170, 114).
in(170, 116).
in(170, 117).
in(170, 118).
in(170, 121).
in(170, 124).
in(170, 125).
in(171, 128).
in(171, 129).
in(171, 2).
in(171, 130).
in(171, 131).
in(171, 5).
in(171, 133).
in(171, 7).
in(171, 8).
in(171, 9).
in(171, 10).
in(171, 11).
in(171, 14).
in(171, 15).
in(171, 16).
in(171, 21).
in(171, 22).
in(171, 23).
in(171, 24).
in(171, 25).
in(171, 26).
in(171, 27).
in(171, 28).
in(171, 29).
in(171, 31).
in(171, 38).
in(171, 42).
in(171, 44).
in(171, 45).
in(171, 46).
in(171, 49).
in(171, 54).
in(171, 55).
in(171, 56).
in(171, 58).
in(171, 63).
in(171, 65).
in(171, 68).
in(171, 70).
in(171, 72).
in(171, 74).
in(171, 75).
in(171, 76).
in(171, 78).
in(171, 82).
in(171, 83).
in(171, 84).
in(171, 87).
in(171, 89).
in(171, 91).
in(171, 93).
in(171, 94).
in(171, 95).
in(171, 98).
in(171, 101).
in(171, 102).
in(171, 103).
in(171, 105).
in(171, 107).
in(171, 108).
in(171, 109).
in(171, 110).
in(171, 113).
in(171, 115).
in(171, 117).
in(171, 118).
in(171, 120).
in(171, 121).
in(171, 123).
in(171, 124).
in(171, 125).
in(171, 126).
in(171, 127).
in(172, 2).
in(172, 130).
in(172, 6).
in(172, 7).
in(172, 10).
in(172, 12).
in(172, 14).
in(172, 17).
in(172, 20).
in(172, 24).
in(172, 27).
in(172, 29).
in(172, 35).
in(172, 38).
in(172, 39).
in(172, 41).
in(172, 43).
in(172, 49).
in(172, 51).
in(172, 53).
in(172, 54).
in(172, 55).
in(172, 58).
in(172, 60).
in(172, 61).
in(172, 62).
in(172, 63).
in(172, 65).
in(172, 66).
in(172, 70).
in(172, 71).
in(172, 74).
in(172, 78).
in(172, 79).
in(172, 81).
in(172, 87).
in(172, 88).
in(172, 90).
in(172, 91).
in(172, 92).
in(172, 95).
in(172, 96).
in(172, 100).
in(172, 102).
in(172, 103).
in(172, 105).
in(172, 106).
in(172, 113).
in(172, 114).
in(172, 115).
in(172, 116).
in(172, 118).
in(172, 121).
in(172, 122).
in(172, 123).
in(172, 124).
in(172, 126).
in(173, 128).
in(173, 129).
in(173, 3).
in(173, 131).
in(173, 133).
in(173, 9).
in(173, 10).
in(173, 11).
in(173, 18).
in(173, 19).
in(173, 20).
in(173, 22).
in(173, 23).
in(173, 32).
in(173, 33).
in(173, 36).
in(173, 39).
in(173, 46).
in(173, 47).
in(173, 49).
in(173, 51).
in(173, 52).
in(173, 53).
in(173, 54).
in(173, 58).
in(173, 60).
in(173, 61).
in(173, 63).
in(173, 64).
in(173, 68).
in(173, 69).
in(173, 71).
in(173, 72).
in(173, 73).
in(173, 76).
in(173, 77).
in(173, 85).
in(173, 86).
in(173, 88).
in(173, 90).
in(173, 96).
in(173, 97).
in(173, 98).
in(173, 103).
in(173, 105).
in(173, 107).
in(173, 112).
in(173, 114).
in(173, 120).
in(173, 122).
in(173, 125).
in(173, 127).
in(174, 1).
in(174, 129).
in(174, 130).
in(174, 4).
in(174, 5).
in(174, 7).
in(174, 8).
in(174, 9).
in(174, 11).
in(174, 12).
in(174, 13).
in(174, 15).
in(174, 17).
in(174, 19).
in(174, 21).
in(174, 22).
in(174, 23).
in(174, 24).
in(174, 25).
in(174, 27).
in(174, 29).
in(174, 35).
in(174, 36).
in(174, 39).
in(174, 41).
in(174, 42).
in(174, 44).
in(174, 46).
in(174, 47).
in(174, 51).
in(174, 52).
in(174, 55).
in(174, 56).
in(174, 58).
in(174, 60).
in(174, 64).
in(174, 66).
in(174, 69).
in(174, 74).
in(174, 77).
in(174, 78).
in(174, 79).
in(174, 80).
in(174, 85).
in(174, 89).
in(174, 92).
in(174, 93).
in(174, 95).
in(174, 102).
in(174, 104).
in(174, 107).
in(174, 108).
in(174, 110).
in(174, 114).
in(174, 115).
in(174, 116).
in(174, 117).
in(174, 122).
in(174, 123).
in(174, 124).
in(174, 126).
in(175, 128).
in(175, 1).
in(175, 129).
in(175, 14).
in(175, 15).
in(175, 16).
in(175, 19).
in(175, 22).
in(175, 24).
in(175, 25).
in(175, 28).
in(175, 30).
in(175, 33).
in(175, 35).
in(175, 36).
in(175, 39).
in(175, 41).
in(175, 43).
in(175, 44).
in(175, 45).
in(175, 51).
in(175, 52).
in(175, 55).
in(175, 56).
in(175, 57).
in(175, 59).
in(175, 66).
in(175, 72).
in(175, 78).
in(175, 79).
in(175, 81).
in(175, 86).
in(175, 87).
in(175, 90).
in(175, 91).
in(175, 95).
in(175, 99).
in(175, 100).
in(175, 106).
in(175, 108).
in(175, 111).
in(175, 112).
in(175, 113).
in(175, 114).
in(175, 115).
in(175, 117).
in(175, 118).
in(175, 119).
in(175, 121).
in(175, 122).
in(175, 123).
in(175, 124).
in(176, 128).
in(176, 3).
in(176, 131).
in(176, 132).
in(176, 11).
in(176, 13).
in(176, 14).
in(176, 16).
in(176, 18).
in(176, 20).
in(176, 21).
in(176, 27).
in(176, 29).
in(176, 35).
in(176, 37).
in(176, 45).
in(176, 46).
in(176, 48).
in(176, 50).
in(176, 51).
in(176, 53).
in(176, 54).
in(176, 55).
in(176, 57).
in(176, 59).
in(176, 60).
in(176, 61).
in(176, 62).
in(176, 66).
in(176, 71).
in(176, 72).
in(176, 76).
in(176, 77).
in(176, 78).
in(176, 80).
in(176, 81).
in(176, 82).
in(176, 83).
in(176, 84).
in(176, 85).
in(176, 88).
in(176, 89).
in(176, 91).
in(176, 92).
in(176, 93).
in(176, 98).
in(176, 99).
in(176, 101).
in(176, 103).
in(176, 104).
in(176, 114).
in(176, 119).
in(176, 121).
in(176, 123).
in(176, 125).
in(176, 126).
in(176, 127).
in(177, 128).
in(177, 1).
in(177, 2).
in(177, 130).
in(177, 131).
in(177, 5).
in(177, 133).
in(177, 7).
in(177, 8).
in(177, 10).
in(177, 11).
in(177, 12).
in(177, 15).
in(177, 21).
in(177, 22).
in(177, 23).
in(177, 25).
in(177, 28).
in(177, 29).
in(177, 30).
in(177, 32).
in(177, 33).
in(177, 34).
in(177, 35).
in(177, 36).
in(177, 37).
in(177, 39).
in(177, 45).
in(177, 49).
in(177, 51).
in(177, 56).
in(177, 59).
in(177, 61).
in(177, 67).
in(177, 68).
in(177, 69).
in(177, 70).
in(177, 71).
in(177, 74).
in(177, 76).
in(177, 78).
in(177, 79).
in(177, 80).
in(177, 81).
in(177, 88).
in(177, 92).
in(177, 94).
in(177, 95).
in(177, 97).
in(177, 99).
in(177, 102).
in(177, 103).
in(177, 104).
in(177, 107).
in(177, 110).
in(177, 111).
in(177, 113).
in(177, 117).
in(177, 118).
in(177, 121).
in(177, 123).
in(178, 1).
in(178, 2).
in(178, 3).
in(178, 4).
in(178, 5).
in(178, 129).
in(178, 133).
in(178, 9).
in(178, 10).
in(178, 11).
in(178, 14).
in(178, 15).
in(178, 17).
in(178, 19).
in(178, 25).
in(178, 26).
in(178, 28).
in(178, 33).
in(178, 34).
in(178, 35).
in(178, 37).
in(178, 40).
in(178, 41).
in(178, 43).
in(178, 47).
in(178, 48).
in(178, 49).
in(178, 52).
in(178, 53).
in(178, 54).
in(178, 56).
in(178, 58).
in(178, 59).
in(178, 60).
in(178, 63).
in(178, 66).
in(178, 67).
in(178, 70).
in(178, 71).
in(178, 74).
in(178, 75).
in(178, 76).
in(178, 77).
in(178, 79).
in(178, 86).
in(178, 88).
in(178, 90).
in(178, 92).
in(178, 93).
in(178, 96).
in(178, 97).
in(178, 100).
in(178, 101).
in(178, 104).
in(178, 105).
in(178, 107).
in(178, 108).
in(178, 109).
in(178, 113).
in(178, 114).
in(178, 116).
in(178, 117).
in(178, 118).
in(178, 121).
in(179, 128).
in(179, 11).
in(179, 12).
in(179, 13).
in(179, 14).
in(179, 15).
in(179, 17).
in(179, 18).
in(179, 20).
in(179, 22).
in(179, 24).
in(179, 26).
in(179, 28).
in(179, 30).
in(179, 34).
in(179, 35).
in(179, 38).
in(179, 39).
in(179, 42).
in(179, 44).
in(179, 49).
in(179, 50).
in(179, 53).
in(179, 55).
in(179, 59).
in(179, 63).
in(179, 64).
in(179, 68).
in(179, 69).
in(179, 71).
in(179, 77).
in(179, 79).
in(179, 82).
in(179, 83).
in(179, 85).
in(179, 86).
in(179, 87).
in(179, 88).
in(179, 89).
in(179, 97).
in(179, 98).
in(179, 99).
in(179, 102).
in(179, 103).
in(179, 105).
in(179, 106).
in(179, 111).
in(179, 113).
in(179, 116).
in(179, 117).
in(179, 118).
in(179, 120).
in(179, 123).
in(179, 126).
in(179, 127).
in(180, 1).
in(180, 131).
in(180, 133).
in(180, 14).
in(180, 16).
in(180, 17).
in(180, 23).
in(180, 26).
in(180, 27).
in(180, 29).
in(180, 30).
in(180, 33).
in(180, 36).
in(180, 37).
in(180, 38).
in(180, 41).
in(180, 42).
in(180, 47).
in(180, 48).
in(180, 55).
in(180, 56).
in(180, 57).
in(180, 58).
in(180, 75).
in(180, 76).
in(180, 81).
in(180, 82).
in(180, 84).
in(180, 85).
in(180, 86).
in(180, 87).
in(180, 88).
in(180, 89).
in(180, 90).
in(180, 93).
in(180, 95).
in(180, 98).
in(180, 100).
in(180, 102).
in(180, 104).
in(180, 105).
in(180, 106).
in(180, 108).
in(180, 111).
in(180, 112).
in(180, 114).
in(180, 118).
in(180, 119).
in(180, 120).
in(180, 122).
in(180, 124).
in(180, 127).
in(181, 1).
in(181, 2).
in(181, 131).
in(181, 4).
in(181, 5).
in(181, 133).
in(181, 7).
in(181, 9).
in(181, 11).
in(181, 13).
in(181, 14).
in(181, 15).
in(181, 16).
in(181, 19).
in(181, 20).
in(181, 27).
in(181, 28).
in(181, 31).
in(181, 32).
in(181, 33).
in(181, 34).
in(181, 38).
in(181, 41).
in(181, 42).
in(181, 43).
in(181, 47).
in(181, 48).
in(181, 53).
in(181, 57).
in(181, 59).
in(181, 60).
in(181, 62).
in(181, 63).
in(181, 64).
in(181, 65).
in(181, 67).
in(181, 70).
in(181, 77).
in(181, 80).
in(181, 82).
in(181, 85).
in(181, 87).
in(181, 88).
in(181, 97).
in(181, 105).
in(181, 108).
in(181, 109).
in(181, 111).
in(181, 114).
in(181, 115).
in(181, 116).
in(181, 120).
in(181, 121).
in(181, 125).
in(182, 129).
in(182, 130).
in(182, 131).
in(182, 10).
in(182, 12).
in(182, 14).
in(182, 17).
in(182, 19).
in(182, 21).
in(182, 24).
in(182, 25).
in(182, 27).
in(182, 28).
in(182, 29).
in(182, 30).
in(182, 32).
in(182, 42).
in(182, 43).
in(182, 52).
in(182, 55).
in(182, 57).
in(182, 59).
in(182, 61).
in(182, 62).
in(182, 66).
in(182, 68).
in(182, 69).
in(182, 71).
in(182, 76).
in(182, 82).
in(182, 84).
in(182, 86).
in(182, 89).
in(182, 90).
in(182, 92).
in(182, 94).
in(182, 95).
in(182, 96).
in(182, 97).
in(182, 102).
in(182, 104).
in(182, 108).
in(182, 109).
in(182, 110).
in(182, 113).
in(182, 114).
in(182, 116).
in(182, 118).
in(182, 122).
in(182, 126).
in(182, 127).
in(183, 128).
in(183, 1).
in(183, 2).
in(183, 3).
in(183, 4).
in(183, 130).
in(183, 6).
in(183, 7).
in(183, 133).
in(183, 10).
in(183, 13).
in(183, 15).
in(183, 19).
in(183, 21).
in(183, 22).
in(183, 23).
in(183, 24).
in(183, 25).
in(183, 26).
in(183, 28).
in(183, 34).
in(183, 35).
in(183, 38).
in(183, 39).
in(183, 42).
in(183, 46).
in(183, 49).
in(183, 50).
in(183, 53).
in(183, 55).
in(183, 57).
in(183, 61).
in(183, 63).
in(183, 69).
in(183, 70).
in(183, 72).
in(183, 73).
in(183, 74).
in(183, 77).
in(183, 78).
in(183, 79).
in(183, 81).
in(183, 82).
in(183, 83).
in(183, 84).
in(183, 85).
in(183, 87).
in(183, 89).
in(183, 93).
in(183, 99).
in(183, 102).
in(183, 105).
in(183, 106).
in(183, 107).
in(183, 115).
in(183, 117).
in(183, 118).
in(183, 120).
in(183, 122).
in(183, 124).
in(183, 125).
in(183, 126).
in(184, 128).
in(184, 1).
in(184, 2).
in(184, 3).
in(184, 130).
in(184, 5).
in(184, 133).
in(184, 8).
in(184, 13).
in(184, 14).
in(184, 17).
in(184, 18).
in(184, 19).
in(184, 20).
in(184, 23).
in(184, 24).
in(184, 25).
in(184, 28).
in(184, 29).
in(184, 34).
in(184, 35).
in(184, 37).
in(184, 40).
in(184, 41).
in(184, 42).
in(184, 44).
in(184, 46).
in(184, 48).
in(184, 49).
in(184, 50).
in(184, 52).
in(184, 53).
in(184, 54).
in(184, 55).
in(184, 56).
in(184, 62).
in(184, 64).
in(184, 65).
in(184, 69).
in(184, 71).
in(184, 73).
in(184, 74).
in(184, 76).
in(184, 79).
in(184, 80).
in(184, 90).
in(184, 93).
in(184, 94).
in(184, 98).
in(184, 102).
in(184, 103).
in(184, 109).
in(184, 111).
in(184, 112).
in(184, 113).
in(184, 114).
in(184, 116).
in(184, 117).
in(184, 119).
in(184, 120).
in(184, 127).
in(185, 128).
in(185, 3).
in(185, 4).
in(185, 133).
in(185, 8).
in(185, 10).
in(185, 17).
in(185, 18).
in(185, 19).
in(185, 23).
in(185, 25).
in(185, 27).
in(185, 29).
in(185, 32).
in(185, 33).
in(185, 37).
in(185, 38).
in(185, 39).
in(185, 44).
in(185, 45).
in(185, 48).
in(185, 49).
in(185, 53).
in(185, 54).
in(185, 56).
in(185, 61).
in(185, 67).
in(185, 72).
in(185, 73).
in(185, 74).
in(185, 75).
in(185, 76).
in(185, 77).
in(185, 78).
in(185, 82).
in(185, 83).
in(185, 84).
in(185, 88).
in(185, 90).
in(185, 94).
in(185, 95).
in(185, 100).
in(185, 102).
in(185, 106).
in(185, 107).
in(185, 109).
in(185, 110).
in(185, 112).
in(185, 114).
in(185, 115).
in(185, 116).
in(185, 118).
in(185, 119).
in(185, 121).
in(185, 123).
in(185, 126).
in(185, 127).
in(186, 128).
in(186, 129).
in(186, 2).
in(186, 131).
in(186, 4).
in(186, 133).
in(186, 6).
in(186, 12).
in(186, 13).
in(186, 14).
in(186, 17).
in(186, 18).
in(186, 21).
in(186, 22).
in(186, 23).
in(186, 25).
in(186, 27).
in(186, 28).
in(186, 29).
in(186, 30).
in(186, 31).
in(186, 32).
in(186, 35).
in(186, 38).
in(186, 40).
in(186, 43).
in(186, 45).
in(186, 48).
in(186, 50).
in(186, 51).
in(186, 53).
in(186, 55).
in(186, 56).
in(186, 57).
in(186, 58).
in(186, 59).
in(186, 60).
in(186, 61).
in(186, 63).
in(186, 66).
in(186, 67).
in(186, 69).
in(186, 70).
in(186, 71).
in(186, 72).
in(186, 74).
in(186, 77).
in(186, 79).
in(186, 80).
in(186, 82).
in(186, 86).
in(186, 87).
in(186, 89).
in(186, 91).
in(186, 95).
in(186, 98).
in(186, 101).
in(186, 102).
in(186, 103).
in(186, 109).
in(186, 110).
in(186, 111).
in(186, 112).
in(186, 113).
in(186, 118).
in(186, 125).
in(186, 126).
in(187, 129).
in(187, 2).
in(187, 130).
in(187, 131).
in(187, 5).
in(187, 6).
in(187, 7).
in(187, 8).
in(187, 9).
in(187, 133).
in(187, 14).
in(187, 16).
in(187, 17).
in(187, 20).
in(187, 22).
in(187, 24).
in(187, 25).
in(187, 28).
in(187, 31).
in(187, 35).
in(187, 36).
in(187, 37).
in(187, 43).
in(187, 44).
in(187, 48).
in(187, 49).
in(187, 51).
in(187, 52).
in(187, 53).
in(187, 55).
in(187, 56).
in(187, 57).
in(187, 60).
in(187, 61).
in(187, 62).
in(187, 69).
in(187, 70).
in(187, 73).
in(187, 77).
in(187, 78).
in(187, 80).
in(187, 87).
in(187, 90).
in(187, 92).
in(187, 93).
in(187, 94).
in(187, 96).
in(187, 97).
in(187, 98).
in(187, 99).
in(187, 100).
in(187, 105).
in(187, 106).
in(187, 107).
in(187, 110).
in(187, 115).
in(187, 117).
in(187, 119).
in(187, 120).
in(187, 123).
in(187, 124).
in(187, 126).
in(187, 127).
in(188, 128).
in(188, 129).
in(188, 2).
in(188, 130).
in(188, 132).
in(188, 5).
in(188, 6).
in(188, 7).
in(188, 133).
in(188, 10).
in(188, 11).
in(188, 14).
in(188, 15).
in(188, 16).
in(188, 18).
in(188, 22).
in(188, 23).
in(188, 31).
in(188, 33).
in(188, 37).
in(188, 38).
in(188, 42).
in(188, 43).
in(188, 48).
in(188, 53).
in(188, 57).
in(188, 60).
in(188, 62).
in(188, 64).
in(188, 68).
in(188, 71).
in(188, 78).
in(188, 79).
in(188, 80).
in(188, 82).
in(188, 83).
in(188, 85).
in(188, 87).
in(188, 88).
in(188, 89).
in(188, 91).
in(188, 96).
in(188, 111).
in(188, 112).
in(188, 116).
in(188, 117).
in(188, 122).
in(188, 125).
in(188, 126).
in(188, 127).
in(189, 1).
in(189, 129).
in(189, 130).
in(189, 4).
in(189, 5).
in(189, 6).
in(189, 7).
in(189, 131).
in(189, 132).
in(189, 10).
in(189, 13).
in(189, 15).
in(189, 16).
in(189, 17).
in(189, 19).
in(189, 20).
in(189, 21).
in(189, 25).
in(189, 30).
in(189, 34).
in(189, 35).
in(189, 38).
in(189, 41).
in(189, 42).
in(189, 45).
in(189, 46).
in(189, 47).
in(189, 50).
in(189, 51).
in(189, 52).
in(189, 56).
in(189, 59).
in(189, 66).
in(189, 67).
in(189, 68).
in(189, 69).
in(189, 71).
in(189, 73).
in(189, 76).
in(189, 78).
in(189, 79).
in(189, 80).
in(189, 81).
in(189, 83).
in(189, 89).
in(189, 91).
in(189, 92).
in(189, 93).
in(189, 95).
in(189, 96).
in(189, 98).
in(189, 100).
in(189, 102).
in(189, 103).
in(189, 108).
in(189, 109).
in(189, 110).
in(189, 113).
in(189, 114).
in(189, 115).
in(189, 116).
in(189, 119).
in(189, 121).
in(189, 122).
in(189, 123).
in(189, 124).
in(189, 125).
in(190, 128).
in(190, 1).
in(190, 4).
in(190, 8).
in(190, 9).
in(190, 10).
in(190, 13).
in(190, 16).
in(190, 17).
in(190, 18).
in(190, 20).
in(190, 21).
in(190, 22).
in(190, 25).
in(190, 26).
in(190, 27).
in(190, 29).
in(190, 30).
in(190, 38).
in(190, 40).
in(190, 43).
in(190, 45).
in(190, 46).
in(190, 47).
in(190, 50).
in(190, 51).
in(190, 57).
in(190, 66).
in(190, 67).
in(190, 68).
in(190, 71).
in(190, 73).
in(190, 77).
in(190, 78).
in(190, 81).
in(190, 83).
in(190, 85).
in(190, 87).
in(190, 88).
in(190, 89).
in(190, 90).
in(190, 92).
in(190, 96).
in(190, 98).
in(190, 99).
in(190, 101).
in(190, 106).
in(190, 107).
in(190, 109).
in(190, 110).
in(190, 113).
in(190, 121).
in(190, 123).
in(190, 124).
in(191, 128).
in(191, 130).
in(191, 3).
in(191, 5).
in(191, 8).
in(191, 9).
in(191, 10).
in(191, 12).
in(191, 13).
in(191, 15).
in(191, 22).
in(191, 23).
in(191, 30).
in(191, 31).
in(191, 32).
in(191, 33).
in(191, 38).
in(191, 39).
in(191, 40).
in(191, 42).
in(191, 43).
in(191, 46).
in(191, 49).
in(191, 50).
in(191, 52).
in(191, 53).
in(191, 55).
in(191, 58).
in(191, 60).
in(191, 62).
in(191, 65).
in(191, 67).
in(191, 68).
in(191, 69).
in(191, 70).
in(191, 71).
in(191, 73).
in(191, 75).
in(191, 76).
in(191, 82).
in(191, 83).
in(191, 84).
in(191, 86).
in(191, 87).
in(191, 88).
in(191, 90).
in(191, 92).
in(191, 93).
in(191, 96).
in(191, 98).
in(191, 99).
in(191, 100).
in(191, 110).
in(191, 111).
in(191, 112).
in(191, 117).
in(191, 118).
in(191, 119).
in(191, 120).
in(191, 121).
in(191, 125).
in(192, 128).
in(192, 1).
in(192, 2).
in(192, 3).
in(192, 4).
in(192, 5).
in(192, 6).
in(192, 130).
in(192, 10).
in(192, 12).
in(192, 13).
in(192, 14).
in(192, 16).
in(192, 17).
in(192, 20).
in(192, 22).
in(192, 23).
in(192, 25).
in(192, 28).
in(192, 29).
in(192, 30).
in(192, 36).
in(192, 40).
in(192, 43).
in(192, 47).
in(192, 48).
in(192, 49).
in(192, 51).
in(192, 62).
in(192, 63).
in(192, 65).
in(192, 66).
in(192, 69).
in(192, 70).
in(192, 71).
in(192, 72).
in(192, 74).
in(192, 75).
in(192, 76).
in(192, 77).
in(192, 78).
in(192, 82).
in(192, 84).
in(192, 85).
in(192, 88).
in(192, 89).
in(192, 92).
in(192, 98).
in(192, 99).
in(192, 101).
in(192, 102).
in(192, 104).
in(192, 108).
in(192, 109).
in(192, 110).
in(192, 111).
in(192, 114).
in(192, 115).
in(192, 117).
in(192, 120).
in(192, 121).
in(192, 125).
in(192, 126).
in(192, 127).
in(193, 128).
in(193, 2).
in(193, 5).
in(193, 7).
in(193, 8).
in(193, 9).
in(193, 10).
in(193, 13).
in(193, 14).
in(193, 15).
in(193, 16).
in(193, 17).
in(193, 19).
in(193, 21).
in(193, 23).
in(193, 24).
in(193, 26).
in(193, 27).
in(193, 31).
in(193, 34).
in(193, 37).
in(193, 39).
in(193, 43).
in(193, 46).
in(193, 48).
in(193, 54).
in(193, 55).
in(193, 58).
in(193, 59).
in(193, 64).
in(193, 66).
in(193, 67).
in(193, 68).
in(193, 69).
in(193, 70).
in(193, 72).
in(193, 73).
in(193, 74).
in(193, 80).
in(193, 81).
in(193, 82).
in(193, 84).
in(193, 86).
in(193, 87).
in(193, 90).
in(193, 91).
in(193, 94).
in(193, 95).
in(193, 100).
in(193, 102).
in(193, 107).
in(193, 110).
in(193, 112).
in(193, 113).
in(193, 115).
in(193, 117).
in(193, 118).
in(193, 119).
in(193, 120).
in(193, 123).
in(194, 128).
in(194, 129).
in(194, 4).
in(194, 5).
in(194, 8).
in(194, 9).
in(194, 12).
in(194, 15).
in(194, 16).
in(194, 17).
in(194, 18).
in(194, 19).
in(194, 20).
in(194, 21).
in(194, 22).
in(194, 23).
in(194, 27).
in(194, 29).
in(194, 34).
in(194, 35).
in(194, 36).
in(194, 38).
in(194, 40).
in(194, 43).
in(194, 46).
in(194, 47).
in(194, 48).
in(194, 50).
in(194, 53).
in(194, 57).
in(194, 59).
in(194, 60).
in(194, 61).
in(194, 62).
in(194, 65).
in(194, 66).
in(194, 70).
in(194, 74).
in(194, 76).
in(194, 78).
in(194, 79).
in(194, 84).
in(194, 85).
in(194, 87).
in(194, 89).
in(194, 90).
in(194, 91).
in(194, 93).
in(194, 94).
in(194, 95).
in(194, 105).
in(194, 106).
in(194, 111).
in(194, 113).
in(194, 114).
in(194, 118).
in(194, 120).
in(194, 121).
in(194, 122).
in(194, 125).
in(194, 127).
in(195, 1).
in(195, 2).
in(195, 129).
in(195, 132).
in(195, 5).
in(195, 133).
in(195, 7).
in(195, 9).
in(195, 10).
in(195, 11).
in(195, 12).
in(195, 14).
in(195, 16).
in(195, 17).
in(195, 18).
in(195, 19).
in(195, 20).
in(195, 21).
in(195, 22).
in(195, 24).
in(195, 26).
in(195, 32).
in(195, 34).
in(195, 35).
in(195, 37).
in(195, 38).
in(195, 40).
in(195, 42).
in(195, 43).
in(195, 44).
in(195, 46).
in(195, 48).
in(195, 51).
in(195, 53).
in(195, 54).
in(195, 56).
in(195, 58).
in(195, 59).
in(195, 62).
in(195, 63).
in(195, 68).
in(195, 69).
in(195, 70).
in(195, 71).
in(195, 74).
in(195, 77).
in(195, 78).
in(195, 79).
in(195, 80).
in(195, 83).
in(195, 85).
in(195, 86).
in(195, 87).
in(195, 90).
in(195, 93).
in(195, 94).
in(195, 99).
in(195, 100).
in(195, 101).
in(195, 102).
in(195, 103).
in(195, 105).
in(195, 108).
in(195, 109).
in(195, 110).
in(195, 112).
in(195, 113).
in(195, 115).
in(195, 116).
in(195, 117).
in(195, 119).
in(195, 120).
in(195, 122).
in(195, 123).
in(195, 125).
in(196, 128).
in(196, 2).
in(196, 3).
in(196, 131).
in(196, 132).
in(196, 133).
in(196, 7).
in(196, 8).
in(196, 10).
in(196, 11).
in(196, 12).
in(196, 16).
in(196, 17).
in(196, 18).
in(196, 23).
in(196, 26).
in(196, 27).
in(196, 29).
in(196, 30).
in(196, 31).
in(196, 34).
in(196, 37).
in(196, 38).
in(196, 40).
in(196, 43).
in(196, 46).
in(196, 47).
in(196, 48).
in(196, 51).
in(196, 52).
in(196, 53).
in(196, 55).
in(196, 56).
in(196, 57).
in(196, 61).
in(196, 63).
in(196, 64).
in(196, 66).
in(196, 68).
in(196, 72).
in(196, 74).
in(196, 77).
in(196, 79).
in(196, 80).
in(196, 82).
in(196, 84).
in(196, 87).
in(196, 92).
in(196, 93).
in(196, 94).
in(196, 95).
in(196, 98).
in(196, 99).
in(196, 101).
in(196, 103).
in(196, 105).
in(196, 106).
in(196, 114).
in(196, 118).
in(196, 121).
in(196, 122).
in(196, 124).
in(196, 125).
in(197, 1).
in(197, 2).
in(197, 133).
in(197, 7).
in(197, 9).
in(197, 10).
in(197, 11).
in(197, 12).
in(197, 13).
in(197, 14).
in(197, 15).
in(197, 17).
in(197, 18).
in(197, 21).
in(197, 22).
in(197, 23).
in(197, 25).
in(197, 27).
in(197, 28).
in(197, 30).
in(197, 35).
in(197, 48).
in(197, 50).
in(197, 53).
in(197, 55).
in(197, 56).
in(197, 60).
in(197, 61).
in(197, 62).
in(197, 64).
in(197, 65).
in(197, 69).
in(197, 71).
in(197, 76).
in(197, 77).
in(197, 79).
in(197, 80).
in(197, 82).
in(197, 83).
in(197, 92).
in(197, 103).
in(197, 107).
in(197, 109).
in(197, 112).
in(197, 115).
in(197, 117).
in(197, 118).
in(197, 120).
in(197, 121).
in(197, 122).
in(197, 126).
in(197, 127).
in(198, 128).
in(198, 1).
in(198, 2).
in(198, 131).
in(198, 132).
in(198, 133).
in(198, 6).
in(198, 11).
in(198, 13).
in(198, 14).
in(198, 15).
in(198, 16).
in(198, 17).
in(198, 20).
in(198, 21).
in(198, 23).
in(198, 26).
in(198, 27).
in(198, 28).
in(198, 29).
in(198, 30).
in(198, 31).
in(198, 32).
in(198, 36).
in(198, 37).
in(198, 38).
in(198, 52).
in(198, 53).
in(198, 54).
in(198, 55).
in(198, 57).
in(198, 59).
in(198, 60).
in(198, 61).
in(198, 62).
in(198, 63).
in(198, 66).
in(198, 67).
in(198, 69).
in(198, 73).
in(198, 74).
in(198, 75).
in(198, 76).
in(198, 77).
in(198, 78).
in(198, 80).
in(198, 82).
in(198, 85).
in(198, 90).
in(198, 93).
in(198, 95).
in(198, 102).
in(198, 104).
in(198, 105).
in(198, 107).
in(198, 110).
in(198, 116).
in(198, 121).
in(198, 126).
in(199, 1).
in(199, 3).
in(199, 4).
in(199, 5).
in(199, 131).
in(199, 132).
in(199, 14).
in(199, 17).
in(199, 26).
in(199, 33).
in(199, 34).
in(199, 35).
in(199, 37).
in(199, 39).
in(199, 40).
in(199, 44).
in(199, 47).
in(199, 50).
in(199, 52).
in(199, 57).
in(199, 58).
in(199, 59).
in(199, 65).
in(199, 69).
in(199, 71).
in(199, 72).
in(199, 74).
in(199, 77).
in(199, 78).
in(199, 79).
in(199, 83).
in(199, 85).
in(199, 88).
in(199, 89).
in(199, 91).
in(199, 92).
in(199, 93).
in(199, 95).
in(199, 96).
in(199, 98).
in(199, 99).
in(199, 103).
in(199, 104).
in(199, 106).
in(199, 107).
in(199, 112).
in(199, 113).
in(199, 115).
in(199, 116).
in(199, 118).
in(199, 121).
in(199, 124).
in(199, 127).
in(200, 1).
in(200, 2).
in(200, 130).
in(200, 8).
in(200, 12).
in(200, 16).
in(200, 20).
in(200, 21).
in(200, 28).
in(200, 30).
in(200, 33).
in(200, 37).
in(200, 40).
in(200, 41).
in(200, 43).
in(200, 44).
in(200, 45).
in(200, 46).
in(200, 48).
in(200, 49).
in(200, 50).
in(200, 52).
in(200, 53).
in(200, 59).
in(200, 60).
in(200, 67).
in(200, 74).
in(200, 76).
in(200, 77).
in(200, 78).
in(200, 80).
in(200, 86).
in(200, 87).
in(200, 89).
in(200, 91).
in(200, 94).
in(200, 96).
in(200, 101).
in(200, 107).
in(200, 109).
in(200, 110).
in(200, 112).
in(200, 113).
in(200, 114).
in(200, 117).
in(200, 118).
in(200, 121).
in(200, 123).
in(200, 125).
in(200, 126).
in(200, 127).
in(201, 128).
in(201, 129).
in(201, 2).
in(201, 132).
in(201, 133).
in(201, 6).
in(201, 7).
in(201, 8).
in(201, 9).
in(201, 10).
in(201, 11).
in(201, 20).
in(201, 21).
in(201, 23).
in(201, 24).
in(201, 26).
in(201, 28).
in(201, 29).
in(201, 30).
in(201, 31).
in(201, 35).
in(201, 37).
in(201, 40).
in(201, 41).
in(201, 43).
in(201, 52).
in(201, 53).
in(201, 58).
in(201, 59).
in(201, 62).
in(201, 64).
in(201, 67).
in(201, 68).
in(201, 69).
in(201, 70).
in(201, 71).
in(201, 72).
in(201, 74).
in(201, 77).
in(201, 78).
in(201, 80).
in(201, 82).
in(201, 85).
in(201, 89).
in(201, 90).
in(201, 91).
in(201, 94).
in(201, 95).
in(201, 96).
in(201, 105).
in(201, 111).
in(201, 119).
in(201, 122).
in(201, 124).
in(201, 125).
in(201, 126).
in(202, 1).
in(202, 130).
in(202, 133).
in(202, 14).
in(202, 16).
in(202, 24).
in(202, 25).
in(202, 29).
in(202, 30).
in(202, 34).
in(202, 35).
in(202, 36).
in(202, 37).
in(202, 40).
in(202, 41).
in(202, 43).
in(202, 44).
in(202, 48).
in(202, 49).
in(202, 50).
in(202, 53).
in(202, 54).
in(202, 60).
in(202, 64).
in(202, 65).
in(202, 77).
in(202, 79).
in(202, 81).
in(202, 82).
in(202, 83).
in(202, 85).
in(202, 87).
in(202, 88).
in(202, 89).
in(202, 91).
in(202, 92).
in(202, 93).
in(202, 94).
in(202, 95).
in(202, 96).
in(202, 97).
in(202, 99).
in(202, 100).
in(202, 103).
in(202, 107).
in(202, 108).
in(202, 110).
in(202, 111).
in(202, 112).
in(202, 113).
in(202, 114).
in(202, 119).
in(202, 121).
in(202, 123).
in(202, 126).
in(203, 129).
in(203, 3).
in(203, 4).
in(203, 131).
in(203, 6).
in(203, 7).
in(203, 13).
in(203, 15).
in(203, 17).
in(203, 19).
in(203, 23).
in(203, 24).
in(203, 26).
in(203, 28).
in(203, 30).
in(203, 31).
in(203, 36).
in(203, 39).
in(203, 40).
in(203, 43).
in(203, 47).
in(203, 48).
in(203, 49).
in(203, 53).
in(203, 54).
in(203, 56).
in(203, 58).
in(203, 61).
in(203, 63).
in(203, 64).
in(203, 71).
in(203, 75).
in(203, 76).
in(203, 77).
in(203, 78).
in(203, 79).
in(203, 82).
in(203, 83).
in(203, 84).
in(203, 85).
in(203, 87).
in(203, 88).
in(203, 94).
in(203, 96).
in(203, 99).
in(203, 101).
in(203, 104).
in(203, 105).
in(203, 109).
in(203, 112).
in(203, 113).
in(203, 119).
in(203, 120).
in(203, 123).
in(203, 124).
in(203, 126).
in(204, 128).
in(204, 1).
in(204, 2).
in(204, 129).
in(204, 4).
in(204, 132).
in(204, 6).
in(204, 7).
in(204, 133).
in(204, 9).
in(204, 10).
in(204, 11).
in(204, 14).
in(204, 17).
in(204, 20).
in(204, 23).
in(204, 25).
in(204, 31).
in(204, 35).
in(204, 36).
in(204, 37).
in(204, 40).
in(204, 43).
in(204, 46).
in(204, 49).
in(204, 51).
in(204, 53).
in(204, 54).
in(204, 55).
in(204, 58).
in(204, 61).
in(204, 63).
in(204, 64).
in(204, 65).
in(204, 71).
in(204, 72).
in(204, 74).
in(204, 79).
in(204, 82).
in(204, 85).
in(204, 87).
in(204, 89).
in(204, 91).
in(204, 92).
in(204, 93).
in(204, 94).
in(204, 95).
in(204, 98).
in(204, 99).
in(204, 101).
in(204, 108).
in(204, 111).
in(204, 114).
in(204, 117).
in(204, 118).
in(204, 123).
in(205, 128).
in(205, 2).
in(205, 133).
in(205, 6).
in(205, 10).
in(205, 11).
in(205, 12).
in(205, 13).
in(205, 14).
in(205, 17).
in(205, 19).
in(205, 24).
in(205, 25).
in(205, 26).
in(205, 27).
in(205, 29).
in(205, 30).
in(205, 33).
in(205, 35).
in(205, 37).
in(205, 38).
in(205, 42).
in(205, 48).
in(205, 50).
in(205, 54).
in(205, 57).
in(205, 61).
in(205, 63).
in(205, 65).
in(205, 67).
in(205, 68).
in(205, 77).
in(205, 78).
in(205, 79).
in(205, 82).
in(205, 83).
in(205, 85).
in(205, 87).
in(205, 89).
in(205, 90).
in(205, 95).
in(205, 96).
in(205, 98).
in(205, 100).
in(205, 101).
in(205, 104).
in(205, 106).
in(205, 107).
in(205, 109).
in(205, 112).
in(205, 113).
in(205, 116).
in(205, 117).
in(205, 119).
in(205, 120).
in(205, 121).
in(205, 122).
in(205, 124).
in(205, 125).
in(205, 126).
in(205, 127).
in(206, 131).
in(206, 5).
in(206, 133).
in(206, 7).
in(206, 9).
in(206, 12).
in(206, 13).
in(206, 15).
in(206, 20).
in(206, 21).
in(206, 25).
in(206, 26).
in(206, 27).
in(206, 30).
in(206, 32).
in(206, 34).
in(206, 35).
in(206, 36).
in(206, 39).
in(206, 40).
in(206, 43).
in(206, 44).
in(206, 45).
in(206, 50).
in(206, 52).
in(206, 54).
in(206, 56).
in(206, 57).
in(206, 59).
in(206, 60).
in(206, 62).
in(206, 63).
in(206, 64).
in(206, 66).
in(206, 67).
in(206, 70).
in(206, 73).
in(206, 76).
in(206, 77).
in(206, 79).
in(206, 82).
in(206, 85).
in(206, 88).
in(206, 89).
in(206, 90).
in(206, 93).
in(206, 95).
in(206, 96).
in(206, 97).
in(206, 100).
in(206, 101).
in(206, 105).
in(206, 106).
in(206, 107).
in(206, 115).
in(206, 116).
in(206, 117).
in(206, 118).
in(206, 119).
in(206, 121).
in(206, 126).
in(207, 2).
in(207, 3).
in(207, 133).
in(207, 7).
in(207, 8).
in(207, 11).
in(207, 15).
in(207, 19).
in(207, 20).
in(207, 21).
in(207, 22).
in(207, 23).
in(207, 25).
in(207, 26).
in(207, 28).
in(207, 29).
in(207, 30).
in(207, 31).
in(207, 35).
in(207, 38).
in(207, 40).
in(207, 41).
in(207, 44).
in(207, 45).
in(207, 46).
in(207, 52).
in(207, 53).
in(207, 54).
in(207, 55).
in(207, 56).
in(207, 58).
in(207, 60).
in(207, 62).
in(207, 63).
in(207, 64).
in(207, 65).
in(207, 67).
in(207, 68).
in(207, 70).
in(207, 71).
in(207, 72).
in(207, 73).
in(207, 76).
in(207, 79).
in(207, 84).
in(207, 85).
in(207, 86).
in(207, 87).
in(207, 88).
in(207, 89).
in(207, 92).
in(207, 93).
in(207, 95).
in(207, 99).
in(207, 105).
in(207, 106).
in(207, 108).
in(207, 111).
in(207, 115).
in(207, 116).
in(207, 118).
in(207, 121).
in(207, 123).
in(207, 125).
in(207, 127).
in(208, 129).
in(208, 3).
in(208, 4).
in(208, 131).
in(208, 6).
in(208, 7).
in(208, 132).
in(208, 133).
in(208, 12).
in(208, 13).
in(208, 14).
in(208, 16).
in(208, 18).
in(208, 20).
in(208, 22).
in(208, 25).
in(208, 26).
in(208, 29).
in(208, 30).
in(208, 32).
in(208, 33).
in(208, 34).
in(208, 39).
in(208, 46).
in(208, 47).
in(208, 48).
in(208, 49).
in(208, 50).
in(208, 52).
in(208, 53).
in(208, 54).
in(208, 55).
in(208, 59).
in(208, 66).
in(208, 67).
in(208, 68).
in(208, 69).
in(208, 70).
in(208, 72).
in(208, 79).
in(208, 80).
in(208, 84).
in(208, 90).
in(208, 92).
in(208, 93).
in(208, 94).
in(208, 95).
in(208, 97).
in(208, 99).
in(208, 102).
in(208, 104).
in(208, 106).
in(208, 107).
in(208, 109).
in(208, 110).
in(208, 113).
in(208, 115).
in(208, 116).
in(209, 128).
in(209, 4).
in(209, 132).
in(209, 6).
in(209, 133).
in(209, 9).
in(209, 14).
in(209, 15).
in(209, 16).
in(209, 19).
in(209, 20).
in(209, 21).
in(209, 24).
in(209, 25).
in(209, 26).
in(209, 27).
in(209, 29).
in(209, 31).
in(209, 34).
in(209, 35).
in(209, 39).
in(209, 42).
in(209, 44).
in(209, 50).
in(209, 52).
in(209, 54).
in(209, 57).
in(209, 58).
in(209, 59).
in(209, 61).
in(209, 63).
in(209, 66).
in(209, 67).
in(209, 72).
in(209, 76).
in(209, 78).
in(209, 79).
in(209, 80).
in(209, 82).
in(209, 90).
in(209, 92).
in(209, 93).
in(209, 95).
in(209, 96).
in(209, 102).
in(209, 104).
in(209, 107).
in(209, 108).
in(209, 109).
in(209, 111).
in(209, 112).
in(209, 118).
in(209, 120).
in(209, 123).
in(209, 124).
in(209, 127).
weight(1, 1).
weight(2, 4).
weight(3, 5).
weight(4, 11).
weight(5, 4).
weight(6, 10).
weight(7, 11).
weight(8, 2).
weight(9, 3).
weight(10, 2).
weight(11, 8).
weight(12, 3).
weight(13, 8).
weight(14, 9).
weight(15, 10).
weight(16, 1).
weight(17, 4).
weight(18, 2).
weight(19, 8).
weight(20, 8).
weight(21, 8).
weight(22, 11).
weight(23, 3).
weight(24, 4).
weight(25, 10).
weight(26, 7).
weight(27, 5).
weight(28, 11).
weight(29, 6).
weight(30, 5).
weight(31, 6).
weight(32, 11).
weight(33, 10).
weight(34, 4).
weight(35, 2).
weight(36, 8).
weight(37, 7).
weight(38, 7).
weight(39, 9).
weight(40, 2).
weight(41, 4).
weight(42, 4).
weight(43, 9).
weight(44, 7).
weight(45, 6).
weight(46, 2).
weight(47, 2).
weight(48, 10).
weight(49, 9).
weight(50, 5).
weight(51, 8).
weight(52, 9).
weight(53, 7).
weight(54, 2).
weight(55, 3).
weight(56, 5).
weight(57, 2).
weight(58, 11).
weight(59, 9).
weight(60, 5).
weight(61, 6).
weight(62, 1).
weight(63, 3).
weight(64, 10).
weight(65, 4).
weight(66, 7).
weight(67, 1).
weight(68, 10).
weight(69, 6).
weight(70, 2).
weight(71, 8).
weight(72, 3).
weight(73, 5).
weight(74, 10).
weight(75, 8).
weight(76, 3).
weight(77, 2).
weight(78, 5).
weight(79, 2).
weight(80, 9).
weight(81, 8).
weight(82, 4).
weight(83, 8).
weight(84, 1).
weight(85, 3).
weight(86, 11).
weight(87, 3).
weight(88, 9).
weight(89, 9).
weight(90, 4).
weight(91, 2).
weight(92, 10).
weight(93, 1).
weight(94, 3).
weight(95, 8).
weight(96, 4).
weight(97, 4).
weight(98, 2).
weight(99, 4).
weight(100, 2).
weight(101, 2).
weight(102, 3).
weight(103, 7).
weight(104, 7).
weight(105, 9).
weight(106, 7).
weight(107, 1).
weight(108, 1).
weight(109, 2).
weight(110, 4).
weight(111, 2).
weight(112, 9).
weight(113, 7).
weight(114, 10).
weight(115, 4).
weight(116, 5).
weight(117, 10).
weight(118, 10).
weight(119, 11).
weight(120, 4).
weight(121, 3).
weight(122, 11).
weight(123, 11).
weight(124, 3).
weight(125, 9).
weight(126, 11).
weight(127, 2).
weight(128, 9).
weight(129, 9).
weight(130, 6).
weight(131, 6).
weight(132, 7).
weight(133, 10).
weight(134, 6).
weight(135, 7).
weight(136, 1).
weight(137, 6).
weight(138, 10).
weight(139, 7).
weight(140, 11).
weight(141, 9).
weight(142, 11).
weight(143, 5).
weight(144, 2).
weight(145, 9).
weight(146, 7).
weight(147, 4).
weight(148, 6).
weight(149, 1).
weight(150, 7).
weight(151, 4).
weight(152, 7).
weight(153, 2).
weight(154, 10).
weight(155, 6).
weight(156, 10).
weight(157, 1).
weight(158, 4).
weight(159, 1).
weight(160, 2).
weight(161, 4).
weight(162, 6).
weight(163, 4).
weight(164, 1).
weight(165, 2).
weight(166, 9).
weight(167, 2).
weight(168, 6).
weight(169, 7).
weight(170, 2).
weight(171, 2).
weight(172, 7).
weight(173, 11).
weight(174, 2).
weight(175, 5).
weight(176, 8).
weight(177, 6).
weight(178, 5).
weight(179, 9).
weight(180, 11).
weight(181, 11).
weight(182, 2).
weight(183, 9).
weight(184, 7).
weight(185, 11).
weight(186, 9).
weight(187, 8).
weight(188, 3).
weight(189, 2).
weight(190, 3).
weight(191, 2).
weight(192, 2).
weight(193, 4).
weight(194, 7).
weight(195, 4).
weight(196, 10).
weight(197, 1).
weight(198, 11).
weight(199, 10).
weight(200, 7).
weight(201, 8).
weight(202, 4).
weight(203, 2).
weight(204, 5).
weight(205, 4).
weight(206, 5).
weight(207, 8).
weight(208, 4).
weight(209, 10).

{ choose(S) } :- set(S).
:- choose(S1), choose(S2), S1 < S2, in(S1,E), in(S2,E).
:~ not choose(S), weight(S,W). [W@1,S]
